
                                 *****************
                                 * O   R   C   A *
                                 *****************

                                            #,                                       
                                            ###                                      
                                            ####                                     
                                            #####                                    
                                            ######                                   
                                           ########,                                 
                                     ,,################,,,,,                         
                               ,,#################################,,                 
                          ,,##########################################,,             
                       ,#########################################, ''#####,          
                    ,#############################################,,   '####,        
                  ,##################################################,,,,####,       
                ,###########''''           ''''###############################       
              ,#####''   ,,,,##########,,,,          '''####'''          '####       
            ,##' ,,,,###########################,,,                        '##       
           ' ,,###''''                  '''############,,,                           
         ,,##''                                '''############,,,,        ,,,,,,###''
      ,#''                                            '''#######################'''  
     '                                                          ''''####''''         
             ,#######,   #######,   ,#######,      ##                                
            ,#'     '#,  ##    ##  ,#'     '#,    #''#        ,####,    ,#,          
            ##       ##  ##   ,#'  ##            #'  '#       #'       ,# #          
            ##       ##  #######   ##           ,######,      #####,      #          
            '#,     ,#'  ##    ##  '#,     ,#' ,#      #,     #,   #      #          
             '#######'   ##     ##  '#######'  #'      '#     '####' #    #          



                #########################################################
                #                        -***-                          #
                #          Department of theory and spectroscopy        #
                #                                                       #
                #                      Frank Neese                      #
                #                                                       #
                #     Directorship, Architecture, Infrastructure        #
                #                    SHARK, DRIVERS                     #
                #        Core code/Algorithms in most modules           #
                #                                                       #
                #        Max Planck Institute fuer Kohlenforschung      #
                #                Kaiser Wilhelm Platz 1                 #
                #                 D-45470 Muelheim/Ruhr                 #
                #                      Germany                          #
                #                                                       #
                #                  All rights reserved                  #
                #                        -***-                          #
                #########################################################


                         Program Version 6.1.0  -  RELEASE   -
                                (GIT: $679e74b$)
                          ($2025-06-10 18:02:51 +0200$)


 With contributions from (in alphabetic order):
[Max-Planck-Institut fuer Kohlenforschung]                               
  Daniel Aravena         : Magnetic Suceptibility                        
  Michael Atanasov       : Ab Initio Ligand Field Theory (pilot matlab implementation)
  Alexander A. Auer      : GIAO ZORA, VPT2 properties, NMR spectrum      
  Ute Becker             : All parallelization in ORCA, NUMFREQ, NUMCALC 
  Giovanni Bistoni       : ED, misc. LED, open-shell LED, HFLD           
  Dmytro Bykov           : pre 5.0 version of the SCF Hessian            
  Marcos Casanova-Páez   : Triplet and SCS-CIS(D). UHF-(DLPNO)-IP/EA/STEOM-CCSD. UHF-CVS-IP/STEOM-CCSD   
  Vijay G. Chilkuri      : MRCI spin determinant printing, contributions to CSF-ICE 
  Pauline Colinet        : FMM embedding                                 
  Dipayan Datta          : RHF DLPNO-CCSD density                        
  Achintya Kumar Dutta   : EOM-CC, STEOM-CC                              
  Nicolas Foglia         : Exact transition moments, OPA infrastructure, MCD improvements    
  Dmitry Ganyushin       : Spin-Orbit,Spin-Spin,Magnetic field MRCI      
  Miquel Garcia-Rates    : C-PCM and meta-GGA Hessian, CCSD/C-PCM, Gaussian charge scheme 
  Tiago L. C. Gouveia    : GS-ROHF, GS-ROCIS                             
  Yang Guo               : DLPNO-NEVPT2, F12-NEVPT2, CIM, IAO-localization        
  Andreas Hansen         : Spin unrestricted coupled pair/coupled cluster methods 
  Ingolf Harden          : AUTO-CI MPn and infrastructure                
  Benjamin Helmich-Paris : MC-RPA, TRAH-(SCF,CASSCF), AVAS, COSX integrals, SCF dyn. polar., MC-PDFT, srDFT 
  Lee Huntington         : MR-EOM, pCC                                   
  Robert Izsak           : Overlap fitted RIJCOSX, COSX-SCS-MP3, EOM     
  Riya Kayal             : Wick's Theorem for AUTO-CI, AUTO-CI UHF-CCSDT 
  Emily Kempfer          : AUTO-CI RHF CISDT and CCSDT, approximate NEVPT4
  Christian Kollmar      : KDIIS, OOCD, Brueckner-CCSD(T), CCSD density, CASPT2, CASPT2-K, improved NEVPT2 
  Axel Koslowski         : Symmetry handling                             
  Simone Kossmann        : meta-GGA functionals, TD-DFT gradient, OOMP2, (MP2 Hessian; deprecated post 5.0) 
  Lucas Lang             : DCDCAS, Hyperfine gauge corrections, ICE-SOC+SSC
  Marvin Lechner         : AUTO-CI (C++ implementation), FIC-MRCC        
  Spencer Leger          : CASSCF response                               
  Dagmar Lenk            : GEPOL surface, SMD, ORCA-2-JSON               
  Dimitrios Liakos       : Extrapolation schemes; Compound Job, Property file
  Dimitrios Manganas     : Further ROCIS development; embedding schemes. LFT, Crystal Embedding 
  Dimitrios Pantazis     : SARC Basis sets                               
  Anastasios Papadopoulos: AUTO-CI, single reference methods and gradients 
  Taras Petrenko         : pre 6.0 DFT Hessian and TD-DFT gradient,  ECA, NRVS 
  Petra Pikulova         : Analytic Raman intensities                    
  Peter Pinski           : DLPNO-MP2, DLPNO-MP2 Gradient                 
  Shashank Vittal Rao    : ES-AILFT, MagRelax                            
  Christoph Reimann      : Effective Core Potentials                     
  Marius Retegan         : Local ZFS, SOC                                
  Christoph Riplinger    : Optimizer, TS searches, QM/MM, DLPNO-CCSD(T), (RO)-DLPNO pert. Triples 
  Michael Roemelt        : Original ROCIS implementation, recursive CI coupling coefficients
  Masaaki Saitow         : Open-shell DLPNO-CCSD energy and density      
  Barbara Sandhoefer     : DKH picture change effects                    
  Yorick L. A. Schmerwitz: GMF and freeze-and-release deltaSCF, NEB S-IDPP initial path                    
  Kantharuban Sivalingam : CASSCF convergence/infrastructure, NEVPT2, NEVPT3, NEVPT4(SD), FIC-MRCI and CEPA variants
  Bernardo de Souza      : ESD, SOC TD-DFT                               
  Georgi L. Stoychev     : AutoAux, RI-MP2 NMR, DLPNO-MP2 response, X2C  
  Van Anh Tran           : RI-MP2 g-tensors                              
  Willem Van den Heuvel  : Paramagnetic NMR                              
  Zikuan Wang            : NOTCH, Electric field optimization            
  Frank Wennmohs         : Technical directorship and infrastructure     
  Hang Xu                : AUTO-CI-Response properties                   
                                                                         
[FACCTs GmbH]                                                            
  Markus Bursch, Nicolas Foglia, Miquel Garcia-Rates, Ingolf Harden, Hagen Neugebauer, Anastasios Papadopoulos, 
  Christoph Riplinger, Bernardo de Souza, Georgi L. Stoychev                                                    
                                                                 
  APM, various basis sets, CI-OPT, improved COSX, DLPNO-Multilevel,           
  DOCKER, DRACO, updates on ESD, Fragmentator, GOAT, IRC, LR-CPCM, L-BFGS, MBIS, meta-GGA TD-DFT gradient, ML-optimized integration grids, 
  MM, NACMEs, nearIR, NEB, NEB-TS, NL-DFT gradient (VV10), 2- and 3-layer-ONIOM, interface openCOSMO-RS, QMMM,   
  Crystal-QMMM, RESP, rigid body optimization, SF, symmetry and pop. for TD-DFT, various functionals, SOLVATOR                                   
                                                                         
[Other institutions]                                                     
  V. Asgeirsson          : NEB                                           
  Christoph Bannwarth    : sTDA-DFT, sTD-DFT, PBEh-3c, B97-3c, D3        
  Giovanni Bistoni       : ETS/NOCV, ADLD/ADEX, COVALED                  
  Martin Brehm           : Molecular dynamics                            
  Ronald Cardenas        : ETS/NOCV                                      
  Martina Colucci        : COVALED                                       
  Sebastian Ehlert       : rSCAN, r2SCAN, r2SCAN-3c, D4, dhf basis sets  
  Marvin Friede          : D4 for Fr, Ra, Ac-Lr                          
  Lars Goerigk           : TD-DFT with DH, B97 family of functionals     
  Stefan Grimme          : VdW corrections, initial TS optimization, DFT functionals, gCP, sTDA/sTD-DF 
  Waldemar Hujo          : DFT-NL                                        
  H. Jonsson             : NEB                                           
  Holger Kruse           : gCP                                           
  Marcel Mueller         : wB97X-3c, vDZP basis set                      
  Hagen Neugebauer       : wr2SCAN, Native XTB                           
  Gianluca Regni         : ADLD/ADEX                                     
  Tobias Risthaus        : pre 6.0 range-separated hybrid DFT and stability analysis
  Lukas Wittmann         : regularized MP2, r2SCAN double-hybrids, wr2SCAN        
                                                                         
We gratefully acknowledge several colleagues who have allowed us to      
interface, adapt or use parts of their codes:                            
  Ed Valeev, F. Pavosevic, A. Kumar             : LibInt (2-el integral package), F12 methods 
  Garnet Chan, S. Sharma, J. Yang, R. Olivares  : DMRG                   
  Ulf Ekstrom                                   : XCFun DFT Library      
  Mihaly Kallay                                 : mrcc  (arbitrary order and MRCC methods)
  Frank Weinhold                                : gennbo (NPA and NBO analysis)           
  Simon Mueller                                 : openCOSMO-RS                            
  Christopher J. Cramer and Donald G. Truhlar   : smd solvation model                     
  S Lehtola, MJT Oliveira, MAL Marques          : LibXC Library                           
  Liviu Ungur et al                             : ANISO software                          


 Your calculation uses the libint2 library for the computation of 2-el integrals
 For citations please refer to: http://libint.valeyev.net

 Your ORCA version has been built with support for libXC version: 7.0.0
 For citations please refer to: https://libxc.gitlab.io

 This ORCA versions uses:
   CBLAS   interface :  Fast vector & matrix operations
   LAPACKE interface :  Fast linear algebra routines
   SCALAPACK package :  Parallel linear algebra routines
   Shared memory     :  Shared parallel matrices
   BLAS/LAPACK       :  OpenBLAS 0.3.29  USE64BITINT DYNAMIC_ARCH NO_AFFINITY Cooperlake SINGLE_THREADED
        Core in use  :  Cooperlake
   Copyright (c) 2011-2014, The OpenBLAS Project


  ***********************************
  * Starting time: Fri Oct 31 09:56:11 2025
  * Host name:     node3103
  * Process ID:    3541039
  * Working dir.:  /orcd/home/002/kmoult/learning_mannose/benzylidene/goat search
  ***********************************

Your calculation utilizes the semiempirical GFN2-xTB method
Please cite in your paper:
Bannwarth, C.; Ehlert S.; Grimme, S. J. Chem. Theory Comput. 2019, 15, 1652.
   

================================================================================

================================================================================
                                        WARNINGS
                       Please study these warnings very carefully!
================================================================================


================================================================================
 STARTING AUTOMATIC FRAGMENTATION: 
================================================================================

WARNING: Geometry Optimization
  ===> : Switching off AutoStart
         For restart on a previous wavefunction, please use MOREAD

WARNING: Found dipole moment calculation with XTB calculation
  ===> : Switching off dipole moment calculation


================================================================================
                                       INPUT FILE
================================================================================
NAME = goat_0.inp
|  1> ! xtb alpb(acetone) goat PAL4
|  2> 
|  3> *xyz 0 1
|  4> O         -2.77849        2.85621        0.13719
|  5> C         -1.34309        2.80423        0.09223
|  6> H         -1.01532        2.76846        1.13884
|  7> C         -0.88423        1.56173       -0.66194
|  8> H         -1.34887        1.56862       -1.65812
|  9> C          0.63755        1.59821       -0.75870
| 10> H          1.07819        1.62380        0.24792
| 11> C          1.08796        0.30372       -1.42695
| 12> O          0.57202       -0.81981       -0.71569
| 13> C         -0.85547       -0.78250       -0.64898
| 14> H         -1.26099       -0.81143       -1.66973
| 15> C         -1.36454       -1.97861        0.12339
| 16> C         -2.54472       -2.62686       -0.27614
| 17> C         -3.03727       -3.71762        0.44369
| 18> C         -2.36249       -4.16904        1.57597
| 19> C         -1.19759       -3.52864        1.99286
| 20> C         -0.70441       -2.43786        1.27439
| 21> O         -1.31833        0.39006        0.02882
| 22> O          1.05879        2.73559       -1.50060
| 23> C          0.71043        3.96748       -0.85190
| 24> H          1.25347        4.05298        0.09903
| 25> O          1.08749        5.05816       -1.69918
| 26> C          2.49630        5.20879       -1.78549
| 27> C         -0.81325        4.06916       -0.59043
| 28> H         -1.34074        4.23390       -1.53848
| 29> O         -1.12703        5.19311        0.24995
| 30> H         -3.06109        1.98920        0.49109
| 31> H          2.18143        0.24054       -1.42748
| 32> H          0.77380        0.25889       -2.47723
| 33> H         -3.09123       -2.28403       -1.15181
| 34> H         -3.94966       -4.21347        0.12249
| 35> H         -2.74629       -5.01758        2.13609
| 36> H         -0.67246       -3.87617        2.87859
| 37> H          0.20339       -1.94255        1.61298
| 38> H          2.71008        6.06534       -2.43066
| 39> H          2.95813        4.32099       -2.22749
| 40> H          2.92434        5.40462       -0.79765
| 41> H         -2.09248        5.14135        0.39293
| 42> **                         ****END OF INPUT****
================================================================================

                       *****************************
                       * Geometry Optimization Run *
                       *****************************


                       *********************************
                       *              GOAT             *
                       * Global Optimization Algorithm *
                       *********************************

Geometry optimization settings:
Update method            Update   .... BFGS
Choice of coordinates    CoordSys .... (2022) Redundant Internals
Initial Hessian          InHess   .... Almloef's Model
Max. no of cycles        MaxIter  .... 114

Convergence Tolerances:
Energy Change            TolE     ....  5.0000e-06 Eh
Max. Gradient            TolMAXG  ....  3.0000e-04 Eh/bohr
RMS Gradient             TolRMSG  ....  1.0000e-04 Eh/bohr
Max. Displacement        TolMAXD  ....  4.0000e-03 bohr
RMS Displacement         TolRMSD  ....  2.0000e-03 bohr
Strict Convergence                .... True

------------------------------------------------------------------------------
                        ORCA OPTIMIZATION COORDINATE SETUP
------------------------------------------------------------------------------

The optimization will be done in redundant internal coordinates (2022)
Making redundant internal coordinates   ...  (2022 redundants) done
Evaluating the initial hessian          ...  (Almloef) done
Evaluating the coordinates              ...  done
Calculating the B-matrix                .... done
Calculating the G-matrix                .... done
The number of degrees of freedom        ....  203

    -----------------------------------------------------------------
                    Redundant Internal Coordinates


    -----------------------------------------------------------------
         Definition                    Initial Value    Approx d2E/dq
    -----------------------------------------------------------------
      1. B(C   1,O   0)                  1.4370         0.470781   
      2. B(H   2,C   1)                  1.0973         0.350549   
      3. B(C   3,C   1)                  1.5242         0.381645   
      4. B(H   4,C   3)                  1.0992         0.348091   
      5. B(C   5,C   3)                  1.5253         0.380096   
      6. B(H   6,C   5)                  1.0991         0.348213   
      7. B(C   7,C   5)                  1.5248         0.380726   
      8. B(O   8,C   7)                  1.4263         0.489689   
      9. B(C   9,O   8)                  1.4295         0.483950   
     10. B(H  10,C   9)                  1.0987         0.348731   
     11. B(C  11,C   9)                  1.5121         0.398995   
     12. B(C  12,C  11)                  1.4045         0.592342   
     13. B(C  13,C  12)                  1.3966         0.609809   
     14. B(C  14,C  13)                  1.3933         0.617364   
     15. B(C  15,C  14)                  1.3932         0.617580   
     16. B(C  16,C  15)                  1.3961         0.610845   
     17. B(C  16,C  11)                  1.4041         0.593268   
     18. B(O  17,C   9)                  1.4313         0.480865   
     19. B(O  17,C   3)                  1.4277         0.487175   
     20. B(O  18,C   5)                  1.4218         0.497913   
     21. B(C  19,O  18)                  1.4352         0.474030   
     22. B(H  20,C  19)                  1.0984         0.349165   
     23. B(O  21,C  19)                  1.4317         0.480192   
     24. B(C  22,O  21)                  1.4195         0.502185   
     25. B(C  23,C  19)                  1.5493         0.348015   
     26. B(C  23,C   1)                  1.5319         0.370938   
     27. B(H  24,C  23)                  1.0974         0.350503   
     28. B(O  25,C  23)                  1.4380         0.469062   
     29. B(H  26,O   0)                  0.9782         0.486384   
     30. B(H  26,O  17)                  2.4100         0.010000   
     31. B(H  27,C   7)                  1.0953         0.353165   
     32. B(H  28,C   7)                  1.0972         0.350732   
     33. B(H  29,C  12)                  1.0877         0.363209   
     34. B(H  30,C  13)                  1.0870         0.364138   
     35. B(H  31,C  14)                  1.0868         0.364406   
     36. B(H  32,C  15)                  1.0868         0.364406   
     37. B(H  33,C  16)                  1.0882         0.362552   
     38. B(H  34,C  22)                  1.0934         0.355570   
     39. B(H  35,C  22)                  1.0940         0.354845   
     40. B(H  36,C  22)                  1.0943         0.354514   
     41. B(H  37,O   0)                  2.3996         0.010000   
     42. B(H  37,O  25)                  0.9774         0.487847   
     43. A(C   1,O   0,H  26)          105.5355         0.349172   
     44. A(O   0,C   1,H   2)          105.6463         0.333433   
     45. A(H   2,C   1,C   3)          110.8204         0.324026   
     46. A(H   2,C   1,C  23)          110.4039         0.322517   
     47. A(O   0,C   1,C   3)          110.2231         0.377107   
     48. A(O   0,C   1,C  23)          109.2411         0.375257   
     49. A(C   3,C   1,C  23)          110.3952         0.364240   
     50. A(H   4,C   3,C   5)          111.3511         0.323436   
     51. A(H   4,C   3,O  17)          108.3659         0.334942   
     52. A(C   1,C   3,C   5)          108.1950         0.365764   
     53. A(C   5,C   3,O  17)          110.7119         0.379080   
     54. A(C   1,C   3,H   4)          108.4243         0.323652   
     55. A(C   1,C   3,O  17)          109.7587         0.379348   
     56. A(C   7,C   5,O  18)          111.2799         0.380625   
     57. A(H   6,C   5,O  18)          109.9064         0.336178   
     58. A(C   3,C   5,C   7)          107.5898         0.365613   
     59. A(H   6,C   5,C   7)          107.6200         0.323542   
     60. A(C   3,C   5,O  18)          110.3544         0.380515   
     61. A(C   3,C   5,H   6)          110.0252         0.323454   
     62. A(O   8,C   7,H  27)          108.4169         0.336036   
     63. A(C   5,C   7,H  27)          110.1251         0.324293   
     64. A(C   5,C   7,O   8)          110.0799         0.379527   
     65. A(O   8,C   7,H  28)          109.9739         0.335650   
     66. A(C   5,C   7,H  28)          111.6922         0.323925   
     67. A(H  27,C   7,H  28)          106.4416         0.288758   
     68. A(C   7,O   8,C   9)          111.3412         0.393215   
     69. A(H  10,C   9,O  17)          110.0089         0.334319   
     70. A(O   8,C   9,O  17)          111.4943         0.391965   
     71. A(O   8,C   9,C  11)          109.8390         0.381843   
     72. A(O   8,C   9,H  10)          108.9360         0.334675   
     73. A(C  11,C   9,O  17)          107.2942         0.381420   
     74. A(H  10,C   9,C  11)          109.2360         0.326123   
     75. A(C   9,C  11,C  12)          120.1782         0.398093   
     76. A(C  12,C  11,C  16)          118.5075         0.427130   
     77. A(C   9,C  11,C  16)          121.2768         0.398203   
     78. A(C  11,C  12,H  29)          120.3809         0.350706   
     79. A(C  13,C  12,H  29)          118.9419         0.352433   
     80. A(C  11,C  12,C  13)          120.6771         0.429241   
     81. A(C  14,C  13,H  30)          119.9259         0.353321   
     82. A(C  12,C  13,H  30)          120.0004         0.352585   
     83. A(C  12,C  13,C  14)          120.0734         0.432443   
     84. A(C  13,C  14,H  31)          120.0528         0.353365   
     85. A(C  13,C  14,C  15)          119.9482         0.433428   
     86. A(C  15,C  14,H  31)          119.9985         0.353386   
     87. A(C  16,C  15,H  32)          119.9052         0.352730   
     88. A(C  14,C  15,H  32)          120.0611         0.353386   
     89. A(C  14,C  15,C  16)          120.0336         0.432602   
     90. A(C  11,C  16,C  15)          120.7513         0.429493   
     91. A(C  15,C  16,H  33)          119.3535         0.352426   
     92. A(C  11,C  16,H  33)          119.8951         0.350691   
     93. A(C   3,O  17,C   9)          110.1738         0.392421   
     94. A(C   5,O  18,C  19)          112.2644         0.392936   
     95. A(O  18,C  19,O  21)          108.8137         0.390453   
     96. A(O  21,C  19,C  23)          107.9929         0.372421   
     97. A(H  20,C  19,C  23)          109.5727         0.318963   
     98. A(O  18,C  19,C  23)          111.7980         0.371593   
     99. A(H  20,C  19,O  21)          108.8355         0.334311   
    100. A(O  18,C  19,H  20)          109.7629         0.333594   
    101. A(C  19,O  21,C  22)          112.2238         0.394416   
    102. A(H  35,C  22,H  36)          110.1714         0.289458   
    103. A(H  34,C  22,H  36)          108.4203         0.289551   
    104. A(O  21,C  22,H  36)          110.6301         0.337664   
    105. A(H  34,C  22,H  35)          108.3475         0.289593   
    106. A(O  21,C  22,H  35)          110.9424         0.337716   
    107. A(O  21,C  22,H  34)          108.2429         0.337831   
    108. A(H  24,C  23,O  25)          106.4190         0.333223   
    109. A(C  19,C  23,O  25)          111.3777         0.370920   
    110. A(C   1,C  23,O  25)          108.0277         0.375020   
    111. A(C  19,C  23,H  24)          109.6817         0.319163   
    112. A(C   1,C  23,H  24)          110.0412         0.322510   
    113. A(C   1,C  23,C  19)          111.1716         0.358553   
    114. A(C  23,O  25,H  37)          105.0489         0.349134   
    115. D(C   3,C   1,O   0,H  26)     52.5975         0.018938   
    116. D(C  23,C   1,O   0,H  26)    174.0602         0.018938   
    117. D(H   2,C   1,O   0,H  26)    -67.1740         0.018938   
    118. D(C   5,C   3,C   1,C  23)     55.6910         0.011603   
    119. D(H   4,C   3,C   1,O   0)     55.5710         0.011603   
    120. D(H   4,C   3,C   1,C  23)    -65.2027         0.011603   
    121. D(C   5,C   3,C   1,H   2)    -66.9467         0.011603   
    122. D(H   4,C   3,C   1,H   2)    172.1597         0.011603   
    123. D(C   5,C   3,C   1,O   0)    176.4647         0.011603   
    124. D(C   7,C   5,C   3,O  17)     55.7575         0.011514   
    125. D(C   7,C   5,C   3,C   1)    176.0703         0.011514   
    126. D(C   7,C   5,C   3,H   4)    -64.8720         0.011514   
    127. D(H   6,C   5,C   3,O  17)    -61.2127         0.011514   
    128. D(H   6,C   5,C   3,H   4)    178.1578         0.011514   
    129. D(H   6,C   5,C   3,C   1)     59.1000         0.011514   
    130. D(H  27,C   7,C   5,H   6)    -55.8318         0.011550   
    131. D(H  27,C   7,C   5,O  18)     64.6381         0.011550   
    132. D(H  27,C   7,C   5,C   3)   -174.3605         0.011550   
    133. D(O   8,C   7,C   5,H   6)     63.6537         0.011550   
    134. D(O   8,C   7,C   5,C   3)    -54.8750         0.011550   
    135. D(O   8,C   7,C   5,O  18)   -175.8765         0.011550   
    136. D(C   9,O   8,C   7,H  28)    -65.3937         0.018935   
    137. D(C   9,O   8,C   7,H  27)    178.6023         0.018935   
    138. D(C   9,O   8,C   7,C   5)     58.0824         0.018935   
    139. D(O  17,C   9,O   8,C   7)    -60.5927         0.018483   
    140. D(C  11,C   9,O   8,C   7)   -179.3915         0.018483   
    141. D(H  10,C   9,O   8,C   7)     61.0004         0.018483   
    142. D(C  12,C  11,C   9,O  17)     96.3754         0.011817   
    143. D(C  12,C  11,C   9,H  10)    -22.8472         0.011817   
    144. D(C  12,C  11,C   9,O   8)   -142.2719         0.011817   
    145. D(C  16,C  11,C   9,O   8)     39.9894         0.011817   
    146. D(C  16,C  11,C   9,H  10)    159.4142         0.011817   
    147. D(H  29,C  12,C  11,C  16)    178.8023         0.024156   
    148. D(H  29,C  12,C  11,C   9)      1.0017         0.024156   
    149. D(C  13,C  12,C  11,C  16)     -1.0440         0.024156   
    150. D(C  13,C  12,C  11,C   9)   -178.8447         0.024156   
    151. D(H  30,C  13,C  12,H  29)      0.3815         0.025682   
    152. D(H  30,C  13,C  12,C  11)   -179.7699         0.025682   
    153. D(C  14,C  13,C  12,H  29)   -179.4322         0.025682   
    154. D(C  14,C  13,C  12,C  11)      0.4163         0.025682   
    155. D(H  31,C  14,C  13,H  30)      0.1606         0.026360   
    156. D(C  15,C  14,C  13,C  12)      0.2135         0.026360   
    157. D(H  31,C  14,C  13,C  12)    179.9745         0.026360   
    158. D(C  15,C  14,C  13,H  30)   -179.6004         0.026360   
    159. D(H  32,C  15,C  14,H  31)     -0.0614         0.026380   
    160. D(H  32,C  15,C  14,C  13)    179.6998         0.026380   
    161. D(C  16,C  15,C  14,H  31)   -179.9535         0.026380   
    162. D(C  16,C  15,C  14,C  13)     -0.1923         0.026380   
    163. D(H  33,C  16,C  15,H  32)     -0.2217         0.025774   
    164. D(C  11,C  16,C  15,H  32)    179.6484         0.025774   
    165. D(C  11,C  16,C  15,C  14)     -0.4593         0.025774   
    166. D(H  33,C  16,C  11,C  12)   -179.0646         0.024235   
    167. D(H  33,C  16,C  11,C   9)     -1.2892         0.024235   
    168. D(H  33,C  16,C  15,C  14)    179.6706         0.025774   
    169. D(C  15,C  16,C  11,C  12)      1.0660         0.024235   
    170. D(C  15,C  16,C  11,C   9)    178.8414         0.024235   
    171. D(C   3,O  17,C   9,C  11)   -179.2741         0.019780   
    172. D(C   3,O  17,C   9,H  10)    -60.5492         0.019780   
    173. D(C   3,O  17,C   9,O   8)     60.4195         0.019780   
    174. D(C   9,O  17,C   3,C   5)    -58.7815         0.020319   
    175. D(C   9,O  17,C   3,H   4)     63.6071         0.020319   
    176. D(C   9,O  17,C   3,C   1)   -178.1570         0.020319   
    177. D(C  19,O  18,C   5,C   3)     63.8717         0.019595   
    178. D(C  19,O  18,C   5,C   7)   -176.7611         0.019595   
    179. D(C  19,O  18,C   5,H   6)    -57.6481         0.019595   
    180. D(C  23,C  19,O  18,C   5)    -57.0290         0.017717   
    181. D(O  21,C  19,O  18,C   5)   -176.2197         0.017717   
    182. D(H  20,C  19,O  18,C   5)     64.7789         0.017717   
    183. D(C  22,O  21,C  19,C  23)    168.4293         0.018190   
    184. D(C  22,O  21,C  19,H  20)     49.5512         0.018190   
    185. D(C  22,O  21,C  19,O  18)    -70.0290         0.018190   
    186. D(H  36,C  22,O  21,C  19)    -60.3821         0.019943   
    187. D(H  35,C  22,O  21,C  19)     62.2062         0.019943   
    188. D(H  34,C  22,O  21,C  19)   -179.0412         0.019943   
    189. D(H  24,C  23,C  19,O  21)     47.6656         0.010000   
    190. D(H  24,C  23,C  19,H  20)    166.0736         0.010000   
    191. D(H  24,C  23,C  19,O  18)    -72.0091         0.010000   
    192. D(C   1,C  23,C  19,O  21)    169.5926         0.010000   
    193. D(C   1,C  23,C  19,H  20)    -71.9994         0.010000   
    194. D(C   1,C  23,C  19,O  18)     49.9179         0.010000   
    195. D(H  24,C  23,C   1,C   3)     71.4718         0.010996   
    196. D(H  24,C  23,C   1,H   2)   -165.6471         0.010996   
    197. D(H  24,C  23,C   1,O   0)    -49.8865         0.010996   
    198. D(C  19,C  23,C   1,C   3)    -50.2459         0.010996   
    199. D(C  19,C  23,C   1,H   2)     72.6352         0.010996   
    200. D(C  19,C  23,C   1,O   0)   -171.6043         0.010996   
    201. D(H  37,O  25,C  23,H  24)     63.4608         0.017342   
    202. D(H  37,O  25,C  23,C  19)   -177.0405         0.017342   
    203. D(H  37,O  25,C  23,C   1)    -54.6783         0.017342   
    -----------------------------------------------------------------

Number of atoms                         .... 38
Number of degrees of freedom            .... 203


         *************************************************************
         *                GEOMETRY OPTIMIZATION CYCLE   1            *
         *************************************************************
---------------------------------
CARTESIAN COORDINATES (ANGSTROEM)
---------------------------------
  O    -2.778490    2.856210    0.137190
  C    -1.343090    2.804230    0.092230
  H    -1.015320    2.768460    1.138840
  C    -0.884230    1.561730   -0.661940
  H    -1.348870    1.568620   -1.658120
  C     0.637550    1.598210   -0.758700
  H     1.078190    1.623800    0.247920
  C     1.087960    0.303720   -1.426950
  O     0.572020   -0.819810   -0.715690
  C    -0.855470   -0.782500   -0.648980
  H    -1.260990   -0.811430   -1.669730
  C    -1.364540   -1.978610    0.123390
  C    -2.544720   -2.626860   -0.276140
  C    -3.037270   -3.717620    0.443690
  C    -2.362490   -4.169040    1.575970
  C    -1.197590   -3.528640    1.992860
  C    -0.704410   -2.437860    1.274390
  O    -1.318330    0.390060    0.028820
  O     1.058790    2.735590   -1.500600
  C     0.710430    3.967480   -0.851900
  H     1.253470    4.052980    0.099030
  O     1.087490    5.058160   -1.699180
  C     2.496300    5.208790   -1.785490
  C    -0.813250    4.069160   -0.590430
  H    -1.340740    4.233900   -1.538480
  O    -1.127030    5.193110    0.249950
  H    -3.061090    1.989200    0.491090
  H     2.181430    0.240540   -1.427480
  H     0.773800    0.258890   -2.477230
  H    -3.091230   -2.284030   -1.151810
  H    -3.949660   -4.213470    0.122490
  H    -2.746290   -5.017580    2.136090
  H    -0.672460   -3.876170    2.878590
  H     0.203390   -1.942550    1.612980
  H     2.710080    6.065340   -2.430660
  H     2.958130    4.320990   -2.227490
  H     2.924340    5.404620   -0.797650
  H    -2.092480    5.141350    0.392930

----------------------------
CARTESIAN COORDINATES (A.U.)
----------------------------
  NO LB    ZA    FRAG    MASS        X           Y           Z
   0 O   8.0000    1    15.999   -5.250585    5.397455    0.259252
   1 C   6.0000    1    12.011   -2.538072    5.299227    0.174289
   2 H   1.0000    1     1.008   -1.918677    5.231631    2.152096
   3 C   6.0000    1    12.011   -1.670953    2.951242   -1.250885
   4 H   1.0000    1     1.008   -2.548995    2.964262   -3.133393
   5 C   6.0000    1    12.011    1.204795    3.020179   -1.433735
   6 H   1.0000    1     1.008    2.037484    3.068537    0.468501
   7 C   6.0000    1    12.011    2.055946    0.573948   -2.696545
   8 O   8.0000    1    15.999    1.080961   -1.549216   -1.352458
   9 C   6.0000    1    12.011   -1.616604   -1.478711   -1.226394
  10 H   1.0000    1     1.008   -2.382926   -1.533380   -3.155332
  11 C   6.0000    1    12.011   -2.578607   -3.739031    0.233173
  12 C   6.0000    1    12.011   -4.808824   -4.964046   -0.521829
  13 C   6.0000    1    12.011   -5.739608   -7.025284    0.838453
  14 C   6.0000    1    12.011   -4.464459   -7.878344    2.978152
  15 C   6.0000    1    12.011   -2.263117   -6.668163    3.765960
  16 C   6.0000    1    12.011   -1.331142   -4.606888    2.408248
  17 O   8.0000    1    15.999   -2.491283    0.737107    0.054462
  18 O   8.0000    1    15.999    2.000823    5.169516   -2.835723
  19 C   6.0000    1    12.011    1.342518    7.497451   -1.609858
  20 H   1.0000    1     1.008    2.368715    7.659022    0.187140
  21 O   8.0000    1    15.999    2.055058    9.558537   -3.210985
  22 C   6.0000    1    12.011    4.717323    9.843187   -3.374087
  23 C   6.0000    1    12.011   -1.536820    7.689598   -1.115751
  24 H   1.0000    1     1.008   -2.533631    8.000911   -2.907306
  25 O   8.0000    1    15.999   -2.129778    9.813556    0.472337
  26 H   1.0000    1     1.008   -5.784622    3.759043    0.928026
  27 H   1.0000    1     1.008    4.122305    0.454555   -2.697546
  28 H   1.0000    1     1.008    1.462270    0.489231   -4.681286
  29 H   1.0000    1     1.008   -5.841578   -4.316191   -2.176605
  30 H   1.0000    1     1.008   -7.463776   -7.962304    0.231473
  31 H   1.0000    1     1.008   -5.189736   -9.481852    4.036625
  32 H   1.0000    1     1.008   -1.270765   -7.324900    5.439747
  33 H   1.0000    1     1.008    0.384351   -3.670888    3.048090
  34 H   1.0000    1     1.008    5.121309   11.461832   -4.593282
  35 H   1.0000    1     1.008    5.590056    8.165488   -4.209346
  36 H   1.0000    1     1.008    5.526202   10.213252   -1.507340
  37 H   1.0000    1     1.008   -3.954214    9.715743    0.742530

      -----------------------------------------------------------      
     |                   =====================                   |     
     |                           x T B                           |     
     |                   =====================                   |     
     |                         S. Grimme                         |     
     |          Mulliken Center for Theoretical Chemistry        |     
     |                    University of Bonn                     |     
      -----------------------------------------------------------      

   * xtb version 6.7.1 (edcfbbe) compiled by 'albert@albert-system' on 2024-07-22

   xtb is free software: you can redistribute it and/or modify it under
   the terms of the GNU Lesser General Public License as published by
   the Free Software Foundation, either version 3 of the License, or
   (at your option) any later version.
   
   xtb is distributed in the hope that it will be useful,
   but WITHOUT ANY WARRANTY; without even the implied warranty of
   MERCHANTABILITY or FITNESS FOR A PARTICULAR PURPOSE.  See the
   GNU Lesser General Public License for more details.
   
   Cite this work as:
   * C. Bannwarth, E. Caldeweyher, S. Ehlert, A. Hansen, P. Pracht,
     J. Seibert, S. Spicher, S. Grimme, WIREs Comput. Mol. Sci., 2020, 11,
     e01493. DOI: 10.1002/wcms.1493
   
   for GFN2-xTB:
   * C. Bannwarth, S. Ehlert and S. Grimme., J. Chem. Theory Comput., 2019,
     15, 1652-1671. DOI: 10.1021/acs.jctc.8b01176
   for GFN1-xTB:
   * S. Grimme, C. Bannwarth, P. Shushkov, J. Chem. Theory Comput., 2017,
     13, 1989-2009. DOI: 10.1021/acs.jctc.7b00118
   for GFN0-xTB:
   * P. Pracht, E. Caldeweyher, S. Ehlert, S. Grimme, ChemRxiv, 2019, preprint.
     DOI: 10.26434/chemrxiv.8326202.v1
   for GFN-FF:
   * S. Spicher and S. Grimme, Angew. Chem. Int. Ed., 2020, 59, 15665-15673.
     DOI: 10.1002/anie.202004239
   
   for ALPB and GBSA implicit solvation:
   * S. Ehlert, M. Stahn, S. Spicher, S. Grimme, J. Chem. Theory Comput.,
     2021, 17, 4250-4261. DOI: 10.1021/acs.jctc.1c00471
   
   for ddCOSMO and CPCM-X implicit solvation:
   * M. Stahn, S. Ehlert, S. Grimme, J. Phys. Chem. A,
     2023, XX, XXXX-XXXX. DOI: 10.1021/acs.jpca.3c04382
   
   for DFT-D4:
   * E. Caldeweyher, C. Bannwarth and S. Grimme, J. Chem. Phys., 2017,
     147, 034112. DOI: 10.1063/1.4993215
   * E. Caldeweyher, S. Ehlert, A. Hansen, H. Neugebauer, S. Spicher,
     C. Bannwarth and S. Grimme, J. Chem. Phys., 2019, 150, 154122.
     DOI: 10.1063/1.5090222
   * E. Caldeweyher, J.-M. Mewes, S. Ehlert and S. Grimme, Phys. Chem. Chem. Phys.
     2020, 22, 8499-8512. DOI: 10.1039/D0CP00502A
   
   for sTDA-xTB:
   * S. Grimme and C. Bannwarth, J. Chem. Phys., 2016, 145, 054103.
     DOI: 10.1063/1.4959605
   
   in the mass-spec context:
   * V. Asgeirsson, C. Bauer and S. Grimme, Chem. Sci., 2017, 8, 4879.
     DOI: 10.1039/c7sc00601b
   * J. Koopman and S. Grimme, ACS Omega 2019, 4, 12, 15120-15133.
     DOI: 10.1021/acsomega.9b02011
   
   for metadynamics refer to:
   * S. Grimme, J. Chem. Theory Comput., 2019, 155, 2847-2862
     DOI: 10.1021/acs.jctc.9b00143
   
   for SPH calculations refer to:
   * S. Spicher and S. Grimme, J. Chem. Theory Comput., 2021, 17, 1701-1714
     DOI: 10.1021/acs.jctc.0c01306
   
   for ONIOM refer to:
   * C. Plett, A. Katbashev, S. Ehlert, S. Grimme, M. Bursch,
     Phys. Chem. Chem. Phys., 2023, 25, 17860-17868. DOI: 10.1039/D3CP02178E
   
   for DIPRO refer to:
   * J. Kohn, N. Gildemeister, S. Grimme, D. Fazzi, A. Hansen,
     J. Chem. Phys., 2023, just accepted.
   
   for PTB refer to:
   * S. Grimme, M. Mueller, A. Hansen, J. Chem. Phys., 2023, 158, 124111.
     DOI: 10.1063/5.0137838
   
   with help from (in alphabetical order)
   P. Atkinson, C. Bannwarth, F. Bohle, G. Brandenburg, E. Caldeweyher
   M. Checinski, S. Dohm, S. Ehlert, S. Ehrlich, I. Gerasimov, C. Hölzer
   A. Katbashev, J. Kohn, J. Koopman, C. Lavigne, S. Lehtola, F. März, M. Müller,
   F. Musil, H. Neugebauer, J. Pisarek, C. Plett, P. Pracht, F. Pultar,
   J. Seibert, P. Shushkov, S. Spicher, M. Stahn, M. Steiner, T. Strunk,
   J. Stückrath, T. Rose, and J. Unsleber
   
 * started run on 2025/10/31 at 09:56:11.553     
   ID    Z sym.   atoms
    1    8 O      1, 9, 18, 19, 22, 26
    2    6 C      2, 4, 6, 8, 10, 12-17, 20, 23, 24
    3    1 H      3, 5, 7, 11, 21, 25, 27-38

           -------------------------------------------------
          |                Calculation Setup                |
           -------------------------------------------------

          program call               : /home/kmoult/orca_6_1/otool_xtb goat_0_XTB.xyz --grad -c 0 -u 0 -P 4 --namespace goat_0 --input goat_0_XTB.input.tmp --alpb ACETONE --acc 0.200000
          hostname                   : node3103
          calculation namespace      : goat_0
          coordinate file            : goat_0_XTB.xyz
          omp threads                :                     4


           -------------------------------------------------
          |                 G F N 2 - x T B                 |
           -------------------------------------------------

        Reference                      10.1021/acs.jctc.8b01176
      * Hamiltonian:
        H0-scaling (s, p, d)           1.850000    2.230000    2.230000
        zeta-weighting                 0.500000
      * Dispersion:
        s8                             2.700000
        a1                             0.520000
        a2                             5.000000
        s9                             5.000000
      * Repulsion:
        kExp                           1.500000    1.000000
        rExp                           1.000000
      * Coulomb:
        alpha                          2.000000
        third order                    shell-resolved
        anisotropic                    true
        a3                             3.000000
        a5                             4.000000
        cn-shift                       1.200000
        cn-exp                         4.000000
        max-rad                        5.000000

      * Solvation model:               ALPB
        Solvent                        ACETONE
        Parameter file                 internal GFN2-xTB/ALPB
        Dielectric constant                2.0700E+01
        Reference state                gsolv [1 M gas/solution]
        Free energy shift                  5.9241E-03 Eh       3.7175E+00 kcal/mol
        Temperature                        2.9815E+02 K
        Density                            7.9000E-01 kg/L
        Solvent mass                       5.8080E+01 g/mol
        Interaction kernel             P16
        Born radius scaling (c1)           1.8274E+00
        Born radii integrator          GBOBC
        Born offset                        0.0000E+00 a0       0.0000E+00 AA
        H-bond correction              true
        Ion screening                  false
        Surface tension                    1.0000E-05 Eh       1.5569E+01 dyn/cm
        Grid points                               230 per atom

          ...................................................
          :                      SETUP                      :
          :.................................................:
          :  # basis functions                  98          :
          :  # atomic orbitals                  98          :
          :  # shells                           58          :
          :  # electrons                       110          :
          :  max. iterations                   250          :
          :  Hamiltonian                  GFN2-xTB          :
          :  restarted?                      false          :
          :  GBSA solvation                   true          :
          :  PC potential                    false          :
          :  electronic temp.          300.0000000     K    :
          :  accuracy                    0.2000000          :
          :  -> integral cutoff          0.3198970E+02      :
          :  -> integral neglect         0.2000000E-08      :
          :  -> SCF convergence          0.2000000E-06 Eh   :
          :  -> wf. convergence          0.2000000E-04 e    :
          :  Broyden damping             0.4000000          :
          :  net charge                          0          :
          :  unpaired electrons                  0          :
          ...................................................

 iter      E             dE          RMSdq      gap      omega  full diag
   1    -64.1238721 -0.641239E+02  0.464E+00    4.64       0.0  T
   2    -64.1993770 -0.755049E-01  0.250E+00    4.64       1.0  T
   3    -64.1997642 -0.387247E-03  0.842E-01    4.53       1.0  T
   4    -64.2022915 -0.252726E-02  0.198E-01    4.62       1.0  T
   5    -64.2031926 -0.901128E-03  0.929E-02    4.63       1.0  T
   6    -64.2032793 -0.866751E-04  0.418E-02    4.63       1.0  T
   7    -64.2032929 -0.136613E-04  0.138E-02    4.63       1.2  T
   8    -64.2032944 -0.141250E-05  0.429E-03    4.63       3.8  T
   9    -64.2032945 -0.185483E-06  0.231E-03    4.63       7.0  T
  10    -64.2032946 -0.452032E-07  0.110E-03    4.63      14.7  T
  11    -64.2032946 -0.802207E-08  0.436E-04    4.63      37.2  T
  12    -64.2032946 -0.135526E-08  0.169E-04    4.63      95.8  T
  13    -64.2032946 -0.434824E-09  0.725E-05    4.63     223.9  T

   *** convergence criteria satisfied after 13 iterations ***

         #    Occupation            Energy/Eh            Energy/eV
      -------------------------------------------------------------
         1        2.0000           -0.7303425             -19.8736
       ...           ...                  ...                  ...
        49        2.0000           -0.4299705             -11.7001
        50        2.0000           -0.4263899             -11.6027
        51        2.0000           -0.4230581             -11.5120
        52        2.0000           -0.4212800             -11.4636
        53        2.0000           -0.4150182             -11.2932
        54        2.0000           -0.4092200             -11.1354
        55        2.0000           -0.4081493             -11.1063 (HOMO)
        56                         -0.2379692              -6.4755 (LUMO)
        57                         -0.2319826              -6.3126
        58                         -0.1122764              -3.0552
        59                         -0.0615540              -1.6750
        60                         -0.0324990              -0.8843
       ...                                ...                  ...
        98                          0.6220445              16.9267
      -------------------------------------------------------------
                  HL-Gap            0.1701802 Eh            4.6308 eV
             Fermi-level           -0.3230592 Eh           -8.7909 eV

 SCC (total)                   0 d,  0 h,  0 min,  0.039 sec
 SCC setup                      ...        0 min,  0.000 sec (  1.257%)
 Dispersion                     ...        0 min,  0.000 sec (  0.815%)
 classical contributions        ...        0 min,  0.000 sec (  0.080%)
 integral evaluation            ...        0 min,  0.002 sec (  5.403%)
 iterations                     ...        0 min,  0.030 sec ( 76.546%)
 molecular gradient             ...        0 min,  0.006 sec ( 15.537%)
 printout                       ...        0 min,  0.000 sec (  0.318%)

         :::::::::::::::::::::::::::::::::::::::::::::::::::::
         ::                     SUMMARY                     ::
         :::::::::::::::::::::::::::::::::::::::::::::::::::::
         :: total energy             -63.579057777980 Eh    ::
         :: total w/o Gsasa/hb       -63.550148187193 Eh    ::
         :: gradient norm              0.069872837129 Eh/a0 ::
         :: HOMO-LUMO gap              4.630837852675 eV    ::
         ::.................................................::
         :: SCC energy               -64.203176869082 Eh    ::
         :: -> isotropic ES            0.133287203447 Eh    ::
         :: -> anisotropic ES         -0.004015413180 Eh    ::
         :: -> anisotropic XC          0.003471647441 Eh    ::
         :: -> dispersion             -0.035875195025 Eh    ::
         :: -> Gsolv                  -0.032492252795 Eh    ::
         ::    -> Gelec               -0.003582662008 Eh    ::
         ::    -> Gsasa               -0.028562823089 Eh    ::
         ::    -> Ghb                 -0.006270908962 Eh    ::
         ::    -> Gshift               0.005924141264 Eh    ::
         :: repulsion energy           0.624119091102 Eh    ::
         :: add. restraining           0.000000000000 Eh    ::
         :: total charge              -0.000000000000 e     ::
         :::::::::::::::::::::::::::::::::::::::::::::::::::::


Property printout bound to 'properties.out'

           -------------------------------------------------
          | TOTAL ENERGY              -63.579057777980 Eh   |
          | GRADIENT NORM               0.069872837129 Eh/α |
          | HOMO-LUMO GAP               4.630837852675 eV   |
           -------------------------------------------------

------------------------------------------------------------------------
 * finished run on 2025/10/31 at 09:56:11.620     
------------------------------------------------------------------------
 total:
 * wall-time:     0 d,  0 h,  0 min,  0.067 sec
 *  cpu-time:     0 d,  0 h,  0 min,  0.214 sec
 * ratio c/w:     3.187 speedup
 SCF:
 * wall-time:     0 d,  0 h,  0 min,  0.039 sec
 *  cpu-time:     0 d,  0 h,  0 min,  0.142 sec
 * ratio c/w:     3.660 speedup


-------------------------   --------------------
FINAL SINGLE POINT ENERGY       -63.579057777980
-------------------------   --------------------


-------------
DIPOLE MOMENT
-------------
                                X             Y             Z
Total Dipole Moment    :     -0.10100      -1.30300       0.24100
                        -----------------------------------------
Magnitude (a.u.)       :      1.32894
Magnitude (Debye)      :      3.37791


------------------
CARTESIAN GRADIENT
------------------

   1   O   :   -0.010596335    0.006325146    0.000279996
   2   C   :    0.020176316    0.004672279   -0.002848118
   3   H   :   -0.007509570    0.000182791    0.000714871
   4   C   :    0.004941409    0.001412803   -0.009425230
   5   H   :   -0.003209864   -0.000830064    0.003017936
   6   C   :   -0.002727218   -0.004703366    0.007668589
   7   H   :    0.002196112   -0.001222388   -0.002418026
   8   C   :   -0.006618314    0.008759858    0.002972522
   9   O   :    0.011067394   -0.011199629    0.002731243
  10   C   :   -0.009857626    0.000747434   -0.014210869
  11   H   :    0.001349771   -0.004112594    0.004312947
  12   C   :    0.005123347    0.011927694   -0.009538166
  13   C   :   -0.004219278    0.001460339   -0.004642683
  14   C   :   -0.005866489   -0.004874933   -0.001067357
  15   C   :   -0.001403820   -0.003049397    0.001948879
  16   C   :    0.002369188   -0.004031320    0.006784093
  17   C   :    0.003455844    0.000599342    0.002232305
  18   O   :   -0.008863104    0.002969676    0.011519630
  19   O   :    0.005697465   -0.004338047   -0.008728490
  20   C   :    0.002218989   -0.015810520    0.019352293
  21   H   :   -0.000823019    0.001630958   -0.003843674
  22   O   :    0.003774250    0.023133272   -0.013906372
  23   C   :   -0.002537588   -0.002021055    0.003185107
  24   C   :    0.007387979   -0.013528127   -0.009732441
  25   H   :   -0.003764312    0.004796788    0.003105858
  26   O   :   -0.003060036    0.013567105    0.008014311
  27   H   :   -0.000605132   -0.009407138    0.003996261
  28   H   :    0.002058283    0.003721501   -0.003860690
  29   H   :    0.004347862   -0.002775670    0.000328665
  30   H   :   -0.003707034    0.000725261   -0.003382059
  31   H   :   -0.004197880   -0.002760393   -0.001006259
  32   H   :   -0.001552822   -0.003416073    0.002493797
  33   H   :    0.002156522   -0.001967310    0.004066770
  34   H   :    0.005200651    0.001860872    0.003996145
  35   H   :    0.005567049    0.001620649   -0.001405873
  36   H   :    0.000594559    0.000381715   -0.001839561
  37   H   :   -0.000253059    0.001257677   -0.000967854
  38   H   :   -0.008310490   -0.001705135    0.000101502

Difference to translation invariance:
           :   -0.0000000000    0.0000000000    0.0000000000

Difference to rotation invariance:
           :    0.0004066991    0.0004631854   -0.0000581396

Norm of the Cartesian gradient     ...    0.0698728371
RMS gradient                       ...    0.0065441908
MAX gradient                       ...    0.0231332721
------------------------------------------------------------------------------
                         ORCA GEOMETRY RELAXATION STEP
------------------------------------------------------------------------------

Reading the OPT-File                    .... done
Getting information on internals        .... done
Copying old internal coords+grads       .... done
Making the new internal coordinates     .... (2022 redundants) done
Validating the new internal coordinates .... (2022 redundants) done
Calculating the B-matrix                .... done
Calculating the G,G- and P matrices     .... done
Transforming gradient to internals      .... done
Projecting the internal gradient        .... done
Number of atoms                         ....  38
Number of internal coordinates          .... 203
Current Energy                          ....   -63.579057778 Eh
Current gradient norm                   ....     0.069872837 Eh/bohr
Maximum allowed component of the step   ....  0.300
Current trust radius                    ....  0.300
Evaluating the initial hessian          ....  (Almloef) done
Projecting the Hessian                  .... done
Forming the augmented Hessian           .... done
Diagonalizing the augmented Hessian     .... done
Last element of RFO vector              ....  0.981842100
Lowest eigenvalues of augmented Hessian:
 -0.010607082  0.011819082  0.014816677  0.016250577  0.016610341
Length of the computed step             ....  0.193208259
The final length of the internal step   ....  0.193208259
Converting the step to Cartesian space:
 Initial RMS(Int)=    0.0135605614
Transforming coordinates:
 Iter   0:  RMS(Cart)=    0.0487653673 RMS(Int)=    0.7634752075
done
Storing new coordinates                 .... done

                                .--------------------.
          ----------------------|Geometry convergence|-------------------------
          Item                value                   Tolerance       Converged
          ---------------------------------------------------------------------
          RMS gradient        0.0046569450            0.0001000000      NO
          MAX gradient        0.0292835666            0.0003000000      NO
          RMS step            0.0135605614            0.0020000000      NO
          MAX step            0.0667790683            0.0040000000      NO
          -------------------------------------------------------------------------
          ........................................................
          Max(Bonds)      0.0353      Max(Angles)    2.06
          Max(Dihed)        1.63      Max(Improp)    0.00
          ---------------------------------------------------------------------

    ---------------------------------------------------------------------------
                         Redundant Internal Coordinates
                            (Angstroem and degrees)

        Definition                    Value    dE/dq     Step     New-Value
    ----------------------------------------------------------------------------
     1. B(C   1,O   0)                1.4370  0.014224 -0.0137    1.4234   
     2. B(H   2,C   1)                1.0973 -0.001572  0.0023    1.0996   
     3. B(C   3,C   1)                1.5242  0.004674 -0.0024    1.5218   
     4. B(H   4,C   3)                1.0992 -0.001382  0.0020    1.1013   
     5. B(C   5,C   3)                1.5253  0.001936 -0.0008    1.5245   
     6. B(H   6,C   5)                1.0991 -0.001361  0.0020    1.1011   
     7. B(C   7,C   5)                1.5248 -0.001209  0.0021    1.5269   
     8. B(O   8,C   7)                1.4263  0.009784 -0.0109    1.4154   
     9. B(C   9,O   8)                1.4295  0.013041 -0.0151    1.4145   
    10. B(H  10,C   9)                1.0987 -0.004398  0.0065    1.1052   
    11. B(C  11,C   9)                1.5121  0.004646 -0.0060    1.5061   
    12. B(C  12,C  11)                1.4045  0.015714 -0.0139    1.3906   
    13. B(C  13,C  12)                1.3966  0.012857 -0.0110    1.3856   
    14. B(C  14,C  13)                1.3933  0.009297 -0.0077    1.3856   
    15. B(C  15,C  14)                1.3932  0.009003 -0.0075    1.3857   
    16. B(C  16,C  15)                1.3961  0.012651 -0.0108    1.3854   
    17. B(C  16,C  11)                1.4041  0.016433 -0.0145    1.3896   
    18. B(O  17,C   9)                1.4313  0.010869 -0.0121    1.4192   
    19. B(O  17,C   3)                1.4277  0.008953 -0.0085    1.4192   
    20. B(O  18,C   5)                1.4218  0.009590 -0.0113    1.4105   
    21. B(C  19,O  18)                1.4352  0.012098 -0.0147    1.4205   
    22. B(H  20,C  19)                1.0984 -0.003608  0.0053    1.1037   
    23. B(O  21,C  19)                1.4317  0.029284 -0.0316    1.4001   
    24. B(C  22,O  21)                1.4195  0.003543 -0.0037    1.4158   
    25. B(C  23,C  19)                1.5493  0.010006 -0.0154    1.5339   
    26. B(C  23,C   1)                1.5319  0.004763 -0.0032    1.5287   
    27. B(H  24,C  23)                1.0974 -0.000150  0.0002    1.0976   
    28. B(O  25,C  23)                1.4380  0.018083 -0.0188    1.4192   
    29. B(H  26,O   0)                0.9782  0.008937 -0.0101    0.9680   
    30. B(H  26,O  17)                2.4100 -0.003294  0.0353    2.4453   
    31. B(H  27,C   7)                1.0953  0.001845 -0.0027    1.0926   
    32. B(H  28,C   7)                1.0972 -0.001451  0.0021    1.0993   
    33. B(H  29,C  12)                1.0877  0.004813 -0.0068    1.0808   
    34. B(H  30,C  13)                1.0870  0.005080 -0.0072    1.0798   
    35. B(H  31,C  14)                1.0868  0.004501 -0.0064    1.0804   
    36. B(H  32,C  15)                1.0868  0.004986 -0.0070    1.0797   
    37. B(H  33,C  16)                1.0882  0.006429 -0.0091    1.0790   
    38. B(H  34,C  22)                1.0934  0.003186 -0.0046    1.0888   
    39. B(H  35,C  22)                1.0940  0.000684 -0.0010    1.0930   
    40. B(H  36,C  22)                1.0943 -0.000745  0.0011    1.0953   
    41. B(H  37,O   0)                2.3996 -0.002143  0.0197    2.4193   
    42. B(H  37,O  25)                0.9774  0.007637 -0.0086    0.9688   
    43. A(C   1,O   0,H  26)          105.54  0.000912    0.34    105.88   
    44. A(O   0,C   1,H   2)          105.65 -0.004151    1.81    107.46   
    45. A(H   2,C   1,C   3)          110.82  0.001604   -0.51    110.31   
    46. A(H   2,C   1,C  23)          110.40  0.000104   -0.41    109.99   
    47. A(O   0,C   1,C   3)          110.22 -0.003044    0.77    111.00   
    48. A(O   0,C   1,C  23)          109.24  0.002670   -0.96    108.28   
    49. A(C   3,C   1,C  23)          110.40  0.002540   -0.60    109.79   
    50. A(H   4,C   3,C   5)          111.35  0.002430   -0.83    110.52   
    51. A(H   4,C   3,O  17)          108.37 -0.003931    0.67    109.04   
    52. A(C   1,C   3,C   5)          108.20 -0.000636    0.30    108.49   
    53. A(C   5,C   3,O  17)          110.71  0.003301   -0.52    110.19   
    54. A(C   1,C   3,H   4)          108.42 -0.001637    0.39    108.81   
    55. A(C   1,C   3,O  17)          109.76  0.000399    0.02    109.77   
    56. A(C   7,C   5,O  18)          111.28 -0.000729   -0.05    111.23   
    57. A(H   6,C   5,O  18)          109.91 -0.000552    0.21    110.12   
    58. A(C   3,C   5,C   7)          107.59 -0.000161    0.14    107.73   
    59. A(H   6,C   5,C   7)          107.62 -0.001676    0.60    108.22   
    60. A(C   3,C   5,O  18)          110.35  0.000798   -0.30    110.05   
    61. A(C   3,C   5,H   6)          110.03  0.002317   -0.59    109.43   
    62. A(O   8,C   7,H  27)          108.42  0.001802   -0.75    107.66   
    63. A(C   5,C   7,H  27)          110.13 -0.004457    0.78    110.90   
    64. A(C   5,C   7,O   8)          110.08  0.004533   -0.92    109.16   
    65. A(O   8,C   7,H  28)          109.97 -0.000971    0.29    110.26   
    66. A(C   5,C   7,H  28)          111.69  0.002717   -0.66    111.03   
    67. A(H  27,C   7,H  28)          106.44 -0.003949    1.34    107.78   
    68. A(C   7,O   8,C   9)          111.34 -0.004185    0.67    112.01   
    69. A(H  10,C   9,O  17)          110.01  0.003337   -0.78    109.23   
    70. A(O   8,C   9,O  17)          111.49 -0.002528    0.21    111.70   
    71. A(O   8,C   9,C  11)          109.84  0.002004   -0.26    109.58   
    72. A(O   8,C   9,H  10)          108.94  0.000787   -0.12    108.82   
    73. A(C  11,C   9,O  17)          107.29 -0.000375    0.18    107.47   
    74. A(H  10,C   9,C  11)          109.24 -0.003283    0.80    110.04   
    75. A(C   9,C  11,C  12)          120.18  0.000899   -0.09    120.09   
    76. A(C  12,C  11,C  16)          118.51 -0.004324    0.54    119.05   
    77. A(C   9,C  11,C  16)          121.28  0.003412   -0.44    120.84   
    78. A(C  11,C  12,H  29)          120.38  0.000927   -0.15    120.23   
    79. A(C  13,C  12,H  29)          118.94 -0.002187    0.34    119.28   
    80. A(C  11,C  12,C  13)          120.68  0.001259   -0.19    120.49   
    81. A(C  14,C  13,H  30)          119.93 -0.000811    0.11    120.04   
    82. A(C  12,C  13,H  30)          120.00  0.000559   -0.10    119.90   
    83. A(C  12,C  13,C  14)          120.07  0.000252   -0.01    120.06   
    84. A(C  13,C  14,H  31)          120.05 -0.000502    0.04    120.10   
    85. A(C  13,C  14,C  15)          119.95  0.001304   -0.13    119.82   
    86. A(C  15,C  14,H  31)          120.00 -0.000803    0.09    120.09   
    87. A(C  16,C  15,H  32)          119.91  0.000439   -0.08    119.82   
    88. A(C  14,C  15,H  32)          120.06 -0.000469    0.06    120.12   
    89. A(C  14,C  15,C  16)          120.03  0.000030    0.02    120.05   
    90. A(C  11,C  16,C  15)          120.75  0.001472   -0.22    120.53   
    91. A(C  15,C  16,H  33)          119.35 -0.003000    0.47    119.82   
    92. A(C  11,C  16,H  33)          119.90  0.001528   -0.25    119.65   
    93. A(C   3,O  17,C   9)          110.17 -0.002021    0.41    110.58   
    94. A(C   5,O  18,C  19)          112.26 -0.000166   -0.10    112.16   
    95. A(O  18,C  19,O  21)          108.81  0.003277   -0.85    107.96   
    96. A(O  21,C  19,C  23)          107.99  0.001190   -0.33    107.66   
    97. A(H  20,C  19,C  23)          109.57  0.001093   -0.03    109.55   
    98. A(O  18,C  19,C  23)          111.80 -0.003416    0.53    112.33   
    99. A(H  20,C  19,O  21)          108.84 -0.002871    0.71    109.55   
   100. A(O  18,C  19,H  20)          109.76  0.000720   -0.03    109.74   
   101. A(C  19,O  21,C  22)          112.22 -0.004455    0.63    112.85   
   102. A(H  35,C  22,H  36)          110.17  0.000511   -0.12    110.05   
   103. A(H  34,C  22,H  36)          108.42 -0.003036    0.54    108.96   
   104. A(O  21,C  22,H  36)          110.63 -0.000725    0.09    110.72   
   105. A(H  34,C  22,H  35)          108.35 -0.003549    0.66    109.00   
   106. A(O  21,C  22,H  35)          110.94 -0.000320    0.03    110.98   
   107. A(O  21,C  22,H  34)          108.24  0.007100   -1.19    107.05   
   108. A(H  24,C  23,O  25)          106.42 -0.009512    1.83    108.25   
   109. A(C  19,C  23,O  25)          111.38  0.010592   -2.06    109.32   
   110. A(C   1,C  23,O  25)          108.03 -0.002599    0.81    108.84   
   111. A(C  19,C  23,H  24)          109.68  0.000595   -0.57    109.12   
   112. A(C   1,C  23,H  24)          110.04  0.000579   -0.01    110.03   
   113. A(C   1,C  23,C  19)          111.17 -0.000083    0.10    111.27   
   114. A(C  23,O  25,H  37)          105.05  0.000283    0.30    105.35   
   115. D(C   3,C   1,O   0,H  26)     52.60 -0.000786   -0.32     52.28   
   116. D(C  23,C   1,O   0,H  26)    174.06  0.002156   -1.20    172.86   
   117. D(H   2,C   1,O   0,H  26)    -67.17  0.001353   -1.18    -68.35   
   118. D(C   5,C   3,C   1,C  23)     55.69  0.001064   -0.35     55.35   
   119. D(H   4,C   3,C   1,O   0)     55.57  0.002467   -0.83     54.74   
   120. D(H   4,C   3,C   1,C  23)    -65.20 -0.000536    0.26    -64.94   
   121. D(C   5,C   3,C   1,H   2)    -66.95 -0.001919    0.95    -66.00   
   122. D(H   4,C   3,C   1,H   2)    172.16 -0.003519    1.55    173.71   
   123. D(C   5,C   3,C   1,O   0)    176.46  0.004067   -1.44    175.03   
   124. D(C   7,C   5,C   3,O  17)     55.76 -0.001537    0.21     55.97   
   125. D(C   7,C   5,C   3,C   1)    176.07  0.000539    0.10    176.17   
   126. D(C   7,C   5,C   3,H   4)    -64.87 -0.000429    0.27    -64.60   
   127. D(H   6,C   5,C   3,O  17)    -61.21 -0.000697   -0.26    -61.47   
   128. D(H   6,C   5,C   3,H   4)    178.16  0.000411   -0.20    177.95   
   129. D(H   6,C   5,C   3,C   1)     59.10  0.001378   -0.37     58.73   
   130. D(H  27,C   7,C   5,H   6)    -55.83 -0.000509    0.42    -55.41   
   131. D(H  27,C   7,C   5,O  18)     64.64 -0.002694    1.03     65.67   
   132. D(H  27,C   7,C   5,C   3)   -174.36 -0.002255    0.72   -173.64   
   133. D(O   8,C   7,C   5,H   6)     63.65  0.001769   -0.60     63.05   
   134. D(O   8,C   7,C   5,C   3)    -54.88  0.000022   -0.30    -55.17   
   135. D(O   8,C   7,C   5,O  18)   -175.88 -0.000416    0.01   -175.87   
   136. D(C   9,O   8,C   7,H  28)    -65.39 -0.004208    1.47    -63.93   
   137. D(C   9,O   8,C   7,H  27)    178.60  0.000028    0.14    178.74   
   138. D(C   9,O   8,C   7,C   5)     58.08  0.001632    0.21     58.29   
   139. D(O  17,C   9,O   8,C   7)    -60.59 -0.000723   -0.12    -60.71   
   140. D(C  11,C   9,O   8,C   7)   -179.39  0.000033   -0.30   -179.69   
   141. D(H  10,C   9,O   8,C   7)     61.00  0.002359   -1.04     59.96   
   142. D(C  12,C  11,C   9,O  17)     96.38  0.001348    0.13     96.50   
   143. D(C  12,C  11,C   9,H  10)    -22.85 -0.000610    0.52    -22.33   
   144. D(C  12,C  11,C   9,O   8)   -142.27 -0.000777    0.34   -141.94   
   145. D(C  16,C  11,C   9,O   8)     39.99 -0.000295    0.01     40.00   
   146. D(C  16,C  11,C   9,H  10)    159.41 -0.000128    0.19    159.61   
   147. D(H  29,C  12,C  11,C  16)    178.80 -0.000379    0.55    179.35   
   148. D(H  29,C  12,C  11,C   9)      1.00 -0.000079    0.25      1.25   
   149. D(C  13,C  12,C  11,C  16)     -1.04 -0.000374    0.51     -0.53   
   150. D(C  13,C  12,C  11,C   9)   -178.84 -0.000074    0.22   -178.63   
   151. D(H  30,C  13,C  12,H  29)      0.38  0.000112   -0.16      0.22   
   152. D(H  30,C  13,C  12,C  11)   -179.77  0.000111   -0.13   -179.90   
   153. D(C  14,C  13,C  12,H  29)   -179.43  0.000278   -0.41   -179.84   
   154. D(C  14,C  13,C  12,C  11)      0.42  0.000278   -0.37      0.05   
   155. D(H  31,C  14,C  13,H  30)      0.16  0.000001    0.00      0.16   
   156. D(C  15,C  14,C  13,C  12)      0.21  0.000002    0.04      0.25   
   157. D(H  31,C  14,C  13,C  12)    179.97 -0.000163    0.25    180.22   
   158. D(C  15,C  14,C  13,H  30)   -179.60  0.000166   -0.20   -179.80   
   159. D(H  32,C  15,C  14,H  31)     -0.06  0.000029   -0.06     -0.12   
   160. D(H  32,C  15,C  14,C  13)    179.70 -0.000135    0.15    179.85   
   161. D(C  16,C  15,C  14,H  31)   -179.95  0.000062   -0.08   -180.03   
   162. D(C  16,C  15,C  14,C  13)     -0.19 -0.000102    0.13     -0.07   
   163. D(H  33,C  16,C  15,H  32)     -0.22 -0.000217    0.31      0.09   
   164. D(C  11,C  16,C  15,H  32)    179.65 -0.000040    0.01    179.66   
   165. D(C  11,C  16,C  15,C  14)     -0.46 -0.000074    0.03     -0.42   
   166. D(H  33,C  16,C  11,C  12)   -179.06  0.000447   -0.64   -179.71   
   167. D(H  33,C  16,C  11,C   9)     -1.29  0.000083   -0.33     -1.62   
   168. D(H  33,C  16,C  15,C  14)    179.67 -0.000251    0.33    180.00   
   169. D(C  15,C  16,C  11,C  12)      1.07  0.000275   -0.35      0.72   
   170. D(C  15,C  16,C  11,C   9)    178.84 -0.000088   -0.04    178.80   
   171. D(C   3,O  17,C   9,C  11)   -179.27  0.001849   -0.45   -179.73   
   172. D(C   3,O  17,C   9,H  10)    -60.55 -0.000460    0.18    -60.37   
   173. D(C   3,O  17,C   9,O   8)     60.42  0.001124   -0.37     60.05   
   174. D(C   9,O  17,C   3,C   5)    -58.78 -0.000327    0.33    -58.45   
   175. D(C   9,O  17,C   3,H   4)     63.61  0.002194   -0.59     63.01   
   176. D(C   9,O  17,C   3,C   1)   -178.16 -0.001857    0.28   -177.88   
   177. D(C  19,O  18,C   5,C   3)     63.87  0.001287   -0.02     63.86   
   178. D(C  19,O  18,C   5,C   7)   -176.76  0.001138   -0.07   -176.83   
   179. D(C  19,O  18,C   5,H   6)    -57.65 -0.001767    0.78    -56.86   
   180. D(C  23,C  19,O  18,C   5)    -57.03  0.000750   -0.53    -57.56   
   181. D(O  21,C  19,O  18,C   5)   -176.22 -0.000753    0.11   -176.11   
   182. D(H  20,C  19,O  18,C   5)     64.78  0.000345   -0.23     64.55   
   183. D(C  22,O  21,C  19,C  23)    168.43  0.000680   -0.04    168.39   
   184. D(C  22,O  21,C  19,H  20)     49.55  0.000302   -0.21     49.34   
   185. D(C  22,O  21,C  19,O  18)    -70.03 -0.000807   -0.10    -70.13   
   186. D(H  36,C  22,O  21,C  19)    -60.38  0.000174   -0.14    -60.52   
   187. D(H  35,C  22,O  21,C  19)     62.21  0.000100   -0.20     62.01   
   188. D(H  34,C  22,O  21,C  19)   -179.04 -0.000036   -0.11   -179.16   
   189. D(H  24,C  23,C  19,O  21)     47.67  0.001267   -0.26     47.41   
   190. D(H  24,C  23,C  19,H  20)    166.07 -0.000876    0.39    166.46   
   191. D(H  24,C  23,C  19,O  18)    -72.01 -0.001488    0.69    -71.32   
   192. D(C   1,C  23,C  19,O  21)    169.59  0.002346   -0.60    168.99   
   193. D(C   1,C  23,C  19,H  20)    -72.00  0.000203    0.05    -71.95   
   194. D(C   1,C  23,C  19,O  18)     49.92 -0.000409    0.35     50.27   
   195. D(H  24,C  23,C   1,C   3)     71.47 -0.000504   -0.29     71.18   
   196. D(H  24,C  23,C   1,H   2)   -165.65  0.003334   -1.63   -167.28   
   197. D(H  24,C  23,C   1,O   0)    -49.89 -0.000069   -0.24    -50.13   
   198. D(C  19,C  23,C   1,C   3)    -50.25 -0.001595    0.37    -49.87   
   199. D(C  19,C  23,C   1,H   2)     72.64  0.002244   -0.97     71.66   
   200. D(C  19,C  23,C   1,O   0)   -171.60 -0.001160    0.42   -171.18   
   201. D(H  37,O  25,C  23,H  24)     63.46 -0.002794    1.33     64.79   
   202. D(H  37,O  25,C  23,C  19)   -177.04 -0.002005    0.62   -176.42   
   203. D(H  37,O  25,C  23,C   1)    -54.68  0.002860   -0.03    -54.70   
    ----------------------------------------------------------------------------

Geometry step timings:
Preparation and reading OPT file:      0.001 s ( 5.984 %)
Internal coordinates            :      0.000 s ( 0.212 %)
B/P matrices and projection     :      0.003 s (19.118 %)
Hessian update/contruction      :      0.005 s (38.088 %)
Making the step                 :      0.002 s (15.487 %)
Converting the step to Cartesian:      0.000 s ( 1.879 %)
Storing new data                :      0.001 s ( 6.556 %)
Checking convergence            :      0.000 s ( 0.162 %)
Final printing                  :      0.002 s (12.512 %)
Total time                      :      0.014 s

Time for energy+gradient        :      0.104 s
Time for complete geometry iter :      0.133 s

         *************************************************************
         *                GEOMETRY OPTIMIZATION CYCLE   2            *
         *************************************************************
---------------------------------
CARTESIAN COORDINATES (ANGSTROEM)
---------------------------------
  O    -2.785079    2.883678    0.103404
  C    -1.364329    2.798251    0.089524
  H    -1.026269    2.754573    1.134977
  C    -0.899942    1.562355   -0.667302
  H    -1.344568    1.574984   -1.674749
  C     0.621753    1.592143   -0.754347
  H     1.046372    1.616096    0.261351
  C     1.074226    0.300088   -1.430555
  O     0.549712   -0.805100   -0.718627
  C    -0.862801   -0.770640   -0.652021
  H    -1.268657   -0.789259   -1.679845
  C    -1.360775   -1.963359    0.121098
  C    -2.523124   -2.615532   -0.275619
  C    -3.004139   -3.696162    0.446098
  C    -2.327580   -4.134809    1.572864
  C    -1.171999   -3.486566    1.978557
  C    -0.694477   -2.403860    1.258155
  O    -1.328653    0.393152    0.013338
  O     1.042412    2.724328   -1.482742
  C     0.694318    3.938924   -0.833537
  H     1.233516    4.016278    0.126380
  O     1.070165    4.997969   -1.668639
  C     2.474329    5.154238   -1.760397
  C    -0.814880    4.055191   -0.585205
  H    -1.325112    4.221108   -1.542702
  O    -1.068075    5.172523    0.252443
  H    -3.098742    2.028060    0.429878
  H     2.163468    0.215116   -1.419270
  H     0.745950    0.267852   -2.479201
  H    -3.062351   -2.282290   -1.151068
  H    -3.906717   -4.196624    0.128545
  H    -2.700205   -4.979575    2.133945
  H    -0.642193   -3.822648    2.857287
  H     0.205725   -1.901844    1.577424
  H     2.658758    6.005032   -2.414393
  H     2.939516    4.265010   -2.193465
  H     2.906309    5.362255   -0.775571
  H    -2.022531    5.158035    0.417785

----------------------------
CARTESIAN COORDINATES (A.U.)
----------------------------
  NO LB    ZA    FRAG    MASS        X           Y           Z
   0 O   8.0000    1    15.999   -5.263036    5.449363    0.195406
   1 C   6.0000    1    12.011   -2.578209    5.287928    0.169176
   2 H   1.0000    1     1.008   -1.939367    5.205388    2.144796
   3 C   6.0000    1    12.011   -1.700645    2.952423   -1.261019
   4 H   1.0000    1     1.008   -2.540865    2.976287   -3.164817
   5 C   6.0000    1    12.011    1.174942    3.008713   -1.425510
   6 H   1.0000    1     1.008    1.977356    3.053979    0.493881
   7 C   6.0000    1    12.011    2.029993    0.567084   -2.703358
   8 O   8.0000    1    15.999    1.038805   -1.521419   -1.358008
   9 C   6.0000    1    12.011   -1.630459   -1.456298   -1.232140
  10 H   1.0000    1     1.008   -2.397415   -1.491483   -3.174448
  11 C   6.0000    1    12.011   -2.571491   -3.710211    0.228843
  12 C   6.0000    1    12.011   -4.768013   -4.942640   -0.520844
  13 C   6.0000    1    12.011   -5.677000   -6.984735    0.843002
  14 C   6.0000    1    12.011   -4.398488   -7.813656    2.972282
  15 C   6.0000    1    12.011   -2.214758   -6.588654    3.738931
  16 C   6.0000    1    12.011   -1.312372   -4.542637    2.377568
  17 O   8.0000    1    15.999   -2.510789    0.742949    0.025205
  18 O   8.0000    1    15.999    1.969873    5.148234   -2.801977
  19 C   6.0000    1    12.011    1.312070    7.443488   -1.575156
  20 H   1.0000    1     1.008    2.331007    7.589666    0.238823
  21 O   8.0000    1    15.999    2.022318    9.444793   -3.153271
  22 C   6.0000    1    12.011    4.675804    9.740098   -3.326668
  23 C   6.0000    1    12.011   -1.539900    7.663201   -1.105877
  24 H   1.0000    1     1.008   -2.504098    7.976739   -2.915283
  25 O   8.0000    1    15.999   -2.018369    9.774651    0.477049
  26 H   1.0000    1     1.008   -5.855774    3.832478    0.812353
  27 H   1.0000    1     1.008    4.088363    0.406511   -2.682031
  28 H   1.0000    1     1.008    1.409642    0.506167   -4.685011
  29 H   1.0000    1     1.008   -5.787004   -4.312903   -2.175203
  30 H   1.0000    1     1.008   -7.382626   -7.930470    0.242916
  31 H   1.0000    1     1.008   -5.102647   -9.410033    4.032571
  32 H   1.0000    1     1.008   -1.213569   -7.223757    5.399491
  33 H   1.0000    1     1.008    0.388764   -3.593965    2.980900
  34 H   1.0000    1     1.008    5.024324   11.347866   -4.562541
  35 H   1.0000    1     1.008    5.554881    8.059701   -4.145048
  36 H   1.0000    1     1.008    5.492128   10.133194   -1.465616
  37 H   1.0000    1     1.008   -3.822029    9.747273    0.789498

      -----------------------------------------------------------      
     |                   =====================                   |     
     |                           x T B                           |     
     |                   =====================                   |     
     |                         S. Grimme                         |     
     |          Mulliken Center for Theoretical Chemistry        |     
     |                    University of Bonn                     |     
      -----------------------------------------------------------      

   * xtb version 6.7.1 (edcfbbe) compiled by 'albert@albert-system' on 2024-07-22

   xtb is free software: you can redistribute it and/or modify it under
   the terms of the GNU Lesser General Public License as published by
   the Free Software Foundation, either version 3 of the License, or
   (at your option) any later version.
   
   xtb is distributed in the hope that it will be useful,
   but WITHOUT ANY WARRANTY; without even the implied warranty of
   MERCHANTABILITY or FITNESS FOR A PARTICULAR PURPOSE.  See the
   GNU Lesser General Public License for more details.
   
   Cite this work as:
   * C. Bannwarth, E. Caldeweyher, S. Ehlert, A. Hansen, P. Pracht,
     J. Seibert, S. Spicher, S. Grimme, WIREs Comput. Mol. Sci., 2020, 11,
     e01493. DOI: 10.1002/wcms.1493
   
   for GFN2-xTB:
   * C. Bannwarth, S. Ehlert and S. Grimme., J. Chem. Theory Comput., 2019,
     15, 1652-1671. DOI: 10.1021/acs.jctc.8b01176
   for GFN1-xTB:
   * S. Grimme, C. Bannwarth, P. Shushkov, J. Chem. Theory Comput., 2017,
     13, 1989-2009. DOI: 10.1021/acs.jctc.7b00118
   for GFN0-xTB:
   * P. Pracht, E. Caldeweyher, S. Ehlert, S. Grimme, ChemRxiv, 2019, preprint.
     DOI: 10.26434/chemrxiv.8326202.v1
   for GFN-FF:
   * S. Spicher and S. Grimme, Angew. Chem. Int. Ed., 2020, 59, 15665-15673.
     DOI: 10.1002/anie.202004239
   
   for ALPB and GBSA implicit solvation:
   * S. Ehlert, M. Stahn, S. Spicher, S. Grimme, J. Chem. Theory Comput.,
     2021, 17, 4250-4261. DOI: 10.1021/acs.jctc.1c00471
   
   for ddCOSMO and CPCM-X implicit solvation:
   * M. Stahn, S. Ehlert, S. Grimme, J. Phys. Chem. A,
     2023, XX, XXXX-XXXX. DOI: 10.1021/acs.jpca.3c04382
   
   for DFT-D4:
   * E. Caldeweyher, C. Bannwarth and S. Grimme, J. Chem. Phys., 2017,
     147, 034112. DOI: 10.1063/1.4993215
   * E. Caldeweyher, S. Ehlert, A. Hansen, H. Neugebauer, S. Spicher,
     C. Bannwarth and S. Grimme, J. Chem. Phys., 2019, 150, 154122.
     DOI: 10.1063/1.5090222
   * E. Caldeweyher, J.-M. Mewes, S. Ehlert and S. Grimme, Phys. Chem. Chem. Phys.
     2020, 22, 8499-8512. DOI: 10.1039/D0CP00502A
   
   for sTDA-xTB:
   * S. Grimme and C. Bannwarth, J. Chem. Phys., 2016, 145, 054103.
     DOI: 10.1063/1.4959605
   
   in the mass-spec context:
   * V. Asgeirsson, C. Bauer and S. Grimme, Chem. Sci., 2017, 8, 4879.
     DOI: 10.1039/c7sc00601b
   * J. Koopman and S. Grimme, ACS Omega 2019, 4, 12, 15120-15133.
     DOI: 10.1021/acsomega.9b02011
   
   for metadynamics refer to:
   * S. Grimme, J. Chem. Theory Comput., 2019, 155, 2847-2862
     DOI: 10.1021/acs.jctc.9b00143
   
   for SPH calculations refer to:
   * S. Spicher and S. Grimme, J. Chem. Theory Comput., 2021, 17, 1701-1714
     DOI: 10.1021/acs.jctc.0c01306
   
   for ONIOM refer to:
   * C. Plett, A. Katbashev, S. Ehlert, S. Grimme, M. Bursch,
     Phys. Chem. Chem. Phys., 2023, 25, 17860-17868. DOI: 10.1039/D3CP02178E
   
   for DIPRO refer to:
   * J. Kohn, N. Gildemeister, S. Grimme, D. Fazzi, A. Hansen,
     J. Chem. Phys., 2023, just accepted.
   
   for PTB refer to:
   * S. Grimme, M. Mueller, A. Hansen, J. Chem. Phys., 2023, 158, 124111.
     DOI: 10.1063/5.0137838
   
   with help from (in alphabetical order)
   P. Atkinson, C. Bannwarth, F. Bohle, G. Brandenburg, E. Caldeweyher
   M. Checinski, S. Dohm, S. Ehlert, S. Ehrlich, I. Gerasimov, C. Hölzer
   A. Katbashev, J. Kohn, J. Koopman, C. Lavigne, S. Lehtola, F. März, M. Müller,
   F. Musil, H. Neugebauer, J. Pisarek, C. Plett, P. Pracht, F. Pultar,
   J. Seibert, P. Shushkov, S. Spicher, M. Stahn, M. Steiner, T. Strunk,
   J. Stückrath, T. Rose, and J. Unsleber
   
 * started run on 2025/10/31 at 09:56:11.681     
   ID    Z sym.   atoms
    1    8 O      1, 9, 18, 19, 22, 26
    2    6 C      2, 4, 6, 8, 10, 12-17, 20, 23, 24
    3    1 H      3, 5, 7, 11, 21, 25, 27-38

           -------------------------------------------------
          |                Calculation Setup                |
           -------------------------------------------------

          program call               : /home/kmoult/orca_6_1/otool_xtb goat_0_XTB.xyz --grad -c 0 -u 0 -P 4 --namespace goat_0 --input goat_0_XTB.input.tmp --alpb ACETONE --acc 0.200000
          hostname                   : node3103
          calculation namespace      : goat_0
          coordinate file            : goat_0_XTB.xyz
          omp threads                :                     4


           -------------------------------------------------
          |                 G F N 2 - x T B                 |
           -------------------------------------------------

        Reference                      10.1021/acs.jctc.8b01176
      * Hamiltonian:
        H0-scaling (s, p, d)           1.850000    2.230000    2.230000
        zeta-weighting                 0.500000
      * Dispersion:
        s8                             2.700000
        a1                             0.520000
        a2                             5.000000
        s9                             5.000000
      * Repulsion:
        kExp                           1.500000    1.000000
        rExp                           1.000000
      * Coulomb:
        alpha                          2.000000
        third order                    shell-resolved
        anisotropic                    true
        a3                             3.000000
        a5                             4.000000
        cn-shift                       1.200000
        cn-exp                         4.000000
        max-rad                        5.000000

      * Solvation model:               ALPB
        Solvent                        ACETONE
        Parameter file                 internal GFN2-xTB/ALPB
        Dielectric constant                2.0700E+01
        Reference state                gsolv [1 M gas/solution]
        Free energy shift                  5.9241E-03 Eh       3.7175E+00 kcal/mol
        Temperature                        2.9815E+02 K
        Density                            7.9000E-01 kg/L
        Solvent mass                       5.8080E+01 g/mol
        Interaction kernel             P16
        Born radius scaling (c1)           1.8274E+00
        Born radii integrator          GBOBC
        Born offset                        0.0000E+00 a0       0.0000E+00 AA
        H-bond correction              true
        Ion screening                  false
        Surface tension                    1.0000E-05 Eh       1.5569E+01 dyn/cm
        Grid points                               230 per atom
q/qsh data taken from xtbrestart
CAMM data taken from xtbrestart

          ...................................................
          :                      SETUP                      :
          :.................................................:
          :  # basis functions                  98          :
          :  # atomic orbitals                  98          :
          :  # shells                           58          :
          :  # electrons                       110          :
          :  max. iterations                   250          :
          :  Hamiltonian                  GFN2-xTB          :
          :  restarted?                       true          :
          :  GBSA solvation                   true          :
          :  PC potential                    false          :
          :  electronic temp.          300.0000000     K    :
          :  accuracy                    0.2000000          :
          :  -> integral cutoff          0.3198970E+02      :
          :  -> integral neglect         0.2000000E-08      :
          :  -> SCF convergence          0.2000000E-06 Eh   :
          :  -> wf. convergence          0.2000000E-04 e    :
          :  Broyden damping             0.4000000          :
          :  net charge                          0          :
          :  unpaired electrons                  0          :
          ...................................................

 iter      E             dE          RMSdq      gap      omega  full diag
   1    -64.2401509 -0.642402E+02  0.156E-01    4.74       0.0  T
   2    -64.2402078 -0.569323E-04  0.955E-02    4.74       1.0  T
   3    -64.2401948  0.130098E-04  0.318E-02    4.74       1.0  T
   4    -64.2402166 -0.218419E-04  0.960E-03    4.74       1.7  T
   5    -64.2402185 -0.183728E-05  0.451E-03    4.74       3.6  T
   6    -64.2402186 -0.145274E-06  0.200E-03    4.74       8.1  T
   7    -64.2402186 -0.115340E-07  0.104E-03    4.74      15.7  T
   8    -64.2402186 -0.126686E-07  0.267E-04    4.74      60.8  T
   9    -64.2402186 -0.104384E-08  0.126E-04    4.74     128.8  T
  10    -64.2402186 -0.749338E-10  0.518E-05    4.74     313.2  T

   *** convergence criteria satisfied after 10 iterations ***

         #    Occupation            Energy/Eh            Energy/eV
      -------------------------------------------------------------
         1        2.0000           -0.7324446             -19.9308
       ...           ...                  ...                  ...
        49        2.0000           -0.4297634             -11.6945
        50        2.0000           -0.4260416             -11.5932
        51        2.0000           -0.4229489             -11.5090
        52        2.0000           -0.4201682             -11.4334
        53        2.0000           -0.4131988             -11.2437
        54        2.0000           -0.4107194             -11.1762
        55        2.0000           -0.4092966             -11.1375 (HOMO)
        56                         -0.2350781              -6.3968 (LUMO)
        57                         -0.2294003              -6.2423
        58                         -0.1057613              -2.8779
        59                         -0.0451025              -1.2273
        60                         -0.0145669              -0.3964
       ...                                ...                  ...
        98                          0.6543868              17.8068
      -------------------------------------------------------------
                  HL-Gap            0.1742186 Eh            4.7407 eV
             Fermi-level           -0.3221873 Eh           -8.7672 eV

 SCC (total)                   0 d,  0 h,  0 min,  0.026 sec
 SCC setup                      ...        0 min,  0.000 sec (  1.647%)
 Dispersion                     ...        0 min,  0.000 sec (  0.910%)
 classical contributions        ...        0 min,  0.000 sec (  0.127%)
 integral evaluation            ...        0 min,  0.002 sec (  7.685%)
 iterations                     ...        0 min,  0.018 sec ( 70.154%)
 molecular gradient             ...        0 min,  0.005 sec ( 18.848%)
 printout                       ...        0 min,  0.000 sec (  0.556%)

         :::::::::::::::::::::::::::::::::::::::::::::::::::::
         ::                     SUMMARY                     ::
         :::::::::::::::::::::::::::::::::::::::::::::::::::::
         :: total energy             -63.586146442021 Eh    ::
         :: total w/o Gsasa/hb       -63.557405828693 Eh    ::
         :: gradient norm              0.037237002958 Eh/a0 ::
         :: HOMO-LUMO gap              4.740728463475 eV    ::
         ::.................................................::
         :: SCC energy               -64.240097601831 Eh    ::
         :: -> isotropic ES            0.131567672755 Eh    ::
         :: -> anisotropic ES         -0.005609121248 Eh    ::
         :: -> anisotropic XC          0.001777275680 Eh    ::
         :: -> dispersion             -0.036291410033 Eh    ::
         :: -> Gsolv                  -0.032101210330 Eh    ::
         ::    -> Gelec               -0.003360597001 Eh    ::
         ::    -> Gsasa               -0.028310648700 Eh    ::
         ::    -> Ghb                 -0.006354105893 Eh    ::
         ::    -> Gshift               0.005924141264 Eh    ::
         :: repulsion energy           0.653951159809 Eh    ::
         :: add. restraining           0.000000000000 Eh    ::
         :: total charge              -0.000000000000 e     ::
         :::::::::::::::::::::::::::::::::::::::::::::::::::::


Property printout bound to 'properties.out'

           -------------------------------------------------
          | TOTAL ENERGY              -63.586146442021 Eh   |
          | GRADIENT NORM               0.037237002958 Eh/α |
          | HOMO-LUMO GAP               4.740728463475 eV   |
           -------------------------------------------------

------------------------------------------------------------------------
 * finished run on 2025/10/31 at 09:56:11.729     
------------------------------------------------------------------------
 total:
 * wall-time:     0 d,  0 h,  0 min,  0.047 sec
 *  cpu-time:     0 d,  0 h,  0 min,  0.166 sec
 * ratio c/w:     3.532 speedup
 SCF:
 * wall-time:     0 d,  0 h,  0 min,  0.026 sec
 *  cpu-time:     0 d,  0 h,  0 min,  0.104 sec
 * ratio c/w:     3.972 speedup


-------------------------   --------------------
FINAL SINGLE POINT ENERGY       -63.586146442020
-------------------------   --------------------


-------------
DIPOLE MOMENT
-------------
                                X             Y             Z
Total Dipole Moment    :     -0.14300      -1.23600       0.24700
                        -----------------------------------------
Magnitude (a.u.)       :      1.26852
Magnitude (Debye)      :      3.22433


------------------
CARTESIAN GRADIENT
------------------

   1   O   :   -0.007244754    0.001705738    0.000604404
   2   C   :    0.014371081    0.002735448   -0.001101189
   3   H   :   -0.004733366    0.000397509    0.000879040
   4   C   :    0.003374051    0.001892637   -0.006182040
   5   H   :   -0.002160140   -0.000605382    0.001815779
   6   C   :   -0.003416199   -0.002425303    0.005732772
   7   H   :    0.001379679   -0.000374690   -0.001349662
   8   C   :   -0.003988842    0.004238528    0.002296138
   9   O   :    0.004707120   -0.003403950    0.000851951
  10   C   :   -0.005921070    0.000553523   -0.006265466
  11   H   :    0.001016930   -0.002309378    0.002395298
  12   C   :    0.002304911    0.004195809   -0.002519030
  13   C   :    0.000240087    0.000326516    0.000133414
  14   C   :   -0.001446985   -0.000741854   -0.000771983
  15   C   :   -0.000164604   -0.000056244   -0.000099012
  16   C   :    0.001182987   -0.000564974    0.001853695
  17   C   :   -0.001063000   -0.000488863   -0.000842662
  18   O   :   -0.002920691    0.001198939    0.005023157
  19   O   :    0.001147386    0.000460989   -0.003726382
  20   C   :   -0.001749965   -0.010337634    0.011945063
  21   H   :    0.000121250    0.001789548   -0.003236508
  22   O   :    0.002159015    0.008685178   -0.005855499
  23   C   :   -0.003712779   -0.002150712    0.002306963
  24   C   :    0.005267235   -0.009371940   -0.007903811
  25   H   :   -0.001947463    0.003460345    0.002210343
  26   O   :   -0.003184873    0.006428931    0.004473576
  27   H   :    0.002093118   -0.002227787    0.000751657
  28   H   :    0.000919760    0.001892495   -0.002123705
  29   H   :    0.002284675   -0.002386813   -0.000339790
  30   H   :   -0.000908515   -0.000565648    0.000201121
  31   H   :   -0.000001829   -0.000209219    0.000193135
  32   H   :   -0.000031864   -0.000148626    0.000179638
  33   H   :   -0.000029596   -0.000150083    0.000026108
  34   H   :    0.000234498   -0.000650853    0.001361125
  35   H   :    0.002655637   -0.000123824   -0.000053168
  36   H   :    0.000142470    0.000503407   -0.001269867
  37   H   :    0.000004591    0.001041526   -0.000461288
  38   H   :   -0.000979942   -0.002213290   -0.001133316

Difference to translation invariance:
           :    0.0000000000   -0.0000000000    0.0000000000

Difference to rotation invariance:
           :    0.0004415081    0.0006136983   -0.0004901725

Norm of the Cartesian gradient     ...    0.0372370030
RMS gradient                       ...    0.0034875649
MAX gradient                       ...    0.0143710808
------------------------------------------------------------------------------
                         ORCA GEOMETRY RELAXATION STEP
------------------------------------------------------------------------------

Reading the OPT-File                    .... done
Getting information on internals        .... done
Copying old internal coords+grads       .... done
Making the new internal coordinates     .... (2022 redundants) done
Validating the new internal coordinates .... (2022 redundants) done
Calculating the B-matrix                .... done
Calculating the G,G- and P matrices     .... done
Transforming gradient to internals      .... done
Projecting the internal gradient        .... done
Number of atoms                         ....  38
Number of internal coordinates          .... 203
Current Energy                          ....   -63.586146442 Eh
Current gradient norm                   ....     0.037237003 Eh/bohr
Maximum allowed component of the step   ....  0.300
Current trust radius                    ....  0.300
Updating the Hessian (BFGS)             .... done
Forming the augmented Hessian           .... done
Diagonalizing the augmented Hessian     .... done
Last element of RFO vector              ....  0.983329729
Lowest eigenvalues of augmented Hessian:
 -0.003208820  0.011819103  0.014816599  0.016273007  0.016604024
Length of the computed step             ....  0.184913925
The final length of the internal step   ....  0.184913925
Converting the step to Cartesian space:
 Initial RMS(Int)=    0.0129784133
Transforming coordinates:
 Iter   0:  RMS(Cart)=    0.0272642134 RMS(Int)=    0.7630649890
done
Storing new coordinates                 .... done
The predicted energy change is          ....    -0.001659270
Previously predicted energy change      ....    -0.005501519
Actually observed energy change         ....    -0.007088664
Ratio of predicted to observed change   ....     1.288492055
New trust radius                        ....     0.300000000

                                .--------------------.
          ----------------------|Geometry convergence|-------------------------
          Item                value                   Tolerance       Converged
          ---------------------------------------------------------------------
          Energy change      -0.0070886640            0.0000050000      NO
          RMS gradient        0.0016248608            0.0001000000      NO
          MAX gradient        0.0095289333            0.0003000000      NO
          RMS step            0.0129784133            0.0020000000      NO
          MAX step            0.0790297250            0.0040000000      NO
          -------------------------------------------------------------------------
          ........................................................
          Max(Bonds)      0.0418      Max(Angles)    1.71
          Max(Dihed)        2.54      Max(Improp)    0.00
          ---------------------------------------------------------------------

    ---------------------------------------------------------------------------
                         Redundant Internal Coordinates
                            (Angstroem and degrees)

        Definition                    Value    dE/dq     Step     New-Value
    ----------------------------------------------------------------------------
     1. B(C   1,O   0)                1.4234  0.007444 -0.0116    1.4117   
     2. B(H   2,C   1)                1.0996 -0.000641  0.0017    1.1013   
     3. B(C   3,C   1)                1.5218  0.000748  0.0016    1.5234   
     4. B(H   4,C   3)                1.1013 -0.000794  0.0020    1.1033   
     5. B(C   5,C   3)                1.5245 -0.001713  0.0048    1.5293   
     6. B(H   6,C   5)                1.1011 -0.000718  0.0018    1.1030   
     7. B(C   7,C   5)                1.5269 -0.001345  0.0035    1.5304   
     8. B(O   8,C   7)                1.4154  0.001978 -0.0050    1.4104   
     9. B(C   9,O   8)                1.4145  0.004713 -0.0106    1.4039   
    10. B(H  10,C   9)                1.1052 -0.002564  0.0065    1.1117   
    11. B(C  11,C   9)                1.5061 -0.000996  0.0012    1.5072   
    12. B(C  12,C  11)                1.3906  0.002113 -0.0047    1.3859   
    13. B(C  13,C  12)                1.3856  0.001184 -0.0030    1.3827   
    14. B(C  14,C  13)                1.3855  0.000523 -0.0016    1.3839   
    15. B(C  15,C  14)                1.3857  0.000516 -0.0016    1.3841   
    16. B(C  16,C  15)                1.3854  0.001169 -0.0029    1.3825   
    17. B(C  16,C  11)                1.3896  0.002230 -0.0049    1.3847   
    18. B(O  17,C   9)                1.4192  0.003122 -0.0070    1.4122   
    19. B(O  17,C   3)                1.4192  0.002672 -0.0044    1.4148   
    20. B(O  18,C   5)                1.4104  0.002038 -0.0056    1.4048   
    21. B(C  19,O  18)                1.4205  0.001523 -0.0051    1.4154   
    22. B(H  20,C  19)                1.1037 -0.002632  0.0065    1.1102   
    23. B(O  21,C  19)                1.4001  0.009529 -0.0195    1.3806   
    24. B(C  22,O  21)                1.4158 -0.001018  0.0011    1.4169   
    25. B(C  23,C  19)                1.5339 -0.000610 -0.0008    1.5331   
    26. B(C  23,C   1)                1.5287 -0.000690  0.0046    1.5333   
    27. B(H  24,C  23)                1.0976 -0.000494  0.0011    1.0987   
    28. B(O  25,C  23)                1.4192  0.007555 -0.0133    1.4059   
    29. B(H  26,O   0)                0.9680  0.000841 -0.0034    0.9646   
    30. B(H  26,O  17)                2.4453 -0.002350  0.0418    2.4872   
    31. B(H  27,C   7)                1.0926  0.000752 -0.0020    1.0906   
    32. B(H  28,C   7)                1.0993 -0.000295  0.0009    1.1002   
    33. B(H  29,C  12)                1.0808  0.000114 -0.0011    1.0797   
    34. B(H  30,C  13)                1.0798  0.000040 -0.0010    1.0788   
    35. B(H  31,C  14)                1.0804  0.000221 -0.0013    1.0791   
    36. B(H  32,C  15)                1.0797  0.000055 -0.0010    1.0787   
    37. B(H  33,C  16)                1.0790  0.000297 -0.0018    1.0772   
    38. B(H  34,C  22)                1.0888  0.000384 -0.0014    1.0874   
    39. B(H  35,C  22)                1.0930  0.000152 -0.0005    1.0926   
    40. B(H  36,C  22)                1.0953 -0.000212  0.0006    1.0959   
    41. B(H  37,O   0)                2.4193 -0.002013  0.0359    2.4552   
    42. B(H  37,O  25)                0.9688  0.000201 -0.0021    0.9667   
    43. A(C   1,O   0,H  26)          105.88 -0.001229    0.91    106.79   
    44. A(O   0,C   1,H   2)          107.46 -0.002370    1.71    109.17   
    45. A(H   2,C   1,C   3)          110.29  0.001551   -0.88    109.40   
    46. A(H   2,C   1,C  23)          109.99  0.000463   -0.66    109.32   
    47. A(O   0,C   1,C   3)          110.99 -0.001687    0.99    111.97   
    48. A(O   0,C   1,C  23)          108.28  0.001379   -0.63    107.65   
    49. A(C   3,C   1,C  23)          109.79  0.000613   -0.44    109.34   
    50. A(H   4,C   3,C   5)          110.52  0.001758   -1.07    109.45   
    51. A(H   4,C   3,O  17)          109.04 -0.001558    0.51    109.55   
    52. A(C   1,C   3,C   5)          108.49 -0.000660    0.33    108.82   
    53. A(C   5,C   3,O  17)          110.18  0.000699   -0.13    110.05   
    54. A(C   1,C   3,H   4)          108.81 -0.000826    0.24    109.05   
    55. A(C   1,C   3,O  17)          109.78  0.000584    0.13    109.91   
    56. A(C   7,C   5,O  18)          111.23 -0.001088    0.12    111.35   
    57. A(H   6,C   5,O  18)          110.11 -0.000076    0.20    110.31   
    58. A(C   3,C   5,C   7)          107.73  0.000675   -0.04    107.69   
    59. A(H   6,C   5,C   7)          108.22 -0.000871    0.42    108.63   
    60. A(C   3,C   5,O  18)          110.05 -0.000118    0.04    110.09   
    61. A(C   3,C   5,H   6)          109.43  0.001525   -0.75    108.68   
    62. A(O   8,C   7,H  27)          107.67  0.001097   -0.73    106.94   
    63. A(C   5,C   7,H  27)          110.90 -0.001880    0.62    111.51   
    64. A(C   5,C   7,O   8)          109.16  0.001238   -0.40    108.75   
    65. A(O   8,C   7,H  28)          110.26 -0.001201    0.38    110.64   
    66. A(C   5,C   7,H  28)          111.03  0.002630   -1.02    110.00   
    67. A(H  27,C   7,H  28)          107.77 -0.001987    1.20    108.97   
    68. A(C   7,O   8,C   9)          112.01 -0.002125    0.73    112.73   
    69. A(H  10,C   9,O  17)          109.22  0.002178   -0.88    108.35   
    70. A(O   8,C   9,O  17)          111.71 -0.001115    0.17    111.87   
    71. A(O   8,C   9,C  11)          109.58  0.000494   -0.06    109.52   
    72. A(O   8,C   9,H  10)          108.81  0.000538   -0.14    108.68   
    73. A(C  11,C   9,O  17)          107.47 -0.000593    0.26    107.73   
    74. A(H  10,C   9,C  11)          110.04 -0.001542    0.66    110.70   
    75. A(C   9,C  11,C  12)          120.09 -0.000247    0.06    120.15   
    76. A(C  12,C  11,C  16)          119.05 -0.002041    0.47    119.52   
    77. A(C   9,C  11,C  16)          120.83  0.002282   -0.52    120.32   
    78. A(C  11,C  12,H  29)          120.23  0.000595   -0.17    120.06   
    79. A(C  13,C  12,H  29)          119.28 -0.001550    0.40    119.68   
    80. A(C  11,C  12,C  13)          120.49  0.000955   -0.23    120.26   
    81. A(C  14,C  13,H  30)          120.04 -0.000264    0.07    120.11   
    82. A(C  12,C  13,H  30)          119.90  0.000309   -0.09    119.81   
    83. A(C  12,C  13,C  14)          120.06 -0.000046    0.02    120.08   
    84. A(C  13,C  14,H  31)          120.10 -0.000040    0.00    120.10   
    85. A(C  13,C  14,C  15)          119.81  0.000238   -0.05    119.77   
    86. A(C  15,C  14,H  31)          120.09 -0.000199    0.05    120.14   
    87. A(C  16,C  15,H  32)          119.82  0.000267   -0.07    119.75   
    88. A(C  14,C  15,H  32)          120.12 -0.000004    0.01    120.13   
    89. A(C  14,C  15,C  16)          120.05 -0.000264    0.07    120.12   
    90. A(C  11,C  16,C  15)          120.53  0.001156   -0.27    120.26   
    91. A(C  15,C  16,H  33)          119.82 -0.002088    0.54    120.36   
    92. A(C  11,C  16,H  33)          119.65  0.000933   -0.27    119.38   
    93. A(C   3,O  17,C   9)          110.58 -0.001086    0.55    111.14   
    94. A(C   5,O  18,C  19)          112.16 -0.000968    0.34    112.50   
    95. A(O  18,C  19,O  21)          107.96 -0.000092   -0.05    107.91   
    96. A(O  21,C  19,C  23)          107.66 -0.000124    0.02    107.68   
    97. A(H  20,C  19,C  23)          109.55  0.001504   -0.68    108.87   
    98. A(O  18,C  19,C  23)          112.33 -0.000378    0.33    112.66   
    99. A(H  20,C  19,O  21)          109.55 -0.001718    0.85    110.39   
   100. A(O  18,C  19,H  20)          109.74  0.000700   -0.43    109.31   
   101. A(C  19,O  21,C  22)          112.85 -0.005440    1.23    114.09   
   102. A(H  35,C  22,H  36)          110.05  0.000569   -0.26    109.79   
   103. A(H  34,C  22,H  36)          108.96 -0.001795    0.57    109.53   
   104. A(O  21,C  22,H  36)          110.72 -0.000029   -0.02    110.70   
   105. A(H  34,C  22,H  35)          109.00 -0.002080    0.71    109.71   
   106. A(O  21,C  22,H  35)          110.98 -0.000155    0.02    110.99   
   107. A(O  21,C  22,H  34)          107.05  0.003471   -1.00    106.05   
   108. A(H  24,C  23,O  25)          108.24 -0.004189    1.61    109.85   
   109. A(C  19,C  23,O  25)          109.31  0.004150   -1.59    107.72   
   110. A(C   1,C  23,O  25)          108.83 -0.001049    1.10    109.93   
   111. A(C  19,C  23,H  24)          109.12  0.000693   -0.92    108.20   
   112. A(C   1,C  23,H  24)          110.01  0.001015   -0.50    109.51   
   113. A(C   1,C  23,C  19)          111.27 -0.000705    0.36    111.63   
   114. A(C  23,O  25,H  37)          105.35 -0.001451    0.88    106.23   
   115. D(C   3,C   1,O   0,H  26)     52.29  0.000098   -0.23     52.07   
   116. D(C  23,C   1,O   0,H  26)    172.87  0.000707   -0.57    172.30   
   117. D(H   2,C   1,O   0,H  26)    -68.37  0.000698   -0.73    -69.10   
   118. D(C   5,C   3,C   1,C  23)     55.35  0.000974   -0.39     54.95   
   119. D(H   4,C   3,C   1,O   0)     54.74  0.000767    0.12     54.85   
   120. D(H   4,C   3,C   1,C  23)    -64.94 -0.000277    0.56    -64.38   
   121. D(C   5,C   3,C   1,H   2)    -66.00 -0.001006    1.34    -64.66   
   122. D(H   4,C   3,C   1,H   2)    173.71 -0.002256    2.30    176.01   
   123. D(C   5,C   3,C   1,O   0)    175.03  0.002018   -0.84    174.19   
   124. D(C   7,C   5,C   3,O  17)     55.97 -0.000157   -0.33     55.64   
   125. D(C   7,C   5,C   3,C   1)    176.17  0.000568   -0.04    176.13   
   126. D(C   7,C   5,C   3,H   4)    -64.61  0.000195   -0.18    -64.78   
   127. D(H   6,C   5,C   3,O  17)    -61.47 -0.000328   -0.40    -61.87   
   128. D(H   6,C   5,C   3,H   4)    177.95  0.000024   -0.24    177.71   
   129. D(H   6,C   5,C   3,C   1)     58.73  0.000397   -0.11     58.62   
   130. D(H  27,C   7,C   5,H   6)    -55.41  0.000021    0.32    -55.09   
   131. D(H  27,C   7,C   5,O  18)     65.67 -0.001315    0.90     66.57   
   132. D(H  27,C   7,C   5,C   3)   -173.64 -0.001682    1.00   -172.63   
   133. D(O   8,C   7,C   5,H   6)     63.05  0.001007   -0.45     62.60   
   134. D(O   8,C   7,C   5,C   3)    -55.18 -0.000695    0.24    -54.94   
   135. D(O   8,C   7,C   5,O  18)   -175.87 -0.000328    0.14   -175.73   
   136. D(C   9,O   8,C   7,H  28)    -63.93 -0.002502    1.26    -62.66   
   137. D(C   9,O   8,C   7,H  27)    178.75 -0.000095    0.03    178.78   
   138. D(C   9,O   8,C   7,C   5)     58.29  0.000810   -0.04     58.25   
   139. D(O  17,C   9,O   8,C   7)    -60.71 -0.001171    0.31    -60.40   
   140. D(C  11,C   9,O   8,C   7)   -179.69 -0.000055   -0.08   -179.77   
   141. D(H  10,C   9,O   8,C   7)     59.96  0.001201   -0.77     59.18   
   142. D(C  12,C  11,C   9,O  17)     96.50  0.000948    0.16     96.66   
   143. D(C  12,C  11,C   9,H  10)    -22.33 -0.000458    0.69    -21.64   
   144. D(C  12,C  11,C   9,O   8)   -141.94 -0.000476    0.49   -141.45   
   145. D(C  16,C  11,C   9,O   8)     40.00 -0.000239    0.34     40.34   
   146. D(C  16,C  11,C   9,H  10)    159.61 -0.000220    0.55    160.15   
   147. D(H  29,C  12,C  11,C  16)    179.35 -0.000199    0.44    179.79   
   148. D(H  29,C  12,C  11,C   9)      1.25 -0.000049    0.32      1.57   
   149. D(C  13,C  12,C  11,C  16)     -0.53 -0.000178    0.34     -0.19   
   150. D(C  13,C  12,C  11,C   9)   -178.63 -0.000027    0.22   -178.41   
   151. D(H  30,C  13,C  12,H  29)      0.22  0.000072   -0.19      0.03   
   152. D(H  30,C  13,C  12,C  11)   -179.90  0.000053   -0.09   -179.99   
   153. D(C  14,C  13,C  12,H  29)   -179.84  0.000118   -0.30   -180.13   
   154. D(C  14,C  13,C  12,C  11)      0.05  0.000099   -0.20     -0.15   
   155. D(H  31,C  14,C  13,H  30)      0.17  0.000006   -0.01      0.15   
   156. D(C  15,C  14,C  13,C  12)      0.25  0.000028   -0.04      0.22   
   157. D(H  31,C  14,C  13,C  12)   -179.78 -0.000040    0.09   -179.69   
   158. D(C  15,C  14,C  13,H  30)   -179.80  0.000074   -0.14   -179.94   
   159. D(H  32,C  15,C  14,H  31)     -0.12  0.000007   -0.04     -0.16   
   160. D(H  32,C  15,C  14,C  13)    179.85 -0.000062    0.09    179.94   
   161. D(C  16,C  15,C  14,H  31)    179.97  0.000011   -0.01    179.95   
   162. D(C  16,C  15,C  14,C  13)     -0.07 -0.000058    0.12      0.05   
   163. D(H  33,C  16,C  15,H  32)      0.09 -0.000109    0.25      0.34   
   164. D(C  11,C  16,C  15,H  32)    179.66 -0.000041    0.06    179.73   
   165. D(C  11,C  16,C  15,C  14)     -0.43 -0.000045    0.04     -0.39   
   166. D(H  33,C  16,C  11,C  12)   -179.71  0.000207   -0.44   -180.15   
   167. D(H  33,C  16,C  11,C   9)     -1.62  0.000005   -0.31     -1.93   
   168. D(H  33,C  16,C  15,C  14)   -180.00 -0.000113    0.22   -179.78   
   169. D(C  15,C  16,C  11,C  12)      0.72  0.000152   -0.26      0.46   
   170. D(C  15,C  16,C  11,C   9)    178.80 -0.000050   -0.12    178.68   
   171. D(C   3,O  17,C   9,C  11)   -179.73  0.000788   -0.48   -180.21   
   172. D(C   3,O  17,C   9,H  10)    -60.37 -0.000187   -0.02    -60.40   
   173. D(C   3,O  17,C   9,O   8)     60.05  0.001226   -0.68     59.37   
   174. D(C   9,O  17,C   3,C   5)    -58.45 -0.000443    0.57    -57.89   
   175. D(C   9,O  17,C   3,H   4)     63.01  0.001171   -0.51     62.50   
   176. D(C   9,O  17,C   3,C   1)   -177.88 -0.000428    0.16   -177.72   
   177. D(C  19,O  18,C   5,C   3)     63.86  0.000906   -0.47     63.38   
   178. D(C  19,O  18,C   5,C   7)   -176.83  0.000979   -0.42   -177.24   
   179. D(C  19,O  18,C   5,H   6)    -56.86 -0.000865    0.31    -56.55   
   180. D(C  23,C  19,O  18,C   5)    -57.56 -0.001105    0.53    -57.03   
   181. D(O  21,C  19,O  18,C   5)   -176.11 -0.000669    0.34   -175.77   
   182. D(H  20,C  19,O  18,C   5)     64.55  0.001057   -0.41     64.14   
   183. D(C  22,O  21,C  19,C  23)    168.39  0.000548   -0.62    167.77   
   184. D(C  22,O  21,C  19,H  20)     49.34 -0.000222   -0.29     49.05   
   185. D(C  22,O  21,C  19,O  18)    -70.12 -0.000028   -0.23    -70.35   
   186. D(H  36,C  22,O  21,C  19)    -60.52 -0.000184   -0.03    -60.55   
   187. D(H  35,C  22,O  21,C  19)     62.01  0.000414   -0.36     61.64   
   188. D(H  34,C  22,O  21,C  19)   -179.15 -0.000082   -0.10   -179.26   
   189. D(H  24,C  23,C  19,O  21)     47.41 -0.000230    0.61     48.02   
   190. D(H  24,C  23,C  19,H  20)    166.46 -0.001520    1.26    167.72   
   191. D(H  24,C  23,C  19,O  18)    -71.32  0.000184    0.47    -70.85   
   192. D(C   1,C  23,C  19,O  21)    168.99  0.001050   -0.41    168.58   
   193. D(C   1,C  23,C  19,H  20)    -71.96 -0.000239    0.24    -71.72   
   194. D(C   1,C  23,C  19,O  18)     50.26  0.001465   -0.55     49.71   
   195. D(H  24,C  23,C   1,C   3)     71.19 -0.000173   -0.68     70.51   
   196. D(H  24,C  23,C   1,H   2)   -167.28  0.002453   -2.54   -169.82   
   197. D(H  24,C  23,C   1,O   0)    -50.13  0.000661   -1.22    -51.34   
   198. D(C  19,C  23,C   1,C   3)    -49.87 -0.001265    0.59    -49.28   
   199. D(C  19,C  23,C   1,H   2)     71.66  0.001361   -1.27     70.39   
   200. D(C  19,C  23,C   1,O   0)   -171.19 -0.000431    0.05   -171.14   
   201. D(H  37,O  25,C  23,H  24)     64.82 -0.001196    0.65     65.47   
   202. D(H  37,O  25,C  23,C  19)   -176.43 -0.000437   -0.39   -176.82   
   203. D(H  37,O  25,C  23,C   1)    -54.72  0.000607   -0.21    -54.94   
    ----------------------------------------------------------------------------

Geometry step timings:
Preparation and reading OPT file:      0.001 s ( 4.510 %)
Internal coordinates            :      0.000 s ( 0.184 %)
B/P matrices and projection     :      0.003 s (15.555 %)
Hessian update/contruction      :      0.009 s (51.179 %)
Making the step                 :      0.002 s (11.659 %)
Converting the step to Cartesian:      0.000 s ( 1.469 %)
Storing new data                :      0.001 s ( 5.829 %)
Checking convergence            :      0.000 s ( 0.143 %)
Final printing                  :      0.002 s ( 9.467 %)
Total time                      :      0.017 s

Time for energy+gradient        :      0.074 s
Time for complete geometry iter :      0.103 s

         *************************************************************
         *                GEOMETRY OPTIMIZATION CYCLE   3            *
         *************************************************************
---------------------------------
CARTESIAN COORDINATES (ANGSTROEM)
---------------------------------
  O    -2.787893    2.905773    0.095430
  C    -1.380582    2.793288    0.092463
  H    -1.019687    2.741697    1.131696
  C    -0.908972    1.560088   -0.667630
  H    -1.332847    1.580906   -1.686032
  C     0.617872    1.585718   -0.750831
  H     1.027195    1.606413    0.273185
  C     1.068492    0.291158   -1.431370
  O     0.531484   -0.804020   -0.723237
  C    -0.870439   -0.771216   -0.655161
  H    -1.277227   -0.776953   -1.689748
  C    -1.365154   -1.966350    0.118570
  C    -2.517486   -2.625193   -0.280050
  C    -2.991547   -3.701560    0.446934
  C    -2.314489   -4.128271    1.575963
  C    -1.164262   -3.471006    1.976865
  C    -0.693966   -2.391404    1.252666
  O    -1.338404    0.388968   -0.000033
  O     1.043110    2.715812   -1.468879
  C     0.692998    3.928171   -0.827898
  H     1.224291    3.996080    0.144536
  O     1.067235    4.968886   -1.654305
  C     2.468637    5.151688   -1.755563
  C    -0.814753    4.050512   -0.578722
  H    -1.311460    4.204249   -1.546585
  O    -1.022666    5.169239    0.247098
  H    -3.134435    2.060822    0.405946
  H     2.153569    0.183829   -1.407763
  H     0.730662    0.279127   -2.478369
  H    -3.049636   -2.299050   -1.161115
  H    -3.889120   -4.209182    0.129956
  H    -2.681424   -4.971478    2.140673
  H    -0.632449   -3.797981    2.856575
  H     0.202804   -1.879230    1.559150
  H     2.613801    6.001499   -2.418313
  H     2.949098    4.267014   -2.180047
  H     2.902122    5.374426   -0.773957
  H    -1.971142    5.196501    0.431701

----------------------------
CARTESIAN COORDINATES (A.U.)
----------------------------
  NO LB    ZA    FRAG    MASS        X           Y           Z
   0 O   8.0000    1    15.999   -5.268354    5.491115    0.180337
   1 C   6.0000    1    12.011   -2.608923    5.278549    0.174730
   2 H   1.0000    1     1.008   -1.926929    5.181056    2.138595
   3 C   6.0000    1    12.011   -1.717708    2.948140   -1.261637
   4 H   1.0000    1     1.008   -2.518716    2.987480   -3.186139
   5 C   6.0000    1    12.011    1.167608    2.996572   -1.418866
   6 H   1.0000    1     1.008    1.941117    3.035680    0.516245
   7 C   6.0000    1    12.011    2.019158    0.550208   -2.704897
   8 O   8.0000    1    15.999    1.004358   -1.519378   -1.366720
   9 C   6.0000    1    12.011   -1.644891   -1.457388   -1.238076
  10 H   1.0000    1     1.008   -2.413610   -1.468228   -3.193160
  11 C   6.0000    1    12.011   -2.579767   -3.715864    0.224064
  12 C   6.0000    1    12.011   -4.757360   -4.960896   -0.529217
  13 C   6.0000    1    12.011   -5.653204   -6.994935    0.844583
  14 C   6.0000    1    12.011   -4.373750   -7.801302    2.978139
  15 C   6.0000    1    12.011   -2.200136   -6.559250    3.735733
  16 C   6.0000    1    12.011   -1.311406   -4.519099    2.367195
  17 O   8.0000    1    15.999   -2.529217    0.735043   -0.000063
  18 O   8.0000    1    15.999    1.971192    5.132142   -2.775778
  19 C   6.0000    1    12.011    1.309576    7.423168   -1.564501
  20 H   1.0000    1     1.008    2.313575    7.551497    0.273133
  21 O   8.0000    1    15.999    2.016782    9.389834   -3.126182
  22 C   6.0000    1    12.011    4.665047    9.735279   -3.317533
  23 C   6.0000    1    12.011   -1.539660    7.654359   -1.093625
  24 H   1.0000    1     1.008   -2.478299    7.944879   -2.922622
  25 O   8.0000    1    15.999   -1.932559    9.768446    0.466947
  26 H   1.0000    1     1.008   -5.923224    3.894390    0.767127
  27 H   1.0000    1     1.008    4.069656    0.347387   -2.660286
  28 H   1.0000    1     1.008    1.380750    0.527473   -4.683438
  29 H   1.0000    1     1.008   -5.762977   -4.344574   -2.194190
  30 H   1.0000    1     1.008   -7.349372   -7.954202    0.245581
  31 H   1.0000    1     1.008   -5.067156   -9.394731    4.045286
  32 H   1.0000    1     1.008   -1.195156   -7.177143    5.398144
  33 H   1.0000    1     1.008    0.383244   -3.551229    2.946366
  34 H   1.0000    1     1.008    4.939368   11.341190   -4.569949
  35 H   1.0000    1     1.008    5.572988    8.063487   -4.119691
  36 H   1.0000    1     1.008    5.484215   10.156193   -1.462566
  37 H   1.0000    1     1.008   -3.724918    9.819963    0.815797

      -----------------------------------------------------------      
     |                   =====================                   |     
     |                           x T B                           |     
     |                   =====================                   |     
     |                         S. Grimme                         |     
     |          Mulliken Center for Theoretical Chemistry        |     
     |                    University of Bonn                     |     
      -----------------------------------------------------------      

   * xtb version 6.7.1 (edcfbbe) compiled by 'albert@albert-system' on 2024-07-22

   xtb is free software: you can redistribute it and/or modify it under
   the terms of the GNU Lesser General Public License as published by
   the Free Software Foundation, either version 3 of the License, or
   (at your option) any later version.
   
   xtb is distributed in the hope that it will be useful,
   but WITHOUT ANY WARRANTY; without even the implied warranty of
   MERCHANTABILITY or FITNESS FOR A PARTICULAR PURPOSE.  See the
   GNU Lesser General Public License for more details.
   
   Cite this work as:
   * C. Bannwarth, E. Caldeweyher, S. Ehlert, A. Hansen, P. Pracht,
     J. Seibert, S. Spicher, S. Grimme, WIREs Comput. Mol. Sci., 2020, 11,
     e01493. DOI: 10.1002/wcms.1493
   
   for GFN2-xTB:
   * C. Bannwarth, S. Ehlert and S. Grimme., J. Chem. Theory Comput., 2019,
     15, 1652-1671. DOI: 10.1021/acs.jctc.8b01176
   for GFN1-xTB:
   * S. Grimme, C. Bannwarth, P. Shushkov, J. Chem. Theory Comput., 2017,
     13, 1989-2009. DOI: 10.1021/acs.jctc.7b00118
   for GFN0-xTB:
   * P. Pracht, E. Caldeweyher, S. Ehlert, S. Grimme, ChemRxiv, 2019, preprint.
     DOI: 10.26434/chemrxiv.8326202.v1
   for GFN-FF:
   * S. Spicher and S. Grimme, Angew. Chem. Int. Ed., 2020, 59, 15665-15673.
     DOI: 10.1002/anie.202004239
   
   for ALPB and GBSA implicit solvation:
   * S. Ehlert, M. Stahn, S. Spicher, S. Grimme, J. Chem. Theory Comput.,
     2021, 17, 4250-4261. DOI: 10.1021/acs.jctc.1c00471
   
   for ddCOSMO and CPCM-X implicit solvation:
   * M. Stahn, S. Ehlert, S. Grimme, J. Phys. Chem. A,
     2023, XX, XXXX-XXXX. DOI: 10.1021/acs.jpca.3c04382
   
   for DFT-D4:
   * E. Caldeweyher, C. Bannwarth and S. Grimme, J. Chem. Phys., 2017,
     147, 034112. DOI: 10.1063/1.4993215
   * E. Caldeweyher, S. Ehlert, A. Hansen, H. Neugebauer, S. Spicher,
     C. Bannwarth and S. Grimme, J. Chem. Phys., 2019, 150, 154122.
     DOI: 10.1063/1.5090222
   * E. Caldeweyher, J.-M. Mewes, S. Ehlert and S. Grimme, Phys. Chem. Chem. Phys.
     2020, 22, 8499-8512. DOI: 10.1039/D0CP00502A
   
   for sTDA-xTB:
   * S. Grimme and C. Bannwarth, J. Chem. Phys., 2016, 145, 054103.
     DOI: 10.1063/1.4959605
   
   in the mass-spec context:
   * V. Asgeirsson, C. Bauer and S. Grimme, Chem. Sci., 2017, 8, 4879.
     DOI: 10.1039/c7sc00601b
   * J. Koopman and S. Grimme, ACS Omega 2019, 4, 12, 15120-15133.
     DOI: 10.1021/acsomega.9b02011
   
   for metadynamics refer to:
   * S. Grimme, J. Chem. Theory Comput., 2019, 155, 2847-2862
     DOI: 10.1021/acs.jctc.9b00143
   
   for SPH calculations refer to:
   * S. Spicher and S. Grimme, J. Chem. Theory Comput., 2021, 17, 1701-1714
     DOI: 10.1021/acs.jctc.0c01306
   
   for ONIOM refer to:
   * C. Plett, A. Katbashev, S. Ehlert, S. Grimme, M. Bursch,
     Phys. Chem. Chem. Phys., 2023, 25, 17860-17868. DOI: 10.1039/D3CP02178E
   
   for DIPRO refer to:
   * J. Kohn, N. Gildemeister, S. Grimme, D. Fazzi, A. Hansen,
     J. Chem. Phys., 2023, just accepted.
   
   for PTB refer to:
   * S. Grimme, M. Mueller, A. Hansen, J. Chem. Phys., 2023, 158, 124111.
     DOI: 10.1063/5.0137838
   
   with help from (in alphabetical order)
   P. Atkinson, C. Bannwarth, F. Bohle, G. Brandenburg, E. Caldeweyher
   M. Checinski, S. Dohm, S. Ehlert, S. Ehrlich, I. Gerasimov, C. Hölzer
   A. Katbashev, J. Kohn, J. Koopman, C. Lavigne, S. Lehtola, F. März, M. Müller,
   F. Musil, H. Neugebauer, J. Pisarek, C. Plett, P. Pracht, F. Pultar,
   J. Seibert, P. Shushkov, S. Spicher, M. Stahn, M. Steiner, T. Strunk,
   J. Stückrath, T. Rose, and J. Unsleber
   
 * started run on 2025/10/31 at 09:56:11.785     
   ID    Z sym.   atoms
    1    8 O      1, 9, 18, 19, 22, 26
    2    6 C      2, 4, 6, 8, 10, 12-17, 20, 23, 24
    3    1 H      3, 5, 7, 11, 21, 25, 27-38

           -------------------------------------------------
          |                Calculation Setup                |
           -------------------------------------------------

          program call               : /home/kmoult/orca_6_1/otool_xtb goat_0_XTB.xyz --grad -c 0 -u 0 -P 4 --namespace goat_0 --input goat_0_XTB.input.tmp --alpb ACETONE --acc 0.200000
          hostname                   : node3103
          calculation namespace      : goat_0
          coordinate file            : goat_0_XTB.xyz
          omp threads                :                     4


           -------------------------------------------------
          |                 G F N 2 - x T B                 |
           -------------------------------------------------

        Reference                      10.1021/acs.jctc.8b01176
      * Hamiltonian:
        H0-scaling (s, p, d)           1.850000    2.230000    2.230000
        zeta-weighting                 0.500000
      * Dispersion:
        s8                             2.700000
        a1                             0.520000
        a2                             5.000000
        s9                             5.000000
      * Repulsion:
        kExp                           1.500000    1.000000
        rExp                           1.000000
      * Coulomb:
        alpha                          2.000000
        third order                    shell-resolved
        anisotropic                    true
        a3                             3.000000
        a5                             4.000000
        cn-shift                       1.200000
        cn-exp                         4.000000
        max-rad                        5.000000

      * Solvation model:               ALPB
        Solvent                        ACETONE
        Parameter file                 internal GFN2-xTB/ALPB
        Dielectric constant                2.0700E+01
        Reference state                gsolv [1 M gas/solution]
        Free energy shift                  5.9241E-03 Eh       3.7175E+00 kcal/mol
        Temperature                        2.9815E+02 K
        Density                            7.9000E-01 kg/L
        Solvent mass                       5.8080E+01 g/mol
        Interaction kernel             P16
        Born radius scaling (c1)           1.8274E+00
        Born radii integrator          GBOBC
        Born offset                        0.0000E+00 a0       0.0000E+00 AA
        H-bond correction              true
        Ion screening                  false
        Surface tension                    1.0000E-05 Eh       1.5569E+01 dyn/cm
        Grid points                               230 per atom
q/qsh data taken from xtbrestart
CAMM data taken from xtbrestart

          ...................................................
          :                      SETUP                      :
          :.................................................:
          :  # basis functions                  98          :
          :  # atomic orbitals                  98          :
          :  # shells                           58          :
          :  # electrons                       110          :
          :  max. iterations                   250          :
          :  Hamiltonian                  GFN2-xTB          :
          :  restarted?                       true          :
          :  GBSA solvation                   true          :
          :  PC potential                    false          :
          :  electronic temp.          300.0000000     K    :
          :  accuracy                    0.2000000          :
          :  -> integral cutoff          0.3198970E+02      :
          :  -> integral neglect         0.2000000E-08      :
          :  -> SCF convergence          0.2000000E-06 Eh   :
          :  -> wf. convergence          0.2000000E-04 e    :
          :  Broyden damping             0.4000000          :
          :  net charge                          0          :
          :  unpaired electrons                  0          :
          ...................................................

 iter      E             dE          RMSdq      gap      omega  full diag
   1    -64.2495983 -0.642496E+02  0.120E-01    4.76       0.0  T
   2    -64.2496200 -0.217405E-04  0.710E-02    4.77       1.0  T
   3    -64.2496173  0.272663E-05  0.165E-02    4.77       1.0  T
   4    -64.2496228 -0.545464E-05  0.543E-03    4.77       3.0  T
   5    -64.2496233 -0.554912E-06  0.273E-03    4.77       5.9  T
   6    -64.2496234 -0.710142E-07  0.118E-03    4.77      13.8  T
   7    -64.2496234 -0.323810E-08  0.523E-04    4.77      31.0  T
   8    -64.2496234 -0.353718E-08  0.168E-04    4.77      96.3  T
   9    -64.2496234 -0.353353E-09  0.781E-05    4.77     207.6  T

   *** convergence criteria satisfied after 9 iterations ***

         #    Occupation            Energy/Eh            Energy/eV
      -------------------------------------------------------------
         1        2.0000           -0.7330932             -19.9485
       ...           ...                  ...                  ...
        49        2.0000           -0.4292068             -11.6793
        50        2.0000           -0.4255887             -11.5809
        51        2.0000           -0.4225465             -11.4981
        52        2.0000           -0.4190085             -11.4018
        53        2.0000           -0.4121260             -11.2145
        54        2.0000           -0.4111134             -11.1870
        55        2.0000           -0.4092556             -11.1364 (HOMO)
        56                         -0.2340404              -6.3686 (LUMO)
        57                         -0.2286941              -6.2231
        58                         -0.1036924              -2.8216
        59                         -0.0378963              -1.0312
        60                         -0.0070396              -0.1916
       ...                                ...                  ...
        98                          0.6630807              18.0433
      -------------------------------------------------------------
                  HL-Gap            0.1752152 Eh            4.7678 eV
             Fermi-level           -0.3216480 Eh           -8.7525 eV

 SCC (total)                   0 d,  0 h,  0 min,  0.034 sec
 SCC setup                      ...        0 min,  0.000 sec (  1.393%)
 Dispersion                     ...        0 min,  0.000 sec (  0.796%)
 classical contributions        ...        0 min,  0.000 sec (  0.088%)
 integral evaluation            ...        0 min,  0.002 sec (  6.240%)
 iterations                     ...        0 min,  0.025 sec ( 73.525%)
 molecular gradient             ...        0 min,  0.006 sec ( 17.568%)
 printout                       ...        0 min,  0.000 sec (  0.345%)

         :::::::::::::::::::::::::::::::::::::::::::::::::::::
         ::                     SUMMARY                     ::
         :::::::::::::::::::::::::::::::::::::::::::::::::::::
         :: total energy             -63.588098009862 Eh    ::
         :: total w/o Gsasa/hb       -63.559255034203 Eh    ::
         :: gradient norm              0.014494038571 Eh/a0 ::
         :: HOMO-LUMO gap              4.767847787652 eV    ::
         ::.................................................::
         :: SCC energy               -64.249501692783 Eh    ::
         :: -> isotropic ES            0.130335163140 Eh    ::
         :: -> anisotropic ES         -0.006447137049 Eh    ::
         :: -> anisotropic XC          0.000992174915 Eh    ::
         :: -> dispersion             -0.036445085864 Eh    ::
         :: -> Gsolv                  -0.032145320047 Eh    ::
         ::    -> Gelec               -0.003302344388 Eh    ::
         ::    -> Gsasa               -0.028255530439 Eh    ::
         ::    -> Ghb                 -0.006511586484 Eh    ::
         ::    -> Gshift               0.005924141264 Eh    ::
         :: repulsion energy           0.661403682922 Eh    ::
         :: add. restraining           0.000000000000 Eh    ::
         :: total charge              -0.000000000000 e     ::
         :::::::::::::::::::::::::::::::::::::::::::::::::::::


Property printout bound to 'properties.out'

           -------------------------------------------------
          | TOTAL ENERGY              -63.588098009862 Eh   |
          | GRADIENT NORM               0.014494038571 Eh/α |
          | HOMO-LUMO GAP               4.767847787652 eV   |
           -------------------------------------------------

------------------------------------------------------------------------
 * finished run on 2025/10/31 at 09:56:11.883     
------------------------------------------------------------------------
 total:
 * wall-time:     0 d,  0 h,  0 min,  0.098 sec
 *  cpu-time:     0 d,  0 h,  0 min,  0.314 sec
 * ratio c/w:     3.216 speedup
 SCF:
 * wall-time:     0 d,  0 h,  0 min,  0.034 sec
 *  cpu-time:     0 d,  0 h,  0 min,  0.124 sec
 * ratio c/w:     3.623 speedup


-------------------------   --------------------
FINAL SINGLE POINT ENERGY       -63.588098009860
-------------------------   --------------------


-------------
DIPOLE MOMENT
-------------
                                X             Y             Z
Total Dipole Moment    :     -0.18100      -1.15800       0.25700
                        -----------------------------------------
Magnitude (a.u.)       :      1.19991
Magnitude (Debye)      :      3.04992


------------------
CARTESIAN GRADIENT
------------------

   1   O   :   -0.003632674    0.000143733    0.000454806
   2   C   :    0.005799744    0.000393992    0.000251511
   3   H   :   -0.001786035    0.000330790    0.000416808
   4   C   :    0.001186695    0.001319101   -0.002224646
   5   H   :   -0.000938002   -0.000200048    0.000660203
   6   C   :   -0.001820936   -0.001127702    0.002370864
   7   H   :    0.000475074   -0.000061960   -0.000338464
   8   C   :   -0.000936465    0.000326314    0.001085988
   9   O   :   -0.000175699    0.001067206   -0.000329099
  10   C   :   -0.001602565    0.000845083   -0.000229262
  11   H   :    0.000561027   -0.000359058    0.000335854
  12   C   :    0.000665438   -0.000567165    0.001290641
  13   C   :    0.001680629    0.000028494    0.001628174
  14   C   :    0.000350768    0.000911269   -0.000504616
  15   C   :    0.000112329    0.000491688   -0.000452959
  16   C   :    0.000422616    0.000745294   -0.000344856
  17   C   :   -0.002262732   -0.000492343   -0.001944125
  18   O   :    0.000460569   -0.000801036    0.000086654
  19   O   :   -0.000785169    0.002820747   -0.000414656
  20   C   :   -0.002581063   -0.003474986    0.002906071
  21   H   :    0.000703251    0.001249196   -0.001126679
  22   O   :    0.001016732   -0.000503865    0.000156758
  23   C   :   -0.002512872   -0.001219303    0.000803355
  24   C   :    0.001918860   -0.003902030   -0.003681837
  25   H   :   -0.000422743    0.001724939    0.000963728
  26   O   :   -0.000970525    0.001997734    0.001172260
  27   H   :    0.002315092    0.000605086   -0.000465070
  28   H   :    0.000149950    0.000455933   -0.000710195
  29   H   :    0.000648216   -0.001205719   -0.000445021
  30   H   :   -0.000069317   -0.000564755    0.000594078
  31   H   :    0.000662431    0.000358813    0.000251499
  32   H   :    0.000247122    0.000464324   -0.000332150
  33   H   :   -0.000361018    0.000280415   -0.000684912
  34   H   :   -0.000662654   -0.000831688    0.000282529
  35   H   :    0.000773886   -0.000237071    0.000141568
  36   H   :    0.000061501    0.000305469   -0.000550687
  37   H   :    0.000237611    0.000589881   -0.000027071
  38   H   :    0.001070928   -0.001906775   -0.001047044

Difference to translation invariance:
           :   -0.0000000000   -0.0000000000    0.0000000000

Difference to rotation invariance:
           :    0.0005232765    0.0005588739   -0.0005336956

Norm of the Cartesian gradient     ...    0.0144940386
RMS gradient                       ...    0.0013574911
MAX gradient                       ...    0.0057997440
------------------------------------------------------------------------------
                         ORCA GEOMETRY RELAXATION STEP
------------------------------------------------------------------------------

Reading the OPT-File                    .... done
Getting information on internals        .... done
Copying old internal coords+grads       .... done
Making the new internal coordinates     .... (2022 redundants) done
Validating the new internal coordinates .... (2022 redundants) done
Calculating the B-matrix                .... done
Calculating the G,G- and P matrices     .... done
Transforming gradient to internals      .... done
Projecting the internal gradient        .... done
Number of atoms                         ....  38
Number of internal coordinates          .... 203
Current Energy                          ....   -63.588098010 Eh
Current gradient norm                   ....     0.014494039 Eh/bohr
Maximum allowed component of the step   ....  0.300
Current trust radius                    ....  0.300
Updating the Hessian (BFGS)             .... done
Forming the augmented Hessian           .... done
Diagonalizing the augmented Hessian     .... done
Last element of RFO vector              ....  0.994675675
Lowest eigenvalues of augmented Hessian:
 -0.000600913  0.011798216  0.014817731  0.016096845  0.016530385
Length of the computed step             ....  0.103606478
The final length of the internal step   ....  0.103606478
Converting the step to Cartesian space:
 Initial RMS(Int)=    0.0072717492
Transforming coordinates:
 Iter   0:  RMS(Cart)=    0.0140365431 RMS(Int)=    0.4410375653
done
Storing new coordinates                 .... done
The predicted energy change is          ....    -0.000303682
Previously predicted energy change      ....    -0.001659270
Actually observed energy change         ....    -0.001951568
Ratio of predicted to observed change   ....     1.176160672
New trust radius                        ....     0.450000000

                                .--------------------.
          ----------------------|Geometry convergence|-------------------------
          Item                value                   Tolerance       Converged
          ---------------------------------------------------------------------
          Energy change      -0.0019515678            0.0000050000      NO
          RMS gradient        0.0007559395            0.0001000000      NO
          MAX gradient        0.0030839513            0.0003000000      NO
          RMS step            0.0072717492            0.0020000000      NO
          MAX step            0.0459134164            0.0040000000      NO
          -------------------------------------------------------------------------
          ........................................................
          Max(Bonds)      0.0243      Max(Angles)    0.76
          Max(Dihed)        1.52      Max(Improp)    0.00
          ---------------------------------------------------------------------

    ---------------------------------------------------------------------------
                         Redundant Internal Coordinates
                            (Angstroem and degrees)

        Definition                    Value    dE/dq     Step     New-Value
    ----------------------------------------------------------------------------
     1. B(C   1,O   0)                1.4118  0.002362 -0.0048    1.4070   
     2. B(H   2,C   1)                1.1013 -0.000214  0.0008    1.1021   
     3. B(C   3,C   1)                1.5235 -0.000328  0.0015    1.5250   
     4. B(H   4,C   3)                1.1033 -0.000251  0.0009    1.1042   
     5. B(C   5,C   3)                1.5293 -0.001569  0.0033    1.5326   
     6. B(H   6,C   5)                1.1030 -0.000137  0.0006    1.1036   
     7. B(C   7,C   5)                1.5304 -0.000329  0.0013    1.5317   
     8. B(O   8,C   7)                1.4104 -0.001251  0.0002    1.4106   
     9. B(C   9,O   8)                1.4040 -0.000437 -0.0021    1.4018   
    10. B(H  10,C   9)                1.1117 -0.000518  0.0022    1.1139   
    11. B(C  11,C   9)                1.5072 -0.001018  0.0013    1.5085   
    12. B(C  12,C  11)                1.3859 -0.002248  0.0008    1.3868   
    13. B(C  13,C  12)                1.3827 -0.002106  0.0010    1.3837   
    14. B(C  14,C  13)                1.3839 -0.001499  0.0007    1.3846   
    15. B(C  15,C  14)                1.3841 -0.001387  0.0006    1.3847   
    16. B(C  16,C  15)                1.3825 -0.002001  0.0009    1.3834   
    17. B(C  16,C  11)                1.3847 -0.002751  0.0013    1.3860   
    18. B(O  17,C   9)                1.4122 -0.001272 -0.0002    1.4119   
    19. B(O  17,C   3)                1.4148  0.000041 -0.0011    1.4137   
    20. B(O  18,C   5)                1.4048 -0.000219 -0.0015    1.4033   
    21. B(C  19,O  18)                1.4154 -0.002617  0.0018    1.4172   
    22. B(H  20,C  19)                1.1102 -0.000576  0.0022    1.1124   
    23. B(O  21,C  19)                1.3806 -0.001235 -0.0032    1.3775   
    24. B(C  22,O  21)                1.4169 -0.001525  0.0018    1.4187   
    25. B(C  23,C  19)                1.5331 -0.003084  0.0047    1.5377   
    26. B(C  23,C   1)                1.5334 -0.001221  0.0037    1.5371   
    27. B(H  24,C  23)                1.0987 -0.000410  0.0009    1.0996   
    28. B(O  25,C  23)                1.4060  0.000929 -0.0036    1.4023   
    29. B(H  26,O   0)                0.9646 -0.001767  0.0009    0.9655   
    30. B(H  26,O  17)                2.4871 -0.000923  0.0213    2.5084   
    31. B(H  27,C   7)                1.0906  0.000093 -0.0006    1.0900   
    32. B(H  28,C   7)                1.1002  0.000231 -0.0002    1.1001   
    33. B(H  29,C  12)                1.0797 -0.000623  0.0004    1.0802   
    34. B(H  30,C  13)                1.0788 -0.000796  0.0007    1.0795   
    35. B(H  31,C  14)                1.0791 -0.000620  0.0004    1.0796   
    36. B(H  32,C  15)                1.0787 -0.000819  0.0008    1.0795   
    37. B(H  33,C  16)                1.0772 -0.000865  0.0006    1.0778   
    38. B(H  34,C  22)                1.0874 -0.000169 -0.0002    1.0872   
    39. B(H  35,C  22)                1.0926 -0.000009 -0.0001    1.0924   
    40. B(H  36,C  22)                1.0959  0.000192 -0.0002    1.0957   
    41. B(H  37,O   0)                2.4551 -0.001043  0.0243    2.4794   
    42. B(H  37,O  25)                0.9667 -0.001585  0.0009    0.9675   
    43. A(C   1,O   0,H  26)          106.80 -0.001966    0.75    107.55   
    44. A(O   0,C   1,H   2)          109.17 -0.000824    0.75    109.92   
    45. A(H   2,C   1,C   3)          109.36  0.000861   -0.54    108.81   
    46. A(H   2,C   1,C  23)          109.30  0.000300   -0.38    108.92   
    47. A(O   0,C   1,C   3)          111.97 -0.000511    0.48    112.45   
    48. A(O   0,C   1,C  23)          107.66  0.000488   -0.17    107.49   
    49. A(C   3,C   1,C  23)          109.33 -0.000308   -0.13    109.20   
    50. A(H   4,C   3,C   5)          109.45  0.000781   -0.57    108.89   
    51. A(H   4,C   3,O  17)          109.55 -0.000067    0.18    109.73   
    52. A(C   1,C   3,C   5)          108.82 -0.000292    0.14    108.96   
    53. A(C   5,C   3,O  17)          110.03 -0.000676    0.09    110.13   
    54. A(C   1,C   3,H   4)          109.05 -0.000316    0.09    109.14   
    55. A(C   1,C   3,O  17)          109.92  0.000575    0.06    109.97   
    56. A(C   7,C   5,O  18)          111.35 -0.000212   -0.01    111.34   
    57. A(H   6,C   5,O  18)          110.31 -0.000054    0.11    110.42   
    58. A(C   3,C   5,C   7)          107.70  0.000573   -0.10    107.60   
    59. A(H   6,C   5,C   7)          108.63 -0.000320    0.19    108.81   
    60. A(C   3,C   5,O  18)          110.09 -0.000451    0.13    110.22   
    61. A(C   3,C   5,H   6)          108.68  0.000497   -0.32    108.36   
    62. A(O   8,C   7,H  27)          106.95  0.000511   -0.33    106.62   
    63. A(C   5,C   7,H  27)          111.50 -0.000147    0.18    111.69   
    64. A(C   5,C   7,O   8)          108.75 -0.000613    0.09    108.84   
    65. A(O   8,C   7,H  28)          110.63 -0.000727    0.20    110.83   
    66. A(C   5,C   7,H  28)          110.00  0.001499   -0.62    109.38   
    67. A(H  27,C   7,H  28)          108.97 -0.000572    0.49    109.45   
    68. A(C   7,O   8,C   9)          112.73  0.000085    0.22    112.95   
    69. A(H  10,C   9,O  17)          108.34  0.000604   -0.33    108.02   
    70. A(O   8,C   9,O  17)          111.88 -0.000239    0.07    111.94   
    71. A(O   8,C   9,C  11)          109.52 -0.000094    0.02    109.53   
    72. A(O   8,C   9,H  10)          108.67 -0.000015    0.03    108.70   
    73. A(C  11,C   9,O  17)          107.73 -0.000170    0.05    107.78   
    74. A(H  10,C   9,C  11)          110.70 -0.000081    0.16    110.86   
    75. A(C   9,C  11,C  12)          120.15 -0.000535    0.09    120.24   
    76. A(C  12,C  11,C  16)          119.52 -0.000439    0.18    119.70   
    77. A(C   9,C  11,C  16)          120.31  0.000973   -0.28    120.04   
    78. A(C  11,C  12,H  29)          120.06  0.000275   -0.10    119.96   
    79. A(C  13,C  12,H  29)          119.68 -0.000822    0.23    119.91   
    80. A(C  11,C  12,C  13)          120.26  0.000547   -0.13    120.13   
    81. A(C  14,C  13,H  30)          120.11  0.000058    0.01    120.12   
    82. A(C  12,C  13,H  30)          119.81  0.000107   -0.04    119.77   
    83. A(C  12,C  13,C  14)          120.08 -0.000165    0.02    120.11   
    84. A(C  13,C  14,H  31)          120.10  0.000205   -0.03    120.07   
    85. A(C  13,C  14,C  15)          119.77 -0.000366    0.04    119.80   
    86. A(C  15,C  14,H  31)          120.14  0.000160   -0.01    120.13   
    87. A(C  16,C  15,H  32)          119.75  0.000047   -0.02    119.73   
    88. A(C  14,C  15,H  32)          120.13  0.000158   -0.02    120.11   
    89. A(C  14,C  15,C  16)          120.12 -0.000205    0.04    120.16   
    90. A(C  11,C  16,C  15)          120.26  0.000628   -0.15    120.10   
    91. A(C  15,C  16,H  33)          120.36 -0.001006    0.29    120.65   
    92. A(C  11,C  16,H  33)          119.38  0.000378   -0.14    119.24   
    93. A(C   3,O  17,C   9)          111.14  0.000123    0.21    111.34   
    94. A(C   5,O  18,C  19)          112.50 -0.000272    0.22    112.72   
    95. A(O  18,C  19,O  21)          107.91 -0.001108    0.30    108.21   
    96. A(O  21,C  19,C  23)          107.68 -0.000093    0.05    107.73   
    97. A(H  20,C  19,C  23)          108.87  0.000959   -0.56    108.31   
    98. A(O  18,C  19,C  23)          112.66  0.000536    0.10    112.76   
    99. A(H  20,C  19,O  21)          110.39 -0.000834    0.51    110.90   
   100. A(O  18,C  19,H  20)          109.31  0.000477   -0.36    108.95   
   101. A(C  19,O  21,C  22)          114.09 -0.001704    0.50    114.58   
   102. A(H  35,C  22,H  36)          109.79  0.000234   -0.16    109.64   
   103. A(H  34,C  22,H  36)          109.53 -0.000747    0.31    109.83   
   104. A(O  21,C  22,H  36)          110.70  0.000328   -0.09    110.61   
   105. A(H  34,C  22,H  35)          109.71 -0.000800    0.36    110.07   
   106. A(O  21,C  22,H  35)          110.99  0.000084   -0.03    110.96   
   107. A(O  21,C  22,H  34)          106.05  0.000884   -0.38    105.66   
   108. A(H  24,C  23,O  25)          109.83 -0.000945    0.71    110.54   
   109. A(C  19,C  23,O  25)          107.72  0.000107   -0.46    107.26   
   110. A(C   1,C  23,O  25)          109.92  0.000153    0.56    110.48   
   111. A(C  19,C  23,H  24)          108.22  0.000395   -0.53    107.69   
   112. A(C   1,C  23,H  24)          109.48  0.000679   -0.48    109.00   
   113. A(C   1,C  23,C  19)          111.63 -0.000418    0.21    111.84   
   114. A(C  23,O  25,H  37)          106.24 -0.001990    0.76    107.01   
   115. D(C   3,C   1,O   0,H  26)     52.10  0.000275    0.15     52.25   
   116. D(C  23,C   1,O   0,H  26)    172.31 -0.000096    0.17    172.48   
   117. D(H   2,C   1,O   0,H  26)    -69.14  0.000085    0.04    -69.10   
   118. D(C   5,C   3,C   1,C  23)     54.96  0.000408   -0.11     54.85   
   119. D(H   4,C   3,C   1,O   0)     54.85 -0.000094    0.44     55.29   
   120. D(H   4,C   3,C   1,C  23)    -64.37 -0.000179    0.43    -63.94   
   121. D(C   5,C   3,C   1,H   2)    -64.68 -0.000291    0.79    -63.89   
   122. D(H   4,C   3,C   1,H   2)    175.99 -0.000879    1.34    177.33   
   123. D(C   5,C   3,C   1,O   0)    174.19  0.000494   -0.11    174.08   
   124. D(C   7,C   5,C   3,O  17)     55.64  0.000166   -0.25     55.39   
   125. D(C   7,C   5,C   3,C   1)    176.13  0.000276   -0.04    176.09   
   126. D(C   7,C   5,C   3,H   4)    -64.79  0.000178   -0.18    -64.97   
   127. D(H   6,C   5,C   3,O  17)    -61.87 -0.000036   -0.24    -62.10   
   128. D(H   6,C   5,C   3,H   4)    177.70 -0.000023   -0.16    177.54   
   129. D(H   6,C   5,C   3,C   1)     58.62  0.000075   -0.03     58.60   
   130. D(H  27,C   7,C   5,H   6)    -55.09  0.000125    0.15    -54.94   
   131. D(H  27,C   7,C   5,O  18)     66.58 -0.000291    0.40     66.98   
   132. D(H  27,C   7,C   5,C   3)   -172.63 -0.000605    0.49   -172.14   
   133. D(O   8,C   7,C   5,H   6)     62.60  0.000283   -0.09     62.51   
   134. D(O   8,C   7,C   5,C   3)    -54.94 -0.000447    0.25    -54.69   
   135. D(O   8,C   7,C   5,O  18)   -175.73 -0.000133    0.16   -175.57   
   136. D(C   9,O   8,C   7,H  28)    -62.66 -0.000838    0.45    -62.21   
   137. D(C   9,O   8,C   7,H  27)    178.79 -0.000052   -0.05    178.75   
   138. D(C   9,O   8,C   7,C   5)     58.25  0.000170   -0.13     58.12   
   139. D(O  17,C   9,O   8,C   7)    -60.40 -0.000604    0.30    -60.09   
   140. D(C  11,C   9,O   8,C   7)   -179.77 -0.000178    0.18   -179.59   
   141. D(H  10,C   9,O   8,C   7)     59.18 -0.000012   -0.04     59.15   
   142. D(C  12,C  11,C   9,O  17)     96.66  0.000316    0.32     96.98   
   143. D(C  12,C  11,C   9,H  10)    -21.64 -0.000266    0.59    -21.05   
   144. D(C  12,C  11,C   9,O   8)   -141.45 -0.000136    0.45   -141.00   
   145. D(C  16,C  11,C   9,O   8)     40.35 -0.000082    0.44     40.79   
   146. D(C  16,C  11,C   9,H  10)    160.15 -0.000212    0.59    160.74   
   147. D(H  29,C  12,C  11,C  16)    179.80 -0.000020    0.08    179.88   
   148. D(H  29,C  12,C  11,C   9)      1.57  0.000008    0.09      1.66   
   149. D(C  13,C  12,C  11,C  16)     -0.19 -0.000007    0.02     -0.17   
   150. D(C  13,C  12,C  11,C   9)   -178.41  0.000020    0.03   -178.38   
   151. D(H  30,C  13,C  12,H  29)      0.03  0.000017   -0.07     -0.05   
   152. D(H  30,C  13,C  12,C  11)   -179.99  0.000005   -0.01   -180.00   
   153. D(C  14,C  13,C  12,H  29)    179.87 -0.000006   -0.03    179.83   
   154. D(C  14,C  13,C  12,C  11)     -0.15 -0.000018    0.03     -0.12   
   155. D(H  31,C  14,C  13,H  30)      0.15  0.000004   -0.01      0.14   
   156. D(C  15,C  14,C  13,C  12)      0.22  0.000030   -0.06      0.15   
   157. D(H  31,C  14,C  13,C  12)   -179.69  0.000027   -0.05   -179.74   
   158. D(C  15,C  14,C  13,H  30)   -179.94  0.000007   -0.03   -179.97   
   159. D(H  32,C  15,C  14,H  31)     -0.16 -0.000013    0.01     -0.15   
   160. D(H  32,C  15,C  14,C  13)    179.93 -0.000015    0.03    179.96   
   161. D(C  16,C  15,C  14,H  31)    179.96 -0.000017    0.04    180.00   
   162. D(C  16,C  15,C  14,C  13)      0.05 -0.000019    0.05      0.11   
   163. D(H  33,C  16,C  15,H  32)      0.34 -0.000021    0.08      0.42   
   164. D(C  11,C  16,C  15,H  32)    179.72 -0.000014    0.02    179.75   
   165. D(C  11,C  16,C  15,C  14)     -0.39 -0.000010   -0.00     -0.40   
   166. D(H  33,C  16,C  11,C  12)    179.85  0.000021   -0.09    179.76   
   167. D(H  33,C  16,C  11,C   9)     -1.93 -0.000034   -0.09     -2.01   
   168. D(H  33,C  16,C  15,C  14)   -179.78 -0.000017    0.05   -179.73   
   169. D(C  15,C  16,C  11,C  12)      0.46  0.000022   -0.03      0.43   
   170. D(C  15,C  16,C  11,C   9)    178.68 -0.000033   -0.03    178.65   
   171. D(C   3,O  17,C   9,C  11)    179.79  0.000010   -0.22    179.58   
   172. D(C   3,O  17,C   9,H  10)    -60.40  0.000154   -0.18    -60.58   
   173. D(C   3,O  17,C   9,O   8)     59.37  0.000383   -0.31     59.06   
   174. D(C   9,O  17,C   3,C   5)    -57.89 -0.000170    0.22    -57.66   
   175. D(C   9,O  17,C   3,H   4)     62.49  0.000329   -0.30     62.19   
   176. D(C   9,O  17,C   3,C   1)   -177.71  0.000253   -0.04   -177.75   
   177. D(C  19,O  18,C   5,C   3)     63.38  0.000166   -0.30     63.09   
   178. D(C  19,O  18,C   5,C   7)   -177.24  0.000451   -0.34   -177.59   
   179. D(C  19,O  18,C   5,H   6)    -56.55 -0.000129   -0.05    -56.60   
   180. D(C  23,C  19,O  18,C   5)    -57.03 -0.001073    0.59    -56.44   
   181. D(O  21,C  19,O  18,C   5)   -175.77 -0.000554    0.28   -175.49   
   182. D(H  20,C  19,O  18,C   5)     64.15  0.000833   -0.31     63.84   
   183. D(C  22,O  21,C  19,C  23)    167.78  0.000315   -0.60    167.18   
   184. D(C  22,O  21,C  19,H  20)     49.05 -0.000314   -0.25     48.80   
   185. D(C  22,O  21,C  19,O  18)    -70.36  0.000265   -0.28    -70.63   
   186. D(H  36,C  22,O  21,C  19)    -60.54 -0.000258    0.09    -60.45   
   187. D(H  35,C  22,O  21,C  19)     61.64  0.000324   -0.19     61.46   
   188. D(H  34,C  22,O  21,C  19)   -179.26 -0.000061    0.00   -179.26   
   189. D(H  24,C  23,C  19,O  21)     48.03 -0.000608    0.70     48.74   
   190. D(H  24,C  23,C  19,H  20)    167.73 -0.001122    1.03    168.77   
   191. D(H  24,C  23,C  19,O  18)    -70.84  0.000503    0.24    -70.60   
   192. D(C   1,C  23,C  19,O  21)    168.58  0.000233   -0.11    168.47   
   193. D(C   1,C  23,C  19,H  20)    -71.72 -0.000280    0.22    -71.51   
   194. D(C   1,C  23,C  19,O  18)     49.70  0.001345   -0.57     49.13   
   195. D(H  24,C  23,C   1,C   3)     70.52  0.000022   -0.52     70.00   
   196. D(H  24,C  23,C   1,H   2)   -169.81  0.001067   -1.52   -171.33   
   197. D(H  24,C  23,C   1,O   0)    -51.34  0.000527   -0.92    -52.27   
   198. D(C  19,C  23,C   1,C   3)    -49.28 -0.000653    0.33    -48.95   
   199. D(C  19,C  23,C   1,H   2)     70.39  0.000392   -0.67     69.72   
   200. D(C  19,C  23,C   1,O   0)   -171.14 -0.000148   -0.08   -171.22   
   201. D(H  37,O  25,C  23,H  24)     65.52  0.000103   -0.38     65.14   
   202. D(H  37,O  25,C  23,C  19)   -176.82  0.000117   -0.87   -177.69   
   203. D(H  37,O  25,C  23,C   1)    -54.99 -0.000235   -0.55    -55.54   
    ----------------------------------------------------------------------------

Geometry step timings:
Preparation and reading OPT file:      0.001 s ( 3.654 %)
Internal coordinates            :      0.000 s ( 0.118 %)
B/P matrices and projection     :      0.003 s (11.190 %)
Hessian update/contruction      :      0.017 s (64.081 %)
Making the step                 :      0.002 s ( 7.944 %)
Converting the step to Cartesian:      0.000 s ( 0.993 %)
Storing new data                :      0.001 s ( 3.601 %)
Checking convergence            :      0.000 s ( 0.099 %)
Final printing                  :      0.002 s ( 8.313 %)
Total time                      :      0.026 s

Time for energy+gradient        :      0.181 s
Time for complete geometry iter :      0.232 s

         *************************************************************
         *                GEOMETRY OPTIMIZATION CYCLE   4            *
         *************************************************************
---------------------------------
CARTESIAN COORDINATES (ANGSTROEM)
---------------------------------
  O    -2.785538    2.911808    0.103191
  C    -1.383816    2.790236    0.096892
  H    -1.006894    2.735142    1.131083
  C    -0.909460    1.557425   -0.665224
  H    -1.323965    1.582589   -1.688321
  C     0.620715    1.582026   -0.749118
  H     1.024862    1.601619    0.277656
  C     1.067970    0.285613   -1.431325
  O     0.525419   -0.810005   -0.727804
  C    -0.874248   -0.775760   -0.657992
  H    -1.283708   -0.775994   -1.693958
  C    -1.370109   -1.971963    0.115849
  C    -2.519152   -2.636285   -0.286037
  C    -2.990577   -3.712614    0.444623
  C    -2.315114   -4.131738    1.578324
  C    -1.168039   -3.468531    1.980636
  C    -0.698436   -2.388920    1.254260
  O    -1.341606    0.384993   -0.003916
  O     1.049069    2.710143   -1.465489
  C     0.697596    3.927443   -0.830681
  H     1.223962    3.989836    0.147357
  O     1.068806    4.966098   -1.655771
  C     2.469530    5.166166   -1.759104
  C    -0.813716    4.049908   -0.574626
  H    -1.307022    4.191415   -1.547123
  O    -1.007648    5.172420    0.243267
  H    -3.149159    2.073197    0.414053
  H     2.151312    0.168608   -1.403276
  H     0.726525    0.286876   -2.477059
  H    -3.047021   -2.313668   -1.171474
  H    -3.885600   -4.225564    0.126604
  H    -2.681056   -4.974227    2.145566
  H    -0.637880   -3.790703    2.864042
  H     0.195986   -1.869653    1.557710
  H     2.596267    6.016490   -2.424568
  H     2.960263    4.285073   -2.178952
  H     2.899908    5.394781   -0.777708
  H    -1.955096    5.224691    0.432209

----------------------------
CARTESIAN COORDINATES (A.U.)
----------------------------
  NO LB    ZA    FRAG    MASS        X           Y           Z
   0 O   8.0000    1    15.999   -5.263904    5.502520    0.195003
   1 C   6.0000    1    12.011   -2.615034    5.272782    0.183100
   2 H   1.0000    1     1.008   -1.902755    5.168669    2.137437
   3 C   6.0000    1    12.011   -1.718631    2.943107   -1.257090
   4 H   1.0000    1     1.008   -2.501932    2.990660   -3.190464
   5 C   6.0000    1    12.011    1.172982    2.989596   -1.415627
   6 H   1.0000    1     1.008    1.936709    3.026621    0.524693
   7 C   6.0000    1    12.011    2.018170    0.539730   -2.704812
   8 O   8.0000    1    15.999    0.992899   -1.530688   -1.375351
   9 C   6.0000    1    12.011   -1.652088   -1.465975   -1.243425
  10 H   1.0000    1     1.008   -2.425856   -1.466416   -3.201116
  11 C   6.0000    1    12.011   -2.589131   -3.726470    0.218923
  12 C   6.0000    1    12.011   -4.760506   -4.981857   -0.540531
  13 C   6.0000    1    12.011   -5.651371   -7.015824    0.840217
  14 C   6.0000    1    12.011   -4.374931   -7.807854    2.982600
  15 C   6.0000    1    12.011   -2.207274   -6.554574    3.742860
  16 C   6.0000    1    12.011   -1.319853   -4.514405    2.370207
  17 O   8.0000    1    15.999   -2.535267    0.727532   -0.007400
  18 O   8.0000    1    15.999    1.982453    5.121429   -2.769372
  19 C   6.0000    1    12.011    1.318265    7.421791   -1.569759
  20 H   1.0000    1     1.008    2.312953    7.539697    0.278465
  21 O   8.0000    1    15.999    2.019751    9.384566   -3.128955
  22 C   6.0000    1    12.011    4.666735    9.762638   -3.324225
  23 C   6.0000    1    12.011   -1.537701    7.653217   -1.085885
  24 H   1.0000    1     1.008   -2.469913    7.920627   -2.923640
  25 O   8.0000    1    15.999   -1.904179    9.774457    0.459709
  26 H   1.0000    1     1.008   -5.951049    3.917774    0.782447
  27 H   1.0000    1     1.008    4.065390    0.318623   -2.651807
  28 H   1.0000    1     1.008    1.372932    0.542117   -4.680963
  29 H   1.0000    1     1.008   -5.758035   -4.372199   -2.213764
  30 H   1.0000    1     1.008   -7.342719   -7.985158    0.239247
  31 H   1.0000    1     1.008   -5.066462   -9.399926    4.054533
  32 H   1.0000    1     1.008   -1.205419   -7.163390    5.412255
  33 H   1.0000    1     1.008    0.370359   -3.533133    2.943646
  34 H   1.0000    1     1.008    4.906234   11.369518   -4.581770
  35 H   1.0000    1     1.008    5.594086    8.097615   -4.117622
  36 H   1.0000    1     1.008    5.480033   10.194659   -1.469655
  37 H   1.0000    1     1.008   -3.694595    9.873236    0.816757

      -----------------------------------------------------------      
     |                   =====================                   |     
     |                           x T B                           |     
     |                   =====================                   |     
     |                         S. Grimme                         |     
     |          Mulliken Center for Theoretical Chemistry        |     
     |                    University of Bonn                     |     
      -----------------------------------------------------------      

   * xtb version 6.7.1 (edcfbbe) compiled by 'albert@albert-system' on 2024-07-22

   xtb is free software: you can redistribute it and/or modify it under
   the terms of the GNU Lesser General Public License as published by
   the Free Software Foundation, either version 3 of the License, or
   (at your option) any later version.
   
   xtb is distributed in the hope that it will be useful,
   but WITHOUT ANY WARRANTY; without even the implied warranty of
   MERCHANTABILITY or FITNESS FOR A PARTICULAR PURPOSE.  See the
   GNU Lesser General Public License for more details.
   
   Cite this work as:
   * C. Bannwarth, E. Caldeweyher, S. Ehlert, A. Hansen, P. Pracht,
     J. Seibert, S. Spicher, S. Grimme, WIREs Comput. Mol. Sci., 2020, 11,
     e01493. DOI: 10.1002/wcms.1493
   
   for GFN2-xTB:
   * C. Bannwarth, S. Ehlert and S. Grimme., J. Chem. Theory Comput., 2019,
     15, 1652-1671. DOI: 10.1021/acs.jctc.8b01176
   for GFN1-xTB:
   * S. Grimme, C. Bannwarth, P. Shushkov, J. Chem. Theory Comput., 2017,
     13, 1989-2009. DOI: 10.1021/acs.jctc.7b00118
   for GFN0-xTB:
   * P. Pracht, E. Caldeweyher, S. Ehlert, S. Grimme, ChemRxiv, 2019, preprint.
     DOI: 10.26434/chemrxiv.8326202.v1
   for GFN-FF:
   * S. Spicher and S. Grimme, Angew. Chem. Int. Ed., 2020, 59, 15665-15673.
     DOI: 10.1002/anie.202004239
   
   for ALPB and GBSA implicit solvation:
   * S. Ehlert, M. Stahn, S. Spicher, S. Grimme, J. Chem. Theory Comput.,
     2021, 17, 4250-4261. DOI: 10.1021/acs.jctc.1c00471
   
   for ddCOSMO and CPCM-X implicit solvation:
   * M. Stahn, S. Ehlert, S. Grimme, J. Phys. Chem. A,
     2023, XX, XXXX-XXXX. DOI: 10.1021/acs.jpca.3c04382
   
   for DFT-D4:
   * E. Caldeweyher, C. Bannwarth and S. Grimme, J. Chem. Phys., 2017,
     147, 034112. DOI: 10.1063/1.4993215
   * E. Caldeweyher, S. Ehlert, A. Hansen, H. Neugebauer, S. Spicher,
     C. Bannwarth and S. Grimme, J. Chem. Phys., 2019, 150, 154122.
     DOI: 10.1063/1.5090222
   * E. Caldeweyher, J.-M. Mewes, S. Ehlert and S. Grimme, Phys. Chem. Chem. Phys.
     2020, 22, 8499-8512. DOI: 10.1039/D0CP00502A
   
   for sTDA-xTB:
   * S. Grimme and C. Bannwarth, J. Chem. Phys., 2016, 145, 054103.
     DOI: 10.1063/1.4959605
   
   in the mass-spec context:
   * V. Asgeirsson, C. Bauer and S. Grimme, Chem. Sci., 2017, 8, 4879.
     DOI: 10.1039/c7sc00601b
   * J. Koopman and S. Grimme, ACS Omega 2019, 4, 12, 15120-15133.
     DOI: 10.1021/acsomega.9b02011
   
   for metadynamics refer to:
   * S. Grimme, J. Chem. Theory Comput., 2019, 155, 2847-2862
     DOI: 10.1021/acs.jctc.9b00143
   
   for SPH calculations refer to:
   * S. Spicher and S. Grimme, J. Chem. Theory Comput., 2021, 17, 1701-1714
     DOI: 10.1021/acs.jctc.0c01306
   
   for ONIOM refer to:
   * C. Plett, A. Katbashev, S. Ehlert, S. Grimme, M. Bursch,
     Phys. Chem. Chem. Phys., 2023, 25, 17860-17868. DOI: 10.1039/D3CP02178E
   
   for DIPRO refer to:
   * J. Kohn, N. Gildemeister, S. Grimme, D. Fazzi, A. Hansen,
     J. Chem. Phys., 2023, just accepted.
   
   for PTB refer to:
   * S. Grimme, M. Mueller, A. Hansen, J. Chem. Phys., 2023, 158, 124111.
     DOI: 10.1063/5.0137838
   
   with help from (in alphabetical order)
   P. Atkinson, C. Bannwarth, F. Bohle, G. Brandenburg, E. Caldeweyher
   M. Checinski, S. Dohm, S. Ehlert, S. Ehrlich, I. Gerasimov, C. Hölzer
   A. Katbashev, J. Kohn, J. Koopman, C. Lavigne, S. Lehtola, F. März, M. Müller,
   F. Musil, H. Neugebauer, J. Pisarek, C. Plett, P. Pracht, F. Pultar,
   J. Seibert, P. Shushkov, S. Spicher, M. Stahn, M. Steiner, T. Strunk,
   J. Stückrath, T. Rose, and J. Unsleber
   
 * started run on 2025/10/31 at 09:56:12.019     
   ID    Z sym.   atoms
    1    8 O      1, 9, 18, 19, 22, 26
    2    6 C      2, 4, 6, 8, 10, 12-17, 20, 23, 24
    3    1 H      3, 5, 7, 11, 21, 25, 27-38

           -------------------------------------------------
          |                Calculation Setup                |
           -------------------------------------------------

          program call               : /home/kmoult/orca_6_1/otool_xtb goat_0_XTB.xyz --grad -c 0 -u 0 -P 4 --namespace goat_0 --input goat_0_XTB.input.tmp --alpb ACETONE --acc 0.200000
          hostname                   : node3103
          calculation namespace      : goat_0
          coordinate file            : goat_0_XTB.xyz
          omp threads                :                     4


           -------------------------------------------------
          |                 G F N 2 - x T B                 |
           -------------------------------------------------

        Reference                      10.1021/acs.jctc.8b01176
      * Hamiltonian:
        H0-scaling (s, p, d)           1.850000    2.230000    2.230000
        zeta-weighting                 0.500000
      * Dispersion:
        s8                             2.700000
        a1                             0.520000
        a2                             5.000000
        s9                             5.000000
      * Repulsion:
        kExp                           1.500000    1.000000
        rExp                           1.000000
      * Coulomb:
        alpha                          2.000000
        third order                    shell-resolved
        anisotropic                    true
        a3                             3.000000
        a5                             4.000000
        cn-shift                       1.200000
        cn-exp                         4.000000
        max-rad                        5.000000

      * Solvation model:               ALPB
        Solvent                        ACETONE
        Parameter file                 internal GFN2-xTB/ALPB
        Dielectric constant                2.0700E+01
        Reference state                gsolv [1 M gas/solution]
        Free energy shift                  5.9241E-03 Eh       3.7175E+00 kcal/mol
        Temperature                        2.9815E+02 K
        Density                            7.9000E-01 kg/L
        Solvent mass                       5.8080E+01 g/mol
        Interaction kernel             P16
        Born radius scaling (c1)           1.8274E+00
        Born radii integrator          GBOBC
        Born offset                        0.0000E+00 a0       0.0000E+00 AA
        H-bond correction              true
        Ion screening                  false
        Surface tension                    1.0000E-05 Eh       1.5569E+01 dyn/cm
        Grid points                               230 per atom
q/qsh data taken from xtbrestart
CAMM data taken from xtbrestart

          ...................................................
          :                      SETUP                      :
          :.................................................:
          :  # basis functions                  98          :
          :  # atomic orbitals                  98          :
          :  # shells                           58          :
          :  # electrons                       110          :
          :  max. iterations                   250          :
          :  Hamiltonian                  GFN2-xTB          :
          :  restarted?                       true          :
          :  GBSA solvation                   true          :
          :  PC potential                    false          :
          :  electronic temp.          300.0000000     K    :
          :  accuracy                    0.2000000          :
          :  -> integral cutoff          0.3198970E+02      :
          :  -> integral neglect         0.2000000E-08      :
          :  -> SCF convergence          0.2000000E-06 Eh   :
          :  -> wf. convergence          0.2000000E-04 e    :
          :  Broyden damping             0.4000000          :
          :  net charge                          0          :
          :  unpaired electrons                  0          :
          ...................................................

 iter      E             dE          RMSdq      gap      omega  full diag
   1    -64.2468478 -0.642468E+02  0.629E-02    4.76       0.0  T
   2    -64.2468499 -0.208429E-05  0.372E-02    4.76       1.0  T
   3    -64.2468499  0.568964E-07  0.430E-03    4.76       3.8  T
   4    -64.2468503 -0.384582E-06  0.133E-03    4.76      12.2  T
   5    -64.2468503 -0.685820E-08  0.620E-04    4.76      26.2  T
   6    -64.2468503 -0.300737E-08  0.319E-04    4.76      50.9  T
   7    -64.2468503 -0.978076E-09  0.100E-04    4.76     162.1  T
   8    -64.2468503 -0.150607E-09  0.421E-05    4.76     385.4  T

   *** convergence criteria satisfied after 8 iterations ***

         #    Occupation            Energy/Eh            Energy/eV
      -------------------------------------------------------------
         1        2.0000           -0.7328052             -19.9406
       ...           ...                  ...                  ...
        49        2.0000           -0.4288771             -11.6703
        50        2.0000           -0.4253049             -11.5731
        51        2.0000           -0.4222797             -11.4908
        52        2.0000           -0.4186082             -11.3909
        53        2.0000           -0.4117683             -11.2048
        54        2.0000           -0.4109457             -11.1824
        55        2.0000           -0.4089603             -11.1284 (HOMO)
        56                         -0.2341415              -6.3713 (LUMO)
        57                         -0.2289142              -6.2291
        58                         -0.1041218              -2.8333
        59                         -0.0371376              -1.0106
        60                         -0.0068085              -0.1853
       ...                                ...                  ...
        98                          0.6603788              17.9698
      -------------------------------------------------------------
                  HL-Gap            0.1748188 Eh            4.7571 eV
             Fermi-level           -0.3215509 Eh           -8.7498 eV

 SCC (total)                   0 d,  0 h,  0 min,  0.021 sec
 SCC setup                      ...        0 min,  0.000 sec (  2.233%)
 Dispersion                     ...        0 min,  0.000 sec (  1.156%)
 classical contributions        ...        0 min,  0.000 sec (  0.146%)
 integral evaluation            ...        0 min,  0.002 sec ( 10.172%)
 iterations                     ...        0 min,  0.012 sec ( 56.444%)
 molecular gradient             ...        0 min,  0.006 sec ( 29.207%)
 printout                       ...        0 min,  0.000 sec (  0.575%)

         :::::::::::::::::::::::::::::::::::::::::::::::::::::
         ::                     SUMMARY                     ::
         :::::::::::::::::::::::::::::::::::::::::::::::::::::
         :: total energy             -63.588484726135 Eh    ::
         :: total w/o Gsasa/hb       -63.559505994450 Eh    ::
         :: gradient norm              0.006269418358 Eh/a0 ::
         :: HOMO-LUMO gap              4.757062181851 eV    ::
         ::.................................................::
         :: SCC energy               -64.246728863682 Eh    ::
         :: -> isotropic ES            0.129953370763 Eh    ::
         :: -> anisotropic ES         -0.006482178937 Eh    ::
         :: -> anisotropic XC          0.000948914556 Eh    ::
         :: -> dispersion             -0.036439288223 Eh    ::
         :: -> Gsolv                  -0.032306383885 Eh    ::
         ::    -> Gelec               -0.003327652201 Eh    ::
         ::    -> Gsasa               -0.028282164477 Eh    ::
         ::    -> Ghb                 -0.006620708471 Eh    ::
         ::    -> Gshift               0.005924141264 Eh    ::
         :: repulsion energy           0.658244137547 Eh    ::
         :: add. restraining           0.000000000000 Eh    ::
         :: total charge               0.000000000000 e     ::
         :::::::::::::::::::::::::::::::::::::::::::::::::::::


Property printout bound to 'properties.out'

           -------------------------------------------------
          | TOTAL ENERGY              -63.588484726135 Eh   |
          | GRADIENT NORM               0.006269418358 Eh/α |
          | HOMO-LUMO GAP               4.757062181851 eV   |
           -------------------------------------------------

------------------------------------------------------------------------
 * finished run on 2025/10/31 at 09:56:12.064     
------------------------------------------------------------------------
 total:
 * wall-time:     0 d,  0 h,  0 min,  0.044 sec
 *  cpu-time:     0 d,  0 h,  0 min,  0.153 sec
 * ratio c/w:     3.443 speedup
 SCF:
 * wall-time:     0 d,  0 h,  0 min,  0.021 sec
 *  cpu-time:     0 d,  0 h,  0 min,  0.082 sec
 * ratio c/w:     3.970 speedup


-------------------------   --------------------
FINAL SINGLE POINT ENERGY       -63.588484726130
-------------------------   --------------------


-------------
DIPOLE MOMENT
-------------
                                X             Y             Z
Total Dipole Moment    :     -0.20000      -1.11200       0.26600
                        -----------------------------------------
Magnitude (a.u.)       :      1.16073
Magnitude (Debye)      :      2.95035


------------------
CARTESIAN GRADIENT
------------------

   1   O   :   -0.001453789    0.000383606    0.000172868
   2   C   :    0.001388609   -0.000473993    0.000326767
   3   H   :   -0.000343980    0.000211627    0.000045124
   4   C   :    0.000241881    0.000687475   -0.000347243
   5   H   :   -0.000302305   -0.000003191    0.000156770
   6   C   :   -0.000455797   -0.000615846    0.000387461
   7   H   :    0.000058387   -0.000054833   -0.000000239
   8   C   :    0.000240049   -0.000562415    0.000297133
   9   O   :   -0.000950929    0.001189088   -0.000278319
  10   C   :   -0.000062456    0.000620328    0.001197110
  11   H   :    0.000163527    0.000197790   -0.000443275
  12   C   :    0.000295385   -0.000894181    0.001166861
  13   C   :    0.000831124    0.000141915    0.000781524
  14   C   :    0.000231904    0.000553467   -0.000285048
  15   C   :    0.000031657    0.000078096   -0.000063519
  16   C   :    0.000110300    0.000364693   -0.000300759
  17   C   :   -0.001084679   -0.000049722   -0.001160035
  18   O   :    0.000634710   -0.001019147   -0.000858589
  19   O   :   -0.000636358    0.001704474    0.000403242
  20   C   :   -0.001425950   -0.000924634   -0.000384089
  21   H   :    0.000504052    0.000529558    0.000081961
  22   O   :    0.000833134   -0.000991496    0.000794669
  23   C   :   -0.001123086   -0.000373898    0.000018647
  24   C   :    0.000160677   -0.001427012   -0.000955148
  25   H   :    0.000102615    0.000613420    0.000218926
  26   O   :    0.000137362    0.001054156    0.000197912
  27   H   :    0.001131209    0.000276663   -0.000336302
  28   H   :   -0.000071298   -0.000007707   -0.000151796
  29   H   :    0.000058206   -0.000371548   -0.000228630
  30   H   :   -0.000048054   -0.000270431    0.000200538
  31   H   :    0.000262769    0.000180248    0.000077639
  32   H   :    0.000115679    0.000221272   -0.000166501
  33   H   :   -0.000118760    0.000152847   -0.000294252
  34   H   :   -0.000219368   -0.000372362    0.000117215
  35   H   :    0.000113131   -0.000077983    0.000075537
  36   H   :    0.000073343    0.000134720   -0.000136344
  37   H   :    0.000198345    0.000228742    0.000040645
  38   H   :    0.000378754   -0.001033784   -0.000368460

Difference to translation invariance:
           :   -0.0000000000   -0.0000000000    0.0000000000

Difference to rotation invariance:
           :    0.0005414250    0.0004787370   -0.0003266289

Norm of the Cartesian gradient     ...    0.0062694184
RMS gradient                       ...    0.0005871848
MAX gradient                       ...    0.0017044740
------------------------------------------------------------------------------
                         ORCA GEOMETRY RELAXATION STEP
------------------------------------------------------------------------------

Reading the OPT-File                    .... done
Getting information on internals        .... done
Copying old internal coords+grads       .... done
Making the new internal coordinates     .... (2022 redundants) done
Validating the new internal coordinates .... (2022 redundants) done
Calculating the B-matrix                .... done
Calculating the G,G- and P matrices     .... done
Transforming gradient to internals      .... done
Projecting the internal gradient        .... done
Number of atoms                         ....  38
Number of internal coordinates          .... 203
Current Energy                          ....   -63.588484726 Eh
Current gradient norm                   ....     0.006269418 Eh/bohr
Maximum allowed component of the step   ....  0.300
Current trust radius                    ....  0.450
Updating the Hessian (BFGS)             .... done
Forming the augmented Hessian           .... done
Diagonalizing the augmented Hessian     .... done
Last element of RFO vector              ....  0.998220511
Lowest eigenvalues of augmented Hessian:
 -0.000133823  0.011551792  0.014662448  0.015281825  0.016476337
Length of the computed step             ....  0.059736921
The final length of the internal step   ....  0.059736921
Converting the step to Cartesian space:
 Initial RMS(Int)=    0.0041927099
Transforming coordinates:
 Iter   0:  RMS(Cart)=    0.0100378254 RMS(Int)=    0.6236407852
done
Storing new coordinates                 .... done
The predicted energy change is          ....    -0.000067150
Previously predicted energy change      ....    -0.000303682
Actually observed energy change         ....    -0.000386716
Ratio of predicted to observed change   ....     1.273427061
New trust radius                        ....     0.450000000

                                .--------------------.
          ----------------------|Geometry convergence|-------------------------
          Item                value                   Tolerance       Converged
          ---------------------------------------------------------------------
          Energy change      -0.0003867163            0.0000050000      NO
          RMS gradient        0.0003759517            0.0001000000      NO
          MAX gradient        0.0016150286            0.0003000000      NO
          RMS step            0.0041927099            0.0020000000      NO
          MAX step            0.0269551595            0.0040000000      NO
          -------------------------------------------------------------------------
          ........................................................
          Max(Bonds)      0.0143      Max(Angles)    0.48
          Max(Dihed)        0.86      Max(Improp)    0.00
          ---------------------------------------------------------------------

    ---------------------------------------------------------------------------
                         Redundant Internal Coordinates
                            (Angstroem and degrees)

        Definition                    Value    dE/dq     Step     New-Value
    ----------------------------------------------------------------------------
     1. B(C   1,O   0)                1.4070  0.000676 -0.0019    1.4051   
     2. B(H   2,C   1)                1.1021 -0.000091  0.0004    1.1025   
     3. B(C   3,C   1)                1.5250 -0.000128  0.0006    1.5256   
     4. B(H   4,C   3)                1.1042 -0.000030  0.0003    1.1044   
     5. B(C   5,C   3)                1.5327 -0.000471  0.0012    1.5338   
     6. B(H   6,C   5)                1.1036  0.000022  0.0001    1.1037   
     7. B(C   7,C   5)                1.5317  0.000153  0.0000    1.5318   
     8. B(O   8,C   7)                1.4106 -0.000887  0.0010    1.4115   
     9. B(C   9,O   8)                1.4018 -0.000974  0.0005    1.4024   
    10. B(H  10,C   9)                1.1139  0.000350 -0.0002    1.1138   
    11. B(C  11,C   9)                1.5085 -0.000174  0.0003    1.5088   
    12. B(C  12,C  11)                1.3868 -0.001190  0.0011    1.3878   
    13. B(C  13,C  12)                1.3837 -0.001051  0.0010    1.3847   
    14. B(C  14,C  13)                1.3846 -0.000592  0.0005    1.3851   
    15. B(C  15,C  14)                1.3847 -0.000589  0.0005    1.3852   
    16. B(C  16,C  15)                1.3834 -0.000913  0.0008    1.3842   
    17. B(C  16,C  11)                1.3860 -0.001615  0.0016    1.3876   
    18. B(O  17,C   9)                1.4119 -0.001433  0.0016    1.4135   
    19. B(O  17,C   3)                1.4137 -0.000105 -0.0003    1.4134   
    20. B(O  18,C   5)                1.4033 -0.000038 -0.0006    1.4027   
    21. B(C  19,O  18)                1.4172 -0.001535  0.0020    1.4192   
    22. B(H  20,C  19)                1.1124  0.000339 -0.0002    1.1123   
    23. B(O  21,C  19)                1.3775 -0.001267  0.0002    1.3776   
    24. B(C  22,O  21)                1.4187 -0.000741  0.0012    1.4199   
    25. B(C  23,C  19)                1.5377 -0.001264  0.0029    1.5406   
    26. B(C  23,C   1)                1.5371 -0.000356  0.0015    1.5386   
    27. B(H  24,C  23)                1.0996 -0.000155  0.0005    1.1001   
    28. B(O  25,C  23)                1.4024  0.000121 -0.0012    1.4012   
    29. B(H  26,O   0)                0.9655 -0.000842  0.0009    0.9663   
    30. B(H  26,O  17)                2.5084 -0.000259  0.0100    2.5183   
    31. B(H  27,C   7)                1.0900 -0.000070 -0.0000    1.0900   
    32. B(H  28,C   7)                1.1001  0.000193 -0.0003    1.0997   
    33. B(H  29,C  12)                1.0802 -0.000223  0.0002    1.0804   
    34. B(H  30,C  13)                1.0795 -0.000328  0.0005    1.0800   
    35. B(H  31,C  14)                1.0796 -0.000299  0.0004    1.0800   
    36. B(H  32,C  15)                1.0795 -0.000343  0.0005    1.0800   
    37. B(H  33,C  16)                1.0778 -0.000327  0.0004    1.0782   
    38. B(H  34,C  22)                1.0872 -0.000095 -0.0000    1.0872   
    39. B(H  35,C  22)                1.0924 -0.000024 -0.0000    1.0924   
    40. B(H  36,C  22)                1.0957  0.000164 -0.0003    1.0954   
    41. B(H  37,O   0)                2.4794 -0.000365  0.0143    2.4936   
    42. B(H  37,O  25)                0.9675 -0.000587  0.0005    0.9681   
    43. A(C   1,O   0,H  26)          107.55 -0.001238    0.47    108.02   
    44. A(O   0,C   1,H   2)          109.93 -0.000140    0.24    110.17   
    45. A(H   2,C   1,C   3)          108.79  0.000283   -0.24    108.55   
    46. A(H   2,C   1,C  23)          108.91  0.000024   -0.13    108.78   
    47. A(O   0,C   1,C   3)          112.46 -0.000057    0.16    112.62   
    48. A(O   0,C   1,C  23)          107.50  0.000093   -0.02    107.47   
    49. A(C   3,C   1,C  23)          109.20 -0.000206   -0.02    109.18   
    50. A(H   4,C   3,C   5)          108.89  0.000211   -0.23    108.66   
    51. A(H   4,C   3,O  17)          109.73  0.000191    0.06    109.79   
    52. A(C   1,C   3,C   5)          108.96  0.000050    0.01    108.97   
    53. A(C   5,C   3,O  17)          110.13 -0.000585    0.10    110.22   
    54. A(C   1,C   3,H   4)          109.14 -0.000146    0.06    109.19   
    55. A(C   1,C   3,O  17)          109.97  0.000280    0.01    109.98   
    56. A(C   7,C   5,O  18)          111.34  0.000277   -0.10    111.24   
    57. A(H   6,C   5,O  18)          110.42 -0.000100    0.06    110.48   
    58. A(C   3,C   5,C   7)          107.60  0.000272   -0.09    107.51   
    59. A(H   6,C   5,C   7)          108.81 -0.000137    0.11    108.92   
    60. A(C   3,C   5,O  18)          110.22 -0.000334    0.08    110.30   
    61. A(C   3,C   5,H   6)          108.36  0.000028   -0.06    108.30   
    62. A(O   8,C   7,H  27)          106.62  0.000179   -0.12    106.51   
    63. A(C   5,C   7,H  27)          111.69  0.000234    0.01    111.70   
    64. A(C   5,C   7,O   8)          108.84 -0.000645    0.18    109.02   
    65. A(O   8,C   7,H  28)          110.83 -0.000257    0.08    110.91   
    66. A(C   5,C   7,H  28)          109.38  0.000533   -0.29    109.09   
    67. A(H  27,C   7,H  28)          109.46 -0.000066    0.14    109.59   
    68. A(C   7,O   8,C   9)          112.95  0.000508   -0.00    112.94   
    69. A(H  10,C   9,O  17)          108.02 -0.000023   -0.04    107.98   
    70. A(O   8,C   9,O  17)          111.94  0.000029    0.01    111.95   
    71. A(O   8,C   9,C  11)          109.53 -0.000091    0.01    109.54   
    72. A(O   8,C   9,H  10)          108.70 -0.000155    0.09    108.79   
    73. A(C  11,C   9,O  17)          107.79  0.000018   -0.03    107.75   
    74. A(H  10,C   9,C  11)          110.86  0.000230   -0.03    110.83   
    75. A(C   9,C  11,C  12)          120.24 -0.000367    0.08    120.31   
    76. A(C  12,C  11,C  16)          119.70 -0.000007    0.06    119.76   
    77. A(C   9,C  11,C  16)          120.04  0.000375   -0.13    119.91   
    78. A(C  11,C  12,H  29)          119.96  0.000159   -0.06    119.90   
    79. A(C  13,C  12,H  29)          119.91 -0.000361    0.12    120.03   
    80. A(C  11,C  12,C  13)          120.13  0.000202   -0.06    120.06   
    81. A(C  14,C  13,H  30)          120.12  0.000068   -0.01    120.12   
    82. A(C  12,C  13,H  30)          119.77  0.000006   -0.01    119.76   
    83. A(C  12,C  13,C  14)          120.11 -0.000074    0.01    120.12   
    84. A(C  13,C  14,H  31)          120.07  0.000146   -0.03    120.05   
    85. A(C  13,C  14,C  15)          119.80 -0.000283    0.05    119.85   
    86. A(C  15,C  14,H  31)          120.13  0.000137   -0.02    120.11   
    87. A(C  16,C  15,H  32)          119.73 -0.000052    0.01    119.74   
    88. A(C  14,C  15,H  32)          120.11  0.000094   -0.02    120.09   
    89. A(C  14,C  15,C  16)          120.16 -0.000042    0.01    120.17   
    90. A(C  11,C  16,C  15)          120.10  0.000203   -0.06    120.04   
    91. A(C  15,C  16,H  33)          120.65 -0.000410    0.15    120.80   
    92. A(C  11,C  16,H  33)          119.24  0.000207   -0.08    119.16   
    93. A(C   3,O  17,C   9)          111.34  0.000362    0.02    111.36   
    94. A(C   5,O  18,C  19)          112.71  0.000248    0.03    112.75   
    95. A(O  18,C  19,O  21)          108.21 -0.000448    0.16    108.38   
    96. A(O  21,C  19,C  23)          107.73  0.000072   -0.01    107.72   
    97. A(H  20,C  19,C  23)          108.31  0.000309   -0.25    108.06   
    98. A(O  18,C  19,C  23)          112.75  0.000214    0.03    112.79   
    99. A(H  20,C  19,O  21)          110.91 -0.000356    0.27    111.17   
   100. A(O  18,C  19,H  20)          108.94  0.000193   -0.18    108.76   
   101. A(C  19,O  21,C  22)          114.58  0.000381    0.02    114.61   
   102. A(H  35,C  22,H  36)          109.64  0.000005   -0.06    109.58   
   103. A(H  34,C  22,H  36)          109.83 -0.000247    0.14    109.97   
   104. A(O  21,C  22,H  36)          110.61  0.000258   -0.08    110.53   
   105. A(H  34,C  22,H  35)          110.07 -0.000211    0.15    110.22   
   106. A(O  21,C  22,H  35)          110.96  0.000155   -0.05    110.92   
   107. A(O  21,C  22,H  34)          105.66  0.000034   -0.10    105.57   
   108. A(H  24,C  23,O  25)          110.53 -0.000250    0.29    110.82   
   109. A(C  19,C  23,O  25)          107.26 -0.000356   -0.09    107.17   
   110. A(C   1,C  23,O  25)          110.48  0.000361    0.16    110.65   
   111. A(C  19,C  23,H  24)          107.69  0.000071   -0.18    107.51   
   112. A(C   1,C  23,H  24)          108.99  0.000263   -0.27    108.72   
   113. A(C   1,C  23,C  19)          111.84 -0.000112    0.09    111.92   
   114. A(C  23,O  25,H  37)          107.01 -0.001232    0.48    107.49   
   115. D(C   3,C   1,O   0,H  26)     52.26  0.000092    0.36     52.62   
   116. D(C  23,C   1,O   0,H  26)    172.48 -0.000137    0.42    172.90   
   117. D(H   2,C   1,O   0,H  26)    -69.11 -0.000133    0.38    -68.73   
   118. D(C   5,C   3,C   1,C  23)     54.85  0.000077   -0.00     54.85   
   119. D(H   4,C   3,C   1,O   0)     55.30 -0.000180    0.30     55.60   
   120. D(H   4,C   3,C   1,C  23)    -63.93 -0.000122    0.24    -63.70   
   121. D(C   5,C   3,C   1,H   2)    -63.90  0.000003    0.30    -63.59   
   122. D(H   4,C   3,C   1,H   2)    177.32 -0.000197    0.54    177.86   
   123. D(C   5,C   3,C   1,O   0)    174.08  0.000019    0.06    174.14   
   124. D(C   7,C   5,C   3,O  17)     55.39  0.000038   -0.07     55.32   
   125. D(C   7,C   5,C   3,C   1)    176.09  0.000053   -0.00    176.09   
   126. D(C   7,C   5,C   3,H   4)    -64.97  0.000029   -0.07    -65.03   
   127. D(H   6,C   5,C   3,O  17)    -62.11  0.000039   -0.12    -62.23   
   128. D(H   6,C   5,C   3,H   4)    177.54  0.000030   -0.11    177.43   
   129. D(H   6,C   5,C   3,C   1)     58.59  0.000054   -0.05     58.55   
   130. D(H  27,C   7,C   5,H   6)    -54.94  0.000038    0.09    -54.85   
   131. D(H  27,C   7,C   5,O  18)     66.98 -0.000000    0.17     67.15   
   132. D(H  27,C   7,C   5,C   3)   -172.15 -0.000070    0.16   -171.99   
   133. D(O   8,C   7,C   5,H   6)     62.51 -0.000006    0.07     62.58   
   134. D(O   8,C   7,C   5,C   3)    -54.69 -0.000115    0.13    -54.56   
   135. D(O   8,C   7,C   5,O  18)   -175.57 -0.000045    0.15   -175.42   
   136. D(C   9,O   8,C   7,H  28)    -62.21 -0.000129    0.07    -62.14   
   137. D(C   9,O   8,C   7,H  27)    178.74 -0.000015   -0.07    178.68   
   138. D(C   9,O   8,C   7,C   5)     58.12 -0.000042   -0.11     58.00   
   139. D(O  17,C   9,O   8,C   7)    -60.09 -0.000158    0.19    -59.90   
   140. D(C  11,C   9,O   8,C   7)   -179.59 -0.000139    0.22   -179.37   
   141. D(H  10,C   9,O   8,C   7)     59.15 -0.000269    0.20     59.34   
   142. D(C  12,C  11,C   9,O  17)     96.98 -0.000030    0.56     97.54   
   143. D(C  12,C  11,C   9,H  10)    -21.04 -0.000144    0.65    -20.40   
   144. D(C  12,C  11,C   9,O   8)   -141.00 -0.000038    0.56   -140.45   
   145. D(C  16,C  11,C   9,O   8)     40.79 -0.000039    0.57     41.35   
   146. D(C  16,C  11,C   9,H  10)    160.74 -0.000145    0.66    161.40   
   147. D(H  29,C  12,C  11,C  16)    179.88  0.000022   -0.03    179.85   
   148. D(H  29,C  12,C  11,C   9)      1.66  0.000014   -0.02      1.64   
   149. D(C  13,C  12,C  11,C  16)     -0.17  0.000025   -0.06     -0.22   
   150. D(C  13,C  12,C  11,C   9)   -178.38  0.000017   -0.04   -178.43   
   151. D(H  30,C  13,C  12,H  29)     -0.05 -0.000006   -0.00     -0.05   
   152. D(H  30,C  13,C  12,C  11)    180.00 -0.000008    0.02    180.02   
   153. D(C  14,C  13,C  12,H  29)    179.83 -0.000022    0.04    179.87   
   154. D(C  14,C  13,C  12,C  11)     -0.12 -0.000025    0.06     -0.06   
   155. D(H  31,C  14,C  13,H  30)      0.14  0.000002   -0.01      0.13   
   156. D(C  15,C  14,C  13,C  12)      0.15  0.000009   -0.03      0.12   
   157. D(H  31,C  14,C  13,C  12)   -179.74  0.000018   -0.05   -179.78   
   158. D(C  15,C  14,C  13,H  30)   -179.97 -0.000007    0.01   -179.96   
   159. D(H  32,C  15,C  14,H  31)     -0.15 -0.000006    0.01     -0.14   
   160. D(H  32,C  15,C  14,C  13)    179.96  0.000002   -0.01    179.96   
   161. D(C  16,C  15,C  14,H  31)    180.00 -0.000005    0.02    180.01   
   162. D(C  16,C  15,C  14,C  13)      0.11  0.000003   -0.00      0.11   
   163. D(H  33,C  16,C  15,H  32)      0.42  0.000007   -0.01      0.41   
   164. D(C  11,C  16,C  15,H  32)    179.75 -0.000003    0.01    179.76   
   165. D(C  11,C  16,C  15,C  14)     -0.40 -0.000004    0.00     -0.39   
   166. D(H  33,C  16,C  11,C  12)    179.76 -0.000024    0.04    179.81   
   167. D(H  33,C  16,C  11,C   9)     -2.01 -0.000030    0.03     -1.98   
   168. D(H  33,C  16,C  15,C  14)   -179.73  0.000006   -0.01   -179.74   
   169. D(C  15,C  16,C  11,C  12)      0.43 -0.000010    0.02      0.45   
   170. D(C  15,C  16,C  11,C   9)    178.65 -0.000015    0.01    178.66   
   171. D(C   3,O  17,C   9,C  11)    179.58 -0.000121   -0.07    179.51   
   172. D(C   3,O  17,C   9,H  10)    -60.58  0.000151   -0.15    -60.73   
   173. D(C   3,O  17,C   9,O   8)     59.06 -0.000037   -0.06     59.00   
   174. D(C   9,O  17,C   3,C   5)    -57.66  0.000041   -0.01    -57.67   
   175. D(C   9,O  17,C   3,H   4)     62.19  0.000057   -0.19     61.99   
   176. D(C   9,O  17,C   3,C   1)   -177.75  0.000172   -0.08   -177.83   
   177. D(C  19,O  18,C   5,C   3)     63.09 -0.000171   -0.05     63.04   
   178. D(C  19,O  18,C   5,C   7)   -177.59  0.000127   -0.17   -177.76   
   179. D(C  19,O  18,C   5,H   6)    -56.60  0.000071   -0.06    -56.66   
   180. D(C  23,C  19,O  18,C   5)    -56.43 -0.000382    0.30    -56.13   
   181. D(O  21,C  19,O  18,C   5)   -175.49 -0.000305    0.19   -175.30   
   182. D(H  20,C  19,O  18,C   5)     63.84  0.000278   -0.12     63.72   
   183. D(C  22,O  21,C  19,C  23)    167.18  0.000099   -0.32    166.86   
   184. D(C  22,O  21,C  19,H  20)     48.80 -0.000117   -0.16     48.65   
   185. D(C  22,O  21,C  19,O  18)    -70.64  0.000138   -0.19    -70.83   
   186. D(H  36,C  22,O  21,C  19)    -60.45 -0.000155    0.11    -60.34   
   187. D(H  35,C  22,O  21,C  19)     61.46  0.000134   -0.05     61.41   
   188. D(H  34,C  22,O  21,C  19)   -179.26 -0.000015    0.04   -179.22   
   189. D(H  24,C  23,C  19,O  21)     48.74 -0.000217    0.29     49.03   
   190. D(H  24,C  23,C  19,H  20)    168.77 -0.000428    0.46    169.22   
   191. D(H  24,C  23,C  19,O  18)    -70.60  0.000161    0.07    -70.52   
   192. D(C   1,C  23,C  19,O  21)    168.46  0.000085   -0.11    168.36   
   193. D(C   1,C  23,C  19,H  20)    -71.51 -0.000126    0.06    -71.45   
   194. D(C   1,C  23,C  19,O  18)     49.13  0.000464   -0.32     48.81   
   195. D(H  24,C  23,C   1,C   3)     70.00  0.000000   -0.18     69.82   
   196. D(H  24,C  23,C   1,H   2)   -171.32  0.000236   -0.56   -171.88   
   197. D(H  24,C  23,C   1,O   0)    -52.26  0.000135   -0.35    -52.62   
   198. D(C  19,C  23,C   1,C   3)    -48.96 -0.000189    0.16    -48.79   
   199. D(C  19,C  23,C   1,H   2)     69.72  0.000047   -0.21     69.51   
   200. D(C  19,C  23,C   1,O   0)   -171.22 -0.000054   -0.01   -171.23   
   201. D(H  37,O  25,C  23,H  24)     65.16  0.000332   -0.75     64.41   
   202. D(H  37,O  25,C  23,C  19)   -177.70  0.000075   -0.86   -178.55   
   203. D(H  37,O  25,C  23,C   1)    -55.56 -0.000072   -0.72    -56.28   
    ----------------------------------------------------------------------------

Geometry step timings:
Preparation and reading OPT file:      0.001 s ( 5.387 %)
Internal coordinates            :      0.000 s ( 0.150 %)
B/P matrices and projection     :      0.003 s (15.339 %)
Hessian update/contruction      :      0.010 s (53.028 %)
Making the step                 :      0.002 s (10.769 %)
Converting the step to Cartesian:      0.000 s ( 1.325 %)
Storing new data                :      0.001 s ( 4.976 %)
Checking convergence            :      0.000 s ( 0.139 %)
Final printing                  :      0.002 s ( 8.877 %)
Total time                      :      0.019 s

Time for energy+gradient        :      0.073 s
Time for complete geometry iter :      0.108 s

         *************************************************************
         *                GEOMETRY OPTIMIZATION CYCLE   5            *
         *************************************************************
---------------------------------
CARTESIAN COORDINATES (ANGSTROEM)
---------------------------------
  O    -2.781988    2.912955    0.112036
  C    -1.382432    2.789046    0.101240
  H    -0.997892    2.731931    1.132928
  C    -0.908395    1.556292   -0.662459
  H    -1.319854    1.583419   -1.687021
  C     0.622876    1.581029   -0.747791
  H     1.026919    1.600809    0.279151
  C     1.067297    0.284360   -1.431466
  O     0.523519   -0.814406   -0.731886
  C    -0.876545   -0.778271   -0.660325
  H    -1.288754   -0.776725   -1.695025
  C    -1.373415   -1.974577    0.113259
  C    -2.518186   -2.645528   -0.293416
  C    -2.987948   -3.722720    0.438867
  C    -2.316403   -4.134514    1.578145
  C    -1.174428   -3.464538    1.985340
  C    -0.704973   -2.384427    1.258099
  O    -1.342193    0.383545   -0.003471
  O     1.052162    2.706952   -1.465848
  C     0.700973    3.927875   -0.833302
  H     1.226544    3.987949    0.145109
  O     1.068419    4.966779   -1.660076
  C     2.469481    5.172579   -1.763888
  C    -0.812174    4.050181   -0.570902
  H    -1.306966    4.186118   -1.543954
  O    -1.001046    5.173374    0.245212
  H    -3.153533    2.078947    0.428587
  H     2.150252    0.164371   -1.402948
  H     0.724531    0.292900   -2.476382
  H    -3.041865   -2.326811   -1.183048
  H    -3.879085   -4.241523    0.117810
  H    -2.681884   -4.977010    2.146464
  H    -0.648125   -3.781845    2.873439
  H     0.185211   -1.858232    1.563455
  H     2.590837    6.022946   -2.430282
  H     2.963085    4.292090   -2.181620
  H     2.897794    5.402369   -0.782216
  H    -1.948486    5.241282    0.431987

----------------------------
CARTESIAN COORDINATES (A.U.)
----------------------------
  NO LB    ZA    FRAG    MASS        X           Y           Z
   0 O   8.0000    1    15.999   -5.257195    5.504687    0.211717
   1 C   6.0000    1    12.011   -2.612417    5.270533    0.191316
   2 H   1.0000    1     1.008   -1.885743    5.162602    2.140923
   3 C   6.0000    1    12.011   -1.716618    2.940966   -1.251867
   4 H   1.0000    1     1.008   -2.494163    2.992228   -3.188008
   5 C   6.0000    1    12.011    1.177064    2.987711   -1.413121
   6 H   1.0000    1     1.008    1.940596    3.025091    0.527520
   7 C   6.0000    1    12.011    2.016898    0.537362   -2.705079
   8 O   8.0000    1    15.999    0.989307   -1.539004   -1.383065
   9 C   6.0000    1    12.011   -1.656430   -1.470719   -1.247832
  10 H   1.0000    1     1.008   -2.435392   -1.467797   -3.203133
  11 C   6.0000    1    12.011   -2.595378   -3.731410    0.214028
  12 C   6.0000    1    12.011   -4.758682   -4.999323   -0.554476
  13 C   6.0000    1    12.011   -5.646403   -7.034922    0.829338
  14 C   6.0000    1    12.011   -4.377367   -7.813100    2.982262
  15 C   6.0000    1    12.011   -2.219348   -6.547028    3.751750
  16 C   6.0000    1    12.011   -1.332206   -4.505913    2.377462
  17 O   8.0000    1    15.999   -2.536378    0.724795   -0.006558
  18 O   8.0000    1    15.999    1.988298    5.115398   -2.770050
  19 C   6.0000    1    12.011    1.324648    7.422608   -1.574712
  20 H   1.0000    1     1.008    2.317833    7.536131    0.274216
  21 O   8.0000    1    15.999    2.019020    9.385852   -3.137090
  22 C   6.0000    1    12.011    4.666642    9.774758   -3.333265
  23 C   6.0000    1    12.011   -1.534786    7.653733   -1.078849
  24 H   1.0000    1     1.008   -2.469808    7.910616   -2.917650
  25 O   8.0000    1    15.999   -1.891703    9.776260    0.463383
  26 H   1.0000    1     1.008   -5.959313    3.928641    0.809913
  27 H   1.0000    1     1.008    4.063388    0.310616   -2.651188
  28 H   1.0000    1     1.008    1.369165    0.553501   -4.679684
  29 H   1.0000    1     1.008   -5.748293   -4.397036   -2.235638
  30 H   1.0000    1     1.008   -7.330408   -8.015318    0.222629
  31 H   1.0000    1     1.008   -5.068027   -9.405186    4.056229
  32 H   1.0000    1     1.008   -1.224779   -7.146650    5.430013
  33 H   1.0000    1     1.008    0.349999   -3.511550    2.954501
  34 H   1.0000    1     1.008    4.895973   11.381719   -4.592568
  35 H   1.0000    1     1.008    5.599419    8.110875   -4.122664
  36 H   1.0000    1     1.008    5.476038   10.208997   -1.478174
  37 H   1.0000    1     1.008   -3.682104    9.904588    0.816338

      -----------------------------------------------------------      
     |                   =====================                   |     
     |                           x T B                           |     
     |                   =====================                   |     
     |                         S. Grimme                         |     
     |          Mulliken Center for Theoretical Chemistry        |     
     |                    University of Bonn                     |     
      -----------------------------------------------------------      

   * xtb version 6.7.1 (edcfbbe) compiled by 'albert@albert-system' on 2024-07-22

   xtb is free software: you can redistribute it and/or modify it under
   the terms of the GNU Lesser General Public License as published by
   the Free Software Foundation, either version 3 of the License, or
   (at your option) any later version.
   
   xtb is distributed in the hope that it will be useful,
   but WITHOUT ANY WARRANTY; without even the implied warranty of
   MERCHANTABILITY or FITNESS FOR A PARTICULAR PURPOSE.  See the
   GNU Lesser General Public License for more details.
   
   Cite this work as:
   * C. Bannwarth, E. Caldeweyher, S. Ehlert, A. Hansen, P. Pracht,
     J. Seibert, S. Spicher, S. Grimme, WIREs Comput. Mol. Sci., 2020, 11,
     e01493. DOI: 10.1002/wcms.1493
   
   for GFN2-xTB:
   * C. Bannwarth, S. Ehlert and S. Grimme., J. Chem. Theory Comput., 2019,
     15, 1652-1671. DOI: 10.1021/acs.jctc.8b01176
   for GFN1-xTB:
   * S. Grimme, C. Bannwarth, P. Shushkov, J. Chem. Theory Comput., 2017,
     13, 1989-2009. DOI: 10.1021/acs.jctc.7b00118
   for GFN0-xTB:
   * P. Pracht, E. Caldeweyher, S. Ehlert, S. Grimme, ChemRxiv, 2019, preprint.
     DOI: 10.26434/chemrxiv.8326202.v1
   for GFN-FF:
   * S. Spicher and S. Grimme, Angew. Chem. Int. Ed., 2020, 59, 15665-15673.
     DOI: 10.1002/anie.202004239
   
   for ALPB and GBSA implicit solvation:
   * S. Ehlert, M. Stahn, S. Spicher, S. Grimme, J. Chem. Theory Comput.,
     2021, 17, 4250-4261. DOI: 10.1021/acs.jctc.1c00471
   
   for ddCOSMO and CPCM-X implicit solvation:
   * M. Stahn, S. Ehlert, S. Grimme, J. Phys. Chem. A,
     2023, XX, XXXX-XXXX. DOI: 10.1021/acs.jpca.3c04382
   
   for DFT-D4:
   * E. Caldeweyher, C. Bannwarth and S. Grimme, J. Chem. Phys., 2017,
     147, 034112. DOI: 10.1063/1.4993215
   * E. Caldeweyher, S. Ehlert, A. Hansen, H. Neugebauer, S. Spicher,
     C. Bannwarth and S. Grimme, J. Chem. Phys., 2019, 150, 154122.
     DOI: 10.1063/1.5090222
   * E. Caldeweyher, J.-M. Mewes, S. Ehlert and S. Grimme, Phys. Chem. Chem. Phys.
     2020, 22, 8499-8512. DOI: 10.1039/D0CP00502A
   
   for sTDA-xTB:
   * S. Grimme and C. Bannwarth, J. Chem. Phys., 2016, 145, 054103.
     DOI: 10.1063/1.4959605
   
   in the mass-spec context:
   * V. Asgeirsson, C. Bauer and S. Grimme, Chem. Sci., 2017, 8, 4879.
     DOI: 10.1039/c7sc00601b
   * J. Koopman and S. Grimme, ACS Omega 2019, 4, 12, 15120-15133.
     DOI: 10.1021/acsomega.9b02011
   
   for metadynamics refer to:
   * S. Grimme, J. Chem. Theory Comput., 2019, 155, 2847-2862
     DOI: 10.1021/acs.jctc.9b00143
   
   for SPH calculations refer to:
   * S. Spicher and S. Grimme, J. Chem. Theory Comput., 2021, 17, 1701-1714
     DOI: 10.1021/acs.jctc.0c01306
   
   for ONIOM refer to:
   * C. Plett, A. Katbashev, S. Ehlert, S. Grimme, M. Bursch,
     Phys. Chem. Chem. Phys., 2023, 25, 17860-17868. DOI: 10.1039/D3CP02178E
   
   for DIPRO refer to:
   * J. Kohn, N. Gildemeister, S. Grimme, D. Fazzi, A. Hansen,
     J. Chem. Phys., 2023, just accepted.
   
   for PTB refer to:
   * S. Grimme, M. Mueller, A. Hansen, J. Chem. Phys., 2023, 158, 124111.
     DOI: 10.1063/5.0137838
   
   with help from (in alphabetical order)
   P. Atkinson, C. Bannwarth, F. Bohle, G. Brandenburg, E. Caldeweyher
   M. Checinski, S. Dohm, S. Ehlert, S. Ehrlich, I. Gerasimov, C. Hölzer
   A. Katbashev, J. Kohn, J. Koopman, C. Lavigne, S. Lehtola, F. März, M. Müller,
   F. Musil, H. Neugebauer, J. Pisarek, C. Plett, P. Pracht, F. Pultar,
   J. Seibert, P. Shushkov, S. Spicher, M. Stahn, M. Steiner, T. Strunk,
   J. Stückrath, T. Rose, and J. Unsleber
   
 * started run on 2025/10/31 at 09:56:12.125     
   ID    Z sym.   atoms
    1    8 O      1, 9, 18, 19, 22, 26
    2    6 C      2, 4, 6, 8, 10, 12-17, 20, 23, 24
    3    1 H      3, 5, 7, 11, 21, 25, 27-38

           -------------------------------------------------
          |                Calculation Setup                |
           -------------------------------------------------

          program call               : /home/kmoult/orca_6_1/otool_xtb goat_0_XTB.xyz --grad -c 0 -u 0 -P 4 --namespace goat_0 --input goat_0_XTB.input.tmp --alpb ACETONE --acc 0.200000
          hostname                   : node3103
          calculation namespace      : goat_0
          coordinate file            : goat_0_XTB.xyz
          omp threads                :                     4


           -------------------------------------------------
          |                 G F N 2 - x T B                 |
           -------------------------------------------------

        Reference                      10.1021/acs.jctc.8b01176
      * Hamiltonian:
        H0-scaling (s, p, d)           1.850000    2.230000    2.230000
        zeta-weighting                 0.500000
      * Dispersion:
        s8                             2.700000
        a1                             0.520000
        a2                             5.000000
        s9                             5.000000
      * Repulsion:
        kExp                           1.500000    1.000000
        rExp                           1.000000
      * Coulomb:
        alpha                          2.000000
        third order                    shell-resolved
        anisotropic                    true
        a3                             3.000000
        a5                             4.000000
        cn-shift                       1.200000
        cn-exp                         4.000000
        max-rad                        5.000000

      * Solvation model:               ALPB
        Solvent                        ACETONE
        Parameter file                 internal GFN2-xTB/ALPB
        Dielectric constant                2.0700E+01
        Reference state                gsolv [1 M gas/solution]
        Free energy shift                  5.9241E-03 Eh       3.7175E+00 kcal/mol
        Temperature                        2.9815E+02 K
        Density                            7.9000E-01 kg/L
        Solvent mass                       5.8080E+01 g/mol
        Interaction kernel             P16
        Born radius scaling (c1)           1.8274E+00
        Born radii integrator          GBOBC
        Born offset                        0.0000E+00 a0       0.0000E+00 AA
        H-bond correction              true
        Ion screening                  false
        Surface tension                    1.0000E-05 Eh       1.5569E+01 dyn/cm
        Grid points                               230 per atom
q/qsh data taken from xtbrestart
CAMM data taken from xtbrestart

          ...................................................
          :                      SETUP                      :
          :.................................................:
          :  # basis functions                  98          :
          :  # atomic orbitals                  98          :
          :  # shells                           58          :
          :  # electrons                       110          :
          :  max. iterations                   250          :
          :  Hamiltonian                  GFN2-xTB          :
          :  restarted?                       true          :
          :  GBSA solvation                   true          :
          :  PC potential                    false          :
          :  electronic temp.          300.0000000     K    :
          :  accuracy                    0.2000000          :
          :  -> integral cutoff          0.3198970E+02      :
          :  -> integral neglect         0.2000000E-08      :
          :  -> SCF convergence          0.2000000E-06 Eh   :
          :  -> wf. convergence          0.2000000E-04 e    :
          :  Broyden damping             0.4000000          :
          :  net charge                          0          :
          :  unpaired electrons                  0          :
          ...................................................

 iter      E             dE          RMSdq      gap      omega  full diag
   1    -64.2445123 -0.642445E+02  0.423E-02    4.75       0.0  T
   2    -64.2445132 -0.850097E-06  0.250E-02    4.75       1.0  T
   3    -64.2445129  0.308119E-06  0.384E-03    4.75       4.2  T
   4    -64.2445133 -0.461005E-06  0.945E-04    4.75      17.2  T
   5    -64.2445134 -0.151427E-07  0.526E-04    4.75      30.8  T
   6    -64.2445134 -0.198928E-08  0.174E-04    4.75      93.0  T
   7    -64.2445134 -0.651141E-10  0.713E-05    4.75     227.6  T

   *** convergence criteria satisfied after 7 iterations ***

         #    Occupation            Energy/Eh            Energy/eV
      -------------------------------------------------------------
         1        2.0000           -0.7324173             -19.9301
       ...           ...                  ...                  ...
        49        2.0000           -0.4287184             -11.6660
        50        2.0000           -0.4251810             -11.5698
        51        2.0000           -0.4221753             -11.4880
        52        2.0000           -0.4185186             -11.3885
        53        2.0000           -0.4116183             -11.2007
        54        2.0000           -0.4107971             -11.1784
        55        2.0000           -0.4087476             -11.1226 (HOMO)
        56                         -0.2343249              -6.3763 (LUMO)
        57                         -0.2291100              -6.2344
        58                         -0.1046135              -2.8467
        59                         -0.0372445              -1.0135
        60                         -0.0072284              -0.1967
       ...                                ...                  ...
        98                          0.6579153              17.9028
      -------------------------------------------------------------
                  HL-Gap            0.1744227 Eh            4.7463 eV
             Fermi-level           -0.3215362 Eh           -8.7494 eV

 SCC (total)                   0 d,  0 h,  0 min,  0.032 sec
 SCC setup                      ...        0 min,  0.000 sec (  1.410%)
 Dispersion                     ...        0 min,  0.000 sec (  0.711%)
 classical contributions        ...        0 min,  0.000 sec (  0.097%)
 integral evaluation            ...        0 min,  0.002 sec (  6.474%)
 iterations                     ...        0 min,  0.023 sec ( 72.092%)
 molecular gradient             ...        0 min,  0.006 sec ( 18.747%)
 printout                       ...        0 min,  0.000 sec (  0.427%)

         :::::::::::::::::::::::::::::::::::::::::::::::::::::
         ::                     SUMMARY                     ::
         :::::::::::::::::::::::::::::::::::::::::::::::::::::
         :: total energy             -63.588565696597 Eh    ::
         :: total w/o Gsasa/hb       -63.559510463762 Eh    ::
         :: gradient norm              0.002442483351 Eh/a0 ::
         :: HOMO-LUMO gap              4.746284422659 eV    ::
         ::.................................................::
         :: SCC energy               -64.244392066461 Eh    ::
         :: -> isotropic ES            0.129878977897 Eh    ::
         :: -> anisotropic ES         -0.006397149531 Eh    ::
         :: -> anisotropic XC          0.001010999399 Eh    ::
         :: -> dispersion             -0.036423933867 Eh    ::
         :: -> Gsolv                  -0.032400175084 Eh    ::
         ::    -> Gelec               -0.003344942250 Eh    ::
         ::    -> Gsasa               -0.028299819795 Eh    ::
         ::    -> Ghb                 -0.006679554304 Eh    ::
         ::    -> Gshift               0.005924141264 Eh    ::
         :: repulsion energy           0.655826369865 Eh    ::
         :: add. restraining           0.000000000000 Eh    ::
         :: total charge              -0.000000000000 e     ::
         :::::::::::::::::::::::::::::::::::::::::::::::::::::


Property printout bound to 'properties.out'

           -------------------------------------------------
          | TOTAL ENERGY              -63.588565696597 Eh   |
          | GRADIENT NORM               0.002442483351 Eh/α |
          | HOMO-LUMO GAP               4.746284422659 eV   |
           -------------------------------------------------

------------------------------------------------------------------------
 * finished run on 2025/10/31 at 09:56:12.181     
------------------------------------------------------------------------
 total:
 * wall-time:     0 d,  0 h,  0 min,  0.056 sec
 *  cpu-time:     0 d,  0 h,  0 min,  0.185 sec
 * ratio c/w:     3.328 speedup
 SCF:
 * wall-time:     0 d,  0 h,  0 min,  0.032 sec
 *  cpu-time:     0 d,  0 h,  0 min,  0.116 sec
 * ratio c/w:     3.595 speedup


-------------------------   --------------------
FINAL SINGLE POINT ENERGY       -63.588565696600
-------------------------   --------------------


-------------
DIPOLE MOMENT
-------------
                                X             Y             Z
Total Dipole Moment    :     -0.21000      -1.08300       0.27000
                        -----------------------------------------
Magnitude (a.u.)       :      1.13573
Magnitude (Debye)      :      2.88680


------------------
CARTESIAN GRADIENT
------------------

   1   O   :   -0.000201557    0.000429495    0.000058408
   2   C   :   -0.000193011   -0.000436412    0.000089416
   3   H   :    0.000136572    0.000108784   -0.000053737
   4   C   :   -0.000024137    0.000272137    0.000219057
   5   H   :   -0.000036304    0.000033880   -0.000027364
   6   C   :    0.000148299   -0.000163415   -0.000348189
   7   H   :   -0.000054962   -0.000071098    0.000072679
   8   C   :    0.000344514   -0.000298946   -0.000076443
   9   O   :   -0.000430598    0.000389986   -0.000011944
  10   C   :    0.000164729    0.000235177    0.000784267
  11   H   :   -0.000009080    0.000121602   -0.000412450
  12   C   :    0.000200435   -0.000332349    0.000377029
  13   C   :    0.000020861    0.000201803    0.000033002
  14   C   :   -0.000008780    0.000087998   -0.000097485
  15   C   :    0.000001778   -0.000112921    0.000136283
  16   C   :   -0.000054620   -0.000051400   -0.000031908
  17   C   :   -0.000065465    0.000177312   -0.000357462
  18   O   :    0.000101042   -0.000453040   -0.000459863
  19   O   :   -0.000236934    0.000449307    0.000374420
  20   C   :   -0.000277111   -0.000139688   -0.000799412
  21   H   :    0.000152654    0.000080639    0.000285950
  22   O   :    0.000479239   -0.000196282    0.000307808
  23   C   :   -0.000327998   -0.000025104   -0.000123084
  24   C   :   -0.000331429   -0.000310186    0.000186731
  25   H   :    0.000176123    0.000091120   -0.000091427
  26   O   :    0.000274591    0.000562062   -0.000074122
  27   H   :    0.000221637   -0.000150665   -0.000111684
  28   H   :   -0.000072848   -0.000075639    0.000029457
  29   H   :   -0.000083039    0.000015200   -0.000021362
  30   H   :   -0.000062562   -0.000074770   -0.000013751
  31   H   :   -0.000013496    0.000012067   -0.000018855
  32   H   :    0.000007854    0.000012641   -0.000010774
  33   H   :    0.000038361    0.000027411   -0.000005345
  34   H   :    0.000044586   -0.000080674    0.000094775
  35   H   :   -0.000082666    0.000026366    0.000007609
  36   H   :    0.000075646    0.000014489    0.000033679
  37   H   :    0.000095268    0.000013968    0.000005388
  38   H   :   -0.000117589   -0.000390856    0.000050702

Difference to translation invariance:
           :    0.0000000000    0.0000000000    0.0000000000

Difference to rotation invariance:
           :    0.0005187336    0.0004055335   -0.0001507525

Norm of the Cartesian gradient     ...    0.0024424834
RMS gradient                       ...    0.0002287595
MAX gradient                       ...    0.0007994124
------------------------------------------------------------------------------
                         ORCA GEOMETRY RELAXATION STEP
------------------------------------------------------------------------------

Reading the OPT-File                    .... done
Getting information on internals        .... done
Copying old internal coords+grads       .... done
Making the new internal coordinates     .... (2022 redundants) done
Validating the new internal coordinates .... (2022 redundants) done
Calculating the B-matrix                .... done
Calculating the G,G- and P matrices     .... done
Transforming gradient to internals      .... done
Projecting the internal gradient        .... done
Number of atoms                         ....  38
Number of internal coordinates          .... 203
Current Energy                          ....   -63.588565697 Eh
Current gradient norm                   ....     0.002442483 Eh/bohr
Maximum allowed component of the step   ....  0.300
Current trust radius                    ....  0.450
Updating the Hessian (BFGS)             .... done
Forming the augmented Hessian           .... done
Diagonalizing the augmented Hessian     .... done
Last element of RFO vector              ....  0.999293130
Lowest eigenvalues of augmented Hessian:
 -0.000023513  0.009894653  0.013694974  0.015330849  0.016452851
Length of the computed step             ....  0.037619693
The final length of the internal step   ....  0.037619693
Converting the step to Cartesian space:
 Initial RMS(Int)=    0.0026403849
Transforming coordinates:
 Iter   0:  RMS(Cart)=    0.0083674586 RMS(Int)=    0.0026420295
done
Storing new coordinates                 .... done
The predicted energy change is          ....    -0.000011773
Previously predicted energy change      ....    -0.000067150
Actually observed energy change         ....    -0.000080970
Ratio of predicted to observed change   ....     1.205806538
New trust radius                        ....     0.675000000

                                .--------------------.
          ----------------------|Geometry convergence|-------------------------
          Item                value                   Tolerance       Converged
          ---------------------------------------------------------------------
          Energy change      -0.0000809705            0.0000050000      NO
          RMS gradient        0.0001168493            0.0001000000      NO
          MAX gradient        0.0005828322            0.0003000000      NO
          RMS step            0.0026403849            0.0020000000      NO
          MAX step            0.0139436037            0.0040000000      NO
          -------------------------------------------------------------------------
          ........................................................
          Max(Bonds)      0.0074      Max(Angles)    0.18
          Max(Dihed)        0.66      Max(Improp)    0.00
          ---------------------------------------------------------------------

    ---------------------------------------------------------------------------
                         Redundant Internal Coordinates
                            (Angstroem and degrees)

        Definition                    Value    dE/dq     Step     New-Value
    ----------------------------------------------------------------------------
     1. B(C   1,O   0)                1.4051  0.000081 -0.0004    1.4046   
     2. B(H   2,C   1)                1.1025 -0.000013  0.0001    1.1026   
     3. B(C   3,C   1)                1.5257 -0.000002  0.0002    1.5258   
     4. B(H   4,C   3)                1.1044  0.000041 -0.0000    1.1044   
     5. B(C   5,C   3)                1.5338  0.000083 -0.0000    1.5338   
     6. B(H   6,C   5)                1.1037  0.000048 -0.0001    1.1037   
     7. B(C   7,C   5)                1.5318  0.000143 -0.0002    1.5316   
     8. B(O   8,C   7)                1.4115 -0.000125  0.0004    1.4119   
     9. B(C   9,O   8)                1.4024 -0.000354  0.0005    1.4029   
    10. B(H  10,C   9)                1.1138  0.000385 -0.0007    1.1131   
    11. B(C  11,C   9)                1.5088  0.000130 -0.0001    1.5087   
    12. B(C  12,C  11)                1.3878 -0.000033  0.0002    1.3880   
    13. B(C  13,C  12)                1.3847 -0.000047  0.0002    1.3849   
    14. B(C  14,C  13)                1.3851  0.000085 -0.0000    1.3851   
    15. B(C  15,C  14)                1.3852  0.000003  0.0001    1.3853   
    16. B(C  16,C  15)                1.3842  0.000064  0.0001    1.3842   
    17. B(C  16,C  11)                1.3876 -0.000226  0.0005    1.3881   
    18. B(O  17,C   9)                1.4135 -0.000547  0.0009    1.4145   
    19. B(O  17,C   3)                1.4134  0.000056 -0.0002    1.4133   
    20. B(O  18,C   5)                1.4027  0.000055 -0.0002    1.4025   
    21. B(C  19,O  18)                1.4192 -0.000355  0.0008    1.4200   
    22. B(H  20,C  19)                1.1123  0.000327 -0.0006    1.1117   
    23. B(O  21,C  19)                1.3776 -0.000203  0.0002    1.3779   
    24. B(C  22,O  21)                1.4199 -0.000225  0.0005    1.4204   
    25. B(C  23,C  19)                1.5406  0.000020  0.0005    1.5411   
    26. B(C  23,C   1)                1.5386  0.000061  0.0003    1.5389   
    27. B(H  24,C  23)                1.1001  0.000017  0.0000    1.1001   
    28. B(O  25,C  23)                1.4012  0.000176 -0.0005    1.4007   
    29. B(H  26,O   0)                0.9663 -0.000008  0.0001    0.9665   
    30. B(H  26,O  17)                2.5183 -0.000060  0.0043    2.5226   
    31. B(H  27,C   7)                1.0900 -0.000060  0.0001    1.0900   
    32. B(H  28,C   7)                1.0997  0.000041 -0.0001    1.0996   
    33. B(H  29,C  12)                1.0804  0.000018  0.0000    1.0804   
    34. B(H  30,C  13)                1.0800  0.000010  0.0001    1.0800   
    35. B(H  31,C  14)                1.0800 -0.000018  0.0001    1.0801   
    36. B(H  32,C  15)                1.0800  0.000008  0.0001    1.0801   
    37. B(H  33,C  16)                1.0782  0.000025  0.0000    1.0782   
    38. B(H  34,C  22)                1.0872  0.000006 -0.0000    1.0871   
    39. B(H  35,C  22)                1.0924  0.000009 -0.0000    1.0924   
    40. B(H  36,C  22)                1.0954  0.000046 -0.0001    1.0953   
    41. B(H  37,O   0)                2.4936 -0.000104  0.0074    2.5010   
    42. B(H  37,O  25)                0.9681  0.000075 -0.0000    0.9680   
    43. A(C   1,O   0,H  26)          108.02 -0.000353    0.16    108.19   
    44. A(O   0,C   1,H   2)          110.17  0.000066    0.01    110.18   
    45. A(H   2,C   1,C   3)          108.55  0.000019   -0.05    108.50   
    46. A(H   2,C   1,C  23)          108.78 -0.000076    0.01    108.79   
    47. A(O   0,C   1,C   3)          112.62  0.000049    0.01    112.63   
    48. A(O   0,C   1,C  23)          107.47 -0.000028    0.01    107.48   
    49. A(C   3,C   1,C  23)          109.18 -0.000037    0.01    109.19   
    50. A(H   4,C   3,C   5)          108.66 -0.000021   -0.04    108.62   
    51. A(H   4,C   3,O  17)          109.79  0.000099    0.01    109.80   
    52. A(C   1,C   3,C   5)          108.97  0.000126   -0.03    108.94   
    53. A(C   5,C   3,O  17)          110.23 -0.000190    0.03    110.25   
    54. A(C   1,C   3,H   4)          109.19 -0.000046    0.02    109.22   
    55. A(C   1,C   3,O  17)          109.98  0.000032    0.01    109.99   
    56. A(C   7,C   5,O  18)          111.24  0.000259   -0.09    111.15   
    57. A(H   6,C   5,O  18)          110.48 -0.000061    0.02    110.49   
    58. A(C   3,C   5,C   7)          107.51  0.000069   -0.04    107.47   
    59. A(H   6,C   5,C   7)          108.92 -0.000057    0.05    108.97   
    60. A(C   3,C   5,O  18)          110.30 -0.000129    0.02    110.32   
    61. A(C   3,C   5,H   6)          108.30 -0.000085    0.03    108.33   
    62. A(O   8,C   7,H  27)          106.51  0.000009   -0.02    106.49   
    63. A(C   5,C   7,H  27)          111.70  0.000152   -0.03    111.67   
    64. A(C   5,C   7,O   8)          109.02 -0.000247    0.10    109.13   
    65. A(O   8,C   7,H  28)          110.91 -0.000012    0.01    110.92   
    66. A(C   5,C   7,H  28)          109.09  0.000025   -0.06    109.03   
    67. A(H  27,C   7,H  28)          109.60  0.000072   -0.01    109.59   
    68. A(C   7,O   8,C   9)          112.94  0.000257   -0.04    112.91   
    69. A(H  10,C   9,O  17)          107.98 -0.000106    0.03    108.01   
    70. A(O   8,C   9,O  17)          111.95  0.000054   -0.02    111.93   
    71. A(O   8,C   9,C  11)          109.54  0.000013   -0.01    109.53   
    72. A(O   8,C   9,H  10)          108.79 -0.000098    0.05    108.84   
    73. A(C  11,C   9,O  17)          107.76  0.000028   -0.03    107.73   
    74. A(H  10,C   9,C  11)          110.83  0.000111   -0.04    110.79   
    75. A(C   9,C  11,C  12)          120.31 -0.000192    0.05    120.36   
    76. A(C  12,C  11,C  16)          119.76  0.000053    0.00    119.76   
    77. A(C   9,C  11,C  16)          119.91  0.000139   -0.05    119.85   
    78. A(C  11,C  12,H  29)          119.90  0.000091   -0.03    119.87   
    79. A(C  13,C  12,H  29)          120.03 -0.000100    0.04    120.08   
    80. A(C  11,C  12,C  13)          120.06  0.000010   -0.01    120.05   
    81. A(C  14,C  13,H  30)          120.12  0.000021   -0.00    120.11   
    82. A(C  12,C  13,H  30)          119.76 -0.000026    0.00    119.77   
    83. A(C  12,C  13,C  14)          120.12  0.000006    0.00    120.12   
    84. A(C  13,C  14,H  31)          120.05  0.000048   -0.01    120.03   
    85. A(C  13,C  14,C  15)          119.85 -0.000095    0.02    119.87   
    86. A(C  15,C  14,H  31)          120.11  0.000047   -0.01    120.10   
    87. A(C  16,C  15,H  32)          119.74 -0.000071    0.01    119.75   
    88. A(C  14,C  15,H  32)          120.09  0.000022   -0.01    120.08   
    89. A(C  14,C  15,C  16)          120.17  0.000049   -0.01    120.16   
    90. A(C  11,C  16,C  15)          120.04 -0.000022   -0.01    120.03   
    91. A(C  15,C  16,H  33)          120.80 -0.000122    0.05    120.85   
    92. A(C  11,C  16,H  33)          119.16  0.000143   -0.04    119.11   
    93. A(C   3,O  17,C   9)          111.36  0.000191   -0.03    111.33   
    94. A(C   5,O  18,C  19)          112.75  0.000254   -0.04    112.71   
    95. A(O  18,C  19,O  21)          108.38  0.000004    0.02    108.40   
    96. A(O  21,C  19,C  23)          107.72  0.000067   -0.03    107.69   
    97. A(H  20,C  19,C  23)          108.06 -0.000014   -0.04    108.02   
    98. A(O  18,C  19,C  23)          112.78 -0.000006    0.01    112.80   
    99. A(H  20,C  19,O  21)          111.17 -0.000073    0.08    111.25   
   100. A(O  18,C  19,H  20)          108.76  0.000020   -0.04    108.72   
   101. A(C  19,O  21,C  22)          114.61  0.000583   -0.09    114.51   
   102. A(H  35,C  22,H  36)          109.58 -0.000084    0.00    109.58   
   103. A(H  34,C  22,H  36)          109.97 -0.000021    0.04    110.01   
   104. A(O  21,C  22,H  36)          110.53  0.000118   -0.04    110.49   
   105. A(H  34,C  22,H  35)          110.22  0.000025    0.02    110.24   
   106. A(O  21,C  22,H  35)          110.92  0.000127   -0.04    110.88   
   107. A(O  21,C  22,H  34)          105.56 -0.000165    0.02    105.58   
   108. A(H  24,C  23,O  25)          110.83 -0.000098    0.07    110.90   
   109. A(C  19,C  23,O  25)          107.17 -0.000084   -0.02    107.15   
   110. A(C   1,C  23,O  25)          110.65  0.000194   -0.00    110.65   
   111. A(C  19,C  23,H  24)          107.51 -0.000068    0.01    107.52   
   112. A(C   1,C  23,H  24)          108.72  0.000055   -0.08    108.64   
   113. A(C   1,C  23,C  19)          111.92 -0.000010    0.03    111.95   
   114. A(C  23,O  25,H  37)          107.49 -0.000410    0.18    107.67   
   115. D(C   3,C   1,O   0,H  26)     52.62 -0.000030    0.35     52.97   
   116. D(C  23,C   1,O   0,H  26)    172.90 -0.000065    0.37    173.27   
   117. D(H   2,C   1,O   0,H  26)    -68.73 -0.000136    0.39    -68.34   
   118. D(C   5,C   3,C   1,C  23)     54.85 -0.000032   -0.00     54.85   
   119. D(H   4,C   3,C   1,O   0)     55.60 -0.000083    0.07     55.67   
   120. D(H   4,C   3,C   1,C  23)    -63.70 -0.000054    0.05    -63.64   
   121. D(C   5,C   3,C   1,H   2)    -63.59  0.000069    0.01    -63.59   
   122. D(H   4,C   3,C   1,H   2)    177.86  0.000048    0.06    177.92   
   123. D(C   5,C   3,C   1,O   0)    174.14 -0.000061    0.02    174.16   
   124. D(C   7,C   5,C   3,O  17)     55.32 -0.000036    0.01     55.32   
   125. D(C   7,C   5,C   3,C   1)    176.09 -0.000034    0.02    176.10   
   126. D(C   7,C   5,C   3,H   4)    -65.03 -0.000029    0.00    -65.03   
   127. D(H   6,C   5,C   3,O  17)    -62.23  0.000040   -0.05    -62.28   
   128. D(H   6,C   5,C   3,H   4)    177.43  0.000047   -0.06    177.37   
   129. D(H   6,C   5,C   3,C   1)     58.55  0.000042   -0.05     58.50   
   130. D(H  27,C   7,C   5,H   6)    -54.85 -0.000019    0.07    -54.78   
   131. D(H  27,C   7,C   5,O  18)     67.15  0.000034    0.07     67.22   
   132. D(H  27,C   7,C   5,C   3)   -171.99  0.000075    0.02   -171.97   
   133. D(O   8,C   7,C   5,H   6)     62.58 -0.000072    0.10     62.68   
   134. D(O   8,C   7,C   5,C   3)    -54.56  0.000021    0.05    -54.51   
   135. D(O   8,C   7,C   5,O  18)   -175.42 -0.000020    0.10   -175.32   
   136. D(C   9,O   8,C   7,H  28)    -62.14  0.000085   -0.06    -62.20   
   137. D(C   9,O   8,C   7,H  27)    178.67 -0.000001   -0.05    178.62   
   138. D(C   9,O   8,C   7,C   5)     58.00 -0.000051   -0.07     57.93   
   139. D(O  17,C   9,O   8,C   7)    -59.90  0.000024    0.06    -59.85   
   140. D(C  11,C   9,O   8,C   7)   -179.37 -0.000054    0.11   -179.26   
   141. D(H  10,C   9,O   8,C   7)     59.34 -0.000137    0.13     59.47   
   142. D(C  12,C  11,C   9,O  17)     97.54 -0.000136    0.62     98.16   
   143. D(C  12,C  11,C   9,H  10)    -20.40 -0.000088    0.61    -19.78   
   144. D(C  12,C  11,C   9,O   8)   -140.45 -0.000045    0.58   -139.87   
   145. D(C  16,C  11,C   9,O   8)     41.35 -0.000048    0.56     41.91   
   146. D(C  16,C  11,C   9,H  10)    161.40 -0.000091    0.59    161.99   
   147. D(H  29,C  12,C  11,C  16)    179.85  0.000014   -0.03    179.82   
   148. D(H  29,C  12,C  11,C   9)      1.64  0.000010   -0.05      1.59   
   149. D(C  13,C  12,C  11,C  16)     -0.22  0.000009   -0.02     -0.24   
   150. D(C  13,C  12,C  11,C   9)   -178.43  0.000005   -0.04   -178.47   
   151. D(H  30,C  13,C  12,H  29)     -0.05 -0.000008    0.02     -0.03   
   152. D(H  30,C  13,C  12,C  11)   -179.98 -0.000003    0.01   -179.97   
   153. D(C  14,C  13,C  12,H  29)    179.87 -0.000011    0.03    179.89   
   154. D(C  14,C  13,C  12,C  11)     -0.06 -0.000006    0.02     -0.05   
   155. D(H  31,C  14,C  13,H  30)      0.13 -0.000001    0.00      0.13   
   156. D(C  15,C  14,C  13,C  12)      0.12 -0.000003    0.00      0.12   
   157. D(H  31,C  14,C  13,C  12)   -179.78  0.000002   -0.01   -179.80   
   158. D(C  15,C  14,C  13,H  30)   -179.96 -0.000006    0.01   -179.95   
   159. D(H  32,C  15,C  14,H  31)     -0.14 -0.000001    0.00     -0.13   
   160. D(H  32,C  15,C  14,C  13)    179.96  0.000004   -0.01    179.95   
   161. D(C  16,C  15,C  14,H  31)   -179.99  0.000003   -0.01   -179.99   
   162. D(C  16,C  15,C  14,C  13)      0.11  0.000008   -0.02      0.09   
   163. D(H  33,C  16,C  15,H  32)      0.41  0.000004   -0.01      0.40   
   164. D(C  11,C  16,C  15,H  32)    179.76 -0.000001    0.01    179.76   
   165. D(C  11,C  16,C  15,C  14)     -0.39 -0.000004    0.02     -0.38   
   166. D(H  33,C  16,C  11,C  12)    179.81 -0.000011    0.02    179.83   
   167. D(H  33,C  16,C  11,C   9)     -1.98 -0.000013    0.04     -1.94   
   168. D(H  33,C  16,C  15,C  14)   -179.74  0.000001   -0.00   -179.74   
   169. D(C  15,C  16,C  11,C  12)      0.45 -0.000004    0.00      0.45   
   170. D(C  15,C  16,C  11,C   9)    178.66 -0.000006    0.03    178.69   
   171. D(C   3,O  17,C   9,C  11)    179.51 -0.000044    0.01    179.52   
   172. D(C   3,O  17,C   9,H  10)    -60.73  0.000045   -0.03    -60.76   
   173. D(C   3,O  17,C   9,O   8)     59.00 -0.000111    0.05     59.05   
   174. D(C   9,O  17,C   3,C   5)    -57.67  0.000090   -0.08    -57.75   
   175. D(C   9,O  17,C   3,H   4)     62.00  0.000008   -0.11     61.89   
   176. D(C   9,O  17,C   3,C   1)   -177.83  0.000033   -0.07   -177.90   
   177. D(C  19,O  18,C   5,C   3)     63.04 -0.000168    0.06     63.11   
   178. D(C  19,O  18,C   5,C   7)   -177.76 -0.000000   -0.02   -177.78   
   179. D(C  19,O  18,C   5,H   6)    -56.66  0.000060   -0.00    -56.67   
   180. D(C  23,C  19,O  18,C   5)    -56.14 -0.000013    0.06    -56.08   
   181. D(O  21,C  19,O  18,C   5)   -175.30 -0.000095    0.07   -175.23   
   182. D(H  20,C  19,O  18,C   5)     63.72 -0.000021   -0.01     63.71   
   183. D(C  22,O  21,C  19,C  23)    166.86 -0.000006   -0.09    166.77   
   184. D(C  22,O  21,C  19,H  20)     48.65  0.000012   -0.08     48.57   
   185. D(C  22,O  21,C  19,O  18)    -70.83  0.000029   -0.09    -70.91   
   186. D(H  36,C  22,O  21,C  19)    -60.34 -0.000048    0.06    -60.28   
   187. D(H  35,C  22,O  21,C  19)     61.41  0.000012    0.01     61.42   
   188. D(H  34,C  22,O  21,C  19)   -179.22  0.000011    0.03   -179.19   
   189. D(H  24,C  23,C  19,O  21)     49.03  0.000019   -0.02     49.01   
   190. D(H  24,C  23,C  19,H  20)    169.22 -0.000038    0.04    169.26   
   191. D(H  24,C  23,C  19,O  18)    -70.52 -0.000026   -0.03    -70.55   
   192. D(C   1,C  23,C  19,O  21)    168.36  0.000038   -0.09    168.26   
   193. D(C   1,C  23,C  19,H  20)    -71.45 -0.000019   -0.04    -71.49   
   194. D(C   1,C  23,C  19,O  18)     48.81 -0.000008   -0.11     48.70   
   195. D(H  24,C  23,C   1,C   3)     69.82 -0.000033    0.05     69.87   
   196. D(H  24,C  23,C   1,H   2)   -171.88 -0.000075    0.00   -171.88   
   197. D(H  24,C  23,C   1,O   0)    -52.62 -0.000054    0.02    -52.59   
   198. D(C  19,C  23,C   1,C   3)    -48.80  0.000022    0.07    -48.72   
   199. D(C  19,C  23,C   1,H   2)     69.50 -0.000020    0.03     69.53   
   200. D(C  19,C  23,C   1,O   0)   -171.23  0.000001    0.05   -171.18   
   201. D(H  37,O  25,C  23,H  24)     64.41  0.000223   -0.66     63.75   
   202. D(H  37,O  25,C  23,C  19)   -178.56  0.000039   -0.63   -179.19   
   203. D(H  37,O  25,C  23,C   1)    -56.28  0.000090   -0.61    -56.89   
    ----------------------------------------------------------------------------

Geometry step timings:
Preparation and reading OPT file:      0.001 s ( 6.650 %)
Internal coordinates            :      0.000 s ( 0.177 %)
B/P matrices and projection     :      0.003 s (16.826 %)
Hessian update/contruction      :      0.008 s (48.119 %)
Making the step                 :      0.002 s (12.557 %)
Converting the step to Cartesian:      0.000 s ( 1.497 %)
Storing new data                :      0.001 s ( 5.430 %)
Checking convergence            :      0.000 s ( 0.153 %)
Final printing                  :      0.001 s ( 8.590 %)
Total time                      :      0.017 s

Time for energy+gradient        :      0.081 s
Time for complete geometry iter :      0.109 s

         *************************************************************
         *                GEOMETRY OPTIMIZATION CYCLE   6            *
         *************************************************************
---------------------------------
CARTESIAN COORDINATES (ANGSTROEM)
---------------------------------
  O    -2.779675    2.913768    0.117850
  C    -1.380628    2.789181    0.104631
  H    -0.994161    2.730785    1.135628
  C    -0.908170    1.556298   -0.660247
  H    -1.319975    1.584109   -1.684627
  C     0.622999    1.580982   -0.747224
  H     1.028731    1.601183    0.278980
  C     1.065609    0.284611   -1.432227
  O     0.522096   -0.816032   -0.734694
  C    -0.878370   -0.778505   -0.661391
  H    -1.292538   -0.775983   -1.694555
  C    -1.375222   -1.974895    0.111796
  C    -2.514420   -2.652592   -0.300020
  C    -2.982964   -3.730498    0.432387
  C    -2.316089   -4.135805    1.576708
  C    -1.179996   -3.459066    1.989388
  C    -0.711386   -2.378512    1.262136
  O    -1.341950    0.383592   -0.001541
  O     1.051960    2.705617   -1.467106
  C     0.702318    3.927719   -0.834180
  H     1.229564    3.987165    0.142698
  O     1.067279    4.966488   -1.662621
  C     2.468792    5.172068   -1.767650
  C    -0.810613    4.050660   -0.567704
  H    -1.308064    4.186549   -1.539462
  O    -0.996080    5.172820    0.249848
  H    -3.153528    2.082702    0.439790
  H     2.148629    0.164154   -1.404665
  H     0.722339    0.295743   -2.476820
  H    -3.034164   -2.338093   -1.193469
  H    -3.869591   -4.254773    0.107532
  H    -2.680841   -4.978727    2.145053
  H    -0.657769   -3.771644    2.881653
  H     0.174109   -1.846385    1.570913
  H     2.590058    6.022136   -2.434412
  H     2.961303    4.290924   -2.185238
  H     2.897291    5.401490   -0.786123
  H    -1.943557    5.249732    0.432785

----------------------------
CARTESIAN COORDINATES (A.U.)
----------------------------
  NO LB    ZA    FRAG    MASS        X           Y           Z
   0 O   8.0000    1    15.999   -5.252825    5.506223    0.222704
   1 C   6.0000    1    12.011   -2.609009    5.270787    0.197724
   2 H   1.0000    1     1.008   -1.878691    5.160435    2.146025
   3 C   6.0000    1    12.011   -1.716192    2.940978   -1.247685
   4 H   1.0000    1     1.008   -2.494391    2.993532   -3.183484
   5 C   6.0000    1    12.011    1.177297    2.987623   -1.412049
   6 H   1.0000    1     1.008    1.944019    3.025797    0.527196
   7 C   6.0000    1    12.011    2.013708    0.537836   -2.706517
   8 O   8.0000    1    15.999    0.986618   -1.542076   -1.388370
   9 C   6.0000    1    12.011   -1.659878   -1.471161   -1.249848
  10 H   1.0000    1     1.008   -2.442542   -1.466395   -3.202244
  11 C   6.0000    1    12.011   -2.598792   -3.732010    0.211264
  12 C   6.0000    1    12.011   -4.751564   -5.012673   -0.566956
  13 C   6.0000    1    12.011   -5.636985   -7.049619    0.817093
  14 C   6.0000    1    12.011   -4.376773   -7.815539    2.979546
  15 C   6.0000    1    12.011   -2.229869   -6.536687    3.759398
  16 C   6.0000    1    12.011   -1.344324   -4.494736    2.385092
  17 O   8.0000    1    15.999   -2.535918    0.724884   -0.002913
  18 O   8.0000    1    15.999    1.987916    5.112875   -2.772429
  19 C   6.0000    1    12.011    1.327188    7.422314   -1.576372
  20 H   1.0000    1     1.008    2.323540    7.534650    0.269661
  21 O   8.0000    1    15.999    2.016865    9.385302   -3.141899
  22 C   6.0000    1    12.011    4.665341    9.773791   -3.340374
  23 C   6.0000    1    12.011   -1.531837    7.654638   -1.072805
  24 H   1.0000    1     1.008   -2.471882    7.911432   -2.909162
  25 O   8.0000    1    15.999   -1.882318    9.775214    0.472145
  26 H   1.0000    1     1.008   -5.959305    3.935737    0.831082
  27 H   1.0000    1     1.008    4.060321    0.310207   -2.654432
  28 H   1.0000    1     1.008    1.365023    0.558874   -4.680511
  29 H   1.0000    1     1.008   -5.733738   -4.418355   -2.255330
  30 H   1.0000    1     1.008   -7.312467   -8.040355    0.203207
  31 H   1.0000    1     1.008   -5.066055   -9.408430    4.053563
  32 H   1.0000    1     1.008   -1.243003   -7.127374    5.445535
  33 H   1.0000    1     1.008    0.329019   -3.489162    2.968596
  34 H   1.0000    1     1.008    4.894501   11.380189   -4.600373
  35 H   1.0000    1     1.008    5.596052    8.108672   -4.129501
  36 H   1.0000    1     1.008    5.475087   10.207338   -1.485557
  37 H   1.0000    1     1.008   -3.672790    9.920556    0.817844

      -----------------------------------------------------------      
     |                   =====================                   |     
     |                           x T B                           |     
     |                   =====================                   |     
     |                         S. Grimme                         |     
     |          Mulliken Center for Theoretical Chemistry        |     
     |                    University of Bonn                     |     
      -----------------------------------------------------------      

   * xtb version 6.7.1 (edcfbbe) compiled by 'albert@albert-system' on 2024-07-22

   xtb is free software: you can redistribute it and/or modify it under
   the terms of the GNU Lesser General Public License as published by
   the Free Software Foundation, either version 3 of the License, or
   (at your option) any later version.
   
   xtb is distributed in the hope that it will be useful,
   but WITHOUT ANY WARRANTY; without even the implied warranty of
   MERCHANTABILITY or FITNESS FOR A PARTICULAR PURPOSE.  See the
   GNU Lesser General Public License for more details.
   
   Cite this work as:
   * C. Bannwarth, E. Caldeweyher, S. Ehlert, A. Hansen, P. Pracht,
     J. Seibert, S. Spicher, S. Grimme, WIREs Comput. Mol. Sci., 2020, 11,
     e01493. DOI: 10.1002/wcms.1493
   
   for GFN2-xTB:
   * C. Bannwarth, S. Ehlert and S. Grimme., J. Chem. Theory Comput., 2019,
     15, 1652-1671. DOI: 10.1021/acs.jctc.8b01176
   for GFN1-xTB:
   * S. Grimme, C. Bannwarth, P. Shushkov, J. Chem. Theory Comput., 2017,
     13, 1989-2009. DOI: 10.1021/acs.jctc.7b00118
   for GFN0-xTB:
   * P. Pracht, E. Caldeweyher, S. Ehlert, S. Grimme, ChemRxiv, 2019, preprint.
     DOI: 10.26434/chemrxiv.8326202.v1
   for GFN-FF:
   * S. Spicher and S. Grimme, Angew. Chem. Int. Ed., 2020, 59, 15665-15673.
     DOI: 10.1002/anie.202004239
   
   for ALPB and GBSA implicit solvation:
   * S. Ehlert, M. Stahn, S. Spicher, S. Grimme, J. Chem. Theory Comput.,
     2021, 17, 4250-4261. DOI: 10.1021/acs.jctc.1c00471
   
   for ddCOSMO and CPCM-X implicit solvation:
   * M. Stahn, S. Ehlert, S. Grimme, J. Phys. Chem. A,
     2023, XX, XXXX-XXXX. DOI: 10.1021/acs.jpca.3c04382
   
   for DFT-D4:
   * E. Caldeweyher, C. Bannwarth and S. Grimme, J. Chem. Phys., 2017,
     147, 034112. DOI: 10.1063/1.4993215
   * E. Caldeweyher, S. Ehlert, A. Hansen, H. Neugebauer, S. Spicher,
     C. Bannwarth and S. Grimme, J. Chem. Phys., 2019, 150, 154122.
     DOI: 10.1063/1.5090222
   * E. Caldeweyher, J.-M. Mewes, S. Ehlert and S. Grimme, Phys. Chem. Chem. Phys.
     2020, 22, 8499-8512. DOI: 10.1039/D0CP00502A
   
   for sTDA-xTB:
   * S. Grimme and C. Bannwarth, J. Chem. Phys., 2016, 145, 054103.
     DOI: 10.1063/1.4959605
   
   in the mass-spec context:
   * V. Asgeirsson, C. Bauer and S. Grimme, Chem. Sci., 2017, 8, 4879.
     DOI: 10.1039/c7sc00601b
   * J. Koopman and S. Grimme, ACS Omega 2019, 4, 12, 15120-15133.
     DOI: 10.1021/acsomega.9b02011
   
   for metadynamics refer to:
   * S. Grimme, J. Chem. Theory Comput., 2019, 155, 2847-2862
     DOI: 10.1021/acs.jctc.9b00143
   
   for SPH calculations refer to:
   * S. Spicher and S. Grimme, J. Chem. Theory Comput., 2021, 17, 1701-1714
     DOI: 10.1021/acs.jctc.0c01306
   
   for ONIOM refer to:
   * C. Plett, A. Katbashev, S. Ehlert, S. Grimme, M. Bursch,
     Phys. Chem. Chem. Phys., 2023, 25, 17860-17868. DOI: 10.1039/D3CP02178E
   
   for DIPRO refer to:
   * J. Kohn, N. Gildemeister, S. Grimme, D. Fazzi, A. Hansen,
     J. Chem. Phys., 2023, just accepted.
   
   for PTB refer to:
   * S. Grimme, M. Mueller, A. Hansen, J. Chem. Phys., 2023, 158, 124111.
     DOI: 10.1063/5.0137838
   
   with help from (in alphabetical order)
   P. Atkinson, C. Bannwarth, F. Bohle, G. Brandenburg, E. Caldeweyher
   M. Checinski, S. Dohm, S. Ehlert, S. Ehrlich, I. Gerasimov, C. Hölzer
   A. Katbashev, J. Kohn, J. Koopman, C. Lavigne, S. Lehtola, F. März, M. Müller,
   F. Musil, H. Neugebauer, J. Pisarek, C. Plett, P. Pracht, F. Pultar,
   J. Seibert, P. Shushkov, S. Spicher, M. Stahn, M. Steiner, T. Strunk,
   J. Stückrath, T. Rose, and J. Unsleber
   
 * started run on 2025/10/31 at 09:56:12.234     
   ID    Z sym.   atoms
    1    8 O      1, 9, 18, 19, 22, 26
    2    6 C      2, 4, 6, 8, 10, 12-17, 20, 23, 24
    3    1 H      3, 5, 7, 11, 21, 25, 27-38

           -------------------------------------------------
          |                Calculation Setup                |
           -------------------------------------------------

          program call               : /home/kmoult/orca_6_1/otool_xtb goat_0_XTB.xyz --grad -c 0 -u 0 -P 4 --namespace goat_0 --input goat_0_XTB.input.tmp --alpb ACETONE --acc 0.200000
          hostname                   : node3103
          calculation namespace      : goat_0
          coordinate file            : goat_0_XTB.xyz
          omp threads                :                     4


           -------------------------------------------------
          |                 G F N 2 - x T B                 |
           -------------------------------------------------

        Reference                      10.1021/acs.jctc.8b01176
      * Hamiltonian:
        H0-scaling (s, p, d)           1.850000    2.230000    2.230000
        zeta-weighting                 0.500000
      * Dispersion:
        s8                             2.700000
        a1                             0.520000
        a2                             5.000000
        s9                             5.000000
      * Repulsion:
        kExp                           1.500000    1.000000
        rExp                           1.000000
      * Coulomb:
        alpha                          2.000000
        third order                    shell-resolved
        anisotropic                    true
        a3                             3.000000
        a5                             4.000000
        cn-shift                       1.200000
        cn-exp                         4.000000
        max-rad                        5.000000

      * Solvation model:               ALPB
        Solvent                        ACETONE
        Parameter file                 internal GFN2-xTB/ALPB
        Dielectric constant                2.0700E+01
        Reference state                gsolv [1 M gas/solution]
        Free energy shift                  5.9241E-03 Eh       3.7175E+00 kcal/mol
        Temperature                        2.9815E+02 K
        Density                            7.9000E-01 kg/L
        Solvent mass                       5.8080E+01 g/mol
        Interaction kernel             P16
        Born radius scaling (c1)           1.8274E+00
        Born radii integrator          GBOBC
        Born offset                        0.0000E+00 a0       0.0000E+00 AA
        H-bond correction              true
        Ion screening                  false
        Surface tension                    1.0000E-05 Eh       1.5569E+01 dyn/cm
        Grid points                               230 per atom
q/qsh data taken from xtbrestart
CAMM data taken from xtbrestart

          ...................................................
          :                      SETUP                      :
          :.................................................:
          :  # basis functions                  98          :
          :  # atomic orbitals                  98          :
          :  # shells                           58          :
          :  # electrons                       110          :
          :  max. iterations                   250          :
          :  Hamiltonian                  GFN2-xTB          :
          :  restarted?                       true          :
          :  GBSA solvation                   true          :
          :  PC potential                    false          :
          :  electronic temp.          300.0000000     K    :
          :  accuracy                    0.2000000          :
          :  -> integral cutoff          0.3198970E+02      :
          :  -> integral neglect         0.2000000E-08      :
          :  -> SCF convergence          0.2000000E-06 Eh   :
          :  -> wf. convergence          0.2000000E-04 e    :
          :  Broyden damping             0.4000000          :
          :  net charge                          0          :
          :  unpaired electrons                  0          :
          ...................................................

 iter      E             dE          RMSdq      gap      omega  full diag
   1    -64.2442200 -0.642442E+02  0.358E-02    4.74       0.0  T
   2    -64.2442202 -0.192036E-06  0.211E-02    4.74       1.0  T
   3    -64.2442202  0.493707E-07  0.169E-03    4.74       9.6  T
   4    -64.2442203 -0.964956E-07  0.528E-04    4.74      30.7  T
   5    -64.2442203 -0.279479E-08  0.312E-04    4.74      52.1  T
   6    -64.2442203 -0.690946E-09  0.725E-05    4.74     223.7  T
   7    -64.2442203 -0.249685E-10  0.333E-05    4.74     486.7  T

   *** convergence criteria satisfied after 7 iterations ***

         #    Occupation            Energy/Eh            Energy/eV
      -------------------------------------------------------------
         1        2.0000           -0.7322291             -19.9250
       ...           ...                  ...                  ...
        49        2.0000           -0.4286621             -11.6645
        50        2.0000           -0.4251616             -11.5692
        51        2.0000           -0.4221657             -11.4877
        52        2.0000           -0.4185056             -11.3881
        53        2.0000           -0.4115729             -11.1995
        54        2.0000           -0.4107640             -11.1775
        55        2.0000           -0.4086582             -11.1202 (HOMO)
        56                         -0.2343712              -6.3776 (LUMO)
        57                         -0.2291331              -6.2350
        58                         -0.1047114              -2.8493
        59                         -0.0372011              -1.0123
        60                         -0.0073008              -0.1987
       ...                                ...                  ...
        98                          0.6575075              17.8917
      -------------------------------------------------------------
                  HL-Gap            0.1742870 Eh            4.7426 eV
             Fermi-level           -0.3215147 Eh           -8.7489 eV

 SCC (total)                   0 d,  0 h,  0 min,  0.032 sec
 SCC setup                      ...        0 min,  0.000 sec (  1.395%)
 Dispersion                     ...        0 min,  0.000 sec (  0.731%)
 classical contributions        ...        0 min,  0.000 sec (  0.093%)
 integral evaluation            ...        0 min,  0.002 sec (  6.602%)
 iterations                     ...        0 min,  0.023 sec ( 72.216%)
 molecular gradient             ...        0 min,  0.006 sec ( 18.538%)
 printout                       ...        0 min,  0.000 sec (  0.376%)

         :::::::::::::::::::::::::::::::::::::::::::::::::::::
         ::                     SUMMARY                     ::
         :::::::::::::::::::::::::::::::::::::::::::::::::::::
         :: total energy             -63.588582563608 Eh    ::
         :: total w/o Gsasa/hb       -63.559503436983 Eh    ::
         :: gradient norm              0.001269058050 Eh/a0 ::
         :: HOMO-LUMO gap              4.742590201077 eV    ::
         ::.................................................::
         :: SCC energy               -64.244099070608 Eh    ::
         :: -> isotropic ES            0.129898035956 Eh    ::
         :: -> anisotropic ES         -0.006360936101 Eh    ::
         :: -> anisotropic XC          0.001029204162 Eh    ::
         :: -> dispersion             -0.036421749135 Eh    ::
         :: -> Gsolv                  -0.032426144210 Eh    ::
         ::    -> Gelec               -0.003347017584 Eh    ::
         ::    -> Gsasa               -0.028302211105 Eh    ::
         ::    -> Ghb                 -0.006701056784 Eh    ::
         ::    -> Gshift               0.005924141264 Eh    ::
         :: repulsion energy           0.655516507000 Eh    ::
         :: add. restraining           0.000000000000 Eh    ::
         :: total charge               0.000000000000 e     ::
         :::::::::::::::::::::::::::::::::::::::::::::::::::::


Property printout bound to 'properties.out'

           -------------------------------------------------
          | TOTAL ENERGY              -63.588582563608 Eh   |
          | GRADIENT NORM               0.001269058050 Eh/α |
          | HOMO-LUMO GAP               4.742590201077 eV   |
           -------------------------------------------------

------------------------------------------------------------------------
 * finished run on 2025/10/31 at 09:56:12.289     
------------------------------------------------------------------------
 total:
 * wall-time:     0 d,  0 h,  0 min,  0.054 sec
 *  cpu-time:     0 d,  0 h,  0 min,  0.180 sec
 * ratio c/w:     3.346 speedup
 SCF:
 * wall-time:     0 d,  0 h,  0 min,  0.033 sec
 *  cpu-time:     0 d,  0 h,  0 min,  0.117 sec
 * ratio c/w:     3.583 speedup


-------------------------   --------------------
FINAL SINGLE POINT ENERGY       -63.588582563610
-------------------------   --------------------


-------------
DIPOLE MOMENT
-------------
                                X             Y             Z
Total Dipole Moment    :     -0.21400      -1.06900       0.27100
                        -----------------------------------------
Magnitude (a.u.)       :      1.12339
Magnitude (Debye)      :      2.85542


------------------
CARTESIAN GRADIENT
------------------

   1   O   :    0.000180868    0.000231842    0.000086718
   2   C   :   -0.000361784   -0.000189857   -0.000040084
   3   H   :    0.000153173    0.000047851   -0.000023031
   4   C   :   -0.000035046    0.000062633    0.000194231
   5   H   :    0.000030328    0.000011683   -0.000045893
   6   C   :    0.000200645    0.000066484   -0.000337929
   7   H   :   -0.000047005   -0.000057376    0.000055157
   8   C   :    0.000151710   -0.000029016   -0.000128009
   9   O   :   -0.000073046    0.000012166    0.000084930
  10   C   :    0.000074373    0.000023424    0.000206871
  11   H   :   -0.000002364   -0.000013391   -0.000161039
  12   C   :    0.000136344   -0.000058775    0.000044180
  13   C   :   -0.000195892    0.000155625   -0.000121518
  14   C   :   -0.000042812   -0.000037287   -0.000008305
  15   C   :    0.000015131   -0.000073038    0.000108896
  16   C   :   -0.000097826   -0.000138165    0.000024505
  17   C   :    0.000192259    0.000145899   -0.000059165
  18   O   :   -0.000141764   -0.000048711   -0.000104629
  19   O   :   -0.000065888   -0.000055607    0.000189250
  20   C   :    0.000162705    0.000050655   -0.000406293
  21   H   :   -0.000013908   -0.000050492    0.000137506
  22   O   :    0.000136670    0.000070935    0.000040872
  23   C   :   -0.000051787    0.000027675   -0.000072744
  24   C   :   -0.000271204    0.000066169    0.000334020
  25   H   :    0.000120286   -0.000023422   -0.000123691
  26   O   :    0.000121853    0.000190318   -0.000151673
  27   H   :   -0.000052080   -0.000171100   -0.000043956
  28   H   :   -0.000034448   -0.000043438    0.000046956
  29   H   :   -0.000067744    0.000076749    0.000041448
  30   H   :   -0.000029993   -0.000006702   -0.000031213
  31   H   :   -0.000050716   -0.000024220   -0.000026439
  32   H   :   -0.000011797   -0.000031015    0.000018760
  33   H   :    0.000052091   -0.000003723    0.000040736
  34   H   :    0.000055016   -0.000011606    0.000058518
  35   H   :   -0.000081341    0.000034706   -0.000008455
  36   H   :    0.000052666   -0.000016299    0.000056787
  37   H   :    0.000037265   -0.000045650   -0.000007450
  38   H   :   -0.000144935   -0.000145923    0.000131176

Difference to translation invariance:
           :   -0.0000000000   -0.0000000000   -0.0000000000

Difference to rotation invariance:
           :    0.0004774191    0.0003823882   -0.0000899072

Norm of the Cartesian gradient     ...    0.0012690581
RMS gradient                       ...    0.0001188582
MAX gradient                       ...    0.0004062932
------------------------------------------------------------------------------
                         ORCA GEOMETRY RELAXATION STEP
------------------------------------------------------------------------------

Reading the OPT-File                    .... done
Getting information on internals        .... done
Copying old internal coords+grads       .... done
Making the new internal coordinates     .... (2022 redundants) done
Validating the new internal coordinates .... (2022 redundants) done
Calculating the B-matrix                .... done
Calculating the G,G- and P matrices     .... done
Transforming gradient to internals      .... done
Projecting the internal gradient        .... done
Number of atoms                         ....  38
Number of internal coordinates          .... 203
Current Energy                          ....   -63.588582564 Eh
Current gradient norm                   ....     0.001269058 Eh/bohr
Maximum allowed component of the step   ....  0.300
Current trust radius                    ....  0.675
Updating the Hessian (BFGS)             .... done
Forming the augmented Hessian           .... done
Diagonalizing the augmented Hessian     .... done
Last element of RFO vector              ....  0.998561760
Lowest eigenvalues of augmented Hessian:
 -0.000017558  0.005066297  0.013536733  0.015595393  0.016422189
Length of the computed step             ....  0.053690750
The final length of the internal step   ....  0.053690750
Converting the step to Cartesian space:
 Initial RMS(Int)=    0.0037683519
Transforming coordinates:
 Iter   0:  RMS(Cart)=    0.0135867270 RMS(Int)=    0.4400045884
done
Storing new coordinates                 .... done
The predicted energy change is          ....    -0.000008804
Previously predicted energy change      ....    -0.000011773
Actually observed energy change         ....    -0.000016867
Ratio of predicted to observed change   ....     1.432642824
New trust radius                        ....     0.675000000

                                .--------------------.
          ----------------------|Geometry convergence|-------------------------
          Item                value                   Tolerance       Converged
          ---------------------------------------------------------------------
          Energy change      -0.0000168670            0.0000050000      NO
          RMS gradient        0.0000629583            0.0001000000      YES
          MAX gradient        0.0002541618            0.0003000000      YES
          RMS step            0.0037683519            0.0020000000      NO
          MAX step            0.0180496716            0.0040000000      NO
          -------------------------------------------------------------------------
          ........................................................
          Max(Bonds)      0.0090      Max(Angles)    0.14
          Max(Dihed)        1.03      Max(Improp)    0.00
          ---------------------------------------------------------------------

    ---------------------------------------------------------------------------
                         Redundant Internal Coordinates
                            (Angstroem and degrees)

        Definition                    Value    dE/dq     Step     New-Value
    ----------------------------------------------------------------------------
     1. B(C   1,O   0)                1.4046 -0.000077 -0.0001    1.4045   
     2. B(H   2,C   1)                1.1026  0.000025 -0.0000    1.1026   
     3. B(C   3,C   1)                1.5259  0.000015  0.0002    1.5261   
     4. B(H   4,C   3)                1.1044  0.000033 -0.0001    1.1043   
     5. B(C   5,C   3)                1.5338  0.000120 -0.0002    1.5336   
     6. B(H   6,C   5)                1.1037  0.000035 -0.0001    1.1036   
     7. B(C   7,C   5)                1.5316  0.000035 -0.0001    1.5314   
     8. B(O   8,C   7)                1.4119  0.000120  0.0001    1.4120   
     9. B(C   9,O   8)                1.4029 -0.000027  0.0004    1.4033   
    10. B(H  10,C   9)                1.1131  0.000149 -0.0007    1.1124   
    11. B(C  11,C   9)                1.5087  0.000089 -0.0002    1.5085   
    12. B(C  12,C  11)                1.3880  0.000208 -0.0001    1.3880   
    13. B(C  13,C  12)                1.3849  0.000149  0.0000    1.3849   
    14. B(C  14,C  13)                1.3851  0.000152 -0.0001    1.3850   
    15. B(C  15,C  14)                1.3853  0.000074  0.0000    1.3853   
    16. B(C  16,C  15)                1.3842  0.000223 -0.0002    1.3841   
    17. B(C  16,C  11)                1.3881  0.000145  0.0002    1.3883   
    18. B(O  17,C   9)                1.4145 -0.000045  0.0007    1.4152   
    19. B(O  17,C   3)                1.4133  0.000061 -0.0002    1.4131   
    20. B(O  18,C   5)                1.4025 -0.000022 -0.0001    1.4025   
    21. B(C  19,O  18)                1.4200  0.000032  0.0005    1.4205   
    22. B(H  20,C  19)                1.1117  0.000110 -0.0006    1.1111   
    23. B(O  21,C  19)                1.3779  0.000070  0.0002    1.3781   
    24. B(C  22,O  21)                1.4204 -0.000038  0.0004    1.4208   
    25. B(C  23,C  19)                1.5411  0.000254 -0.0000    1.5411   
    26. B(C  23,C   1)                1.5389  0.000104  0.0001    1.5390   
    27. B(H  24,C  23)                1.1001  0.000056 -0.0001    1.1000   
    28. B(O  25,C  23)                1.4007  0.000065 -0.0003    1.4004   
    29. B(H  26,O   0)                0.9665  0.000143 -0.0001    0.9664   
    30. B(H  26,O  17)                2.5226 -0.000035  0.0051    2.5277   
    31. B(H  27,C   7)                1.0900 -0.000025  0.0001    1.0902   
    32. B(H  28,C   7)                1.0996 -0.000022 -0.0000    1.0996   
    33. B(H  29,C  12)                1.0804  0.000037 -0.0000    1.0804   
    34. B(H  30,C  13)                1.0800  0.000061 -0.0000    1.0800   
    35. B(H  31,C  14)                1.0801  0.000039  0.0000    1.0801   
    36. B(H  32,C  15)                1.0801  0.000061 -0.0000    1.0800   
    37. B(H  33,C  16)                1.0782  0.000057 -0.0000    1.0782   
    38. B(H  34,C  22)                1.0871  0.000022 -0.0000    1.0871   
    39. B(H  35,C  22)                1.0924  0.000015 -0.0000    1.0924   
    40. B(H  36,C  22)                1.0953 -0.000000 -0.0001    1.0952   
    41. B(H  37,O   0)                2.5010 -0.000058  0.0090    2.5100   
    42. B(H  37,O  25)                0.9680  0.000144 -0.0002    0.9679   
    43. A(C   1,O   0,H  26)          108.19  0.000039    0.10    108.29   
    44. A(O   0,C   1,H   2)          110.18  0.000052   -0.02    110.16   
    45. A(H   2,C   1,C   3)          108.51 -0.000026   -0.01    108.49   
    46. A(H   2,C   1,C  23)          108.79 -0.000056    0.04    108.83   
    47. A(O   0,C   1,C   3)          112.63  0.000038   -0.02    112.61   
    48. A(O   0,C   1,C  23)          107.48 -0.000019   -0.00    107.47   
    49. A(C   3,C   1,C  23)          109.19  0.000007    0.02    109.21   
    50. A(H   4,C   3,C   5)          108.62 -0.000052   -0.01    108.61   
    51. A(H   4,C   3,O  17)          109.80  0.000009    0.01    109.81   
    52. A(C   1,C   3,C   5)          108.94  0.000074   -0.03    108.91   
    53. A(C   5,C   3,O  17)          110.25  0.000009   -0.00    110.25   
    54. A(C   1,C   3,H   4)          109.22  0.000002    0.01    109.23   
    55. A(C   1,C   3,O  17)          109.99 -0.000042    0.01    110.00   
    56. A(C   7,C   5,O  18)          111.15  0.000108   -0.09    111.06   
    57. A(H   6,C   5,O  18)          110.50 -0.000013   -0.00    110.50   
    58. A(C   3,C   5,C   7)          107.47 -0.000007   -0.02    107.45   
    59. A(H   6,C   5,C   7)          108.97 -0.000017    0.05    109.02   
    60. A(C   3,C   5,O  18)          110.32 -0.000014    0.01    110.33   
    61. A(C   3,C   5,H   6)          108.33 -0.000061    0.06    108.39   
    62. A(O   8,C   7,H  27)          106.49 -0.000034    0.00    106.49   
    63. A(C   5,C   7,H  27)          111.68  0.000042   -0.03    111.65   
    64. A(C   5,C   7,O   8)          109.13 -0.000024    0.08    109.21   
    65. A(O   8,C   7,H  28)          110.92  0.000034   -0.00    110.92   
    66. A(C   5,C   7,H  28)          109.03 -0.000081   -0.01    109.02   
    67. A(H  27,C   7,H  28)          109.59  0.000065   -0.04    109.55   
    68. A(C   7,O   8,C   9)          112.91  0.000046   -0.03    112.88   
    69. A(H  10,C   9,O  17)          108.01 -0.000044    0.04    108.05   
    70. A(O   8,C   9,O  17)          111.93  0.000028   -0.03    111.91   
    71. A(O   8,C   9,C  11)          109.53  0.000064   -0.03    109.50   
    72. A(O   8,C   9,H  10)          108.84 -0.000035    0.05    108.89   
    73. A(C  11,C   9,O  17)          107.73 -0.000009   -0.02    107.71   
    74. A(H  10,C   9,C  11)          110.79 -0.000005   -0.01    110.78   
    75. A(C   9,C  11,C  12)          120.36 -0.000130    0.06    120.42   
    76. A(C  12,C  11,C  16)          119.76  0.000036   -0.01    119.76   
    77. A(C   9,C  11,C  16)          119.85  0.000093   -0.05    119.80   
    78. A(C  11,C  12,H  29)          119.87  0.000037   -0.03    119.84   
    79. A(C  13,C  12,H  29)          120.08 -0.000004    0.03    120.11   
    80. A(C  11,C  12,C  13)          120.05 -0.000033   -0.00    120.05   
    81. A(C  14,C  13,H  30)          120.11 -0.000000   -0.00    120.11   
    82. A(C  12,C  13,H  30)          119.77 -0.000020    0.01    119.78   
    83. A(C  12,C  13,C  14)          120.12  0.000020   -0.00    120.12   
    84. A(C  13,C  14,H  31)          120.03  0.000005   -0.01    120.02   
    85. A(C  13,C  14,C  15)          119.87 -0.000010    0.02    119.89   
    86. A(C  15,C  14,H  31)          120.10  0.000005   -0.01    120.09   
    87. A(C  16,C  15,H  32)          119.75 -0.000053    0.02    119.77   
    88. A(C  14,C  15,H  32)          120.08 -0.000001   -0.01    120.08   
    89. A(C  14,C  15,C  16)          120.16  0.000054   -0.02    120.15   
    90. A(C  11,C  16,C  15)          120.03 -0.000068    0.01    120.04   
    91. A(C  15,C  16,H  33)          120.85 -0.000027    0.04    120.89   
    92. A(C  11,C  16,H  33)          119.11  0.000095   -0.05    119.07   
    93. A(C   3,O  17,C   9)          111.33  0.000042   -0.04    111.29   
    94. A(C   5,O  18,C  19)          112.71  0.000116   -0.06    112.65   
    95. A(O  18,C  19,O  21)          108.40  0.000081   -0.01    108.38   
    96. A(O  21,C  19,C  23)          107.69  0.000018   -0.03    107.66   
    97. A(H  20,C  19,C  23)          108.02 -0.000063    0.01    108.03   
    98. A(O  18,C  19,C  23)          112.80 -0.000037    0.02    112.81   
    99. A(H  20,C  19,O  21)          111.25  0.000024    0.04    111.28   
   100. A(O  18,C  19,H  20)          108.72 -0.000022   -0.02    108.70   
   101. A(C  19,O  21,C  22)          114.51  0.000231   -0.10    114.42   
   102. A(H  35,C  22,H  36)          109.58 -0.000079    0.03    109.61   
   103. A(H  34,C  22,H  36)          110.01  0.000034    0.02    110.03   
   104. A(O  21,C  22,H  36)          110.49  0.000038   -0.03    110.46   
   105. A(H  34,C  22,H  35)          110.24  0.000057   -0.01    110.24   
   106. A(O  21,C  22,H  35)          110.88  0.000076   -0.04    110.83   
   107. A(O  21,C  22,H  34)          105.58 -0.000124    0.04    105.62   
   108. A(H  24,C  23,O  25)          110.90 -0.000054    0.04    110.94   
   109. A(C  19,C  23,O  25)          107.15  0.000049   -0.05    107.10   
   110. A(C   1,C  23,O  25)          110.65  0.000064   -0.02    110.63   
   111. A(C  19,C  23,H  24)          107.52 -0.000066    0.05    107.57   
   112. A(C   1,C  23,H  24)          108.64  0.000012   -0.05    108.59   
   113. A(C   1,C  23,C  19)          111.95 -0.000009    0.04    111.98   
   114. A(C  23,O  25,H  37)          107.67 -0.000046    0.14    107.81   
   115. D(C   3,C   1,O   0,H  26)     52.97 -0.000052    0.48     53.44   
   116. D(C  23,C   1,O   0,H  26)    173.27 -0.000033    0.49    173.76   
   117. D(H   2,C   1,O   0,H  26)    -68.34 -0.000082    0.52    -67.82   
   118. D(C   5,C   3,C   1,C  23)     54.85 -0.000028   -0.05     54.80   
   119. D(H   4,C   3,C   1,O   0)     55.67 -0.000004   -0.03     55.64   
   120. D(H   4,C   3,C   1,C  23)    -63.64 -0.000010   -0.03    -63.67   
   121. D(C   5,C   3,C   1,H   2)    -63.59  0.000050   -0.10    -63.69   
   122. D(H   4,C   3,C   1,H   2)    177.92  0.000068   -0.08    177.84   
   123. D(C   5,C   3,C   1,O   0)    174.16 -0.000023   -0.05    174.11   
   124. D(C   7,C   5,C   3,O  17)     55.32 -0.000033    0.02     55.35   
   125. D(C   7,C   5,C   3,C   1)    176.10 -0.000032    0.02    176.13   
   126. D(C   7,C   5,C   3,H   4)    -65.03 -0.000017    0.02    -65.01   
   127. D(H   6,C   5,C   3,O  17)    -62.28  0.000022   -0.06    -62.34   
   128. D(H   6,C   5,C   3,H   4)    177.37  0.000038   -0.06    177.30   
   129. D(H   6,C   5,C   3,C   1)     58.50  0.000023   -0.06     58.44   
   130. D(H  27,C   7,C   5,H   6)    -54.78 -0.000023    0.09    -54.69   
   131. D(H  27,C   7,C   5,O  18)     67.22  0.000019    0.07     67.29   
   132. D(H  27,C   7,C   5,C   3)   -171.97  0.000061    0.01   -171.96   
   133. D(O   8,C   7,C   5,H   6)     62.68 -0.000054    0.13     62.81   
   134. D(O   8,C   7,C   5,C   3)    -54.51  0.000030    0.05    -54.46   
   135. D(O   8,C   7,C   5,O  18)   -175.32 -0.000012    0.11   -175.21   
   136. D(C   9,O   8,C   7,H  28)    -62.20  0.000081   -0.11    -62.31   
   137. D(C   9,O   8,C   7,H  27)    178.62  0.000004   -0.06    178.56   
   138. D(C   9,O   8,C   7,C   5)     57.93 -0.000014   -0.08     57.86   
   139. D(O  17,C   9,O   8,C   7)    -59.85  0.000041    0.03    -59.81   
   140. D(C  11,C   9,O   8,C   7)   -179.26 -0.000009    0.09   -179.17   
   141. D(H  10,C   9,O   8,C   7)     59.47 -0.000020    0.10     59.57   
   142. D(C  12,C  11,C   9,O  17)     98.16 -0.000131    1.03     99.19   
   143. D(C  12,C  11,C   9,H  10)    -19.78 -0.000070    1.00    -18.78   
   144. D(C  12,C  11,C   9,O   8)   -139.87 -0.000065    0.97   -138.90   
   145. D(C  16,C  11,C   9,O   8)     41.91 -0.000064    0.93     42.84   
   146. D(C  16,C  11,C   9,H  10)    161.99 -0.000070    0.96    162.95   
   147. D(H  29,C  12,C  11,C  16)    179.82  0.000004   -0.02    179.80   
   148. D(H  29,C  12,C  11,C   9)      1.59  0.000003   -0.06      1.53   
   149. D(C  13,C  12,C  11,C  16)     -0.24 -0.000002    0.01     -0.23   
   150. D(C  13,C  12,C  11,C   9)   -178.47 -0.000003   -0.04   -178.50   
   151. D(H  30,C  13,C  12,H  29)     -0.03 -0.000003    0.01     -0.02   
   152. D(H  30,C  13,C  12,C  11)   -179.97  0.000003   -0.01   -179.99   
   153. D(C  14,C  13,C  12,H  29)    179.89 -0.000005    0.03    179.92   
   154. D(C  14,C  13,C  12,C  11)     -0.05  0.000002    0.00     -0.05   
   155. D(H  31,C  14,C  13,H  30)      0.13 -0.000001    0.00      0.14   
   156. D(C  15,C  14,C  13,C  12)      0.12 -0.000003    0.00      0.13   
   157. D(H  31,C  14,C  13,C  12)   -179.80  0.000000   -0.01   -179.80   
   158. D(C  15,C  14,C  13,H  30)   -179.95 -0.000004    0.02   -179.93   
   159. D(H  32,C  15,C  14,H  31)     -0.13 -0.000001    0.01     -0.13   
   160. D(H  32,C  15,C  14,C  13)    179.95  0.000002   -0.01    179.94   
   161. D(C  16,C  15,C  14,H  31)   -179.99  0.000001   -0.01   -180.00   
   162. D(C  16,C  15,C  14,C  13)      0.09  0.000004   -0.02      0.07   
   163. D(H  33,C  16,C  15,H  32)      0.40  0.000000   -0.01      0.39   
   164. D(C  11,C  16,C  15,H  32)    179.76 -0.000002    0.02    179.78   
   165. D(C  11,C  16,C  15,C  14)     -0.38 -0.000004    0.03     -0.35   
   166. D(H  33,C  16,C  11,C  12)    179.83 -0.000000    0.00    179.83   
   167. D(H  33,C  16,C  11,C   9)     -1.94 -0.000003    0.05     -1.89   
   168. D(H  33,C  16,C  15,C  14)   -179.74 -0.000002    0.00   -179.74   
   169. D(C  15,C  16,C  11,C  12)      0.45  0.000003   -0.02      0.43   
   170. D(C  15,C  16,C  11,C   9)    178.69 -0.000000    0.02    178.71   
   171. D(C   3,O  17,C   9,C  11)    179.52  0.000024    0.03    179.55   
   172. D(C   3,O  17,C   9,H  10)    -60.76 -0.000011    0.03    -60.73   
   173. D(C   3,O  17,C   9,O   8)     59.05 -0.000066    0.10     59.14   
   174. D(C   9,O  17,C   3,C   5)    -57.75  0.000060   -0.12    -57.87   
   175. D(C   9,O  17,C   3,H   4)     61.89  0.000007   -0.12     61.77   
   176. D(C   9,O  17,C   3,C   1)   -177.90 -0.000010   -0.09   -177.99   
   177. D(C  19,O  18,C   5,C   3)     63.11 -0.000072    0.11     63.21   
   178. D(C  19,O  18,C   5,C   7)   -177.78 -0.000021    0.03   -177.75   
   179. D(C  19,O  18,C   5,H   6)    -56.67  0.000021    0.03    -56.63   
   180. D(C  23,C  19,O  18,C   5)    -56.08  0.000046    0.01    -56.07   
   181. D(O  21,C  19,O  18,C   5)   -175.23 -0.000008    0.05   -175.18   
   182. D(H  20,C  19,O  18,C   5)     63.71 -0.000071    0.02     63.73   
   183. D(C  22,O  21,C  19,C  23)    166.77 -0.000021   -0.05    166.71   
   184. D(C  22,O  21,C  19,H  20)     48.57  0.000031   -0.07     48.51   
   185. D(C  22,O  21,C  19,O  18)    -70.91 -0.000007   -0.06    -70.98   
   186. D(H  36,C  22,O  21,C  19)    -60.28  0.000002    0.04    -60.24   
   187. D(H  35,C  22,O  21,C  19)     61.42 -0.000021    0.02     61.44   
   188. D(H  34,C  22,O  21,C  19)   -179.19  0.000015    0.01   -179.18   
   189. D(H  24,C  23,C  19,O  21)     49.01  0.000046   -0.12     48.89   
   190. D(H  24,C  23,C  19,H  20)    169.26  0.000049   -0.09    169.17   
   191. D(H  24,C  23,C  19,O  18)    -70.55 -0.000044   -0.09    -70.64   
   192. D(C   1,C  23,C  19,O  21)    168.26  0.000013   -0.13    168.13   
   193. D(C   1,C  23,C  19,H  20)    -71.49  0.000016   -0.10    -71.59   
   194. D(C   1,C  23,C  19,O  18)     48.70 -0.000077   -0.10     48.60   
   195. D(H  24,C  23,C   1,C   3)     69.87 -0.000037    0.17     70.04   
   196. D(H  24,C  23,C   1,H   2)   -171.88 -0.000096    0.19   -171.69   
   197. D(H  24,C  23,C   1,O   0)    -52.59 -0.000075    0.19    -52.41   
   198. D(C  19,C  23,C   1,C   3)    -48.72  0.000043    0.12    -48.60   
   199. D(C  19,C  23,C   1,H   2)     69.53 -0.000017    0.14     69.68   
   200. D(C  19,C  23,C   1,O   0)   -171.18  0.000004    0.14   -171.04   
   201. D(H  37,O  25,C  23,H  24)     63.75  0.000118   -0.87     62.87   
   202. D(H  37,O  25,C  23,C  19)   -179.19  0.000038   -0.82   -180.01   
   203. D(H  37,O  25,C  23,C   1)    -56.89  0.000096   -0.82    -57.71   
    ----------------------------------------------------------------------------

Geometry step timings:
Preparation and reading OPT file:      0.001 s ( 6.862 %)
Internal coordinates            :      0.000 s ( 0.180 %)
B/P matrices and projection     :      0.003 s (16.707 %)
Hessian update/contruction      :      0.008 s (47.389 %)
Making the step                 :      0.002 s (11.729 %)
Converting the step to Cartesian:      0.000 s ( 1.425 %)
Storing new data                :      0.001 s ( 5.606 %)
Checking convergence            :      0.000 s ( 0.174 %)
Final printing                  :      0.002 s ( 9.921 %)
Total time                      :      0.017 s

Time for energy+gradient        :      0.082 s
Time for complete geometry iter :      0.110 s

         *************************************************************
         *                GEOMETRY OPTIMIZATION CYCLE   7            *
         *************************************************************
---------------------------------
CARTESIAN COORDINATES (ANGSTROEM)
---------------------------------
  O    -2.777126    2.915879    0.124723
  C    -1.378326    2.789801    0.109461
  H    -0.990974    2.729279    1.139996
  C    -0.908701    1.556784   -0.657383
  H    -1.322424    1.585597   -1.680874
  C     0.622073    1.580751   -0.747496
  H     1.030860    1.601112    0.277366
  C     1.062075    0.284831   -1.434731
  O     0.519075   -0.817366   -0.739071
  C    -0.881585   -0.777948   -0.662623
  H    -1.298595   -0.773568   -1.693855
  C    -1.377597   -1.974767    0.110063
  C    -2.506737   -2.663909   -0.310195
  C    -2.973403   -3.742668    0.422197
  C    -2.314637   -4.137234    1.574777
  C    -1.188591   -3.449142    1.996184
  C    -0.721837   -2.368049    1.268856
  O    -1.341645    0.384005    0.001368
  O     1.050181    2.704385   -1.469332
  C     0.703800    3.926974   -0.834433
  H     1.234650    3.985365    0.139907
  O     1.066073    4.965647   -1.664471
  C     2.468022    5.169376   -1.772836
  C    -0.807929    4.051566   -0.562264
  H    -1.309487    4.190089   -1.531439
  O    -0.987494    5.171662    0.258942
  H    -3.152719    2.088331    0.453401
  H     2.145201    0.163839   -1.409203
  H     0.717784    0.298267   -2.478922
  H    -3.020028   -2.357048   -1.209985
  H    -3.852287   -4.275860    0.090988
  H    -2.678051   -4.980754    2.143140
  H    -0.673063   -3.753584    2.895101
  H     0.155815   -1.826539    1.583531
  H     2.589608    6.019220   -2.439766
  H     2.957584    4.287272   -2.191749
  H     2.898614    5.397698   -0.792068
  H    -1.934847    5.259675    0.436492

----------------------------
CARTESIAN COORDINATES (A.U.)
----------------------------
  NO LB    ZA    FRAG    MASS        X           Y           Z
   0 O   8.0000    1    15.999   -5.248007    5.510213    0.235692
   1 C   6.0000    1    12.011   -2.604659    5.271960    0.206851
   2 H   1.0000    1     1.008   -1.872669    5.157590    2.154280
   3 C   6.0000    1    12.011   -1.717197    2.941895   -1.242274
   4 H   1.0000    1     1.008   -2.499020    2.996345   -3.176391
   5 C   6.0000    1    12.011    1.175547    2.987186   -1.412563
   6 H   1.0000    1     1.008    1.948044    3.025664    0.524146
   7 C   6.0000    1    12.011    2.007031    0.538253   -2.711249
   8 O   8.0000    1    15.999    0.980910   -1.544598   -1.396641
   9 C   6.0000    1    12.011   -1.665955   -1.470109   -1.252176
  10 H   1.0000    1     1.008   -2.453989   -1.461832   -3.200922
  11 C   6.0000    1    12.011   -2.603282   -3.731768    0.207989
  12 C   6.0000    1    12.011   -4.737047   -5.034058   -0.586183
  13 C   6.0000    1    12.011   -5.618918   -7.072617    0.797836
  14 C   6.0000    1    12.011   -4.374031   -7.818240    2.975898
  15 C   6.0000    1    12.011   -2.246111   -6.517934    3.772242
  16 C   6.0000    1    12.011   -1.364074   -4.474965    2.397790
  17 O   8.0000    1    15.999   -2.535342    0.725663    0.002586
  18 O   8.0000    1    15.999    1.984554    5.110547   -2.776634
  19 C   6.0000    1    12.011    1.329989    7.420905   -1.576849
  20 H   1.0000    1     1.008    2.333150    7.531248    0.264385
  21 O   8.0000    1    15.999    2.014587    9.383714   -3.145394
  22 C   6.0000    1    12.011    4.663886    9.768706   -3.350174
  23 C   6.0000    1    12.011   -1.526765    7.656350   -1.062525
  24 H   1.0000    1     1.008   -2.474572    7.918120   -2.894000
  25 O   8.0000    1    15.999   -1.866094    9.773024    0.489329
  26 H   1.0000    1     1.008   -5.957776    3.946374    0.856805
  27 H   1.0000    1     1.008    4.053843    0.309610   -2.663007
  28 H   1.0000    1     1.008    1.356416    0.563644   -4.684484
  29 H   1.0000    1     1.008   -5.707027   -4.454175   -2.286541
  30 H   1.0000    1     1.008   -7.279767   -8.080204    0.171942
  31 H   1.0000    1     1.008   -5.060782   -9.412260    4.049947
  32 H   1.0000    1     1.008   -1.271905   -7.093246    5.470949
  33 H   1.0000    1     1.008    0.294448   -3.451658    2.992440
  34 H   1.0000    1     1.008    4.893650   11.374677   -4.610490
  35 H   1.0000    1     1.008    5.589023    8.101771   -4.141805
  36 H   1.0000    1     1.008    5.477587   10.200171   -1.496792
  37 H   1.0000    1     1.008   -3.656330    9.939345    0.824851

      -----------------------------------------------------------      
     |                   =====================                   |     
     |                           x T B                           |     
     |                   =====================                   |     
     |                         S. Grimme                         |     
     |          Mulliken Center for Theoretical Chemistry        |     
     |                    University of Bonn                     |     
      -----------------------------------------------------------      

   * xtb version 6.7.1 (edcfbbe) compiled by 'albert@albert-system' on 2024-07-22

   xtb is free software: you can redistribute it and/or modify it under
   the terms of the GNU Lesser General Public License as published by
   the Free Software Foundation, either version 3 of the License, or
   (at your option) any later version.
   
   xtb is distributed in the hope that it will be useful,
   but WITHOUT ANY WARRANTY; without even the implied warranty of
   MERCHANTABILITY or FITNESS FOR A PARTICULAR PURPOSE.  See the
   GNU Lesser General Public License for more details.
   
   Cite this work as:
   * C. Bannwarth, E. Caldeweyher, S. Ehlert, A. Hansen, P. Pracht,
     J. Seibert, S. Spicher, S. Grimme, WIREs Comput. Mol. Sci., 2020, 11,
     e01493. DOI: 10.1002/wcms.1493
   
   for GFN2-xTB:
   * C. Bannwarth, S. Ehlert and S. Grimme., J. Chem. Theory Comput., 2019,
     15, 1652-1671. DOI: 10.1021/acs.jctc.8b01176
   for GFN1-xTB:
   * S. Grimme, C. Bannwarth, P. Shushkov, J. Chem. Theory Comput., 2017,
     13, 1989-2009. DOI: 10.1021/acs.jctc.7b00118
   for GFN0-xTB:
   * P. Pracht, E. Caldeweyher, S. Ehlert, S. Grimme, ChemRxiv, 2019, preprint.
     DOI: 10.26434/chemrxiv.8326202.v1
   for GFN-FF:
   * S. Spicher and S. Grimme, Angew. Chem. Int. Ed., 2020, 59, 15665-15673.
     DOI: 10.1002/anie.202004239
   
   for ALPB and GBSA implicit solvation:
   * S. Ehlert, M. Stahn, S. Spicher, S. Grimme, J. Chem. Theory Comput.,
     2021, 17, 4250-4261. DOI: 10.1021/acs.jctc.1c00471
   
   for ddCOSMO and CPCM-X implicit solvation:
   * M. Stahn, S. Ehlert, S. Grimme, J. Phys. Chem. A,
     2023, XX, XXXX-XXXX. DOI: 10.1021/acs.jpca.3c04382
   
   for DFT-D4:
   * E. Caldeweyher, C. Bannwarth and S. Grimme, J. Chem. Phys., 2017,
     147, 034112. DOI: 10.1063/1.4993215
   * E. Caldeweyher, S. Ehlert, A. Hansen, H. Neugebauer, S. Spicher,
     C. Bannwarth and S. Grimme, J. Chem. Phys., 2019, 150, 154122.
     DOI: 10.1063/1.5090222
   * E. Caldeweyher, J.-M. Mewes, S. Ehlert and S. Grimme, Phys. Chem. Chem. Phys.
     2020, 22, 8499-8512. DOI: 10.1039/D0CP00502A
   
   for sTDA-xTB:
   * S. Grimme and C. Bannwarth, J. Chem. Phys., 2016, 145, 054103.
     DOI: 10.1063/1.4959605
   
   in the mass-spec context:
   * V. Asgeirsson, C. Bauer and S. Grimme, Chem. Sci., 2017, 8, 4879.
     DOI: 10.1039/c7sc00601b
   * J. Koopman and S. Grimme, ACS Omega 2019, 4, 12, 15120-15133.
     DOI: 10.1021/acsomega.9b02011
   
   for metadynamics refer to:
   * S. Grimme, J. Chem. Theory Comput., 2019, 155, 2847-2862
     DOI: 10.1021/acs.jctc.9b00143
   
   for SPH calculations refer to:
   * S. Spicher and S. Grimme, J. Chem. Theory Comput., 2021, 17, 1701-1714
     DOI: 10.1021/acs.jctc.0c01306
   
   for ONIOM refer to:
   * C. Plett, A. Katbashev, S. Ehlert, S. Grimme, M. Bursch,
     Phys. Chem. Chem. Phys., 2023, 25, 17860-17868. DOI: 10.1039/D3CP02178E
   
   for DIPRO refer to:
   * J. Kohn, N. Gildemeister, S. Grimme, D. Fazzi, A. Hansen,
     J. Chem. Phys., 2023, just accepted.
   
   for PTB refer to:
   * S. Grimme, M. Mueller, A. Hansen, J. Chem. Phys., 2023, 158, 124111.
     DOI: 10.1063/5.0137838
   
   with help from (in alphabetical order)
   P. Atkinson, C. Bannwarth, F. Bohle, G. Brandenburg, E. Caldeweyher
   M. Checinski, S. Dohm, S. Ehlert, S. Ehrlich, I. Gerasimov, C. Hölzer
   A. Katbashev, J. Kohn, J. Koopman, C. Lavigne, S. Lehtola, F. März, M. Müller,
   F. Musil, H. Neugebauer, J. Pisarek, C. Plett, P. Pracht, F. Pultar,
   J. Seibert, P. Shushkov, S. Spicher, M. Stahn, M. Steiner, T. Strunk,
   J. Stückrath, T. Rose, and J. Unsleber
   
 * started run on 2025/10/31 at 09:56:12.344     
   ID    Z sym.   atoms
    1    8 O      1, 9, 18, 19, 22, 26
    2    6 C      2, 4, 6, 8, 10, 12-17, 20, 23, 24
    3    1 H      3, 5, 7, 11, 21, 25, 27-38

           -------------------------------------------------
          |                Calculation Setup                |
           -------------------------------------------------

          program call               : /home/kmoult/orca_6_1/otool_xtb goat_0_XTB.xyz --grad -c 0 -u 0 -P 4 --namespace goat_0 --input goat_0_XTB.input.tmp --alpb ACETONE --acc 0.200000
          hostname                   : node3103
          calculation namespace      : goat_0
          coordinate file            : goat_0_XTB.xyz
          omp threads                :                     4


           -------------------------------------------------
          |                 G F N 2 - x T B                 |
           -------------------------------------------------

        Reference                      10.1021/acs.jctc.8b01176
      * Hamiltonian:
        H0-scaling (s, p, d)           1.850000    2.230000    2.230000
        zeta-weighting                 0.500000
      * Dispersion:
        s8                             2.700000
        a1                             0.520000
        a2                             5.000000
        s9                             5.000000
      * Repulsion:
        kExp                           1.500000    1.000000
        rExp                           1.000000
      * Coulomb:
        alpha                          2.000000
        third order                    shell-resolved
        anisotropic                    true
        a3                             3.000000
        a5                             4.000000
        cn-shift                       1.200000
        cn-exp                         4.000000
        max-rad                        5.000000

      * Solvation model:               ALPB
        Solvent                        ACETONE
        Parameter file                 internal GFN2-xTB/ALPB
        Dielectric constant                2.0700E+01
        Reference state                gsolv [1 M gas/solution]
        Free energy shift                  5.9241E-03 Eh       3.7175E+00 kcal/mol
        Temperature                        2.9815E+02 K
        Density                            7.9000E-01 kg/L
        Solvent mass                       5.8080E+01 g/mol
        Interaction kernel             P16
        Born radius scaling (c1)           1.8274E+00
        Born radii integrator          GBOBC
        Born offset                        0.0000E+00 a0       0.0000E+00 AA
        H-bond correction              true
        Ion screening                  false
        Surface tension                    1.0000E-05 Eh       1.5569E+01 dyn/cm
        Grid points                               230 per atom
q/qsh data taken from xtbrestart
CAMM data taken from xtbrestart

          ...................................................
          :                      SETUP                      :
          :.................................................:
          :  # basis functions                  98          :
          :  # atomic orbitals                  98          :
          :  # shells                           58          :
          :  # electrons                       110          :
          :  max. iterations                   250          :
          :  Hamiltonian                  GFN2-xTB          :
          :  restarted?                       true          :
          :  GBSA solvation                   true          :
          :  PC potential                    false          :
          :  electronic temp.          300.0000000     K    :
          :  accuracy                    0.2000000          :
          :  -> integral cutoff          0.3198970E+02      :
          :  -> integral neglect         0.2000000E-08      :
          :  -> SCF convergence          0.2000000E-06 Eh   :
          :  -> wf. convergence          0.2000000E-04 e    :
          :  Broyden damping             0.4000000          :
          :  net charge                          0          :
          :  unpaired electrons                  0          :
          ...................................................

 iter      E             dE          RMSdq      gap      omega  full diag
   1    -64.2444188 -0.642444E+02  0.592E-02    4.74       0.0  T
   2    -64.2444190 -0.214775E-06  0.348E-02    4.74       1.0  T
   3    -64.2444190 -0.274011E-07  0.148E-03    4.74      11.0  T
   4    -64.2444191 -0.525122E-07  0.681E-04    4.74      23.8  T
   5    -64.2444191 -0.137895E-08  0.373E-04    4.74      43.5  T
   6    -64.2444191 -0.157164E-08  0.765E-05    4.74     212.1  T
   7    -64.2444191 -0.367919E-10  0.347E-05    4.74     466.9  T

   *** convergence criteria satisfied after 7 iterations ***

         #    Occupation            Energy/Eh            Energy/eV
      -------------------------------------------------------------
         1        2.0000           -0.7320747             -19.9208
       ...           ...                  ...                  ...
        49        2.0000           -0.4286263             -11.6635
        50        2.0000           -0.4251718             -11.5695
        51        2.0000           -0.4221649             -11.4877
        52        2.0000           -0.4184795             -11.3874
        53        2.0000           -0.4115453             -11.1987
        54        2.0000           -0.4107615             -11.1774
        55        2.0000           -0.4085852             -11.1182 (HOMO)
        56                         -0.2343846              -6.3779 (LUMO)
        57                         -0.2291094              -6.2344
        58                         -0.1047041              -2.8491
        59                         -0.0370870              -1.0092
        60                         -0.0072967              -0.1986
       ...                                ...                  ...
        98                          0.6576291              17.8950
      -------------------------------------------------------------
                  HL-Gap            0.1742006 Eh            4.7402 eV
             Fermi-level           -0.3214849 Eh           -8.7480 eV

 SCC (total)                   0 d,  0 h,  0 min,  0.019 sec
 SCC setup                      ...        0 min,  0.000 sec (  2.332%)
 Dispersion                     ...        0 min,  0.000 sec (  1.182%)
 classical contributions        ...        0 min,  0.000 sec (  0.156%)
 integral evaluation            ...        0 min,  0.002 sec ( 10.820%)
 iterations                     ...        0 min,  0.010 sec ( 53.804%)
 molecular gradient             ...        0 min,  0.006 sec ( 30.977%)
 printout                       ...        0 min,  0.000 sec (  0.643%)

         :::::::::::::::::::::::::::::::::::::::::::::::::::::
         ::                     SUMMARY                     ::
         :::::::::::::::::::::::::::::::::::::::::::::::::::::
         :: total energy             -63.588594713494 Eh    ::
         :: total w/o Gsasa/hb       -63.559497088887 Eh    ::
         :: gradient norm              0.001308046063 Eh/a0 ::
         :: HOMO-LUMO gap              4.740240616935 eV    ::
         ::.................................................::
         :: SCC energy               -64.244297910137 Eh    ::
         :: -> isotropic ES            0.129943927517 Eh    ::
         :: -> anisotropic ES         -0.006334478443 Eh    ::
         :: -> anisotropic XC          0.001033586572 Eh    ::
         :: -> dispersion             -0.036422528714 Eh    ::
         :: -> Gsolv                  -0.032444148397 Eh    ::
         ::    -> Gelec               -0.003346523791 Eh    ::
         ::    -> Gsasa               -0.028302247009 Eh    ::
         ::    -> Ghb                 -0.006719518861 Eh    ::
         ::    -> Gshift               0.005924141264 Eh    ::
         :: repulsion energy           0.655703196643 Eh    ::
         :: add. restraining           0.000000000000 Eh    ::
         :: total charge               0.000000000000 e     ::
         :::::::::::::::::::::::::::::::::::::::::::::::::::::


Property printout bound to 'properties.out'

           -------------------------------------------------
          | TOTAL ENERGY              -63.588594713494 Eh   |
          | GRADIENT NORM               0.001308046063 Eh/α |
          | HOMO-LUMO GAP               4.740240616935 eV   |
           -------------------------------------------------

------------------------------------------------------------------------
 * finished run on 2025/10/31 at 09:56:12.386     
------------------------------------------------------------------------
 total:
 * wall-time:     0 d,  0 h,  0 min,  0.041 sec
 *  cpu-time:     0 d,  0 h,  0 min,  0.142 sec
 * ratio c/w:     3.456 speedup
 SCF:
 * wall-time:     0 d,  0 h,  0 min,  0.019 sec
 *  cpu-time:     0 d,  0 h,  0 min,  0.077 sec
 * ratio c/w:     3.963 speedup


-------------------------   --------------------
FINAL SINGLE POINT ENERGY       -63.588594713490
-------------------------   --------------------


-------------
DIPOLE MOMENT
-------------
                                X             Y             Z
Total Dipole Moment    :     -0.21800      -1.05300       0.27100
                        -----------------------------------------
Magnitude (a.u.)       :      1.10895
Magnitude (Debye)      :      2.81873


------------------
CARTESIAN GRADIENT
------------------

   1   O   :    0.000338552   -0.000028629    0.000131755
   2   C   :   -0.000256163    0.000091924   -0.000111946
   3   H   :    0.000078936   -0.000013761    0.000023180
   4   C   :   -0.000031666   -0.000127723    0.000060221
   5   H   :    0.000063396   -0.000015099   -0.000032966
   6   C   :    0.000116590    0.000215893   -0.000124789
   7   H   :   -0.000016654   -0.000023574    0.000013623
   8   C   :   -0.000072929    0.000159219   -0.000092112
   9   O   :    0.000162891   -0.000177525    0.000108761
  10   C   :   -0.000016055   -0.000142322   -0.000348306
  11   H   :    0.000036412   -0.000121187    0.000099932
  12   C   :    0.000068798    0.000095314   -0.000132038
  13   C   :   -0.000245254    0.000062017   -0.000102905
  14   C   :   -0.000025346   -0.000066137    0.000050116
  15   C   :    0.000026178    0.000013028    0.000029178
  16   C   :   -0.000085945   -0.000117418    0.000017628
  17   C   :    0.000224318    0.000016829    0.000118381
  18   O   :   -0.000237730    0.000272874    0.000181257
  19   O   :    0.000055616   -0.000359811   -0.000038810
  20   C   :    0.000354670    0.000177121    0.000118267
  21   H   :   -0.000112982   -0.000113463   -0.000051746
  22   O   :   -0.000194952    0.000145665   -0.000132684
  23   C   :    0.000154202    0.000048283   -0.000009545
  24   C   :   -0.000101738    0.000290803    0.000240838
  25   H   :    0.000038621   -0.000070752   -0.000087054
  26   O   :   -0.000056983   -0.000157573   -0.000172938
  27   H   :   -0.000170209   -0.000066981   -0.000011307
  28   H   :    0.000010105   -0.000001348    0.000029361
  29   H   :   -0.000023320    0.000063427    0.000053140
  30   H   :    0.000016661    0.000043552   -0.000014699
  31   H   :   -0.000034560   -0.000027898   -0.000014028
  32   H   :   -0.000010127   -0.000035980    0.000017160
  33   H   :    0.000027179   -0.000009364    0.000032041
  34   H   :    0.000015777    0.000026837    0.000002051
  35   H   :   -0.000032596    0.000014462   -0.000008892
  36   H   :    0.000007016   -0.000024041    0.000041012
  37   H   :   -0.000013347   -0.000060746   -0.000006429
  38   H   :   -0.000057362    0.000024084    0.000125294

Difference to translation invariance:
           :    0.0000000000   -0.0000000000    0.0000000000

Difference to rotation invariance:
           :    0.0003875758    0.0003649537   -0.0000407807

Norm of the Cartesian gradient     ...    0.0013080461
RMS gradient                       ...    0.0001225097
MAX gradient                       ...    0.0003598108
------------------------------------------------------------------------------
                         ORCA GEOMETRY RELAXATION STEP
------------------------------------------------------------------------------

Reading the OPT-File                    .... done
Getting information on internals        .... done
Copying old internal coords+grads       .... done
Making the new internal coordinates     .... (2022 redundants) done
Validating the new internal coordinates .... (2022 redundants) done
Calculating the B-matrix                .... done
Calculating the G,G- and P matrices     .... done
Transforming gradient to internals      .... done
Projecting the internal gradient        .... done
Number of atoms                         ....  38
Number of internal coordinates          .... 203
Current Energy                          ....   -63.588594713 Eh
Current gradient norm                   ....     0.001308046 Eh/bohr
Maximum allowed component of the step   ....  0.300
Current trust radius                    ....  0.675
Updating the Hessian (BFGS)             .... done
Forming the augmented Hessian           .... done
Diagonalizing the augmented Hessian     .... done
Last element of RFO vector              ....  0.998478121
Lowest eigenvalues of augmented Hessian:
 -0.000011036  0.002730535  0.013708645  0.015639403  0.016396436
Length of the computed step             ....  0.055233323
The final length of the internal step   ....  0.055233323
Converting the step to Cartesian space:
 Initial RMS(Int)=    0.0038766193
Transforming coordinates:
 Iter   0:  RMS(Cart)=    0.0152249663 RMS(Int)=    0.4409745975
done
Storing new coordinates                 .... done
The predicted energy change is          ....    -0.000005535
Previously predicted energy change      ....    -0.000008804
Actually observed energy change         ....    -0.000012150
Ratio of predicted to observed change   ....     1.379966575
New trust radius                        ....     0.675000000

                                .--------------------.
          ----------------------|Geometry convergence|-------------------------
          Item                value                   Tolerance       Converged
          ---------------------------------------------------------------------
          Energy change      -0.0000121499            0.0000050000      NO
          RMS gradient        0.0000687693            0.0001000000      YES
          MAX gradient        0.0003140007            0.0003000000      NO
          RMS step            0.0038766193            0.0020000000      NO
          MAX step            0.0204173253            0.0040000000      NO
          -------------------------------------------------------------------------
          ........................................................
          Max(Bonds)      0.0082      Max(Angles)    0.06
          Max(Dihed)        1.17      Max(Improp)    0.00
          ---------------------------------------------------------------------

    ---------------------------------------------------------------------------
                         Redundant Internal Coordinates
                            (Angstroem and degrees)

        Definition                    Value    dE/dq     Step     New-Value
    ----------------------------------------------------------------------------
     1. B(C   1,O   0)                1.4046 -0.000152  0.0002    1.4047   
     2. B(H   2,C   1)                1.1026  0.000046 -0.0001    1.1025   
     3. B(C   3,C   1)                1.5261  0.000024  0.0002    1.5263   
     4. B(H   4,C   3)                1.1043  0.000008 -0.0001    1.1043   
     5. B(C   5,C   3)                1.5336  0.000047 -0.0002    1.5334   
     6. B(H   6,C   5)                1.1036  0.000008 -0.0001    1.1035   
     7. B(C   7,C   5)                1.5314 -0.000052  0.0000    1.5314   
     8. B(O   8,C   7)                1.4120  0.000183 -0.0001    1.4118   
     9. B(C   9,O   8)                1.4033  0.000152  0.0001    1.4034   
    10. B(H  10,C   9)                1.1124 -0.000108 -0.0003    1.1121   
    11. B(C  11,C   9)                1.5085  0.000013 -0.0001    1.5083   
    12. B(C  12,C  11)                1.3880  0.000199 -0.0002    1.3878   
    13. B(C  13,C  12)                1.3849  0.000138 -0.0001    1.3848   
    14. B(C  14,C  13)                1.3850  0.000078 -0.0001    1.3848   
    15. B(C  15,C  14)                1.3853  0.000037  0.0000    1.3853   
    16. B(C  16,C  15)                1.3841  0.000159 -0.0002    1.3839   
    17. B(C  16,C  11)                1.3883  0.000231 -0.0000    1.3883   
    18. B(O  17,C   9)                1.4152  0.000314  0.0001    1.4152   
    19. B(O  17,C   3)                1.4131 -0.000001 -0.0001    1.4130   
    20. B(O  18,C   5)                1.4025 -0.000104  0.0001    1.4026   
    21. B(C  19,O  18)                1.4205  0.000241  0.0000    1.4205   
    22. B(H  20,C  19)                1.1111 -0.000106 -0.0002    1.1109   
    23. B(O  21,C  19)                1.3781  0.000139  0.0001    1.3781   
    24. B(C  22,O  21)                1.4208  0.000112  0.0002    1.4210   
    25. B(C  23,C  19)                1.5411  0.000225 -0.0003    1.5407   
    26. B(C  23,C   1)                1.5390  0.000072  0.0000    1.5391   
    27. B(H  24,C  23)                1.1000  0.000054 -0.0001    1.0999   
    28. B(O  25,C  23)                1.4004 -0.000100  0.0000    1.4005   
    29. B(H  26,O   0)                0.9664  0.000115 -0.0001    0.9663   
    30. B(H  26,O  17)                2.5277 -0.000015  0.0044    2.5321   
    31. B(H  27,C   7)                1.0902  0.000013  0.0001    1.0902   
    32. B(H  28,C   7)                1.0996 -0.000046  0.0000    1.0996   
    33. B(H  29,C  12)                1.0804  0.000016 -0.0000    1.0804   
    34. B(H  30,C  13)                1.0800  0.000046 -0.0001    1.0799   
    35. B(H  31,C  14)                1.0801  0.000041 -0.0000    1.0801   
    36. B(H  32,C  15)                1.0800  0.000043 -0.0001    1.0800   
    37. B(H  33,C  16)                1.0782  0.000027 -0.0000    1.0782   
    38. B(H  34,C  22)                1.0871  0.000012 -0.0000    1.0871   
    39. B(H  35,C  22)                1.0924  0.000007 -0.0000    1.0923   
    40. B(H  36,C  22)                1.0952 -0.000022 -0.0000    1.0952   
    41. B(H  37,O   0)                2.5100 -0.000033  0.0082    2.5182   
    42. B(H  37,O  25)                0.9679  0.000076 -0.0002    0.9677   
    43. A(C   1,O   0,H  26)          108.29  0.000270    0.02    108.31   
    44. A(O   0,C   1,H   2)          110.16 -0.000001   -0.02    110.14   
    45. A(H   2,C   1,C   3)          108.49 -0.000034    0.01    108.50   
    46. A(H   2,C   1,C  23)          108.83 -0.000007    0.03    108.86   
    47. A(O   0,C   1,C   3)          112.61  0.000009   -0.03    112.58   
    48. A(O   0,C   1,C  23)          107.47  0.000010   -0.02    107.45   
    49. A(C   3,C   1,C  23)          109.21  0.000022    0.03    109.24   
    50. A(H   4,C   3,C   5)          108.61 -0.000042    0.01    108.62   
    51. A(H   4,C   3,O  17)          109.81 -0.000057    0.01    109.82   
    52. A(C   1,C   3,C   5)          108.91 -0.000009    0.00    108.91   
    53. A(C   5,C   3,O  17)          110.25  0.000130   -0.02    110.23   
    54. A(C   1,C   3,H   4)          109.23  0.000041   -0.01    109.22   
    55. A(C   1,C   3,O  17)          110.00 -0.000063    0.01    110.01   
    56. A(C   7,C   5,O  18)          111.06 -0.000061   -0.05    111.01   
    57. A(H   6,C   5,O  18)          110.50  0.000030   -0.01    110.48   
    58. A(C   3,C   5,C   7)          107.45 -0.000051    0.01    107.46   
    59. A(H   6,C   5,C   7)          109.02  0.000019    0.03    109.05   
    60. A(C   3,C   5,O  18)          110.33  0.000072   -0.01    110.33   
    61. A(C   3,C   5,H   6)          108.39 -0.000010    0.04    108.43   
    62. A(O   8,C   7,H  27)          106.49 -0.000042    0.01    106.51   
    63. A(C   5,C   7,H  27)          111.65 -0.000053   -0.01    111.63   
    64. A(C   5,C   7,O   8)          109.21  0.000124    0.03    109.24   
    65. A(O   8,C   7,H  28)          110.92  0.000035   -0.01    110.91   
    66. A(C   5,C   7,H  28)          109.02 -0.000086    0.01    109.03   
    67. A(H  27,C   7,H  28)          109.55  0.000025   -0.04    109.52   
    68. A(C   7,O   8,C   9)          112.88 -0.000109   -0.01    112.87   
    69. A(H  10,C   9,O  17)          108.05  0.000036    0.02    108.07   
    70. A(O   8,C   9,O  17)          111.91 -0.000010   -0.02    111.89   
    71. A(O   8,C   9,C  11)          109.50  0.000101   -0.05    109.46   
    72. A(O   8,C   9,H  10)          108.89  0.000017    0.02    108.91   
    73. A(C  11,C   9,O  17)          107.71 -0.000062    0.01    107.72   
    74. A(H  10,C   9,C  11)          110.78 -0.000087    0.02    110.79   
    75. A(C   9,C  11,C  12)          120.42 -0.000083    0.06    120.48   
    76. A(C  12,C  11,C  16)          119.76  0.000009   -0.01    119.75   
    77. A(C   9,C  11,C  16)          119.80  0.000075   -0.05    119.75   
    78. A(C  11,C  12,H  29)          119.84 -0.000030   -0.01    119.83   
    79. A(C  13,C  12,H  29)          120.11  0.000064    0.01    120.11   
    80. A(C  11,C  12,C  13)          120.05 -0.000034    0.00    120.05   
    81. A(C  14,C  13,H  30)          120.11 -0.000010   -0.00    120.11   
    82. A(C  12,C  13,H  30)          119.78 -0.000003    0.00    119.78   
    83. A(C  12,C  13,C  14)          120.12  0.000013   -0.00    120.11   
    84. A(C  13,C  14,H  31)          120.02 -0.000022   -0.00    120.02   
    85. A(C  13,C  14,C  15)          119.89  0.000042    0.01    119.89   
    86. A(C  15,C  14,H  31)          120.09 -0.000020   -0.00    120.08   
    87. A(C  16,C  15,H  32)          119.77 -0.000023    0.02    119.79   
    88. A(C  14,C  15,H  32)          120.08 -0.000010   -0.00    120.07   
    89. A(C  14,C  15,C  16)          120.15  0.000033   -0.01    120.13   
    90. A(C  11,C  16,C  15)          120.04 -0.000062    0.01    120.05   
    91. A(C  15,C  16,H  33)          120.89  0.000043    0.02    120.91   
    92. A(C  11,C  16,H  33)          119.07  0.000019   -0.04    119.03   
    93. A(C   3,O  17,C   9)          111.29 -0.000074   -0.02    111.27   
    94. A(C   5,O  18,C  19)          112.65 -0.000045   -0.04    112.61   
    95. A(O  18,C  19,O  21)          108.38  0.000063   -0.02    108.36   
    96. A(O  21,C  19,C  23)          107.66 -0.000024   -0.02    107.64   
    97. A(H  20,C  19,C  23)          108.03 -0.000050    0.02    108.06   
    98. A(O  18,C  19,C  23)          112.81 -0.000025    0.02    112.83   
    99. A(H  20,C  19,O  21)          111.28  0.000076   -0.01    111.27   
   100. A(O  18,C  19,H  20)          108.70 -0.000038    0.00    108.71   
   101. A(C  19,O  21,C  22)          114.42 -0.000154   -0.04    114.38   
   102. A(H  35,C  22,H  36)          109.61 -0.000037    0.03    109.64   
   103. A(H  34,C  22,H  36)          110.03  0.000048   -0.00    110.02   
   104. A(O  21,C  22,H  36)          110.46 -0.000031   -0.01    110.44   
   105. A(H  34,C  22,H  35)          110.24  0.000044   -0.02    110.22   
   106. A(O  21,C  22,H  35)          110.83 -0.000001   -0.03    110.81   
   107. A(O  21,C  22,H  34)          105.62 -0.000021    0.03    105.65   
   108. A(H  24,C  23,O  25)          110.94  0.000003    0.01    110.96   
   109. A(C  19,C  23,O  25)          107.10  0.000100   -0.06    107.04   
   110. A(C   1,C  23,O  25)          110.63 -0.000049   -0.02    110.61   
   111. A(C  19,C  23,H  24)          107.57 -0.000028    0.05    107.62   
   112. A(C   1,C  23,H  24)          108.59 -0.000007   -0.03    108.56   
   113. A(C   1,C  23,C  19)          111.98 -0.000018    0.05    112.03   
   114. A(C  23,O  25,H  37)          107.81  0.000191    0.06    107.87   
   115. D(C   3,C   1,O   0,H  26)     53.44 -0.000050    0.43     53.87   
   116. D(C  23,C   1,O   0,H  26)    173.76 -0.000010    0.43    174.19   
   117. D(H   2,C   1,O   0,H  26)    -67.82 -0.000012    0.45    -67.37   
   118. D(C   5,C   3,C   1,C  23)     54.80 -0.000004   -0.10     54.70   
   119. D(H   4,C   3,C   1,O   0)     55.64  0.000062   -0.14     55.50   
   120. D(H   4,C   3,C   1,C  23)    -63.67  0.000029   -0.11    -63.78   
   121. D(C   5,C   3,C   1,H   2)    -63.69  0.000011   -0.16    -63.85   
   122. D(H   4,C   3,C   1,H   2)    177.84  0.000044   -0.17    177.67   
   123. D(C   5,C   3,C   1,O   0)    174.11  0.000030   -0.13    173.98   
   124. D(C   7,C   5,C   3,O  17)     55.35 -0.000011    0.01     55.36   
   125. D(C   7,C   5,C   3,C   1)    176.13 -0.000014    0.02    176.15   
   126. D(C   7,C   5,C   3,H   4)    -65.01  0.000007    0.02    -65.00   
   127. D(H   6,C   5,C   3,O  17)    -62.34  0.000001   -0.04    -62.38   
   128. D(H   6,C   5,C   3,H   4)    177.30  0.000018   -0.04    177.26   
   129. D(H   6,C   5,C   3,C   1)     58.44 -0.000002   -0.04     58.41   
   130. D(H  27,C   7,C   5,H   6)    -54.69 -0.000011    0.08    -54.61   
   131. D(H  27,C   7,C   5,O  18)     67.29  0.000000    0.05     67.34   
   132. D(H  27,C   7,C   5,C   3)   -171.96  0.000020    0.01   -171.94   
   133. D(O   8,C   7,C   5,H   6)     62.81 -0.000016    0.11     62.92   
   134. D(O   8,C   7,C   5,C   3)    -54.46  0.000014    0.04    -54.41   
   135. D(O   8,C   7,C   5,O  18)   -175.21 -0.000005    0.07   -175.14   
   136. D(C   9,O   8,C   7,H  28)    -62.31  0.000035   -0.09    -62.40   
   137. D(C   9,O   8,C   7,H  27)    178.56  0.000011   -0.05    178.50   
   138. D(C   9,O   8,C   7,C   5)     57.86  0.000031   -0.06     57.80   
   139. D(O  17,C   9,O   8,C   7)    -59.81  0.000022    0.00    -59.81   
   140. D(C  11,C   9,O   8,C   7)   -179.17  0.000039    0.03   -179.14   
   141. D(H  10,C   9,O   8,C   7)     59.57  0.000072    0.03     59.59   
   142. D(C  12,C  11,C   9,O  17)     99.19 -0.000094    1.17    100.36   
   143. D(C  12,C  11,C   9,H  10)    -18.78 -0.000052    1.13    -17.65   
   144. D(C  12,C  11,C   9,O   8)   -138.90 -0.000084    1.13   -137.77   
   145. D(C  16,C  11,C   9,O   8)     42.84 -0.000074    1.05     43.88   
   146. D(C  16,C  11,C   9,H  10)    162.95 -0.000042    1.05    164.00   
   147. D(H  29,C  12,C  11,C  16)    179.80 -0.000006    0.01    179.81   
   148. D(H  29,C  12,C  11,C   9)      1.53  0.000002   -0.07      1.46   
   149. D(C  13,C  12,C  11,C  16)     -0.23 -0.000010    0.04     -0.20   
   150. D(C  13,C  12,C  11,C   9)   -178.50 -0.000002   -0.04   -178.54   
   151. D(H  30,C  13,C  12,H  29)     -0.02  0.000003   -0.00     -0.02   
   152. D(H  30,C  13,C  12,C  11)   -179.99  0.000007   -0.03   -180.01   
   153. D(C  14,C  13,C  12,H  29)    179.92  0.000002    0.01    179.93   
   154. D(C  14,C  13,C  12,C  11)     -0.05  0.000006   -0.02     -0.06   
   155. D(H  31,C  14,C  13,H  30)      0.14 -0.000001    0.00      0.14   
   156. D(C  15,C  14,C  13,C  12)      0.13  0.000000    0.00      0.13   
   157. D(H  31,C  14,C  13,C  12)   -179.80  0.000001   -0.01   -179.82   
   158. D(C  15,C  14,C  13,H  30)   -179.93 -0.000001    0.01   -179.92   
   159. D(H  32,C  15,C  14,H  31)     -0.13 -0.000005    0.02     -0.11   
   160. D(H  32,C  15,C  14,C  13)    179.94 -0.000004    0.01    179.95   
   161. D(C  16,C  15,C  14,H  31)   -180.00 -0.000002    0.00   -179.99   
   162. D(C  16,C  15,C  14,C  13)      0.07 -0.000001   -0.01      0.06   
   163. D(H  33,C  16,C  15,H  32)      0.39 -0.000004    0.01      0.40   
   164. D(C  11,C  16,C  15,H  32)    179.78 -0.000000    0.01    179.80   
   165. D(C  11,C  16,C  15,C  14)     -0.35 -0.000003    0.03     -0.32   
   166. D(H  33,C  16,C  11,C  12)    179.83  0.000012   -0.04    179.79   
   167. D(H  33,C  16,C  11,C   9)     -1.89  0.000001    0.04     -1.85   
   168. D(H  33,C  16,C  15,C  14)   -179.74 -0.000006    0.02   -179.71   
   169. D(C  15,C  16,C  11,C  12)      0.43  0.000008   -0.04      0.39   
   170. D(C  15,C  16,C  11,C   9)    178.71 -0.000003    0.03    178.74   
   171. D(C   3,O  17,C   9,C  11)    179.55  0.000075    0.02    179.57   
   172. D(C   3,O  17,C   9,H  10)    -60.73 -0.000043    0.06    -60.67   
   173. D(C   3,O  17,C   9,O   8)     59.14 -0.000004    0.08     59.23   
   174. D(C   9,O  17,C   3,C   5)    -57.87  0.000012   -0.09    -57.96   
   175. D(C   9,O  17,C   3,H   4)     61.77  0.000005   -0.09     61.68   
   176. D(C   9,O  17,C   3,C   1)   -177.99 -0.000019   -0.08   -178.08   
   177. D(C  19,O  18,C   5,C   3)     63.21  0.000039    0.09     63.30   
   178. D(C  19,O  18,C   5,C   7)   -177.75 -0.000017    0.06   -177.69   
   179. D(C  19,O  18,C   5,H   6)    -56.63 -0.000014    0.05    -56.58   
   180. D(C  23,C  19,O  18,C   5)    -56.07  0.000042   -0.01    -56.08   
   181. D(O  21,C  19,O  18,C   5)   -175.18  0.000046    0.01   -175.17   
   182. D(H  20,C  19,O  18,C   5)     63.73 -0.000062    0.04     63.77   
   183. D(C  22,O  21,C  19,C  23)    166.71 -0.000015   -0.01    166.70   
   184. D(C  22,O  21,C  19,H  20)     48.51  0.000017   -0.03     48.48   
   185. D(C  22,O  21,C  19,O  18)    -70.97 -0.000022   -0.01    -70.99   
   186. D(H  36,C  22,O  21,C  19)    -60.24  0.000038   -0.01    -60.25   
   187. D(H  35,C  22,O  21,C  19)     61.44 -0.000031    0.01     61.45   
   188. D(H  34,C  22,O  21,C  19)   -179.18  0.000009   -0.01   -179.19   
   189. D(H  24,C  23,C  19,O  21)     48.89  0.000024   -0.15     48.74   
   190. D(H  24,C  23,C  19,H  20)    169.17  0.000073   -0.16    169.01   
   191. D(H  24,C  23,C  19,O  18)    -70.64 -0.000023   -0.12    -70.77   
   192. D(C   1,C  23,C  19,O  21)    168.13 -0.000013   -0.12    168.01   
   193. D(C   1,C  23,C  19,H  20)    -71.59  0.000036   -0.13    -71.72   
   194. D(C   1,C  23,C  19,O  18)     48.59 -0.000061   -0.10     48.50   
   195. D(H  24,C  23,C   1,C   3)     70.04 -0.000027    0.23     70.27   
   196. D(H  24,C  23,C   1,H   2)   -171.69 -0.000059    0.28   -171.41   
   197. D(H  24,C  23,C   1,O   0)    -52.41 -0.000057    0.26    -52.14   
   198. D(C  19,C  23,C   1,C   3)    -48.60  0.000023    0.16    -48.44   
   199. D(C  19,C  23,C   1,H   2)     69.68 -0.000009    0.21     69.88   
   200. D(C  19,C  23,C   1,O   0)   -171.04 -0.000008    0.19   -170.85   
   201. D(H  37,O  25,C  23,H  24)     62.87  0.000014   -0.76     62.12   
   202. D(H  37,O  25,C  23,C  19)    179.99  0.000041   -0.73    179.27   
   203. D(H  37,O  25,C  23,C   1)    -57.71  0.000053   -0.72    -58.43   
    ----------------------------------------------------------------------------

Geometry step timings:
Preparation and reading OPT file:      0.001 s ( 6.178 %)
Internal coordinates            :      0.000 s ( 0.162 %)
B/P matrices and projection     :      0.003 s (16.577 %)
Hessian update/contruction      :      0.009 s (49.418 %)
Making the step                 :      0.002 s (11.621 %)
Converting the step to Cartesian:      0.000 s ( 1.448 %)
Storing new data                :      0.001 s ( 5.263 %)
Checking convergence            :      0.000 s ( 0.168 %)
Final printing                  :      0.002 s ( 9.148 %)
Total time                      :      0.017 s

Time for energy+gradient        :      0.068 s
Time for complete geometry iter :      0.096 s

         *************************************************************
         *                GEOMETRY OPTIMIZATION CYCLE   8            *
         *************************************************************
---------------------------------
CARTESIAN COORDINATES (ANGSTROEM)
---------------------------------
  O    -2.775116    2.919148    0.130413
  C    -1.376357    2.790808    0.114324
  H    -0.989003    2.727902    1.144613
  C    -0.909893    1.557730   -0.654680
  H    -1.326408    1.587754   -1.676927
  C     0.620492    1.580197   -0.748759
  H     1.032610    1.600093    0.274675
  C     1.057495    0.284570   -1.438468
  O     0.514810   -0.818196   -0.743714
  C    -0.885725   -0.776738   -0.663396
  H    -1.305763   -0.769986   -1.693073
  C    -1.380309   -1.974277    0.108847
  C    -2.497475   -2.676627   -0.320871
  C    -2.961817   -3.756415    0.411368
  C    -2.312337   -4.138966    1.573091
  C    -1.197900   -3.437906    2.003954
  C    -0.733705   -2.355994    1.276608
  O    -1.341736    0.384762    0.004320
  O     1.047715    2.703557   -1.471743
  C     0.705385    3.925912   -0.834095
  H     1.240442    3.982859    0.137805
  O     1.065722    4.964762   -1.664881
  C     2.467781    5.166169   -1.778029
  C    -0.804728    4.052796   -0.556025
  H    -1.310301    4.195541   -1.522328
  O    -0.977427    5.170760    0.269599
  H    -3.151870    2.094437    0.464461
  H     2.140630    0.162621   -1.415482
  H     0.711572    0.299712   -2.482143
  H    -3.003526   -2.378862   -1.227782
  H    -3.831698   -4.299671    0.073033
  H    -2.674010   -4.983209    2.141447
  H    -0.689681   -3.733212    2.909990
  H     0.135113   -1.804272    1.597905
  H     2.589054    6.016093   -2.444871
  H     2.953859    4.283359   -2.199415
  H     2.901921    5.393119   -0.798545
  H    -1.924487    5.268638    0.442574

----------------------------
CARTESIAN COORDINATES (A.U.)
----------------------------
  NO LB    ZA    FRAG    MASS        X           Y           Z
   0 O   8.0000    1    15.999   -5.244209    5.516390    0.246446
   1 C   6.0000    1    12.011   -2.600938    5.273863    0.216042
   2 H   1.0000    1     1.008   -1.868944    5.154987    2.163005
   3 C   6.0000    1    12.011   -1.719448    2.943684   -1.237165
   4 H   1.0000    1     1.008   -2.506547    3.000421   -3.168933
   5 C   6.0000    1    12.011    1.172561    2.986140   -1.414949
   6 H   1.0000    1     1.008    1.951350    3.023738    0.519061
   7 C   6.0000    1    12.011    1.998376    0.537759   -2.718311
   8 O   8.0000    1    15.999    0.972850   -1.546167   -1.405416
   9 C   6.0000    1    12.011   -1.673777   -1.467823   -1.253636
  10 H   1.0000    1     1.008   -2.467535   -1.455063   -3.199444
  11 C   6.0000    1    12.011   -2.608407   -3.730842    0.205691
  12 C   6.0000    1    12.011   -4.719544   -5.058092   -0.606359
  13 C   6.0000    1    12.011   -5.597023   -7.098595    0.777372
  14 C   6.0000    1    12.011   -4.369684   -7.821511    2.972711
  15 C   6.0000    1    12.011   -2.263703   -6.496700    3.786924
  16 C   6.0000    1    12.011   -1.386501   -4.452183    2.412440
  17 O   8.0000    1    15.999   -2.535513    0.727095    0.008163
  18 O   8.0000    1    15.999    1.979895    5.108982   -2.781192
  19 C   6.0000    1    12.011    1.332984    7.418899   -1.576211
  20 H   1.0000    1     1.008    2.344095    7.526512    0.260414
  21 O   8.0000    1    15.999    2.013923    9.382041   -3.146169
  22 C   6.0000    1    12.011    4.663429    9.762644   -3.359989
  23 C   6.0000    1    12.011   -1.520715    7.658675   -1.050735
  24 H   1.0000    1     1.008   -2.476111    7.928423   -2.876783
  25 O   8.0000    1    15.999   -1.847070    9.771321    0.509469
  26 H   1.0000    1     1.008   -5.956171    3.957912    0.877704
  27 H   1.0000    1     1.008    4.045204    0.307309   -2.674874
  28 H   1.0000    1     1.008    1.344677    0.566373   -4.690570
  29 H   1.0000    1     1.008   -5.675842   -4.495398   -2.320171
  30 H   1.0000    1     1.008   -7.240860   -8.125201    0.138012
  31 H   1.0000    1     1.008   -5.053146   -9.416900    4.046748
  32 H   1.0000    1     1.008   -1.303308   -7.054748    5.499085
  33 H   1.0000    1     1.008    0.255326   -3.409579    3.019603
  34 H   1.0000    1     1.008    4.892604   11.368769   -4.620137
  35 H   1.0000    1     1.008    5.581985    8.094376   -4.156292
  36 H   1.0000    1     1.008    5.483835   10.191518   -1.509031
  37 H   1.0000    1     1.008   -3.636754    9.956282    0.836343

      -----------------------------------------------------------      
     |                   =====================                   |     
     |                           x T B                           |     
     |                   =====================                   |     
     |                         S. Grimme                         |     
     |          Mulliken Center for Theoretical Chemistry        |     
     |                    University of Bonn                     |     
      -----------------------------------------------------------      

   * xtb version 6.7.1 (edcfbbe) compiled by 'albert@albert-system' on 2024-07-22

   xtb is free software: you can redistribute it and/or modify it under
   the terms of the GNU Lesser General Public License as published by
   the Free Software Foundation, either version 3 of the License, or
   (at your option) any later version.
   
   xtb is distributed in the hope that it will be useful,
   but WITHOUT ANY WARRANTY; without even the implied warranty of
   MERCHANTABILITY or FITNESS FOR A PARTICULAR PURPOSE.  See the
   GNU Lesser General Public License for more details.
   
   Cite this work as:
   * C. Bannwarth, E. Caldeweyher, S. Ehlert, A. Hansen, P. Pracht,
     J. Seibert, S. Spicher, S. Grimme, WIREs Comput. Mol. Sci., 2020, 11,
     e01493. DOI: 10.1002/wcms.1493
   
   for GFN2-xTB:
   * C. Bannwarth, S. Ehlert and S. Grimme., J. Chem. Theory Comput., 2019,
     15, 1652-1671. DOI: 10.1021/acs.jctc.8b01176
   for GFN1-xTB:
   * S. Grimme, C. Bannwarth, P. Shushkov, J. Chem. Theory Comput., 2017,
     13, 1989-2009. DOI: 10.1021/acs.jctc.7b00118
   for GFN0-xTB:
   * P. Pracht, E. Caldeweyher, S. Ehlert, S. Grimme, ChemRxiv, 2019, preprint.
     DOI: 10.26434/chemrxiv.8326202.v1
   for GFN-FF:
   * S. Spicher and S. Grimme, Angew. Chem. Int. Ed., 2020, 59, 15665-15673.
     DOI: 10.1002/anie.202004239
   
   for ALPB and GBSA implicit solvation:
   * S. Ehlert, M. Stahn, S. Spicher, S. Grimme, J. Chem. Theory Comput.,
     2021, 17, 4250-4261. DOI: 10.1021/acs.jctc.1c00471
   
   for ddCOSMO and CPCM-X implicit solvation:
   * M. Stahn, S. Ehlert, S. Grimme, J. Phys. Chem. A,
     2023, XX, XXXX-XXXX. DOI: 10.1021/acs.jpca.3c04382
   
   for DFT-D4:
   * E. Caldeweyher, C. Bannwarth and S. Grimme, J. Chem. Phys., 2017,
     147, 034112. DOI: 10.1063/1.4993215
   * E. Caldeweyher, S. Ehlert, A. Hansen, H. Neugebauer, S. Spicher,
     C. Bannwarth and S. Grimme, J. Chem. Phys., 2019, 150, 154122.
     DOI: 10.1063/1.5090222
   * E. Caldeweyher, J.-M. Mewes, S. Ehlert and S. Grimme, Phys. Chem. Chem. Phys.
     2020, 22, 8499-8512. DOI: 10.1039/D0CP00502A
   
   for sTDA-xTB:
   * S. Grimme and C. Bannwarth, J. Chem. Phys., 2016, 145, 054103.
     DOI: 10.1063/1.4959605
   
   in the mass-spec context:
   * V. Asgeirsson, C. Bauer and S. Grimme, Chem. Sci., 2017, 8, 4879.
     DOI: 10.1039/c7sc00601b
   * J. Koopman and S. Grimme, ACS Omega 2019, 4, 12, 15120-15133.
     DOI: 10.1021/acsomega.9b02011
   
   for metadynamics refer to:
   * S. Grimme, J. Chem. Theory Comput., 2019, 155, 2847-2862
     DOI: 10.1021/acs.jctc.9b00143
   
   for SPH calculations refer to:
   * S. Spicher and S. Grimme, J. Chem. Theory Comput., 2021, 17, 1701-1714
     DOI: 10.1021/acs.jctc.0c01306
   
   for ONIOM refer to:
   * C. Plett, A. Katbashev, S. Ehlert, S. Grimme, M. Bursch,
     Phys. Chem. Chem. Phys., 2023, 25, 17860-17868. DOI: 10.1039/D3CP02178E
   
   for DIPRO refer to:
   * J. Kohn, N. Gildemeister, S. Grimme, D. Fazzi, A. Hansen,
     J. Chem. Phys., 2023, just accepted.
   
   for PTB refer to:
   * S. Grimme, M. Mueller, A. Hansen, J. Chem. Phys., 2023, 158, 124111.
     DOI: 10.1063/5.0137838
   
   with help from (in alphabetical order)
   P. Atkinson, C. Bannwarth, F. Bohle, G. Brandenburg, E. Caldeweyher
   M. Checinski, S. Dohm, S. Ehlert, S. Ehrlich, I. Gerasimov, C. Hölzer
   A. Katbashev, J. Kohn, J. Koopman, C. Lavigne, S. Lehtola, F. März, M. Müller,
   F. Musil, H. Neugebauer, J. Pisarek, C. Plett, P. Pracht, F. Pultar,
   J. Seibert, P. Shushkov, S. Spicher, M. Stahn, M. Steiner, T. Strunk,
   J. Stückrath, T. Rose, and J. Unsleber
   
 * started run on 2025/10/31 at 09:56:12.440     
   ID    Z sym.   atoms
    1    8 O      1, 9, 18, 19, 22, 26
    2    6 C      2, 4, 6, 8, 10, 12-17, 20, 23, 24
    3    1 H      3, 5, 7, 11, 21, 25, 27-38

           -------------------------------------------------
          |                Calculation Setup                |
           -------------------------------------------------

          program call               : /home/kmoult/orca_6_1/otool_xtb goat_0_XTB.xyz --grad -c 0 -u 0 -P 4 --namespace goat_0 --input goat_0_XTB.input.tmp --alpb ACETONE --acc 0.200000
          hostname                   : node3103
          calculation namespace      : goat_0
          coordinate file            : goat_0_XTB.xyz
          omp threads                :                     4


           -------------------------------------------------
          |                 G F N 2 - x T B                 |
           -------------------------------------------------

        Reference                      10.1021/acs.jctc.8b01176
      * Hamiltonian:
        H0-scaling (s, p, d)           1.850000    2.230000    2.230000
        zeta-weighting                 0.500000
      * Dispersion:
        s8                             2.700000
        a1                             0.520000
        a2                             5.000000
        s9                             5.000000
      * Repulsion:
        kExp                           1.500000    1.000000
        rExp                           1.000000
      * Coulomb:
        alpha                          2.000000
        third order                    shell-resolved
        anisotropic                    true
        a3                             3.000000
        a5                             4.000000
        cn-shift                       1.200000
        cn-exp                         4.000000
        max-rad                        5.000000

      * Solvation model:               ALPB
        Solvent                        ACETONE
        Parameter file                 internal GFN2-xTB/ALPB
        Dielectric constant                2.0700E+01
        Reference state                gsolv [1 M gas/solution]
        Free energy shift                  5.9241E-03 Eh       3.7175E+00 kcal/mol
        Temperature                        2.9815E+02 K
        Density                            7.9000E-01 kg/L
        Solvent mass                       5.8080E+01 g/mol
        Interaction kernel             P16
        Born radius scaling (c1)           1.8274E+00
        Born radii integrator          GBOBC
        Born offset                        0.0000E+00 a0       0.0000E+00 AA
        H-bond correction              true
        Ion screening                  false
        Surface tension                    1.0000E-05 Eh       1.5569E+01 dyn/cm
        Grid points                               230 per atom
q/qsh data taken from xtbrestart
CAMM data taken from xtbrestart

          ...................................................
          :                      SETUP                      :
          :.................................................:
          :  # basis functions                  98          :
          :  # atomic orbitals                  98          :
          :  # shells                           58          :
          :  # electrons                       110          :
          :  max. iterations                   250          :
          :  Hamiltonian                  GFN2-xTB          :
          :  restarted?                       true          :
          :  GBSA solvation                   true          :
          :  PC potential                    false          :
          :  electronic temp.          300.0000000     K    :
          :  accuracy                    0.2000000          :
          :  -> integral cutoff          0.3198970E+02      :
          :  -> integral neglect         0.2000000E-08      :
          :  -> SCF convergence          0.2000000E-06 Eh   :
          :  -> wf. convergence          0.2000000E-04 e    :
          :  Broyden damping             0.4000000          :
          :  net charge                          0          :
          :  unpaired electrons                  0          :
          ...................................................

 iter      E             dE          RMSdq      gap      omega  full diag
   1    -64.2447163 -0.642447E+02  0.668E-02    4.74       0.0  T
   2    -64.2447165 -0.182140E-06  0.392E-02    4.74       1.0  T
   3    -64.2447165 -0.618761E-07  0.123E-03    4.74      13.2  T
   4    -64.2447166 -0.237363E-07  0.694E-04    4.74      23.4  T
   5    -64.2447166 -0.239719E-08  0.265E-04    4.74      61.2  T
   6    -64.2447166 -0.690306E-09  0.727E-05    4.74     223.2  T
   7    -64.2447166 -0.483737E-10  0.325E-05    4.74     499.1  T

   *** convergence criteria satisfied after 7 iterations ***

         #    Occupation            Energy/Eh            Energy/eV
      -------------------------------------------------------------
         1        2.0000           -0.7320012             -19.9188
       ...           ...                  ...                  ...
        49        2.0000           -0.4286251             -11.6635
        50        2.0000           -0.4252035             -11.5704
        51        2.0000           -0.4221543             -11.4874
        52        2.0000           -0.4184371             -11.3863
        53        2.0000           -0.4115444             -11.1987
        54        2.0000           -0.4107754             -11.1778
        55        2.0000           -0.4085498             -11.1172 (HOMO)
        56                         -0.2343832              -6.3779 (LUMO)
        57                         -0.2290782              -6.2335
        58                         -0.1046543              -2.8478
        59                         -0.0370157              -1.0072
        60                         -0.0072574              -0.1975
       ...                                ...                  ...
        98                          0.6579257              17.9031
      -------------------------------------------------------------
                  HL-Gap            0.1741666 Eh            4.7393 eV
             Fermi-level           -0.3214665 Eh           -8.7475 eV

 SCC (total)                   0 d,  0 h,  0 min,  0.033 sec
 SCC setup                      ...        0 min,  0.000 sec (  1.226%)
 Dispersion                     ...        0 min,  0.000 sec (  0.708%)
 classical contributions        ...        0 min,  0.000 sec (  0.102%)
 integral evaluation            ...        0 min,  0.002 sec (  5.820%)
 iterations                     ...        0 min,  0.026 sec ( 76.867%)
 molecular gradient             ...        0 min,  0.005 sec ( 14.812%)
 printout                       ...        0 min,  0.000 sec (  0.414%)

         :::::::::::::::::::::::::::::::::::::::::::::::::::::
         ::                     SUMMARY                     ::
         :::::::::::::::::::::::::::::::::::::::::::::::::::::
         :: total energy             -63.588603031476 Eh    ::
         :: total w/o Gsasa/hb       -63.559493924317 Eh    ::
         :: gradient norm              0.001449316590 Eh/a0 ::
         :: HOMO-LUMO gap              4.739314016213 eV    ::
         ::.................................................::
         :: SCC energy               -64.244595620177 Eh    ::
         :: -> isotropic ES            0.129989927544 Eh    ::
         :: -> anisotropic ES         -0.006319611321 Eh    ::
         :: -> anisotropic XC          0.001029757804 Eh    ::
         :: -> dispersion             -0.036423576097 Eh    ::
         :: -> Gsolv                  -0.032455096825 Eh    ::
         ::    -> Gelec               -0.003345989667 Eh    ::
         ::    -> Gsasa               -0.028302079616 Eh    ::
         ::    -> Ghb                 -0.006731168806 Eh    ::
         ::    -> Gshift               0.005924141264 Eh    ::
         :: repulsion energy           0.655992588702 Eh    ::
         :: add. restraining           0.000000000000 Eh    ::
         :: total charge              -0.000000000000 e     ::
         :::::::::::::::::::::::::::::::::::::::::::::::::::::


Property printout bound to 'properties.out'

           -------------------------------------------------
          | TOTAL ENERGY              -63.588603031476 Eh   |
          | GRADIENT NORM               0.001449316590 Eh/α |
          | HOMO-LUMO GAP               4.739314016213 eV   |
           -------------------------------------------------

------------------------------------------------------------------------
 * finished run on 2025/10/31 at 09:56:12.493     
------------------------------------------------------------------------
 total:
 * wall-time:     0 d,  0 h,  0 min,  0.053 sec
 *  cpu-time:     0 d,  0 h,  0 min,  0.179 sec
 * ratio c/w:     3.378 speedup
 SCF:
 * wall-time:     0 d,  0 h,  0 min,  0.033 sec
 *  cpu-time:     0 d,  0 h,  0 min,  0.121 sec
 * ratio c/w:     3.619 speedup


-------------------------   --------------------
FINAL SINGLE POINT ENERGY       -63.588603031480
-------------------------   --------------------


-------------
DIPOLE MOMENT
-------------
                                X             Y             Z
Total Dipole Moment    :     -0.22200      -1.04200       0.27000
                        -----------------------------------------
Magnitude (a.u.)       :      1.09907
Magnitude (Debye)      :      2.79361


------------------
CARTESIAN GRADIENT
------------------

   1   O   :    0.000269990   -0.000165379    0.000126239
   2   C   :   -0.000067378    0.000224501   -0.000097342
   3   H   :    0.000001294   -0.000049825    0.000042220
   4   C   :   -0.000046935   -0.000207372   -0.000047689
   5   H   :    0.000062714   -0.000021845   -0.000011250
   6   C   :    0.000004131    0.000207642    0.000092042
   7   H   :    0.000009810    0.000008634   -0.000023780
   8   C   :   -0.000170390    0.000169168   -0.000020215
   9   O   :    0.000174359   -0.000141644    0.000074198
  10   C   :   -0.000021783   -0.000200245   -0.000550625
  11   H   :    0.000055232   -0.000130225    0.000196643
  12   C   :    0.000025085    0.000124203   -0.000127176
  13   C   :   -0.000182701   -0.000010172   -0.000004121
  14   C   :    0.000001632   -0.000034445    0.000051981
  15   C   :    0.000021532    0.000059453   -0.000031217
  16   C   :   -0.000033324   -0.000040913   -0.000007692
  17   C   :    0.000112580   -0.000101725    0.000155925
  18   O   :   -0.000177459    0.000342519    0.000259481
  19   O   :    0.000100074   -0.000373806   -0.000176442
  20   C   :    0.000267613    0.000216573    0.000399105
  21   H   :   -0.000109646   -0.000108333   -0.000141418
  22   O   :   -0.000313545    0.000074943   -0.000154094
  23   C   :    0.000230221    0.000054465    0.000024169
  24   C   :    0.000037818    0.000292938    0.000051343
  25   H   :   -0.000019149   -0.000070827   -0.000025183
  26   O   :   -0.000133885   -0.000286089   -0.000122693
  27   H   :   -0.000146515    0.000035512    0.000001835
  28   H   :    0.000032826    0.000023900    0.000000014
  29   H   :    0.000014183    0.000020126    0.000026192
  30   H   :    0.000046928    0.000061586    0.000000151
  31   H   :   -0.000007207   -0.000015116    0.000002967
  32   H   :   -0.000000453   -0.000021619    0.000003738
  33   H   :   -0.000004229   -0.000003026    0.000005944
  34   H   :   -0.000005447    0.000033732   -0.000053857
  35   H   :    0.000016011   -0.000009585   -0.000001524
  36   H   :   -0.000034943   -0.000016984    0.000006922
  37   H   :   -0.000038194   -0.000035333    0.000000748
  38   H   :    0.000029150    0.000094610    0.000074461

Difference to translation invariance:
           :    0.0000000000    0.0000000000    0.0000000000

Difference to rotation invariance:
           :    0.0003105843    0.0003748979   -0.0000059668

Norm of the Cartesian gradient     ...    0.0014493166
RMS gradient                       ...    0.0001357409
MAX gradient                       ...    0.0005506255
------------------------------------------------------------------------------
                         ORCA GEOMETRY RELAXATION STEP
------------------------------------------------------------------------------

Reading the OPT-File                    .... done
Getting information on internals        .... done
Copying old internal coords+grads       .... done
Making the new internal coordinates     .... (2022 redundants) done
Validating the new internal coordinates .... (2022 redundants) done
Calculating the B-matrix                .... done
Calculating the G,G- and P matrices     .... done
Transforming gradient to internals      .... done
Projecting the internal gradient        .... done
Number of atoms                         ....  38
Number of internal coordinates          .... 203
Current Energy                          ....   -63.588603031 Eh
Current gradient norm                   ....     0.001449317 Eh/bohr
Maximum allowed component of the step   ....  0.300
Current trust radius                    ....  0.675
Updating the Hessian (BFGS)             .... done
Forming the augmented Hessian           .... done
Diagonalizing the augmented Hessian     .... done
Last element of RFO vector              ....  0.996779686
Lowest eigenvalues of augmented Hessian:
 -0.000012652  0.001420664  0.014082274  0.015346539  0.016417989
Length of the computed step             ....  0.080447949
The final length of the internal step   ....  0.080447949
Converting the step to Cartesian space:
 Initial RMS(Int)=    0.0056463391
Transforming coordinates:
 Iter   0:  RMS(Cart)=    0.0242010432 RMS(Int)=    0.0056497411
done
Storing new coordinates                 .... done
The predicted energy change is          ....    -0.000006367
Previously predicted energy change      ....    -0.000005535
Actually observed energy change         ....    -0.000008318
Ratio of predicted to observed change   ....     1.502907544
New trust radius                        ....     0.450000000

                                .--------------------.
          ----------------------|Geometry convergence|-------------------------
          Item                value                   Tolerance       Converged
          ---------------------------------------------------------------------
          Energy change      -0.0000083180            0.0000050000      NO
          RMS gradient        0.0000699984            0.0001000000      YES
          MAX gradient        0.0003735277            0.0003000000      NO
          RMS step            0.0056463391            0.0020000000      NO
          MAX step            0.0320021492            0.0040000000      NO
          -------------------------------------------------------------------------
          ........................................................
          Max(Bonds)      0.0102      Max(Angles)    0.08
          Max(Dihed)        1.83      Max(Improp)    0.00
          ---------------------------------------------------------------------

    ---------------------------------------------------------------------------
                         Redundant Internal Coordinates
                            (Angstroem and degrees)

        Definition                    Value    dE/dq     Step     New-Value
    ----------------------------------------------------------------------------
     1. B(C   1,O   0)                1.4047 -0.000131  0.0004    1.4051   
     2. B(H   2,C   1)                1.1025  0.000039 -0.0002    1.1023   
     3. B(C   3,C   1)                1.5262  0.000023  0.0002    1.5264   
     4. B(H   4,C   3)                1.1043 -0.000013 -0.0001    1.1042   
     5. B(C   5,C   3)                1.5334 -0.000025 -0.0001    1.5333   
     6. B(H   6,C   5)                1.1035 -0.000017 -0.0001    1.1034   
     7. B(C   7,C   5)                1.5314 -0.000065  0.0001    1.5315   
     8. B(O   8,C   7)                1.4118  0.000105 -0.0002    1.4116   
     9. B(C   9,O   8)                1.4034  0.000135  0.0001    1.4035   
    10. B(H  10,C   9)                1.1121 -0.000205  0.0000    1.1121   
    11. B(C  11,C   9)                1.5083 -0.000031 -0.0001    1.5082   
    12. B(C  12,C  11)                1.3878  0.000077 -0.0002    1.3876   
    13. B(C  13,C  12)                1.3848  0.000042 -0.0001    1.3848   
    14. B(C  14,C  13)                1.3848 -0.000009 -0.0001    1.3847   
    15. B(C  15,C  14)                1.3853 -0.000008  0.0001    1.3854   
    16. B(C  16,C  15)                1.3839  0.000025 -0.0002    1.3836   
    17. B(C  16,C  11)                1.3883  0.000135 -0.0001    1.3883   
    18. B(O  17,C   9)                1.4152  0.000374 -0.0004    1.4149   
    19. B(O  17,C   3)                1.4130 -0.000061  0.0001    1.4131   
    20. B(O  18,C   5)                1.4026 -0.000104  0.0002    1.4028   
    21. B(C  19,O  18)                1.4205  0.000260 -0.0003    1.4203   
    22. B(H  20,C  19)                1.1109 -0.000183  0.0001    1.1110   
    23. B(O  21,C  19)                1.3781  0.000085  0.0001    1.3782   
    24. B(C  22,O  21)                1.4210  0.000171 -0.0001    1.4209   
    25. B(C  23,C  19)                1.5407  0.000082 -0.0004    1.5403   
    26. B(C  23,C   1)                1.5391  0.000020  0.0001    1.5391   
    27. B(H  24,C  23)                1.0999  0.000025 -0.0002    1.0997   
    28. B(O  25,C  23)                1.4005 -0.000166  0.0003    1.4008   
    29. B(H  26,O   0)                0.9663  0.000027 -0.0001    0.9661   
    30. B(H  26,O  17)                2.5321  0.000004  0.0052    2.5372   
    31. B(H  27,C   7)                1.0902  0.000032  0.0000    1.0902   
    32. B(H  28,C   7)                1.0996 -0.000033  0.0001    1.0997   
    33. B(H  29,C  12)                1.0804 -0.000006  0.0000    1.0804   
    34. B(H  30,C  13)                1.0799  0.000012 -0.0001    1.0799   
    35. B(H  31,C  14)                1.0801  0.000019 -0.0000    1.0800   
    36. B(H  32,C  15)                1.0800  0.000004 -0.0000    1.0800   
    37. B(H  33,C  16)                1.0782 -0.000003 -0.0000    1.0782   
    38. B(H  34,C  22)                1.0871 -0.000006 -0.0000    1.0871   
    39. B(H  35,C  22)                1.0923 -0.000005 -0.0000    1.0923   
    40. B(H  36,C  22)                1.0952 -0.000020 -0.0000    1.0951   
    41. B(H  37,O   0)                2.5182 -0.000010  0.0102    2.5284   
    42. B(H  37,O  25)                0.9677 -0.000006 -0.0002    0.9675   
    43. A(C   1,O   0,H  26)          108.31  0.000267   -0.02    108.29   
    44. A(O   0,C   1,H   2)          110.14 -0.000035   -0.00    110.14   
    45. A(H   2,C   1,C   3)          108.50 -0.000026    0.02    108.53   
    46. A(H   2,C   1,C  23)          108.86  0.000030    0.03    108.89   
    47. A(O   0,C   1,C   3)          112.58 -0.000009   -0.05    112.53   
    48. A(O   0,C   1,C  23)          107.45  0.000022   -0.04    107.41   
    49. A(C   3,C   1,C  23)          109.24  0.000021    0.04    109.28   
    50. A(H   4,C   3,C   5)          108.62 -0.000019    0.02    108.64   
    51. A(H   4,C   3,O  17)          109.82 -0.000060    0.00    109.82   
    52. A(C   1,C   3,C   5)          108.91 -0.000058    0.03    108.94   
    53. A(C   5,C   3,O  17)          110.23  0.000129   -0.04    110.19   
    54. A(C   1,C   3,H   4)          109.22  0.000050   -0.03    109.19   
    55. A(C   1,C   3,O  17)          110.02 -0.000042    0.01    110.03   
    56. A(C   7,C   5,O  18)          111.01 -0.000134   -0.02    110.99   
    57. A(H   6,C   5,O  18)          110.48  0.000040   -0.03    110.45   
    58. A(C   3,C   5,C   7)          107.46 -0.000054    0.02    107.48   
    59. A(H   6,C   5,C   7)          109.05  0.000033    0.02    109.07   
    60. A(C   3,C   5,O  18)          110.33  0.000091   -0.02    110.31   
    61. A(C   3,C   5,H   6)          108.43  0.000024    0.03    108.45   
    62. A(O   8,C   7,H  27)          106.51 -0.000021    0.02    106.52   
    63. A(C   5,C   7,H  27)          111.63 -0.000082   -0.00    111.63   
    64. A(C   5,C   7,O   8)          109.24  0.000138    0.01    109.25   
    65. A(O   8,C   7,H  28)          110.91  0.000018   -0.01    110.90   
    66. A(C   5,C   7,H  28)          109.03 -0.000036    0.02    109.05   
    67. A(H  27,C   7,H  28)          109.52 -0.000015   -0.03    109.49   
    68. A(C   7,O   8,C   9)          112.87 -0.000130    0.01    112.88   
    69. A(H  10,C   9,O  17)          108.07  0.000065    0.00    108.07   
    70. A(O   8,C   9,O  17)          111.89 -0.000028   -0.01    111.87   
    71. A(O   8,C   9,C  11)          109.46  0.000107   -0.08    109.38   
    72. A(O   8,C   9,H  10)          108.91  0.000040   -0.00    108.91   
    73. A(C  11,C   9,O  17)          107.72 -0.000100    0.05    107.78   
    74. A(H  10,C   9,C  11)          110.79 -0.000087    0.04    110.84   
    75. A(C   9,C  11,C  12)          120.48 -0.000054    0.08    120.56   
    76. A(C  12,C  11,C  16)          119.75 -0.000008   -0.01    119.74   
    77. A(C   9,C  11,C  16)          119.75  0.000062   -0.07    119.68   
    78. A(C  11,C  12,H  29)          119.83 -0.000072    0.01    119.84   
    79. A(C  13,C  12,H  29)          120.11  0.000086   -0.01    120.10   
    80. A(C  11,C  12,C  13)          120.05 -0.000013    0.00    120.06   
    81. A(C  14,C  13,H  30)          120.11 -0.000009   -0.00    120.11   
    82. A(C  12,C  13,H  30)          119.78  0.000013    0.00    119.78   
    83. A(C  12,C  13,C  14)          120.11 -0.000004   -0.00    120.11   
    84. A(C  13,C  14,H  31)          120.02 -0.000025   -0.00    120.02   
    85. A(C  13,C  14,C  15)          119.89  0.000048    0.00    119.90   
    86. A(C  15,C  14,H  31)          120.08 -0.000023   -0.00    120.08   
    87. A(C  16,C  15,H  32)          119.79  0.000005    0.02    119.81   
    88. A(C  14,C  15,H  32)          120.07 -0.000009   -0.00    120.07   
    89. A(C  14,C  15,C  16)          120.13  0.000004   -0.02    120.12   
    90. A(C  11,C  16,C  15)          120.05 -0.000027    0.02    120.07   
    91. A(C  15,C  16,H  33)          120.91  0.000077    0.01    120.92   
    92. A(C  11,C  16,H  33)          119.03 -0.000050   -0.03    119.00   
    93. A(C   3,O  17,C   9)          111.27 -0.000103   -0.01    111.26   
    94. A(C   5,O  18,C  19)          112.61 -0.000125   -0.03    112.58   
    95. A(O  18,C  19,O  21)          108.36  0.000011   -0.02    108.34   
    96. A(O  21,C  19,C  23)          107.64 -0.000028   -0.02    107.62   
    97. A(H  20,C  19,C  23)          108.06 -0.000013    0.02    108.08   
    98. A(O  18,C  19,C  23)          112.83 -0.000004    0.04    112.87   
    99. A(H  20,C  19,O  21)          111.27  0.000070   -0.04    111.24   
   100. A(O  18,C  19,H  20)          108.71 -0.000033    0.02    108.73   
   101. A(C  19,O  21,C  22)          114.38 -0.000297    0.01    114.39   
   102. A(H  35,C  22,H  36)          109.64  0.000015    0.04    109.67   
   103. A(H  34,C  22,H  36)          110.02  0.000031   -0.01    110.01   
   104. A(O  21,C  22,H  36)          110.44 -0.000059   -0.00    110.44   
   105. A(H  34,C  22,H  35)          110.22  0.000015   -0.02    110.19   
   106. A(O  21,C  22,H  35)          110.81 -0.000061   -0.01    110.79   
   107. A(O  21,C  22,H  34)          105.65  0.000061    0.02    105.67   
   108. A(H  24,C  23,O  25)          110.96  0.000041   -0.00    110.95   
   109. A(C  19,C  23,O  25)          107.04  0.000072   -0.08    106.95   
   110. A(C   1,C  23,O  25)          110.61 -0.000090   -0.01    110.60   
   111. A(C  19,C  23,H  24)          107.62  0.000012    0.04    107.66   
   112. A(C   1,C  23,H  24)          108.56 -0.000013   -0.03    108.54   
   113. A(C   1,C  23,C  19)          112.03 -0.000018    0.08    112.11   
   114. A(C  23,O  25,H  37)          107.87  0.000236    0.03    107.90   
   115. D(C   3,C   1,O   0,H  26)     53.87 -0.000033    0.50     54.38   
   116. D(C  23,C   1,O   0,H  26)    174.19  0.000002    0.50    174.68   
   117. D(H   2,C   1,O   0,H  26)    -67.37  0.000032    0.51    -66.86   
   118. D(C   5,C   3,C   1,C  23)     54.70  0.000014   -0.17     54.52   
   119. D(H   4,C   3,C   1,O   0)     55.50  0.000078   -0.25     55.25   
   120. D(H   4,C   3,C   1,C  23)    -63.78  0.000042   -0.20    -63.98   
   121. D(C   5,C   3,C   1,H   2)    -63.85 -0.000019   -0.25    -64.10   
   122. D(H   4,C   3,C   1,H   2)    177.67  0.000008   -0.27    177.40   
   123. D(C   5,C   3,C   1,O   0)    173.98  0.000050   -0.23    173.75   
   124. D(C   7,C   5,C   3,O  17)     55.36  0.000014   -0.00     55.36   
   125. D(C   7,C   5,C   3,C   1)    176.15  0.000005    0.01    176.16   
   126. D(C   7,C   5,C   3,H   4)    -65.00  0.000020    0.01    -64.99   
   127. D(H   6,C   5,C   3,O  17)    -62.38 -0.000009   -0.05    -62.43   
   128. D(H   6,C   5,C   3,H   4)    177.26 -0.000002   -0.04    177.22   
   129. D(H   6,C   5,C   3,C   1)     58.41 -0.000018   -0.03     58.38   
   130. D(H  27,C   7,C   5,H   6)    -54.61  0.000004    0.08    -54.53   
   131. D(H  27,C   7,C   5,O  18)     67.34 -0.000010    0.04     67.38   
   132. D(H  27,C   7,C   5,C   3)   -171.94 -0.000012    0.02   -171.92   
   133. D(O   8,C   7,C   5,H   6)     62.92  0.000016    0.10     63.02   
   134. D(O   8,C   7,C   5,C   3)    -54.41 -0.000001    0.05    -54.37   
   135. D(O   8,C   7,C   5,O  18)   -175.14  0.000001    0.07   -175.07   
   136. D(C   9,O   8,C   7,H  28)    -62.40 -0.000009   -0.08    -62.48   
   137. D(C   9,O   8,C   7,H  27)    178.50  0.000011   -0.05    178.45   
   138. D(C   9,O   8,C   7,C   5)     57.80  0.000046   -0.06     57.74   
   139. D(O  17,C   9,O   8,C   7)    -59.81 -0.000002   -0.02    -59.83   
   140. D(C  11,C   9,O   8,C   7)   -179.14  0.000070   -0.02   -179.16   
   141. D(H  10,C   9,O   8,C   7)     59.59  0.000086   -0.02     59.57   
   142. D(C  12,C  11,C   9,O  17)    100.36 -0.000066    1.83    102.20   
   143. D(C  12,C  11,C   9,H  10)    -17.65 -0.000035    1.77    -15.88   
   144. D(C  12,C  11,C   9,O   8)   -137.77 -0.000098    1.80   -135.97   
   145. D(C  16,C  11,C   9,O   8)     43.88 -0.000086    1.66     45.55   
   146. D(C  16,C  11,C   9,H  10)    164.00 -0.000022    1.63    165.64   
   147. D(H  29,C  12,C  11,C  16)    179.81 -0.000007    0.03    179.84   
   148. D(H  29,C  12,C  11,C   9)      1.46  0.000004   -0.11      1.36   
   149. D(C  13,C  12,C  11,C  16)     -0.20 -0.000008    0.06     -0.13   
   150. D(C  13,C  12,C  11,C   9)   -178.54  0.000003   -0.07   -178.62   
   151. D(H  30,C  13,C  12,H  29)     -0.02  0.000005   -0.02     -0.04   
   152. D(H  30,C  13,C  12,C  11)    179.99  0.000006   -0.05    179.94   
   153. D(C  14,C  13,C  12,H  29)    179.93  0.000004    0.00    179.93   
   154. D(C  14,C  13,C  12,C  11)     -0.06  0.000005   -0.03     -0.09   
   155. D(H  31,C  14,C  13,H  30)      0.14  0.000001   -0.00      0.13   
   156. D(C  15,C  14,C  13,C  12)      0.13  0.000001   -0.00      0.13   
   157. D(H  31,C  14,C  13,C  12)   -179.82  0.000002   -0.02   -179.84   
   158. D(C  15,C  14,C  13,H  30)   -179.92 -0.000000    0.02   -179.90   
   159. D(H  32,C  15,C  14,H  31)     -0.11 -0.000007    0.05     -0.06   
   160. D(H  32,C  15,C  14,C  13)    179.95 -0.000006    0.03    179.97   
   161. D(C  16,C  15,C  14,H  31)   -179.99 -0.000005    0.02   -179.97   
   162. D(C  16,C  15,C  14,C  13)      0.06 -0.000004    0.00      0.06   
   163. D(H  33,C  16,C  15,H  32)      0.40  0.000002   -0.01      0.39   
   164. D(C  11,C  16,C  15,H  32)    179.80  0.000003    0.00    179.80   
   165. D(C  11,C  16,C  15,C  14)     -0.32  0.000001    0.03     -0.29   
   166. D(H  33,C  16,C  11,C  12)    179.79  0.000007   -0.05    179.75   
   167. D(H  33,C  16,C  11,C   9)     -1.85 -0.000006    0.09     -1.76   
   168. D(H  33,C  16,C  15,C  14)   -179.72 -0.000000    0.02   -179.70   
   169. D(C  15,C  16,C  11,C  12)      0.39  0.000005   -0.06      0.32   
   170. D(C  15,C  16,C  11,C   9)    178.74 -0.000008    0.08    178.82   
   171. D(C   3,O  17,C   9,C  11)    179.57  0.000082    0.01    179.58   
   172. D(C   3,O  17,C   9,H  10)    -60.67 -0.000042    0.09    -60.58   
   173. D(C   3,O  17,C   9,O   8)     59.23  0.000033    0.08     59.31   
   174. D(C   9,O  17,C   3,C   5)    -57.96 -0.000024   -0.07    -58.02   
   175. D(C   9,O  17,C   3,H   4)     61.68 -0.000004   -0.07     61.61   
   176. D(C   9,O  17,C   3,C   1)   -178.08 -0.000007   -0.09   -178.17   
   177. D(C  19,O  18,C   5,C   3)     63.30  0.000087    0.08     63.39   
   178. D(C  19,O  18,C   5,C   7)   -177.69 -0.000007    0.09   -177.60   
   179. D(C  19,O  18,C   5,H   6)    -56.58 -0.000028    0.08    -56.50   
   180. D(C  23,C  19,O  18,C   5)    -56.08  0.000015    0.00    -56.08   
   181. D(O  21,C  19,O  18,C   5)   -175.17  0.000045    0.02   -175.15   
   182. D(H  20,C  19,O  18,C   5)     63.77 -0.000026    0.07     63.83   
   183. D(C  22,O  21,C  19,C  23)    166.70 -0.000004    0.02    166.72   
   184. D(C  22,O  21,C  19,H  20)     48.48 -0.000011    0.03     48.51   
   185. D(C  22,O  21,C  19,O  18)    -70.99 -0.000020    0.05    -70.94   
   186. D(H  36,C  22,O  21,C  19)    -60.25  0.000040   -0.04    -60.28   
   187. D(H  35,C  22,O  21,C  19)     61.45 -0.000022   -0.00     61.44   
   188. D(H  34,C  22,O  21,C  19)   -179.19 -0.000000   -0.03   -179.22   
   189. D(H  24,C  23,C  19,O  21)     48.74 -0.000003   -0.22     48.52   
   190. D(H  24,C  23,C  19,H  20)    169.01  0.000057   -0.26    168.75   
   191. D(H  24,C  23,C  19,O  18)    -70.77  0.000005   -0.20    -70.97   
   192. D(C   1,C  23,C  19,O  21)    168.01 -0.000021   -0.18    167.83   
   193. D(C   1,C  23,C  19,H  20)    -71.72  0.000039   -0.22    -71.94   
   194. D(C   1,C  23,C  19,O  18)     48.50 -0.000013   -0.16     48.34   
   195. D(H  24,C  23,C   1,C   3)     70.27 -0.000011    0.34     70.61   
   196. D(H  24,C  23,C   1,H   2)   -171.41 -0.000013    0.41   -171.00   
   197. D(H  24,C  23,C   1,O   0)    -52.14 -0.000026    0.40    -51.74   
   198. D(C  19,C  23,C   1,C   3)    -48.44 -0.000007    0.26    -48.18   
   199. D(C  19,C  23,C   1,H   2)     69.88 -0.000008    0.33     70.21   
   200. D(C  19,C  23,C   1,O   0)   -170.85 -0.000021    0.32   -170.53   
   201. D(H  37,O  25,C  23,H  24)     62.12 -0.000044   -0.87     61.25   
   202. D(H  37,O  25,C  23,C  19)    179.27  0.000035   -0.87    178.40   
   203. D(H  37,O  25,C  23,C   1)    -58.43  0.000005   -0.83    -59.26   
    ----------------------------------------------------------------------------

Geometry step timings:
Preparation and reading OPT file:      0.001 s ( 6.173 %)
Internal coordinates            :      0.000 s ( 0.161 %)
B/P matrices and projection     :      0.003 s (15.909 %)
Hessian update/contruction      :      0.008 s (46.625 %)
Making the step                 :      0.002 s (11.615 %)
Converting the step to Cartesian:      0.000 s ( 1.385 %)
Storing new data                :      0.001 s ( 5.586 %)
Checking convergence            :      0.000 s ( 0.177 %)
Final printing                  :      0.002 s (12.368 %)
Total time                      :      0.018 s

Time for energy+gradient        :      0.079 s
Time for complete geometry iter :      0.111 s

         *************************************************************
         *                GEOMETRY OPTIMIZATION CYCLE   9            *
         *************************************************************
---------------------------------
CARTESIAN COORDINATES (ANGSTROEM)
---------------------------------
  O    -2.772195    2.925052    0.138658
  C    -1.373471    2.792706    0.121803
  H    -0.986048    2.726175    1.151648
  C    -0.911973    1.559733   -0.650663
  H    -1.333150    1.591954   -1.670878
  C     0.617935    1.579177   -0.751346
  H     1.034953    1.597606    0.270053
  C     1.049909    0.283749   -1.444796
  O     0.507501   -0.818990   -0.750262
  C    -0.892642   -0.774375   -0.663789
  H    -1.317044   -0.763937   -1.691676
  C    -1.384772   -1.973297    0.107683
  C    -2.482250   -2.696590   -0.337055
  C    -2.942729   -3.778337    0.394621
  C    -2.308466   -4.142290    1.570523
  C    -1.213071   -3.420672    2.016204
  C    -0.753178   -2.336929    1.289261
  O    -1.342517    0.386365    0.008613
  O     1.043987    2.702728   -1.475143
  C     0.708153    3.924353   -0.833269
  H     1.249664    3.978969    0.135294
  O     1.066024    4.963722   -1.664557
  C     2.467798    5.161520   -1.786582
  C    -0.799465    4.055024   -0.546048
  H    -1.310626    4.204759   -1.508117
  O    -0.961602    5.170019    0.286181
  H    -3.150415    2.103474    0.478351
  H     2.132902    0.159768   -1.426077
  H     0.700639    0.301128   -2.487414
  H    -2.976563   -2.413399   -1.255054
  H    -3.797827   -4.337486    0.044913
  H    -2.667249   -4.987883    2.138629
  H    -0.716548   -3.701823    2.933119
  H     0.101043   -1.769180    1.621559
  H     2.587311    6.011978   -2.453054
  H     2.948444    4.278040   -2.212708
  H     2.908824    5.386129   -0.809656
  H    -1.907956    5.280027    0.454826

----------------------------
CARTESIAN COORDINATES (A.U.)
----------------------------
  NO LB    ZA    FRAG    MASS        X           Y           Z
   0 O   8.0000    1    15.999   -5.238689    5.527547    0.262025
   1 C   6.0000    1    12.011   -2.595484    5.277450    0.230175
   2 H   1.0000    1     1.008   -1.863360    5.151724    2.176300
   3 C   6.0000    1    12.011   -1.723380    2.947468   -1.229575
   4 H   1.0000    1     1.008   -2.519288    3.008357   -3.157501
   5 C   6.0000    1    12.011    1.167728    2.984213   -1.419838
   6 H   1.0000    1     1.008    1.955778    3.019039    0.510326
   7 C   6.0000    1    12.011    1.984041    0.536209   -2.730269
   8 O   8.0000    1    15.999    0.959038   -1.547668   -1.417789
   9 C   6.0000    1    12.011   -1.686849   -1.463356   -1.254379
  10 H   1.0000    1     1.008   -2.488853   -1.443632   -3.196804
  11 C   6.0000    1    12.011   -2.616840   -3.728992    0.203491
  12 C   6.0000    1    12.011   -4.690774   -5.095817   -0.636941
  13 C   6.0000    1    12.011   -5.560953   -7.140022    0.745726
  14 C   6.0000    1    12.011   -4.362369   -7.827794    2.967858
  15 C   6.0000    1    12.011   -2.292373   -6.464132    3.810074
  16 C   6.0000    1    12.011   -1.423301   -4.416155    2.436351
  17 O   8.0000    1    15.999   -2.536990    0.730124    0.016275
  18 O   8.0000    1    15.999    1.972849    5.107415   -2.787616
  19 C   6.0000    1    12.011    1.338215    7.415953   -1.574650
  20 H   1.0000    1     1.008    2.361523    7.519162    0.255668
  21 O   8.0000    1    15.999    2.014494    9.380075   -3.145557
  22 C   6.0000    1    12.011    4.663462    9.753859   -3.376150
  23 C   6.0000    1    12.011   -1.510770    7.662884   -1.031881
  24 H   1.0000    1     1.008   -2.476723    7.945843   -2.849928
  25 O   8.0000    1    15.999   -1.817164    9.769920    0.540804
  26 H   1.0000    1     1.008   -5.953421    3.974989    0.903952
  27 H   1.0000    1     1.008    4.030600    0.301918   -2.694896
  28 H   1.0000    1     1.008    1.324016    0.569050   -4.700531
  29 H   1.0000    1     1.008   -5.624889   -4.560662   -2.371708
  30 H   1.0000    1     1.008   -7.176852   -8.196660    0.084874
  31 H   1.0000    1     1.008   -5.040371   -9.425733    4.041424
  32 H   1.0000    1     1.008   -1.354079   -6.995432    5.542792
  33 H   1.0000    1     1.008    0.190944   -3.343266    3.064302
  34 H   1.0000    1     1.008    4.889310   11.360993   -4.635600
  35 H   1.0000    1     1.008    5.571751    8.084324   -4.181412
  36 H   1.0000    1     1.008    5.496880   10.178309   -1.530027
  37 H   1.0000    1     1.008   -3.605514    9.977806    0.859497

      -----------------------------------------------------------      
     |                   =====================                   |     
     |                           x T B                           |     
     |                   =====================                   |     
     |                         S. Grimme                         |     
     |          Mulliken Center for Theoretical Chemistry        |     
     |                    University of Bonn                     |     
      -----------------------------------------------------------      

   * xtb version 6.7.1 (edcfbbe) compiled by 'albert@albert-system' on 2024-07-22

   xtb is free software: you can redistribute it and/or modify it under
   the terms of the GNU Lesser General Public License as published by
   the Free Software Foundation, either version 3 of the License, or
   (at your option) any later version.
   
   xtb is distributed in the hope that it will be useful,
   but WITHOUT ANY WARRANTY; without even the implied warranty of
   MERCHANTABILITY or FITNESS FOR A PARTICULAR PURPOSE.  See the
   GNU Lesser General Public License for more details.
   
   Cite this work as:
   * C. Bannwarth, E. Caldeweyher, S. Ehlert, A. Hansen, P. Pracht,
     J. Seibert, S. Spicher, S. Grimme, WIREs Comput. Mol. Sci., 2020, 11,
     e01493. DOI: 10.1002/wcms.1493
   
   for GFN2-xTB:
   * C. Bannwarth, S. Ehlert and S. Grimme., J. Chem. Theory Comput., 2019,
     15, 1652-1671. DOI: 10.1021/acs.jctc.8b01176
   for GFN1-xTB:
   * S. Grimme, C. Bannwarth, P. Shushkov, J. Chem. Theory Comput., 2017,
     13, 1989-2009. DOI: 10.1021/acs.jctc.7b00118
   for GFN0-xTB:
   * P. Pracht, E. Caldeweyher, S. Ehlert, S. Grimme, ChemRxiv, 2019, preprint.
     DOI: 10.26434/chemrxiv.8326202.v1
   for GFN-FF:
   * S. Spicher and S. Grimme, Angew. Chem. Int. Ed., 2020, 59, 15665-15673.
     DOI: 10.1002/anie.202004239
   
   for ALPB and GBSA implicit solvation:
   * S. Ehlert, M. Stahn, S. Spicher, S. Grimme, J. Chem. Theory Comput.,
     2021, 17, 4250-4261. DOI: 10.1021/acs.jctc.1c00471
   
   for ddCOSMO and CPCM-X implicit solvation:
   * M. Stahn, S. Ehlert, S. Grimme, J. Phys. Chem. A,
     2023, XX, XXXX-XXXX. DOI: 10.1021/acs.jpca.3c04382
   
   for DFT-D4:
   * E. Caldeweyher, C. Bannwarth and S. Grimme, J. Chem. Phys., 2017,
     147, 034112. DOI: 10.1063/1.4993215
   * E. Caldeweyher, S. Ehlert, A. Hansen, H. Neugebauer, S. Spicher,
     C. Bannwarth and S. Grimme, J. Chem. Phys., 2019, 150, 154122.
     DOI: 10.1063/1.5090222
   * E. Caldeweyher, J.-M. Mewes, S. Ehlert and S. Grimme, Phys. Chem. Chem. Phys.
     2020, 22, 8499-8512. DOI: 10.1039/D0CP00502A
   
   for sTDA-xTB:
   * S. Grimme and C. Bannwarth, J. Chem. Phys., 2016, 145, 054103.
     DOI: 10.1063/1.4959605
   
   in the mass-spec context:
   * V. Asgeirsson, C. Bauer and S. Grimme, Chem. Sci., 2017, 8, 4879.
     DOI: 10.1039/c7sc00601b
   * J. Koopman and S. Grimme, ACS Omega 2019, 4, 12, 15120-15133.
     DOI: 10.1021/acsomega.9b02011
   
   for metadynamics refer to:
   * S. Grimme, J. Chem. Theory Comput., 2019, 155, 2847-2862
     DOI: 10.1021/acs.jctc.9b00143
   
   for SPH calculations refer to:
   * S. Spicher and S. Grimme, J. Chem. Theory Comput., 2021, 17, 1701-1714
     DOI: 10.1021/acs.jctc.0c01306
   
   for ONIOM refer to:
   * C. Plett, A. Katbashev, S. Ehlert, S. Grimme, M. Bursch,
     Phys. Chem. Chem. Phys., 2023, 25, 17860-17868. DOI: 10.1039/D3CP02178E
   
   for DIPRO refer to:
   * J. Kohn, N. Gildemeister, S. Grimme, D. Fazzi, A. Hansen,
     J. Chem. Phys., 2023, just accepted.
   
   for PTB refer to:
   * S. Grimme, M. Mueller, A. Hansen, J. Chem. Phys., 2023, 158, 124111.
     DOI: 10.1063/5.0137838
   
   with help from (in alphabetical order)
   P. Atkinson, C. Bannwarth, F. Bohle, G. Brandenburg, E. Caldeweyher
   M. Checinski, S. Dohm, S. Ehlert, S. Ehrlich, I. Gerasimov, C. Hölzer
   A. Katbashev, J. Kohn, J. Koopman, C. Lavigne, S. Lehtola, F. März, M. Müller,
   F. Musil, H. Neugebauer, J. Pisarek, C. Plett, P. Pracht, F. Pultar,
   J. Seibert, P. Shushkov, S. Spicher, M. Stahn, M. Steiner, T. Strunk,
   J. Stückrath, T. Rose, and J. Unsleber
   
 * started run on 2025/10/31 at 09:56:12.552     
   ID    Z sym.   atoms
    1    8 O      1, 9, 18, 19, 22, 26
    2    6 C      2, 4, 6, 8, 10, 12-17, 20, 23, 24
    3    1 H      3, 5, 7, 11, 21, 25, 27-38

           -------------------------------------------------
          |                Calculation Setup                |
           -------------------------------------------------

          program call               : /home/kmoult/orca_6_1/otool_xtb goat_0_XTB.xyz --grad -c 0 -u 0 -P 4 --namespace goat_0 --input goat_0_XTB.input.tmp --alpb ACETONE --acc 0.200000
          hostname                   : node3103
          calculation namespace      : goat_0
          coordinate file            : goat_0_XTB.xyz
          omp threads                :                     4


           -------------------------------------------------
          |                 G F N 2 - x T B                 |
           -------------------------------------------------

        Reference                      10.1021/acs.jctc.8b01176
      * Hamiltonian:
        H0-scaling (s, p, d)           1.850000    2.230000    2.230000
        zeta-weighting                 0.500000
      * Dispersion:
        s8                             2.700000
        a1                             0.520000
        a2                             5.000000
        s9                             5.000000
      * Repulsion:
        kExp                           1.500000    1.000000
        rExp                           1.000000
      * Coulomb:
        alpha                          2.000000
        third order                    shell-resolved
        anisotropic                    true
        a3                             3.000000
        a5                             4.000000
        cn-shift                       1.200000
        cn-exp                         4.000000
        max-rad                        5.000000

      * Solvation model:               ALPB
        Solvent                        ACETONE
        Parameter file                 internal GFN2-xTB/ALPB
        Dielectric constant                2.0700E+01
        Reference state                gsolv [1 M gas/solution]
        Free energy shift                  5.9241E-03 Eh       3.7175E+00 kcal/mol
        Temperature                        2.9815E+02 K
        Density                            7.9000E-01 kg/L
        Solvent mass                       5.8080E+01 g/mol
        Interaction kernel             P16
        Born radius scaling (c1)           1.8274E+00
        Born radii integrator          GBOBC
        Born offset                        0.0000E+00 a0       0.0000E+00 AA
        H-bond correction              true
        Ion screening                  false
        Surface tension                    1.0000E-05 Eh       1.5569E+01 dyn/cm
        Grid points                               230 per atom
q/qsh data taken from xtbrestart
CAMM data taken from xtbrestart

          ...................................................
          :                      SETUP                      :
          :.................................................:
          :  # basis functions                  98          :
          :  # atomic orbitals                  98          :
          :  # shells                           58          :
          :  # electrons                       110          :
          :  max. iterations                   250          :
          :  Hamiltonian                  GFN2-xTB          :
          :  restarted?                       true          :
          :  GBSA solvation                   true          :
          :  PC potential                    false          :
          :  electronic temp.          300.0000000     K    :
          :  accuracy                    0.2000000          :
          :  -> integral cutoff          0.3198970E+02      :
          :  -> integral neglect         0.2000000E-08      :
          :  -> SCF convergence          0.2000000E-06 Eh   :
          :  -> wf. convergence          0.2000000E-04 e    :
          :  Broyden damping             0.4000000          :
          :  net charge                          0          :
          :  unpaired electrons                  0          :
          ...................................................

 iter      E             dE          RMSdq      gap      omega  full diag
   1    -64.2449767 -0.642450E+02  0.107E-01    4.74       0.0  T
   2    -64.2449772 -0.419451E-06  0.626E-02    4.74       1.0  T
   3    -64.2449773 -0.150865E-06  0.185E-03    4.74       8.8  T
   4    -64.2449774 -0.528670E-07  0.105E-03    4.74      15.5  T
   5    -64.2449774 -0.621013E-08  0.340E-04    4.74      47.7  T
   6    -64.2449774 -0.101305E-08  0.109E-04    4.74     148.6  T
   7    -64.2449774 -0.142819E-09  0.450E-05    4.74     360.2  T

   *** convergence criteria satisfied after 7 iterations ***

         #    Occupation            Energy/Eh            Energy/eV
      -------------------------------------------------------------
         1        2.0000           -0.7319534             -19.9175
       ...           ...                  ...                  ...
        49        2.0000           -0.4286557             -11.6643
        50        2.0000           -0.4252652             -11.5721
        51        2.0000           -0.4221188             -11.4864
        52        2.0000           -0.4183600             -11.3842
        53        2.0000           -0.4115742             -11.1995
        54        2.0000           -0.4107989             -11.1784
        55        2.0000           -0.4085310             -11.1167 (HOMO)
        56                         -0.2343915              -6.3781 (LUMO)
        57                         -0.2290588              -6.2330
        58                         -0.1046032              -2.8464
        59                         -0.0370128              -1.0072
        60                         -0.0071869              -0.1956
       ...                                ...                  ...
        98                          0.6582366              17.9115
      -------------------------------------------------------------
                  HL-Gap            0.1741395 Eh            4.7386 eV
             Fermi-level           -0.3214612 Eh           -8.7474 eV

 SCC (total)                   0 d,  0 h,  0 min,  0.020 sec
 SCC setup                      ...        0 min,  0.000 sec (  2.472%)
 Dispersion                     ...        0 min,  0.000 sec (  1.290%)
 classical contributions        ...        0 min,  0.000 sec (  0.147%)
 integral evaluation            ...        0 min,  0.002 sec ( 10.620%)
 iterations                     ...        0 min,  0.011 sec ( 54.278%)
 molecular gradient             ...        0 min,  0.006 sec ( 30.526%)
 printout                       ...        0 min,  0.000 sec (  0.581%)

         :::::::::::::::::::::::::::::::::::::::::::::::::::::
         ::                     SUMMARY                     ::
         :::::::::::::::::::::::::::::::::::::::::::::::::::::
         :: total energy             -63.588611769069 Eh    ::
         :: total w/o Gsasa/hb       -63.559490862678 Eh    ::
         :: gradient norm              0.001265824294 Eh/a0 ::
         :: HOMO-LUMO gap              4.738576571544 eV    ::
         ::.................................................::
         :: SCC energy               -64.244856965054 Eh    ::
         :: -> isotropic ES            0.130043081820 Eh    ::
         :: -> anisotropic ES         -0.006302835479 Eh    ::
         :: -> anisotropic XC          0.001023311582 Eh    ::
         :: -> dispersion             -0.036423760603 Eh    ::
         :: -> Gsolv                  -0.032467488821 Eh    ::
         ::    -> Gelec               -0.003346582429 Eh    ::
         ::    -> Gsasa               -0.028302674419 Eh    ::
         ::    -> Ghb                 -0.006742373237 Eh    ::
         ::    -> Gshift               0.005924141264 Eh    ::
         :: repulsion energy           0.656245195984 Eh    ::
         :: add. restraining           0.000000000000 Eh    ::
         :: total charge              -0.000000000000 e     ::
         :::::::::::::::::::::::::::::::::::::::::::::::::::::


Property printout bound to 'properties.out'

           -------------------------------------------------
          | TOTAL ENERGY              -63.588611769069 Eh   |
          | GRADIENT NORM               0.001265824294 Eh/α |
          | HOMO-LUMO GAP               4.738576571544 eV   |
           -------------------------------------------------

------------------------------------------------------------------------
 * finished run on 2025/10/31 at 09:56:12.593     
------------------------------------------------------------------------
 total:
 * wall-time:     0 d,  0 h,  0 min,  0.041 sec
 *  cpu-time:     0 d,  0 h,  0 min,  0.141 sec
 * ratio c/w:     3.471 speedup
 SCF:
 * wall-time:     0 d,  0 h,  0 min,  0.020 sec
 *  cpu-time:     0 d,  0 h,  0 min,  0.079 sec
 * ratio c/w:     3.962 speedup


-------------------------   --------------------
FINAL SINGLE POINT ENERGY       -63.588611769070
-------------------------   --------------------


-------------
DIPOLE MOMENT
-------------
                                X             Y             Z
Total Dipole Moment    :     -0.22700      -1.03100       0.26800
                        -----------------------------------------
Magnitude (a.u.)       :      1.08918
Magnitude (Debye)      :      2.76848


------------------
CARTESIAN GRADIENT
------------------

   1   O   :    0.000061624   -0.000198322    0.000055329
   2   C   :    0.000144380    0.000239919   -0.000018249
   3   H   :   -0.000066616   -0.000071328    0.000031772
   4   C   :   -0.000075326   -0.000190260   -0.000116398
   5   H   :    0.000037321   -0.000010463    0.000011868
   6   C   :   -0.000104160    0.000081648    0.000270698
   7   H   :    0.000030455    0.000041246   -0.000053715
   8   C   :   -0.000170362    0.000066186    0.000066215
   9   O   :    0.000047117    0.000014285    0.000002062
  10   C   :    0.000045283   -0.000195282   -0.000482819
  11   H   :    0.000051902   -0.000063084    0.000167173
  12   C   :    0.000012058    0.000085085   -0.000048808
  13   C   :   -0.000064496   -0.000075353    0.000114463
  14   C   :    0.000017917    0.000010930    0.000019898
  15   C   :   -0.000001711    0.000073249   -0.000069190
  16   C   :    0.000033973    0.000063547   -0.000030354
  17   C   :   -0.000055281   -0.000174934    0.000141910
  18   O   :   -0.000031466    0.000219296    0.000196607
  19   O   :    0.000104043   -0.000201588   -0.000243322
  20   C   :    0.000018188    0.000198392    0.000470947
  21   H   :   -0.000034017   -0.000057759   -0.000143646
  22   O   :   -0.000255654   -0.000056181   -0.000084261
  23   C   :    0.000217067    0.000048990    0.000046095
  24   C   :    0.000143904    0.000150790   -0.000177403
  25   H   :   -0.000066359   -0.000052360    0.000052920
  26   O   :   -0.000128607   -0.000258434   -0.000004852
  27   H   :   -0.000052319    0.000116603    0.000018410
  28   H   :    0.000035221    0.000037185   -0.000033195
  29   H   :    0.000042967   -0.000029231   -0.000018595
  30   H   :    0.000047950    0.000061542    0.000006675
  31   H   :    0.000015110    0.000009263    0.000029096
  32   H   :    0.000013497   -0.000000260   -0.000016076
  33   H   :   -0.000022944   -0.000007285   -0.000018651
  34   H   :   -0.000009020    0.000027474   -0.000105068
  35   H   :    0.000054425   -0.000028348    0.000005792
  36   H   :   -0.000073975   -0.000004231   -0.000038779
  37   H   :   -0.000056420    0.000009592    0.000000311
  38   H   :    0.000094331    0.000119477   -0.000004860

Difference to translation invariance:
           :    0.0000000000   -0.0000000000   -0.0000000000

Difference to rotation invariance:
           :    0.0001333747    0.0004790001    0.0000270632

Norm of the Cartesian gradient     ...    0.0012658243
RMS gradient                       ...    0.0001185553
MAX gradient                       ...    0.0004828190
------------------------------------------------------------------------------
                         ORCA GEOMETRY RELAXATION STEP
------------------------------------------------------------------------------

Reading the OPT-File                    .... done
Getting information on internals        .... done
Copying old internal coords+grads       .... done
Making the new internal coordinates     .... (2022 redundants) done
Validating the new internal coordinates .... (2022 redundants) done
Calculating the B-matrix                .... done
Calculating the G,G- and P matrices     .... done
Transforming gradient to internals      .... done
Projecting the internal gradient        .... done
Number of atoms                         ....  38
Number of internal coordinates          .... 203
Current Energy                          ....   -63.588611769 Eh
Current gradient norm                   ....     0.001265824 Eh/bohr
Maximum allowed component of the step   ....  0.300
Current trust radius                    ....  0.450
Updating the Hessian (BFGS)             .... done
Forming the augmented Hessian           .... done
Diagonalizing the augmented Hessian     .... done
Last element of RFO vector              ....  0.997076250
Lowest eigenvalues of augmented Hessian:
 -0.000009008  0.000924165  0.014036747  0.014910901  0.016504895
Length of the computed step             ....  0.076637099
The final length of the internal step   ....  0.076637099
Converting the step to Cartesian space:
 Initial RMS(Int)=    0.0053788698
Transforming coordinates:
 Iter   0:  RMS(Cart)=    0.0253134786 RMS(Int)=    0.0053820240
done
Storing new coordinates                 .... done
The predicted energy change is          ....    -0.000004530
Previously predicted energy change      ....    -0.000006367
Actually observed energy change         ....    -0.000008738
Ratio of predicted to observed change   ....     1.372391324
New trust radius                        ....     0.450000000

                                .--------------------.
          ----------------------|Geometry convergence|-------------------------
          Item                value                   Tolerance       Converged
          ---------------------------------------------------------------------
          Energy change      -0.0000087376            0.0000050000      NO
          RMS gradient        0.0000574614            0.0001000000      YES
          MAX gradient        0.0002601259            0.0003000000      YES
          RMS step            0.0053788698            0.0020000000      NO
          MAX step            0.0330333015            0.0040000000      NO
          -------------------------------------------------------------------------
          ........................................................
          Max(Bonds)      0.0075      Max(Angles)    0.10
          Max(Dihed)        1.89      Max(Improp)    0.00
          ---------------------------------------------------------------------

    ---------------------------------------------------------------------------
                         Redundant Internal Coordinates
                            (Angstroem and degrees)

        Definition                    Value    dE/dq     Step     New-Value
    ----------------------------------------------------------------------------
     1. B(C   1,O   0)                1.4051 -0.000044  0.0003    1.4053   
     2. B(H   2,C   1)                1.1023  0.000007 -0.0001    1.1022   
     3. B(C   3,C   1)                1.5264  0.000013  0.0000    1.5264   
     4. B(H   4,C   3)                1.1042 -0.000025  0.0000    1.1042   
     5. B(C   5,C   3)                1.5333 -0.000068  0.0000    1.5334   
     6. B(H   6,C   5)                1.1034 -0.000036  0.0000    1.1034   
     7. B(C   7,C   5)                1.5315 -0.000024  0.0001    1.5316   
     8. B(O   8,C   7)                1.4116 -0.000036 -0.0002    1.4114   
     9. B(C   9,O   8)                1.4035  0.000003  0.0001    1.4036   
    10. B(H  10,C   9)                1.1121 -0.000176  0.0003    1.1124   
    11. B(C  11,C   9)                1.5082 -0.000041 -0.0001    1.5082   
    12. B(C  12,C  11)                1.3876 -0.000056 -0.0001    1.3875   
    13. B(C  13,C  12)                1.3848 -0.000068  0.0000    1.3848   
    14. B(C  14,C  13)                1.3847 -0.000081 -0.0000    1.3847   
    15. B(C  15,C  14)                1.3854 -0.000032  0.0001    1.3854   
    16. B(C  16,C  15)                1.3836 -0.000112 -0.0001    1.3836   
    17. B(C  16,C  11)                1.3883 -0.000018 -0.0000    1.3882   
    18. B(O  17,C   9)                1.4149  0.000239 -0.0006    1.4143   
    19. B(O  17,C   3)                1.4131 -0.000093  0.0002    1.4133   
    20. B(O  18,C   5)                1.4028 -0.000028  0.0002    1.4029   
    21. B(C  19,O  18)                1.4203  0.000177 -0.0004    1.4198   
    22. B(H  20,C  19)                1.1110 -0.000144  0.0003    1.1113   
    23. B(O  21,C  19)                1.3782 -0.000016  0.0000    1.3782   
    24. B(C  22,O  21)                1.4209  0.000146 -0.0002    1.4207   
    25. B(C  23,C  19)                1.5403 -0.000093 -0.0002    1.5401   
    26. B(C  23,C   1)                1.5391 -0.000035  0.0001    1.5392   
    27. B(H  24,C  23)                1.0997 -0.000020 -0.0001    1.0996   
    28. B(O  25,C  23)                1.4008 -0.000134  0.0003    1.4011   
    29. B(H  26,O   0)                0.9661 -0.000066 -0.0000    0.9661   
    30. B(H  26,O  17)                2.5372  0.000033  0.0032    2.5404   
    31. B(H  27,C   7)                1.0902  0.000033 -0.0000    1.0902   
    32. B(H  28,C   7)                1.0997 -0.000001  0.0001    1.0998   
    33. B(H  29,C  12)                1.0804 -0.000011  0.0000    1.0804   
    34. B(H  30,C  13)                1.0799 -0.000026 -0.0000    1.0799   
    35. B(H  31,C  14)                1.0800 -0.000013 -0.0000    1.0800   
    36. B(H  32,C  15)                1.0800 -0.000025 -0.0000    1.0800   
    37. B(H  33,C  16)                1.0782 -0.000026  0.0000    1.0782   
    38. B(H  34,C  22)                1.0871 -0.000021  0.0000    1.0871   
    39. B(H  35,C  22)                1.0923 -0.000014  0.0000    1.0923   
    40. B(H  36,C  22)                1.0951 -0.000017  0.0000    1.0952   
    41. B(H  37,O   0)                2.5284  0.000022  0.0075    2.5359   
    42. B(H  37,O  25)                0.9675 -0.000073 -0.0000    0.9675   
    43. A(C   1,O   0,H  26)          108.29  0.000115   -0.04    108.25   
    44. A(O   0,C   1,H   2)          110.14 -0.000045    0.02    110.16   
    45. A(H   2,C   1,C   3)          108.53 -0.000017    0.02    108.55   
    46. A(H   2,C   1,C  23)          108.89  0.000054    0.00    108.90   
    47. A(O   0,C   1,C   3)          112.53 -0.000020   -0.04    112.49   
    48. A(O   0,C   1,C  23)          107.41  0.000014   -0.04    107.37   
    49. A(C   3,C   1,C  23)          109.28  0.000017    0.03    109.31   
    50. A(H   4,C   3,C   5)          108.63  0.000007    0.01    108.65   
    51. A(H   4,C   3,O  17)          109.82 -0.000018   -0.01    109.81   
    52. A(C   1,C   3,C   5)          108.94 -0.000076    0.05    108.99   
    53. A(C   5,C   3,O  17)          110.19  0.000049   -0.02    110.17   
    54. A(C   1,C   3,H   4)          109.19  0.000037   -0.04    109.15   
    55. A(C   1,C   3,O  17)          110.03  0.000000    0.00    110.03   
    56. A(C   7,C   5,O  18)          110.99 -0.000128    0.01    111.00   
    57. A(H   6,C   5,O  18)          110.45  0.000021   -0.02    110.44   
    58. A(C   3,C   5,C   7)          107.48 -0.000031    0.03    107.51   
    59. A(H   6,C   5,C   7)          109.07  0.000031    0.00    109.07   
    60. A(C   3,C   5,O  18)          110.31  0.000063   -0.02    110.29   
    61. A(C   3,C   5,H   6)          108.45  0.000046   -0.00    108.45   
    62. A(O   8,C   7,H  27)          106.52  0.000015    0.01    106.53   
    63. A(C   5,C   7,H  27)          111.63 -0.000067    0.01    111.64   
    64. A(C   5,C   7,O   8)          109.25  0.000067   -0.01    109.23   
    65. A(O   8,C   7,H  28)          110.90  0.000000   -0.00    110.90   
    66. A(C   5,C   7,H  28)          109.05  0.000034    0.00    109.05   
    67. A(H  27,C   7,H  28)          109.49 -0.000049   -0.00    109.48   
    68. A(C   7,O   8,C   9)          112.88 -0.000063    0.01    112.89   
    69. A(H  10,C   9,O  17)          108.07  0.000054   -0.01    108.07   
    70. A(O   8,C   9,O  17)          111.87 -0.000031   -0.00    111.87   
    71. A(O   8,C   9,C  11)          109.38  0.000098   -0.09    109.29   
    72. A(O   8,C   9,H  10)          108.91  0.000036   -0.03    108.88   
    73. A(C  11,C   9,O  17)          107.78 -0.000139    0.10    107.87   
    74. A(H  10,C   9,C  11)          110.84 -0.000020    0.03    110.87   
    75. A(C   9,C  11,C  12)          120.56 -0.000006    0.07    120.63   
    76. A(C  12,C  11,C  16)          119.74 -0.000018   -0.00    119.74   
    77. A(C   9,C  11,C  16)          119.68  0.000024   -0.06    119.61   
    78. A(C  11,C  12,H  29)          119.84 -0.000086    0.02    119.86   
    79. A(C  13,C  12,H  29)          120.10  0.000072   -0.02    120.08   
    80. A(C  11,C  12,C  13)          120.06  0.000014   -0.00    120.06   
    81. A(C  14,C  13,H  30)          120.11 -0.000006    0.00    120.11   
    82. A(C  12,C  13,H  30)          119.78  0.000029   -0.00    119.78   
    83. A(C  12,C  13,C  14)          120.11 -0.000023    0.00    120.12   
    84. A(C  13,C  14,H  31)          120.02 -0.000021    0.00    120.02   
    85. A(C  13,C  14,C  15)          119.90  0.000037   -0.00    119.89   
    86. A(C  15,C  14,H  31)          120.08 -0.000015    0.00    120.08   
    87. A(C  16,C  15,H  32)          119.81  0.000034    0.01    119.82   
    88. A(C  14,C  15,H  32)          120.07 -0.000006   -0.00    120.07   
    89. A(C  14,C  15,C  16)          120.12 -0.000028   -0.01    120.11   
    90. A(C  11,C  16,C  15)          120.07  0.000018    0.01    120.09   
    91. A(C  15,C  16,H  33)          120.92  0.000093   -0.01    120.91   
    92. A(C  11,C  16,H  33)          119.00 -0.000111   -0.00    119.00   
    93. A(C   3,O  17,C   9)          111.26 -0.000067   -0.00    111.26   
    94. A(C   5,O  18,C  19)          112.58 -0.000141    0.00    112.58   
    95. A(O  18,C  19,O  21)          108.34 -0.000048   -0.00    108.34   
    96. A(O  21,C  19,C  23)          107.62 -0.000006   -0.02    107.60   
    97. A(H  20,C  19,C  23)          108.08  0.000034   -0.00    108.08   
    98. A(O  18,C  19,C  23)          112.87  0.000012    0.04    112.92   
    99. A(H  20,C  19,O  21)          111.24  0.000025   -0.04    111.20   
   100. A(O  18,C  19,H  20)          108.73 -0.000016    0.02    108.74   
   101. A(C  19,O  21,C  22)          114.39 -0.000260    0.04    114.43   
   102. A(H  35,C  22,H  36)          109.68  0.000076    0.01    109.69   
   103. A(H  34,C  22,H  36)          110.01  0.000001   -0.01    110.00   
   104. A(O  21,C  22,H  36)          110.44 -0.000067    0.01    110.45   
   105. A(H  34,C  22,H  35)          110.19 -0.000017   -0.01    110.18   
   106. A(O  21,C  22,H  35)          110.79 -0.000107    0.01    110.81   
   107. A(O  21,C  22,H  34)          105.67  0.000114   -0.01    105.65   
   108. A(H  24,C  23,O  25)          110.95  0.000066   -0.01    110.94   
   109. A(C  19,C  23,O  25)          106.95 -0.000002   -0.06    106.89   
   110. A(C   1,C  23,O  25)          110.60 -0.000083    0.01    110.61   
   111. A(C  19,C  23,H  24)          107.66  0.000048    0.01    107.67   
   112. A(C   1,C  23,H  24)          108.54 -0.000020   -0.01    108.52   
   113. A(C   1,C  23,C  19)          112.11 -0.000004    0.07    112.18   
   114. A(C  23,O  25,H  37)          107.90  0.000161   -0.00    107.89   
   115. D(C   3,C   1,O   0,H  26)     54.38 -0.000006    0.33     54.71   
   116. D(C  23,C   1,O   0,H  26)    174.68  0.000012    0.32    175.00   
   117. D(H   2,C   1,O   0,H  26)    -66.86  0.000060    0.31    -66.55   
   118. D(C   5,C   3,C   1,C  23)     54.52  0.000020   -0.15     54.37   
   119. D(H   4,C   3,C   1,O   0)     55.25  0.000052   -0.22     55.02   
   120. D(H   4,C   3,C   1,C  23)    -63.98  0.000035   -0.17    -64.15   
   121. D(C   5,C   3,C   1,H   2)    -64.10 -0.000045   -0.18    -64.28   
   122. D(H   4,C   3,C   1,H   2)    177.40 -0.000030   -0.20    177.20   
   123. D(C   5,C   3,C   1,O   0)    173.75  0.000037   -0.20    173.55   
   124. D(C   7,C   5,C   3,O  17)     55.36  0.000033   -0.03     55.33   
   125. D(C   7,C   5,C   3,C   1)    176.16  0.000016   -0.00    176.16   
   126. D(C   7,C   5,C   3,H   4)    -64.99  0.000021   -0.01    -65.00   
   127. D(H   6,C   5,C   3,O  17)    -62.43 -0.000011   -0.04    -62.47   
   128. D(H   6,C   5,C   3,H   4)    177.22 -0.000023   -0.03    177.20   
   129. D(H   6,C   5,C   3,C   1)     58.38 -0.000028   -0.02     58.36   
   130. D(H  27,C   7,C   5,H   6)    -54.53  0.000019    0.04    -54.49   
   131. D(H  27,C   7,C   5,O  18)     67.38 -0.000017    0.03     67.41   
   132. D(H  27,C   7,C   5,C   3)   -171.92 -0.000035    0.03   -171.89   
   133. D(O   8,C   7,C   5,H   6)     63.02  0.000038    0.05     63.07   
   134. D(O   8,C   7,C   5,C   3)    -54.37 -0.000016    0.03    -54.33   
   135. D(O   8,C   7,C   5,O  18)   -175.07  0.000003    0.04   -175.03   
   136. D(C   9,O   8,C   7,H  28)    -62.48 -0.000046   -0.02    -62.50   
   137. D(C   9,O   8,C   7,H  27)    178.46  0.000004   -0.01    178.44   
   138. D(C   9,O   8,C   7,C   5)     57.74  0.000039   -0.02     57.72   
   139. D(O  17,C   9,O   8,C   7)    -59.83 -0.000020   -0.04    -59.86   
   140. D(C  11,C   9,O   8,C   7)   -179.16  0.000108   -0.10   -179.26   
   141. D(H  10,C   9,O   8,C   7)     59.57  0.000051   -0.07     59.51   
   142. D(C  12,C  11,C   9,O  17)    102.20 -0.000046    1.89    104.08   
   143. D(C  12,C  11,C   9,H  10)    -15.88 -0.000015    1.82    -14.06   
   144. D(C  12,C  11,C   9,O   8)   -135.97 -0.000110    1.89   -134.08   
   145. D(C  16,C  11,C   9,O   8)     45.55 -0.000090    1.70     47.25   
   146. D(C  16,C  11,C   9,H  10)    165.64  0.000004    1.63    167.27   
   147. D(H  29,C  12,C  11,C  16)    179.84 -0.000010    0.06    179.90   
   148. D(H  29,C  12,C  11,C   9)      1.36  0.000009   -0.13      1.23   
   149. D(C  13,C  12,C  11,C  16)     -0.13 -0.000000    0.05     -0.08   
   150. D(C  13,C  12,C  11,C   9)   -178.62  0.000019   -0.14   -178.75   
   151. D(H  30,C  13,C  12,H  29)     -0.04  0.000005   -0.03     -0.06   
   152. D(H  30,C  13,C  12,C  11)    179.94 -0.000005   -0.02    179.92   
   153. D(C  14,C  13,C  12,H  29)    179.93  0.000007   -0.02    179.91   
   154. D(C  14,C  13,C  12,C  11)     -0.09 -0.000003   -0.01     -0.10   
   155. D(H  31,C  14,C  13,H  30)      0.13  0.000009   -0.04      0.10   
   156. D(C  15,C  14,C  13,C  12)      0.13  0.000004   -0.02      0.11   
   157. D(H  31,C  14,C  13,C  12)   -179.84  0.000007   -0.04   -179.88   
   158. D(C  15,C  14,C  13,H  30)   -179.90  0.000006   -0.01   -179.91   
   159. D(H  32,C  15,C  14,H  31)     -0.06 -0.000004    0.05     -0.02   
   160. D(H  32,C  15,C  14,C  13)    179.97 -0.000001    0.02    180.00   
   161. D(C  16,C  15,C  14,H  31)   -179.97 -0.000005    0.03   -179.94   
   162. D(C  16,C  15,C  14,C  13)      0.06 -0.000002    0.00      0.07   
   163. D(H  33,C  16,C  15,H  32)      0.39  0.000008   -0.03      0.36   
   164. D(C  11,C  16,C  15,H  32)    179.80 -0.000003    0.02    179.82   
   165. D(C  11,C  16,C  15,C  14)     -0.29 -0.000002    0.04     -0.25   
   166. D(H  33,C  16,C  11,C  12)    179.75 -0.000007   -0.01    179.73   
   167. D(H  33,C  16,C  11,C   9)     -1.76 -0.000026    0.18     -1.58   
   168. D(H  33,C  16,C  15,C  14)   -179.70  0.000009   -0.02   -179.71   
   169. D(C  15,C  16,C  11,C  12)      0.32  0.000003   -0.06      0.26   
   170. D(C  15,C  16,C  11,C   9)    178.82 -0.000017    0.13    178.95   
   171. D(C   3,O  17,C   9,C  11)    179.58  0.000055   -0.00    179.58   
   172. D(C   3,O  17,C   9,H  10)    -60.58 -0.000017    0.09    -60.49   
   173. D(C   3,O  17,C   9,O   8)     59.31  0.000044    0.04     59.36   
   174. D(C   9,O  17,C   3,C   5)    -58.02 -0.000043   -0.01    -58.03   
   175. D(C   9,O  17,C   3,H   4)     61.61 -0.000015   -0.01     61.60   
   176. D(C   9,O  17,C   3,C   1)   -178.17  0.000020   -0.06   -178.23   
   177. D(C  19,O  18,C   5,C   3)     63.38  0.000088    0.03     63.42   
   178. D(C  19,O  18,C   5,C   7)   -177.60  0.000008    0.06   -177.54   
   179. D(C  19,O  18,C   5,H   6)    -56.50 -0.000024    0.06    -56.44   
   180. D(C  23,C  19,O  18,C   5)    -56.08 -0.000018    0.04    -56.04   
   181. D(O  21,C  19,O  18,C   5)   -175.15  0.000014    0.04   -175.11   
   182. D(H  20,C  19,O  18,C   5)     63.83  0.000022    0.08     63.91   
   183. D(C  22,O  21,C  19,C  23)    166.72  0.000011    0.05    166.77   
   184. D(C  22,O  21,C  19,H  20)     48.51 -0.000042    0.08     48.59   
   185. D(C  22,O  21,C  19,O  18)    -70.94 -0.000006    0.09    -70.85   
   186. D(H  36,C  22,O  21,C  19)    -60.28  0.000023   -0.05    -60.33   
   187. D(H  35,C  22,O  21,C  19)     61.44  0.000002   -0.02     61.42   
   188. D(H  34,C  22,O  21,C  19)   -179.22 -0.000009   -0.03   -179.25   
   189. D(H  24,C  23,C  19,O  21)     48.52 -0.000023   -0.19     48.33   
   190. D(H  24,C  23,C  19,H  20)    168.75  0.000022   -0.25    168.50   
   191. D(H  24,C  23,C  19,O  18)    -70.97  0.000033   -0.20    -71.17   
   192. D(C   1,C  23,C  19,O  21)    167.83 -0.000019   -0.16    167.67   
   193. D(C   1,C  23,C  19,H  20)    -71.94  0.000027   -0.22    -72.16   
   194. D(C   1,C  23,C  19,O  18)     48.34  0.000038   -0.17     48.16   
   195. D(H  24,C  23,C   1,C   3)     70.61  0.000012    0.28     70.89   
   196. D(H  24,C  23,C   1,H   2)   -171.00  0.000033    0.33   -170.67   
   197. D(H  24,C  23,C   1,O   0)    -51.74  0.000018    0.33    -51.41   
   198. D(C  19,C  23,C   1,C   3)    -48.18 -0.000032    0.24    -47.95   
   199. D(C  19,C  23,C   1,H   2)     70.21 -0.000011    0.28     70.49   
   200. D(C  19,C  23,C   1,O   0)   -170.53 -0.000027    0.29   -170.24   
   201. D(H  37,O  25,C  23,H  24)     61.24 -0.000080   -0.56     60.69   
   202. D(H  37,O  25,C  23,C  19)    178.40  0.000013   -0.59    177.81   
   203. D(H  37,O  25,C  23,C   1)    -59.26 -0.000043   -0.53    -59.80   
    ----------------------------------------------------------------------------

Geometry step timings:
Preparation and reading OPT file:      0.001 s ( 6.105 %)
Internal coordinates            :      0.000 s ( 0.176 %)
B/P matrices and projection     :      0.003 s (16.979 %)
Hessian update/contruction      :      0.009 s (48.780 %)
Making the step                 :      0.002 s (11.824 %)
Converting the step to Cartesian:      0.000 s ( 1.502 %)
Storing new data                :      0.001 s ( 5.303 %)
Checking convergence            :      0.000 s ( 0.159 %)
Final printing                  :      0.002 s ( 9.149 %)
Total time                      :      0.018 s

Time for energy+gradient        :      0.070 s
Time for complete geometry iter :      0.098 s

         *************************************************************
         *                GEOMETRY OPTIMIZATION CYCLE  10            *
         *************************************************************
---------------------------------
CARTESIAN COORDINATES (ANGSTROEM)
---------------------------------
  O    -2.768577    2.931735    0.148575
  C    -1.369997    2.795311    0.129968
  H    -0.981350    2.725700    1.158997
  C    -0.913859    1.562448   -0.645926
  H    -1.339912    1.597028   -1.664037
  C     0.615637    1.578293   -0.753738
  H     1.037450    1.594869    0.265732
  C     1.041961    0.282715   -1.450590
  O     0.499690   -0.819358   -0.755197
  C    -0.900043   -0.771328   -0.662636
  H    -1.328383   -0.757342   -1.689138
  C    -1.389887   -1.971942    0.107556
  C    -2.466084   -2.716571   -0.353262
  C    -2.922238   -3.801331    0.376690
  C    -2.304628   -4.147127    1.566832
  C    -1.229998   -3.404436    2.028355
  C    -0.774552   -2.317917    1.302895
  O    -1.343833    0.388823    0.013643
  O     1.040640    2.702068   -1.478111
  C     0.711349    3.923182   -0.832832
  H     1.259170    3.975955    0.132589
  O     1.066631    4.962886   -1.664892
  C     2.467753    5.157264   -1.797022
  C    -0.793895    4.057719   -0.536114
  H    -1.310283    4.213757   -1.494247
  O    -0.945891    5.170428    0.301630
  H    -3.147966    2.112211    0.491856
  H     2.124676    0.156140   -1.436483
  H     0.688506    0.302095   -2.491827
  H    -2.947454   -2.448075   -1.282495
  H    -3.761007   -4.376963    0.014477
  H    -2.660384   -4.994668    2.133915
  H    -0.746277   -3.671570    2.956235
  H     0.063504   -1.733720    1.647666
  H     2.584306    6.008186   -2.463475
  H     2.943187    4.273237   -2.227851
  H     2.916664    5.379961   -0.823234
  H    -1.891299    5.289306    0.469298

----------------------------
CARTESIAN COORDINATES (A.U.)
----------------------------
  NO LB    ZA    FRAG    MASS        X           Y           Z
   0 O   8.0000    1    15.999   -5.231852    5.540176    0.280766
   1 C   6.0000    1    12.011   -2.588920    5.282373    0.245604
   2 H   1.0000    1     1.008   -1.854482    5.150827    2.190187
   3 C   6.0000    1    12.011   -1.726942    2.952599   -1.220624
   4 H   1.0000    1     1.008   -2.532067    3.017945   -3.144575
   5 C   6.0000    1    12.011    1.163386    2.982542   -1.424359
   6 H   1.0000    1     1.008    1.960497    3.013866    0.502162
   7 C   6.0000    1    12.011    1.969020    0.534254   -2.741218
   8 O   8.0000    1    15.999    0.944278   -1.548361   -1.427116
   9 C   6.0000    1    12.011   -1.700834   -1.457599   -1.252201
  10 H   1.0000    1     1.008   -2.510279   -1.431169   -3.192008
  11 C   6.0000    1    12.011   -2.626506   -3.726429    0.203251
  12 C   6.0000    1    12.011   -4.660224   -5.133575   -0.667568
  13 C   6.0000    1    12.011   -5.522229   -7.183475    0.711841
  14 C   6.0000    1    12.011   -4.355116   -7.836934    2.960884
  15 C   6.0000    1    12.011   -2.324359   -6.433452    3.833035
  16 C   6.0000    1    12.011   -1.463691   -4.380228    2.462115
  17 O   8.0000    1    15.999   -2.539476    0.734770    0.025781
  18 O   8.0000    1    15.999    1.966525    5.106169   -2.793226
  19 C   6.0000    1    12.011    1.344256    7.413739   -1.573825
  20 H   1.0000    1     1.008    2.379487    7.513467    0.250558
  21 O   8.0000    1    15.999    2.015641    9.378495   -3.146191
  22 C   6.0000    1    12.011    4.663377    9.745817   -3.395879
  23 C   6.0000    1    12.011   -1.500244    7.667977   -1.013108
  24 H   1.0000    1     1.008   -2.476076    7.962847   -2.823718
  25 O   8.0000    1    15.999   -1.787474    9.770693    0.569998
  26 H   1.0000    1     1.008   -5.948793    3.991500    0.929473
  27 H   1.0000    1     1.008    4.015055    0.295062   -2.714560
  28 H   1.0000    1     1.008    1.301088    0.570877   -4.708872
  29 H   1.0000    1     1.008   -5.569881   -4.626192   -2.423563
  30 H   1.0000    1     1.008   -7.107273   -8.271262    0.027358
  31 H   1.0000    1     1.008   -5.027398   -9.438555    4.032515
  32 H   1.0000    1     1.008   -1.410259   -6.938261    5.586474
  33 H   1.0000    1     1.008    0.120005   -3.276255    3.113637
  34 H   1.0000    1     1.008    4.883631   11.353825   -4.655294
  35 H   1.0000    1     1.008    5.561818    8.075248   -4.210028
  36 H   1.0000    1     1.008    5.511695   10.166652   -1.555686
  37 H   1.0000    1     1.008   -3.574038    9.995340    0.886844

      -----------------------------------------------------------      
     |                   =====================                   |     
     |                           x T B                           |     
     |                   =====================                   |     
     |                         S. Grimme                         |     
     |          Mulliken Center for Theoretical Chemistry        |     
     |                    University of Bonn                     |     
      -----------------------------------------------------------      

   * xtb version 6.7.1 (edcfbbe) compiled by 'albert@albert-system' on 2024-07-22

   xtb is free software: you can redistribute it and/or modify it under
   the terms of the GNU Lesser General Public License as published by
   the Free Software Foundation, either version 3 of the License, or
   (at your option) any later version.
   
   xtb is distributed in the hope that it will be useful,
   but WITHOUT ANY WARRANTY; without even the implied warranty of
   MERCHANTABILITY or FITNESS FOR A PARTICULAR PURPOSE.  See the
   GNU Lesser General Public License for more details.
   
   Cite this work as:
   * C. Bannwarth, E. Caldeweyher, S. Ehlert, A. Hansen, P. Pracht,
     J. Seibert, S. Spicher, S. Grimme, WIREs Comput. Mol. Sci., 2020, 11,
     e01493. DOI: 10.1002/wcms.1493
   
   for GFN2-xTB:
   * C. Bannwarth, S. Ehlert and S. Grimme., J. Chem. Theory Comput., 2019,
     15, 1652-1671. DOI: 10.1021/acs.jctc.8b01176
   for GFN1-xTB:
   * S. Grimme, C. Bannwarth, P. Shushkov, J. Chem. Theory Comput., 2017,
     13, 1989-2009. DOI: 10.1021/acs.jctc.7b00118
   for GFN0-xTB:
   * P. Pracht, E. Caldeweyher, S. Ehlert, S. Grimme, ChemRxiv, 2019, preprint.
     DOI: 10.26434/chemrxiv.8326202.v1
   for GFN-FF:
   * S. Spicher and S. Grimme, Angew. Chem. Int. Ed., 2020, 59, 15665-15673.
     DOI: 10.1002/anie.202004239
   
   for ALPB and GBSA implicit solvation:
   * S. Ehlert, M. Stahn, S. Spicher, S. Grimme, J. Chem. Theory Comput.,
     2021, 17, 4250-4261. DOI: 10.1021/acs.jctc.1c00471
   
   for ddCOSMO and CPCM-X implicit solvation:
   * M. Stahn, S. Ehlert, S. Grimme, J. Phys. Chem. A,
     2023, XX, XXXX-XXXX. DOI: 10.1021/acs.jpca.3c04382
   
   for DFT-D4:
   * E. Caldeweyher, C. Bannwarth and S. Grimme, J. Chem. Phys., 2017,
     147, 034112. DOI: 10.1063/1.4993215
   * E. Caldeweyher, S. Ehlert, A. Hansen, H. Neugebauer, S. Spicher,
     C. Bannwarth and S. Grimme, J. Chem. Phys., 2019, 150, 154122.
     DOI: 10.1063/1.5090222
   * E. Caldeweyher, J.-M. Mewes, S. Ehlert and S. Grimme, Phys. Chem. Chem. Phys.
     2020, 22, 8499-8512. DOI: 10.1039/D0CP00502A
   
   for sTDA-xTB:
   * S. Grimme and C. Bannwarth, J. Chem. Phys., 2016, 145, 054103.
     DOI: 10.1063/1.4959605
   
   in the mass-spec context:
   * V. Asgeirsson, C. Bauer and S. Grimme, Chem. Sci., 2017, 8, 4879.
     DOI: 10.1039/c7sc00601b
   * J. Koopman and S. Grimme, ACS Omega 2019, 4, 12, 15120-15133.
     DOI: 10.1021/acsomega.9b02011
   
   for metadynamics refer to:
   * S. Grimme, J. Chem. Theory Comput., 2019, 155, 2847-2862
     DOI: 10.1021/acs.jctc.9b00143
   
   for SPH calculations refer to:
   * S. Spicher and S. Grimme, J. Chem. Theory Comput., 2021, 17, 1701-1714
     DOI: 10.1021/acs.jctc.0c01306
   
   for ONIOM refer to:
   * C. Plett, A. Katbashev, S. Ehlert, S. Grimme, M. Bursch,
     Phys. Chem. Chem. Phys., 2023, 25, 17860-17868. DOI: 10.1039/D3CP02178E
   
   for DIPRO refer to:
   * J. Kohn, N. Gildemeister, S. Grimme, D. Fazzi, A. Hansen,
     J. Chem. Phys., 2023, just accepted.
   
   for PTB refer to:
   * S. Grimme, M. Mueller, A. Hansen, J. Chem. Phys., 2023, 158, 124111.
     DOI: 10.1063/5.0137838
   
   with help from (in alphabetical order)
   P. Atkinson, C. Bannwarth, F. Bohle, G. Brandenburg, E. Caldeweyher
   M. Checinski, S. Dohm, S. Ehlert, S. Ehrlich, I. Gerasimov, C. Hölzer
   A. Katbashev, J. Kohn, J. Koopman, C. Lavigne, S. Lehtola, F. März, M. Müller,
   F. Musil, H. Neugebauer, J. Pisarek, C. Plett, P. Pracht, F. Pultar,
   J. Seibert, P. Shushkov, S. Spicher, M. Stahn, M. Steiner, T. Strunk,
   J. Stückrath, T. Rose, and J. Unsleber
   
 * started run on 2025/10/31 at 09:56:12.650     
   ID    Z sym.   atoms
    1    8 O      1, 9, 18, 19, 22, 26
    2    6 C      2, 4, 6, 8, 10, 12-17, 20, 23, 24
    3    1 H      3, 5, 7, 11, 21, 25, 27-38

           -------------------------------------------------
          |                Calculation Setup                |
           -------------------------------------------------

          program call               : /home/kmoult/orca_6_1/otool_xtb goat_0_XTB.xyz --grad -c 0 -u 0 -P 4 --namespace goat_0 --input goat_0_XTB.input.tmp --alpb ACETONE --acc 0.200000
          hostname                   : node3103
          calculation namespace      : goat_0
          coordinate file            : goat_0_XTB.xyz
          omp threads                :                     4


           -------------------------------------------------
          |                 G F N 2 - x T B                 |
           -------------------------------------------------

        Reference                      10.1021/acs.jctc.8b01176
      * Hamiltonian:
        H0-scaling (s, p, d)           1.850000    2.230000    2.230000
        zeta-weighting                 0.500000
      * Dispersion:
        s8                             2.700000
        a1                             0.520000
        a2                             5.000000
        s9                             5.000000
      * Repulsion:
        kExp                           1.500000    1.000000
        rExp                           1.000000
      * Coulomb:
        alpha                          2.000000
        third order                    shell-resolved
        anisotropic                    true
        a3                             3.000000
        a5                             4.000000
        cn-shift                       1.200000
        cn-exp                         4.000000
        max-rad                        5.000000

      * Solvation model:               ALPB
        Solvent                        ACETONE
        Parameter file                 internal GFN2-xTB/ALPB
        Dielectric constant                2.0700E+01
        Reference state                gsolv [1 M gas/solution]
        Free energy shift                  5.9241E-03 Eh       3.7175E+00 kcal/mol
        Temperature                        2.9815E+02 K
        Density                            7.9000E-01 kg/L
        Solvent mass                       5.8080E+01 g/mol
        Interaction kernel             P16
        Born radius scaling (c1)           1.8274E+00
        Born radii integrator          GBOBC
        Born offset                        0.0000E+00 a0       0.0000E+00 AA
        H-bond correction              true
        Ion screening                  false
        Surface tension                    1.0000E-05 Eh       1.5569E+01 dyn/cm
        Grid points                               230 per atom
q/qsh data taken from xtbrestart
CAMM data taken from xtbrestart

          ...................................................
          :                      SETUP                      :
          :.................................................:
          :  # basis functions                  98          :
          :  # atomic orbitals                  98          :
          :  # shells                           58          :
          :  # electrons                       110          :
          :  max. iterations                   250          :
          :  Hamiltonian                  GFN2-xTB          :
          :  restarted?                       true          :
          :  GBSA solvation                   true          :
          :  PC potential                    false          :
          :  electronic temp.          300.0000000     K    :
          :  accuracy                    0.2000000          :
          :  -> integral cutoff          0.3198970E+02      :
          :  -> integral neglect         0.2000000E-08      :
          :  -> SCF convergence          0.2000000E-06 Eh   :
          :  -> wf. convergence          0.2000000E-04 e    :
          :  Broyden damping             0.4000000          :
          :  net charge                          0          :
          :  unpaired electrons                  0          :
          ...................................................

 iter      E             dE          RMSdq      gap      omega  full diag
   1    -64.2450026 -0.642450E+02  0.112E-01    4.74       0.0  T
   2    -64.2450030 -0.429214E-06  0.657E-02    4.74       1.0  T
   3    -64.2450032 -0.166519E-06  0.179E-03    4.74       9.1  T
   4    -64.2450032 -0.441611E-07  0.103E-03    4.74      15.8  T
   5    -64.2450032 -0.526182E-08  0.337E-04    4.74      48.1  T
   6    -64.2450032 -0.123090E-08  0.107E-04    4.74     151.9  T
   7    -64.2450032 -0.135614E-09  0.443E-05    4.74     366.1  T

   *** convergence criteria satisfied after 7 iterations ***

         #    Occupation            Energy/Eh            Energy/eV
      -------------------------------------------------------------
         1        2.0000           -0.7319388             -19.9171
       ...           ...                  ...                  ...
        49        2.0000           -0.4287011             -11.6656
        50        2.0000           -0.4253330             -11.5739
        51        2.0000           -0.4220744             -11.4852
        52        2.0000           -0.4182844             -11.3821
        53        2.0000           -0.4116313             -11.2011
        54        2.0000           -0.4108210             -11.1790
        55        2.0000           -0.4085382             -11.1169 (HOMO)
        56                         -0.2344188              -6.3789 (LUMO)
        57                         -0.2290772              -6.2335
        58                         -0.1045994              -2.8463
        59                         -0.0371092              -1.0098
        60                         -0.0071178              -0.1937
       ...                                ...                  ...
        98                          0.6583260              17.9140
      -------------------------------------------------------------
                  HL-Gap            0.1741194 Eh            4.7380 eV
             Fermi-level           -0.3214785 Eh           -8.7479 eV

 SCC (total)                   0 d,  0 h,  0 min,  0.019 sec
 SCC setup                      ...        0 min,  0.000 sec (  2.415%)
 Dispersion                     ...        0 min,  0.000 sec (  1.204%)
 classical contributions        ...        0 min,  0.000 sec (  0.155%)
 integral evaluation            ...        0 min,  0.002 sec ( 10.752%)
 iterations                     ...        0 min,  0.010 sec ( 53.892%)
 molecular gradient             ...        0 min,  0.006 sec ( 30.906%)
 printout                       ...        0 min,  0.000 sec (  0.598%)

         :::::::::::::::::::::::::::::::::::::::::::::::::::::
         ::                     SUMMARY                     ::
         :::::::::::::::::::::::::::::::::::::::::::::::::::::
         :: total energy             -63.588617222666 Eh    ::
         :: total w/o Gsasa/hb       -63.559489610759 Eh    ::
         :: gradient norm              0.000963822683 Eh/a0 ::
         :: HOMO-LUMO gap              4.738028777180 eV    ::
         ::.................................................::
         :: SCC energy               -64.244883870594 Eh    ::
         :: -> isotropic ES            0.130073311737 Eh    ::
         :: -> anisotropic ES         -0.006286992041 Eh    ::
         :: -> anisotropic XC          0.001019152275 Eh    ::
         :: -> dispersion             -0.036422572917 Eh    ::
         :: -> Gsolv                  -0.032476343523 Eh    ::
         ::    -> Gelec               -0.003348731616 Eh    ::
         ::    -> Gsasa               -0.028303243594 Eh    ::
         ::    -> Ghb                 -0.006748509576 Eh    ::
         ::    -> Gshift               0.005924141264 Eh    ::
         :: repulsion energy           0.656266647928 Eh    ::
         :: add. restraining           0.000000000000 Eh    ::
         :: total charge              -0.000000000000 e     ::
         :::::::::::::::::::::::::::::::::::::::::::::::::::::


Property printout bound to 'properties.out'

           -------------------------------------------------
          | TOTAL ENERGY              -63.588617222666 Eh   |
          | GRADIENT NORM               0.000963822683 Eh/α |
          | HOMO-LUMO GAP               4.738028777180 eV   |
           -------------------------------------------------

------------------------------------------------------------------------
 * finished run on 2025/10/31 at 09:56:12.692     
------------------------------------------------------------------------
 total:
 * wall-time:     0 d,  0 h,  0 min,  0.042 sec
 *  cpu-time:     0 d,  0 h,  0 min,  0.144 sec
 * ratio c/w:     3.467 speedup
 SCF:
 * wall-time:     0 d,  0 h,  0 min,  0.020 sec
 *  cpu-time:     0 d,  0 h,  0 min,  0.078 sec
 * ratio c/w:     3.973 speedup


-------------------------   --------------------
FINAL SINGLE POINT ENERGY       -63.588617222670
-------------------------   --------------------


-------------
DIPOLE MOMENT
-------------
                                X             Y             Z
Total Dipole Moment    :     -0.23100      -1.02400       0.26600
                        -----------------------------------------
Magnitude (a.u.)       :      1.08291
Magnitude (Debye)      :      2.75254


------------------
CARTESIAN GRADIENT
------------------

   1   O   :   -0.000123764   -0.000116330   -0.000053326
   2   C   :    0.000223181    0.000131784    0.000062454
   3   H   :   -0.000080015   -0.000065105    0.000002144
   4   C   :   -0.000071994   -0.000079567   -0.000098992
   5   H   :    0.000000362    0.000007184    0.000024166
   6   C   :   -0.000126931   -0.000066140    0.000263094
   7   H   :    0.000031695    0.000047911   -0.000049884
   8   C   :   -0.000089350   -0.000047895    0.000101935
   9   O   :   -0.000099009    0.000140720   -0.000050041
  10   C   :    0.000133311   -0.000139910   -0.000213280
  11   H   :    0.000028341    0.000019927    0.000050368
  12   C   :   -0.000014353    0.000042987    0.000029774
  13   C   :    0.000020991   -0.000066762    0.000150969
  14   C   :   -0.000002616    0.000039187   -0.000001539
  15   C   :    0.000009351    0.000027489   -0.000080795
  16   C   :    0.000054464    0.000107144   -0.000028331
  17   C   :   -0.000111153   -0.000184227    0.000077232
  18   O   :    0.000070885    0.000016080    0.000065995
  19   O   :    0.000068801    0.000011813   -0.000187381
  20   C   :   -0.000178671    0.000118763    0.000290181
  21   H   :    0.000042187   -0.000000979   -0.000072313
  22   O   :   -0.000077367   -0.000116073    0.000007859
  23   C   :    0.000124234    0.000026084    0.000042881
  24   C   :    0.000157684   -0.000021133   -0.000268253
  25   H   :   -0.000076893   -0.000029220    0.000095764
  26   O   :   -0.000053523   -0.000125152    0.000106182
  27   H   :    0.000027761    0.000114193    0.000045022
  28   H   :    0.000018981    0.000032750   -0.000044975
  29   H   :    0.000043023   -0.000044195   -0.000043257
  30   H   :    0.000034051    0.000029907   -0.000000562
  31   H   :    0.000014913    0.000014731    0.000041912
  32   H   :    0.000022117    0.000014230   -0.000022590
  33   H   :   -0.000020202   -0.000008554   -0.000014222
  34   H   :   -0.000011547    0.000040686   -0.000101420
  35   H   :    0.000048935   -0.000028273    0.000000846
  36   H   :   -0.000076364    0.000004741   -0.000061680
  37   H   :   -0.000050692    0.000040837   -0.000003250
  38   H   :    0.000089173    0.000110366   -0.000062687

Difference to translation invariance:
           :   -0.0000000000   -0.0000000000    0.0000000000

Difference to rotation invariance:
           :   -0.0000750556    0.0006173940    0.0001924892

Norm of the Cartesian gradient     ...    0.0009638227
RMS gradient                       ...    0.0000902703
MAX gradient                       ...    0.0002901813
------------------------------------------------------------------------------
                         ORCA GEOMETRY RELAXATION STEP
------------------------------------------------------------------------------

Reading the OPT-File                    .... done
Getting information on internals        .... done
Copying old internal coords+grads       .... done
Making the new internal coordinates     .... (2022 redundants) done
Validating the new internal coordinates .... (2022 redundants) done
Calculating the B-matrix                .... done
Calculating the G,G- and P matrices     .... done
Transforming gradient to internals      .... done
Projecting the internal gradient        .... done
Number of atoms                         ....  38
Number of internal coordinates          .... 203
Current Energy                          ....   -63.588617223 Eh
Current gradient norm                   ....     0.000963823 Eh/bohr
Maximum allowed component of the step   ....  0.300
Current trust radius                    ....  0.450
Updating the Hessian (BFGS)             .... done
Forming the augmented Hessian           .... done
Diagonalizing the augmented Hessian     .... done
Last element of RFO vector              ....  0.999882063
Lowest eigenvalues of augmented Hessian:
 -0.000003613  0.001166631  0.011511709  0.015021371  0.016462072
Length of the computed step             ....  0.015359529
The final length of the internal step   ....  0.015359529
Converting the step to Cartesian space:
 Initial RMS(Int)=    0.0010780276
Transforming coordinates:
 Iter   0:  RMS(Cart)=    0.0043816300 RMS(Int)=    0.4409664622
done
Storing new coordinates                 .... done
The predicted energy change is          ....    -0.000001807
Previously predicted energy change      ....    -0.000004530
Actually observed energy change         ....    -0.000005454
Ratio of predicted to observed change   ....     1.203821181
New trust radius                        ....     0.675000000

                                .--------------------.
          ----------------------|Geometry convergence|-------------------------
          Item                value                   Tolerance       Converged
          ---------------------------------------------------------------------
          Energy change      -0.0000054536            0.0000050000      NO
          RMS gradient        0.0000446171            0.0001000000      YES
          MAX gradient        0.0001596316            0.0003000000      YES
          RMS step            0.0010780276            0.0020000000      YES
          MAX step            0.0055321569            0.0040000000      NO
          -------------------------------------------------------------------------
          ........................................................
          Max(Bonds)      0.0021      Max(Angles)    0.05
          Max(Dihed)        0.32      Max(Improp)    0.00
          ---------------------------------------------------------------------

    ---------------------------------------------------------------------------
                         Redundant Internal Coordinates
                            (Angstroem and degrees)

        Definition                    Value    dE/dq     Step     New-Value
    ----------------------------------------------------------------------------
     1. B(C   1,O   0)                1.4053  0.000042 -0.0000    1.4053   
     2. B(H   2,C   1)                1.1022 -0.000025  0.0000    1.1022   
     3. B(C   3,C   1)                1.5264 -0.000005 -0.0001    1.5263   
     4. B(H   4,C   3)                1.1042 -0.000021  0.0000    1.1042   
     5. B(C   5,C   3)                1.5334 -0.000048  0.0001    1.5334   
     6. B(H   6,C   5)                1.1034 -0.000031  0.0001    1.1035   
     7. B(C   7,C   5)                1.5316  0.000007  0.0000    1.5317   
     8. B(O   8,C   7)                1.4115 -0.000126  0.0001    1.4115   
     9. B(C   9,O   8)                1.4036 -0.000122  0.0001    1.4037   
    10. B(H  10,C   9)                1.1124 -0.000058  0.0002    1.1126   
    11. B(C  11,C   9)                1.5082 -0.000020  0.0000    1.5082   
    12. B(C  12,C  11)                1.3875 -0.000101  0.0000    1.3875   
    13. B(C  13,C  12)                1.3848 -0.000088  0.0000    1.3848   
    14. B(C  14,C  13)                1.3847 -0.000081  0.0001    1.3848   
    15. B(C  15,C  14)                1.3854 -0.000028  0.0000    1.3854   
    16. B(C  16,C  15)                1.3836 -0.000147  0.0001    1.3837   
    17. B(C  16,C  11)                1.3882 -0.000099 -0.0000    1.3882   
    18. B(O  17,C   9)                1.4143  0.000052 -0.0003    1.4140   
    19. B(O  17,C   3)                1.4133 -0.000053  0.0001    1.4134   
    20. B(O  18,C   5)                1.4029  0.000057 -0.0000    1.4029   
    21. B(C  19,O  18)                1.4198  0.000050 -0.0002    1.4196   
    22. B(H  20,C  19)                1.1113 -0.000041  0.0002    1.1114   
    23. B(O  21,C  19)                1.3782 -0.000065  0.0000    1.3782   
    24. B(C  22,O  21)                1.4207  0.000061 -0.0002    1.4205   
    25. B(C  23,C  19)                1.5401 -0.000160  0.0001    1.5402   
    26. B(C  23,C   1)                1.5392 -0.000051 -0.0000    1.5392   
    27. B(H  24,C  23)                1.0996 -0.000050  0.0001    1.0996   
    28. B(O  25,C  23)                1.4011 -0.000032  0.0001    1.4012   
    29. B(H  26,O   0)                0.9661 -0.000080  0.0001    0.9662   
    30. B(H  26,O  17)                2.5404  0.000056 -0.0019    2.5385   
    31. B(H  27,C   7)                1.0902  0.000017 -0.0000    1.0901   
    32. B(H  28,C   7)                1.0998  0.000022 -0.0000    1.0998   
    33. B(H  29,C  12)                1.0804 -0.000006 -0.0000    1.0804   
    34. B(H  30,C  13)                1.0799 -0.000032  0.0000    1.0799   
    35. B(H  31,C  14)                1.0800 -0.000030  0.0000    1.0801   
    36. B(H  32,C  15)                1.0800 -0.000021  0.0000    1.0800   
    37. B(H  33,C  16)                1.0782 -0.000021  0.0000    1.0782   
    38. B(H  34,C  22)                1.0871 -0.000020  0.0000    1.0871   
    39. B(H  35,C  22)                1.0923 -0.000013  0.0000    1.0923   
    40. B(H  36,C  22)                1.0952 -0.000011  0.0000    1.0952   
    41. B(H  37,O   0)                2.5359  0.000050 -0.0021    2.5338   
    42. B(H  37,O  25)                0.9675 -0.000073  0.0001    0.9676   
    43. A(C   1,O   0,H  26)          108.25 -0.000062   -0.03    108.22   
    44. A(O   0,C   1,H   2)          110.16 -0.000023    0.01    110.18   
    45. A(H   2,C   1,C   3)          108.55 -0.000010    0.01    108.56   
    46. A(H   2,C   1,C  23)          108.90  0.000047   -0.02    108.87   
    47. A(O   0,C   1,C   3)          112.49 -0.000017    0.00    112.49   
    48. A(O   0,C   1,C  23)          107.37 -0.000004    0.00    107.38   
    49. A(C   3,C   1,C  23)          109.31  0.000010   -0.01    109.30   
    50. A(H   4,C   3,C   5)          108.65  0.000018    0.00    108.65   
    51. A(H   4,C   3,O  17)          109.81  0.000029   -0.01    109.80   
    52. A(C   1,C   3,C   5)          108.99 -0.000057    0.02    109.01   
    53. A(C   5,C   3,O  17)          110.17 -0.000038    0.01    110.19   
    54. A(C   1,C   3,H   4)          109.15  0.000013   -0.01    109.14   
    55. A(C   1,C   3,O  17)          110.03  0.000036   -0.01    110.02   
    56. A(C   7,C   5,O  18)          111.00 -0.000069    0.03    111.03   
    57. A(H   6,C   5,O  18)          110.44 -0.000002    0.01    110.45   
    58. A(C   3,C   5,C   7)          107.51  0.000002    0.01    107.52   
    59. A(H   6,C   5,C   7)          109.07  0.000015   -0.02    109.05   
    60. A(C   3,C   5,O  18)          110.29  0.000018   -0.01    110.28   
    61. A(C   3,C   5,H   6)          108.45  0.000039   -0.02    108.43   
    62. A(O   8,C   7,H  27)          106.53  0.000037   -0.01    106.53   
    63. A(C   5,C   7,H  27)          111.64 -0.000029    0.01    111.65   
    64. A(C   5,C   7,O   8)          109.23 -0.000018   -0.02    109.21   
    65. A(O   8,C   7,H  28)          110.90 -0.000002   -0.00    110.90   
    66. A(C   5,C   7,H  28)          109.05  0.000065   -0.01    109.04   
    67. A(H  27,C   7,H  28)          109.48 -0.000053    0.02    109.50   
    68. A(C   7,O   8,C   9)          112.89  0.000031   -0.00    112.88   
    69. A(H  10,C   9,O  17)          108.07  0.000021   -0.01    108.06   
    70. A(O   8,C   9,O  17)          111.87 -0.000019    0.01    111.88   
    71. A(O   8,C   9,C  11)          109.29  0.000043   -0.01    109.28   
    72. A(O   8,C   9,H  10)          108.88  0.000011   -0.03    108.85   
    73. A(C  11,C   9,O  17)          107.87 -0.000109    0.05    107.92   
    74. A(H  10,C   9,C  11)          110.87  0.000053   -0.01    110.86   
    75. A(C   9,C  11,C  12)          120.63  0.000059   -0.01    120.63   
    76. A(C  12,C  11,C  16)          119.74 -0.000014    0.00    119.74   
    77. A(C   9,C  11,C  16)          119.61 -0.000045    0.01    119.62   
    78. A(C  11,C  12,H  29)          119.86 -0.000056    0.02    119.88   
    79. A(C  13,C  12,H  29)          120.08  0.000038   -0.02    120.07   
    80. A(C  11,C  12,C  13)          120.06  0.000019   -0.00    120.05   
    81. A(C  14,C  13,H  30)          120.11 -0.000008    0.00    120.11   
    82. A(C  12,C  13,H  30)          119.78  0.000038   -0.01    119.77   
    83. A(C  12,C  13,C  14)          120.12 -0.000030    0.00    120.12   
    84. A(C  13,C  14,H  31)          120.02 -0.000013    0.00    120.03   
    85. A(C  13,C  14,C  15)          119.89  0.000023   -0.01    119.89   
    86. A(C  15,C  14,H  31)          120.08 -0.000010    0.00    120.09   
    87. A(C  16,C  15,H  32)          119.82  0.000042   -0.01    119.81   
    88. A(C  14,C  15,H  32)          120.07 -0.000000    0.00    120.07   
    89. A(C  14,C  15,C  16)          120.11 -0.000041    0.01    120.12   
    90. A(C  11,C  16,C  15)          120.09  0.000044   -0.00    120.08   
    91. A(C  15,C  16,H  33)          120.91  0.000085   -0.02    120.89   
    92. A(C  11,C  16,H  33)          119.00 -0.000129    0.03    119.03   
    93. A(C   3,O  17,C   9)          111.26 -0.000014    0.00    111.26   
    94. A(C   5,O  18,C  19)          112.58 -0.000087    0.03    112.61   
    95. A(O  18,C  19,O  21)          108.34 -0.000065    0.01    108.35   
    96. A(O  21,C  19,C  23)          107.60  0.000022   -0.00    107.60   
    97. A(H  20,C  19,C  23)          108.08  0.000053   -0.02    108.06   
    98. A(O  18,C  19,C  23)          112.91  0.000010    0.01    112.92   
    99. A(H  20,C  19,O  21)          111.20 -0.000019   -0.01    111.19   
   100. A(O  18,C  19,H  20)          108.74 -0.000001    0.01    108.75   
   101. A(C  19,O  21,C  22)          114.43 -0.000085    0.03    114.46   
   102. A(H  35,C  22,H  36)          109.69  0.000096   -0.02    109.66   
   103. A(H  34,C  22,H  36)          110.00 -0.000015   -0.00    109.99   
   104. A(O  21,C  22,H  36)          110.45 -0.000045    0.01    110.46   
   105. A(H  34,C  22,H  35)          110.18 -0.000031    0.01    110.19   
   106. A(O  21,C  22,H  35)          110.81 -0.000098    0.03    110.83   
   107. A(O  21,C  22,H  34)          105.66  0.000090   -0.02    105.64   
   108. A(H  24,C  23,O  25)          110.94  0.000060   -0.02    110.92   
   109. A(C  19,C  23,O  25)          106.89 -0.000058    0.02    106.91   
   110. A(C   1,C  23,O  25)          110.61 -0.000043    0.01    110.62   
   111. A(C  19,C  23,H  24)          107.67  0.000053   -0.03    107.64   
   112. A(C   1,C  23,H  24)          108.52 -0.000028    0.02    108.54   
   113. A(C   1,C  23,C  19)          112.18  0.000020   -0.00    112.18   
   114. A(C  23,O  25,H  37)          107.89  0.000041   -0.04    107.85   
   115. D(C   3,C   1,O   0,H  26)     54.71  0.000020   -0.14     54.57   
   116. D(C  23,C   1,O   0,H  26)    175.00  0.000019   -0.14    174.86   
   117. D(H   2,C   1,O   0,H  26)    -66.55  0.000060   -0.16    -66.71   
   118. D(C   5,C   3,C   1,C  23)     54.37  0.000009    0.01     54.38   
   119. D(H   4,C   3,C   1,O   0)     55.02  0.000004    0.01     55.03   
   120. D(H   4,C   3,C   1,C  23)    -64.15  0.000013    0.01    -64.14   
   121. D(C   5,C   3,C   1,H   2)    -64.28 -0.000047    0.04    -64.24   
   122. D(H   4,C   3,C   1,H   2)    177.20 -0.000043    0.03    177.23   
   123. D(C   5,C   3,C   1,O   0)    173.55 -0.000000    0.01    173.56   
   124. D(C   7,C   5,C   3,O  17)     55.33  0.000033   -0.02     55.31   
   125. D(C   7,C   5,C   3,C   1)    176.16  0.000016   -0.01    176.14   
   126. D(C   7,C   5,C   3,H   4)    -65.00  0.000009   -0.01    -65.02   
   127. D(H   6,C   5,C   3,O  17)    -62.47 -0.000007    0.00    -62.46   
   128. D(H   6,C   5,C   3,H   4)    177.20 -0.000030    0.01    177.21   
   129. D(H   6,C   5,C   3,C   1)     58.36 -0.000023    0.01     58.37   
   130. D(H  27,C   7,C   5,H   6)    -54.49  0.000022   -0.02    -54.51   
   131. D(H  27,C   7,C   5,O  18)     67.41 -0.000016   -0.00     67.41   
   132. D(H  27,C   7,C   5,C   3)   -171.89 -0.000033    0.01   -171.88   
   133. D(O   8,C   7,C   5,H   6)     63.07  0.000038   -0.03     63.03   
   134. D(O   8,C   7,C   5,C   3)    -54.33 -0.000017   -0.00    -54.34   
   135. D(O   8,C   7,C   5,O  18)   -175.03  0.000000   -0.02   -175.05   
   136. D(C   9,O   8,C   7,H  28)    -62.50 -0.000047    0.05    -62.45   
   137. D(C   9,O   8,C   7,H  27)    178.44 -0.000003    0.03    178.47   
   138. D(C   9,O   8,C   7,C   5)     57.72  0.000020    0.02     57.74   
   139. D(O  17,C   9,O   8,C   7)    -59.86 -0.000023   -0.03    -59.89   
   140. D(C  11,C   9,O   8,C   7)   -179.26  0.000097   -0.09   -179.35   
   141. D(H  10,C   9,O   8,C   7)     59.50 -0.000001   -0.05     59.45   
   142. D(C  12,C  11,C   9,O  17)    104.08 -0.000008    0.28    104.37   
   143. D(C  12,C  11,C   9,H  10)    -14.06  0.000002    0.27    -13.79   
   144. D(C  12,C  11,C   9,O   8)   -134.08 -0.000072    0.32   -133.76   
   145. D(C  16,C  11,C   9,O   8)     47.25 -0.000062    0.27     47.52   
   146. D(C  16,C  11,C   9,H  10)    167.27  0.000013    0.22    167.49   
   147. D(H  29,C  12,C  11,C  16)    179.90 -0.000004    0.02    179.92   
   148. D(H  29,C  12,C  11,C   9)      1.23  0.000007   -0.02      1.20   
   149. D(C  13,C  12,C  11,C  16)     -0.08 -0.000001    0.01     -0.07   
   150. D(C  13,C  12,C  11,C   9)   -178.75  0.000010   -0.04   -178.79   
   151. D(H  30,C  13,C  12,H  29)     -0.06 -0.000004    0.00     -0.06   
   152. D(H  30,C  13,C  12,C  11)    179.92 -0.000007    0.02    179.94   
   153. D(C  14,C  13,C  12,H  29)    179.91 -0.000008    0.01    179.92   
   154. D(C  14,C  13,C  12,C  11)     -0.10 -0.000011    0.02     -0.08   
   155. D(H  31,C  14,C  13,H  30)      0.10  0.000007   -0.02      0.08   
   156. D(C  15,C  14,C  13,C  12)      0.11  0.000017   -0.04      0.07   
   157. D(H  31,C  14,C  13,C  12)   -179.88  0.000011   -0.03   -179.91   
   158. D(C  15,C  14,C  13,H  30)   -179.91  0.000013   -0.04   -179.95   
   159. D(H  32,C  15,C  14,H  31)     -0.02 -0.000002    0.01     -0.01   
   160. D(H  32,C  15,C  14,C  13)    179.99 -0.000008    0.02    180.02   
   161. D(C  16,C  15,C  14,H  31)   -179.94 -0.000006    0.02   -179.93   
   162. D(C  16,C  15,C  14,C  13)      0.07 -0.000012    0.03      0.10   
   163. D(H  33,C  16,C  15,H  32)      0.36  0.000005   -0.01      0.34   
   164. D(C  11,C  16,C  15,H  32)    179.82 -0.000004    0.01    179.83   
   165. D(C  11,C  16,C  15,C  14)     -0.25 -0.000000    0.00     -0.25   
   166. D(H  33,C  16,C  11,C  12)    179.73 -0.000001    0.00    179.73   
   167. D(H  33,C  16,C  11,C   9)     -1.58 -0.000011    0.05     -1.54   
   168. D(H  33,C  16,C  15,C  14)   -179.72  0.000009   -0.02   -179.74   
   169. D(C  15,C  16,C  11,C  12)      0.26  0.000006   -0.02      0.24   
   170. D(C  15,C  16,C  11,C   9)    178.95 -0.000003    0.02    178.97   
   171. D(C   3,O  17,C   9,C  11)    179.58 -0.000006    0.01    179.59   
   172. D(C   3,O  17,C   9,H  10)    -60.49  0.000008    0.02    -60.47   
   173. D(C   3,O  17,C   9,O   8)     59.36  0.000024   -0.01     59.34   
   174. D(C   9,O  17,C   3,C   5)    -58.03 -0.000029    0.04    -57.99   
   175. D(C   9,O  17,C   3,H   4)     61.60 -0.000013    0.04     61.64   
   176. D(C   9,O  17,C   3,C   1)   -178.23  0.000043    0.01   -178.22   
   177. D(C  19,O  18,C   5,C   3)     63.42  0.000051   -0.05     63.37   
   178. D(C  19,O  18,C   5,C   7)   -177.54  0.000021   -0.03   -177.56   
   179. D(C  19,O  18,C   5,H   6)    -56.44 -0.000008   -0.02    -56.46   
   180. D(C  23,C  19,O  18,C   5)    -56.04 -0.000024    0.04    -56.00   
   181. D(O  21,C  19,O  18,C   5)   -175.11 -0.000015    0.02   -175.09   
   182. D(H  20,C  19,O  18,C   5)     63.91  0.000047    0.02     63.93   
   183. D(C  22,O  21,C  19,C  23)    166.77  0.000023    0.02    166.79   
   184. D(C  22,O  21,C  19,H  20)     48.60 -0.000043    0.05     48.64   
   185. D(C  22,O  21,C  19,O  18)    -70.85  0.000011    0.03    -70.82   
   186. D(H  36,C  22,O  21,C  19)    -60.33 -0.000004   -0.01    -60.35   
   187. D(H  35,C  22,O  21,C  19)     61.42  0.000020   -0.01     61.41   
   188. D(H  34,C  22,O  21,C  19)   -179.25 -0.000015   -0.00   -179.25   
   189. D(H  24,C  23,C  19,O  21)     48.33 -0.000024   -0.00     48.33   
   190. D(H  24,C  23,C  19,H  20)    168.50 -0.000005   -0.03    168.47   
   191. D(H  24,C  23,C  19,O  18)    -71.17  0.000036   -0.02    -71.19   
   192. D(C   1,C  23,C  19,O  21)    167.67 -0.000012    0.00    167.67   
   193. D(C   1,C  23,C  19,H  20)    -72.16  0.000007   -0.02    -72.19   
   194. D(C   1,C  23,C  19,O  18)     48.16  0.000048   -0.02     48.14   
   195. D(H  24,C  23,C   1,C   3)     70.89  0.000027   -0.02     70.86   
   196. D(H  24,C  23,C   1,H   2)   -170.67  0.000048   -0.03   -170.70   
   197. D(H  24,C  23,C   1,O   0)    -51.41  0.000044   -0.02    -51.43   
   198. D(C  19,C  23,C   1,C   3)    -47.95 -0.000033   -0.00    -47.95   
   199. D(C  19,C  23,C   1,H   2)     70.49 -0.000012   -0.01     70.49   
   200. D(C  19,C  23,C   1,O   0)   -170.24 -0.000016   -0.00   -170.24   
   201. D(H  37,O  25,C  23,H  24)     60.69 -0.000082    0.25     60.94   
   202. D(H  37,O  25,C  23,C  19)    177.81 -0.000021    0.22    178.03   
   203. D(H  37,O  25,C  23,C   1)    -59.80 -0.000059    0.23    -59.56   
    ----------------------------------------------------------------------------

Geometry step timings:
Preparation and reading OPT file:      0.001 s ( 6.304 %)
Internal coordinates            :      0.000 s ( 0.155 %)
B/P matrices and projection     :      0.003 s (16.357 %)
Hessian update/contruction      :      0.009 s (49.427 %)
Making the step                 :      0.002 s (11.463 %)
Converting the step to Cartesian:      0.000 s ( 1.421 %)
Storing new data                :      0.001 s ( 5.468 %)
Checking convergence            :      0.000 s ( 0.143 %)
Final printing                  :      0.002 s ( 9.245 %)
Total time                      :      0.017 s

Time for energy+gradient        :      0.069 s
Time for complete geometry iter :      0.098 s

         *************************************************************
         *                GEOMETRY OPTIMIZATION CYCLE  11            *
         *************************************************************
---------------------------------
CARTESIAN COORDINATES (ANGSTROEM)
---------------------------------
  O    -2.767279    2.932717    0.151849
  C    -1.368741    2.796101    0.131771
  H    -0.978731    2.726807    1.160321
  C    -0.913597    1.563276   -0.644549
  H    -1.340699    1.598162   -1.662253
  C     0.615869    1.578287   -0.753930
  H     1.038379    1.594330    0.265329
  C     1.040966    0.282385   -1.450998
  O     0.498738   -0.819090   -0.754506
  C    -0.900973   -0.770378   -0.661046
  H    -1.329579   -0.755924   -1.687667
  C    -1.390671   -1.971560    0.108394
  C    -2.463354   -2.719160   -0.355879
  C    -2.919151   -3.804912    0.372885
  C    -2.305044   -4.148519    1.565538
  C    -1.233683   -3.403067    2.030215
  C    -0.778359   -2.315656    1.305824
  O    -1.343890    0.389767    0.015226
  O     1.040586    2.702188   -1.478234
  C     0.711978    3.923393   -0.833252
  H     1.260569    3.976633    0.131907
  O     1.066624    4.962952   -1.665775
  C     2.467362    5.157324   -1.800061
  C    -0.793078    4.058321   -0.535012
  H    -1.309986    4.214400   -1.492927
  O    -0.944425    5.171494    0.302405
  H    -3.146162    2.112231    0.493571
  H     2.123559    0.155078   -1.437919
  H     0.686156    0.301697   -2.491765
  H    -2.942325   -2.452552   -1.286884
  H    -3.755036   -4.382940    0.007761
  H    -2.660820   -4.996542    2.131928
  H    -0.752371   -3.668570    2.959821
  H     0.057021   -1.729445    1.653690
  H     2.582501    6.008241   -2.466817
  H     2.942620    4.273413   -2.231386
  H     2.918002    5.380291   -0.827090
  H    -1.889646    5.287800    0.473311

----------------------------
CARTESIAN COORDINATES (A.U.)
----------------------------
  NO LB    ZA    FRAG    MASS        X           Y           Z
   0 O   8.0000    1    15.999   -5.229399    5.542031    0.286954
   1 C   6.0000    1    12.011   -2.586546    5.283866    0.249011
   2 H   1.0000    1     1.008   -1.849533    5.152918    2.192689
   3 C   6.0000    1    12.011   -1.726447    2.954163   -1.218021
   4 H   1.0000    1     1.008   -2.533554    3.020088   -3.141202
   5 C   6.0000    1    12.011    1.163824    2.982531   -1.424721
   6 H   1.0000    1     1.008    1.962253    3.012847    0.501399
   7 C   6.0000    1    12.011    1.967140    0.533631   -2.741989
   8 O   8.0000    1    15.999    0.942479   -1.547856   -1.425810
   9 C   6.0000    1    12.011   -1.702592   -1.455803   -1.249196
  10 H   1.0000    1     1.008   -2.512540   -1.428490   -3.189228
  11 C   6.0000    1    12.011   -2.627988   -3.725708    0.204835
  12 C   6.0000    1    12.011   -4.655065   -5.138468   -0.672514
  13 C   6.0000    1    12.011   -5.516396   -7.190242    0.704651
  14 C   6.0000    1    12.011   -4.355903   -7.839565    2.958439
  15 C   6.0000    1    12.011   -2.331324   -6.430866    3.836550
  16 C   6.0000    1    12.011   -1.470886   -4.375955    2.467650
  17 O   8.0000    1    15.999   -2.539584    0.736553    0.028774
  18 O   8.0000    1    15.999    1.966423    5.106395   -2.793457
  19 C   6.0000    1    12.011    1.345444    7.414139   -1.574618
  20 H   1.0000    1     1.008    2.382130    7.514747    0.249268
  21 O   8.0000    1    15.999    2.015628    9.378620   -3.147859
  22 C   6.0000    1    12.011    4.662638    9.745929   -3.401623
  23 C   6.0000    1    12.011   -1.498700    7.669116   -1.011026
  24 H   1.0000    1     1.008   -2.475515    7.964061   -2.821224
  25 O   8.0000    1    15.999   -1.784704    9.772707    0.571463
  26 H   1.0000    1     1.008   -5.945385    3.991538    0.932714
  27 H   1.0000    1     1.008    4.012945    0.293055   -2.717274
  28 H   1.0000    1     1.008    1.296647    0.570124   -4.708754
  29 H   1.0000    1     1.008   -5.560189   -4.634651   -2.431858
  30 H   1.0000    1     1.008   -7.095989   -8.282556    0.014667
  31 H   1.0000    1     1.008   -5.028222   -9.442095    4.028759
  32 H   1.0000    1     1.008   -1.421776   -6.932593    5.593251
  33 H   1.0000    1     1.008    0.107754   -3.268178    3.125022
  34 H   1.0000    1     1.008    4.880220   11.353929   -4.661608
  35 H   1.0000    1     1.008    5.560745    8.075580   -4.216708
  36 H   1.0000    1     1.008    5.514224   10.167276   -1.562973
  37 H   1.0000    1     1.008   -3.570913    9.992494    0.894429

      -----------------------------------------------------------      
     |                   =====================                   |     
     |                           x T B                           |     
     |                   =====================                   |     
     |                         S. Grimme                         |     
     |          Mulliken Center for Theoretical Chemistry        |     
     |                    University of Bonn                     |     
      -----------------------------------------------------------      

   * xtb version 6.7.1 (edcfbbe) compiled by 'albert@albert-system' on 2024-07-22

   xtb is free software: you can redistribute it and/or modify it under
   the terms of the GNU Lesser General Public License as published by
   the Free Software Foundation, either version 3 of the License, or
   (at your option) any later version.
   
   xtb is distributed in the hope that it will be useful,
   but WITHOUT ANY WARRANTY; without even the implied warranty of
   MERCHANTABILITY or FITNESS FOR A PARTICULAR PURPOSE.  See the
   GNU Lesser General Public License for more details.
   
   Cite this work as:
   * C. Bannwarth, E. Caldeweyher, S. Ehlert, A. Hansen, P. Pracht,
     J. Seibert, S. Spicher, S. Grimme, WIREs Comput. Mol. Sci., 2020, 11,
     e01493. DOI: 10.1002/wcms.1493
   
   for GFN2-xTB:
   * C. Bannwarth, S. Ehlert and S. Grimme., J. Chem. Theory Comput., 2019,
     15, 1652-1671. DOI: 10.1021/acs.jctc.8b01176
   for GFN1-xTB:
   * S. Grimme, C. Bannwarth, P. Shushkov, J. Chem. Theory Comput., 2017,
     13, 1989-2009. DOI: 10.1021/acs.jctc.7b00118
   for GFN0-xTB:
   * P. Pracht, E. Caldeweyher, S. Ehlert, S. Grimme, ChemRxiv, 2019, preprint.
     DOI: 10.26434/chemrxiv.8326202.v1
   for GFN-FF:
   * S. Spicher and S. Grimme, Angew. Chem. Int. Ed., 2020, 59, 15665-15673.
     DOI: 10.1002/anie.202004239
   
   for ALPB and GBSA implicit solvation:
   * S. Ehlert, M. Stahn, S. Spicher, S. Grimme, J. Chem. Theory Comput.,
     2021, 17, 4250-4261. DOI: 10.1021/acs.jctc.1c00471
   
   for ddCOSMO and CPCM-X implicit solvation:
   * M. Stahn, S. Ehlert, S. Grimme, J. Phys. Chem. A,
     2023, XX, XXXX-XXXX. DOI: 10.1021/acs.jpca.3c04382
   
   for DFT-D4:
   * E. Caldeweyher, C. Bannwarth and S. Grimme, J. Chem. Phys., 2017,
     147, 034112. DOI: 10.1063/1.4993215
   * E. Caldeweyher, S. Ehlert, A. Hansen, H. Neugebauer, S. Spicher,
     C. Bannwarth and S. Grimme, J. Chem. Phys., 2019, 150, 154122.
     DOI: 10.1063/1.5090222
   * E. Caldeweyher, J.-M. Mewes, S. Ehlert and S. Grimme, Phys. Chem. Chem. Phys.
     2020, 22, 8499-8512. DOI: 10.1039/D0CP00502A
   
   for sTDA-xTB:
   * S. Grimme and C. Bannwarth, J. Chem. Phys., 2016, 145, 054103.
     DOI: 10.1063/1.4959605
   
   in the mass-spec context:
   * V. Asgeirsson, C. Bauer and S. Grimme, Chem. Sci., 2017, 8, 4879.
     DOI: 10.1039/c7sc00601b
   * J. Koopman and S. Grimme, ACS Omega 2019, 4, 12, 15120-15133.
     DOI: 10.1021/acsomega.9b02011
   
   for metadynamics refer to:
   * S. Grimme, J. Chem. Theory Comput., 2019, 155, 2847-2862
     DOI: 10.1021/acs.jctc.9b00143
   
   for SPH calculations refer to:
   * S. Spicher and S. Grimme, J. Chem. Theory Comput., 2021, 17, 1701-1714
     DOI: 10.1021/acs.jctc.0c01306
   
   for ONIOM refer to:
   * C. Plett, A. Katbashev, S. Ehlert, S. Grimme, M. Bursch,
     Phys. Chem. Chem. Phys., 2023, 25, 17860-17868. DOI: 10.1039/D3CP02178E
   
   for DIPRO refer to:
   * J. Kohn, N. Gildemeister, S. Grimme, D. Fazzi, A. Hansen,
     J. Chem. Phys., 2023, just accepted.
   
   for PTB refer to:
   * S. Grimme, M. Mueller, A. Hansen, J. Chem. Phys., 2023, 158, 124111.
     DOI: 10.1063/5.0137838
   
   with help from (in alphabetical order)
   P. Atkinson, C. Bannwarth, F. Bohle, G. Brandenburg, E. Caldeweyher
   M. Checinski, S. Dohm, S. Ehlert, S. Ehrlich, I. Gerasimov, C. Hölzer
   A. Katbashev, J. Kohn, J. Koopman, C. Lavigne, S. Lehtola, F. März, M. Müller,
   F. Musil, H. Neugebauer, J. Pisarek, C. Plett, P. Pracht, F. Pultar,
   J. Seibert, P. Shushkov, S. Spicher, M. Stahn, M. Steiner, T. Strunk,
   J. Stückrath, T. Rose, and J. Unsleber
   
 * started run on 2025/10/31 at 09:56:12.747     
   ID    Z sym.   atoms
    1    8 O      1, 9, 18, 19, 22, 26
    2    6 C      2, 4, 6, 8, 10, 12-17, 20, 23, 24
    3    1 H      3, 5, 7, 11, 21, 25, 27-38

           -------------------------------------------------
          |                Calculation Setup                |
           -------------------------------------------------

          program call               : /home/kmoult/orca_6_1/otool_xtb goat_0_XTB.xyz --grad -c 0 -u 0 -P 4 --namespace goat_0 --input goat_0_XTB.input.tmp --alpb ACETONE --acc 0.200000
          hostname                   : node3103
          calculation namespace      : goat_0
          coordinate file            : goat_0_XTB.xyz
          omp threads                :                     4


           -------------------------------------------------
          |                 G F N 2 - x T B                 |
           -------------------------------------------------

        Reference                      10.1021/acs.jctc.8b01176
      * Hamiltonian:
        H0-scaling (s, p, d)           1.850000    2.230000    2.230000
        zeta-weighting                 0.500000
      * Dispersion:
        s8                             2.700000
        a1                             0.520000
        a2                             5.000000
        s9                             5.000000
      * Repulsion:
        kExp                           1.500000    1.000000
        rExp                           1.000000
      * Coulomb:
        alpha                          2.000000
        third order                    shell-resolved
        anisotropic                    true
        a3                             3.000000
        a5                             4.000000
        cn-shift                       1.200000
        cn-exp                         4.000000
        max-rad                        5.000000

      * Solvation model:               ALPB
        Solvent                        ACETONE
        Parameter file                 internal GFN2-xTB/ALPB
        Dielectric constant                2.0700E+01
        Reference state                gsolv [1 M gas/solution]
        Free energy shift                  5.9241E-03 Eh       3.7175E+00 kcal/mol
        Temperature                        2.9815E+02 K
        Density                            7.9000E-01 kg/L
        Solvent mass                       5.8080E+01 g/mol
        Interaction kernel             P16
        Born radius scaling (c1)           1.8274E+00
        Born radii integrator          GBOBC
        Born offset                        0.0000E+00 a0       0.0000E+00 AA
        H-bond correction              true
        Ion screening                  false
        Surface tension                    1.0000E-05 Eh       1.5569E+01 dyn/cm
        Grid points                               230 per atom
q/qsh data taken from xtbrestart
CAMM data taken from xtbrestart

          ...................................................
          :                      SETUP                      :
          :.................................................:
          :  # basis functions                  98          :
          :  # atomic orbitals                  98          :
          :  # shells                           58          :
          :  # electrons                       110          :
          :  max. iterations                   250          :
          :  Hamiltonian                  GFN2-xTB          :
          :  restarted?                       true          :
          :  GBSA solvation                   true          :
          :  PC potential                    false          :
          :  electronic temp.          300.0000000     K    :
          :  accuracy                    0.2000000          :
          :  -> integral cutoff          0.3198970E+02      :
          :  -> integral neglect         0.2000000E-08      :
          :  -> SCF convergence          0.2000000E-06 Eh   :
          :  -> wf. convergence          0.2000000E-04 e    :
          :  Broyden damping             0.4000000          :
          :  net charge                          0          :
          :  unpaired electrons                  0          :
          ...................................................

 iter      E             dE          RMSdq      gap      omega  full diag
   1    -64.2448669 -0.642449E+02  0.187E-02    4.74       0.0  T
   2    -64.2448669 -0.194126E-07  0.110E-02    4.74       1.5  T
   3    -64.2448669 -0.309238E-08  0.427E-04    4.74      38.0  T
   4    -64.2448669 -0.416773E-08  0.199E-04    4.74      81.7  T
   5    -64.2448669 -0.616609E-10  0.104E-04    4.74     156.7  T

   *** convergence criteria satisfied after 5 iterations ***

         #    Occupation            Energy/Eh            Energy/eV
      -------------------------------------------------------------
         1        2.0000           -0.7319788             -19.9182
       ...           ...                  ...                  ...
        49        2.0000           -0.4287215             -11.6661
        50        2.0000           -0.4253478             -11.5743
        51        2.0000           -0.4220725             -11.4852
        52        2.0000           -0.4182833             -11.3821
        53        2.0000           -0.4116697             -11.2021
        54        2.0000           -0.4108342             -11.1794
        55        2.0000           -0.4085735             -11.1179 (HOMO)
        56                         -0.2344437              -6.3795 (LUMO)
        57                         -0.2291132              -6.2345
        58                         -0.1046360              -2.8473
        59                         -0.0372094              -1.0125
        60                         -0.0070933              -0.1930
       ...                                ...                  ...
        98                          0.6581953              17.9104
      -------------------------------------------------------------
                  HL-Gap            0.1741298 Eh            4.7383 eV
             Fermi-level           -0.3215086 Eh           -8.7487 eV

 SCC (total)                   0 d,  0 h,  0 min,  0.017 sec
 SCC setup                      ...        0 min,  0.000 sec (  2.547%)
 Dispersion                     ...        0 min,  0.000 sec (  1.331%)
 classical contributions        ...        0 min,  0.000 sec (  0.168%)
 integral evaluation            ...        0 min,  0.002 sec ( 11.992%)
 iterations                     ...        0 min,  0.008 sec ( 48.459%)
 molecular gradient             ...        0 min,  0.006 sec ( 34.733%)
 printout                       ...        0 min,  0.000 sec (  0.680%)

         :::::::::::::::::::::::::::::::::::::::::::::::::::::
         ::                     SUMMARY                     ::
         :::::::::::::::::::::::::::::::::::::::::::::::::::::
         :: total energy             -63.588620118566 Eh    ::
         :: total w/o Gsasa/hb       -63.559497800274 Eh    ::
         :: gradient norm              0.000607287492 Eh/a0 ::
         :: HOMO-LUMO gap              4.738313864199 eV    ::
         ::.................................................::
         :: SCC energy               -64.244747923698 Eh    ::
         :: -> isotropic ES            0.130058041615 Eh    ::
         :: -> anisotropic ES         -0.006286986363 Eh    ::
         :: -> anisotropic XC          0.001018712177 Eh    ::
         :: -> dispersion             -0.036421233279 Eh    ::
         :: -> Gsolv                  -0.032472372750 Eh    ::
         ::    -> Gelec               -0.003350054458 Eh    ::
         ::    -> Gsasa               -0.028303399246 Eh    ::
         ::    -> Ghb                 -0.006743060310 Eh    ::
         ::    -> Gshift               0.005924141264 Eh    ::
         :: repulsion energy           0.656127805132 Eh    ::
         :: add. restraining           0.000000000000 Eh    ::
         :: total charge               0.000000000000 e     ::
         :::::::::::::::::::::::::::::::::::::::::::::::::::::


Property printout bound to 'properties.out'

           -------------------------------------------------
          | TOTAL ENERGY              -63.588620118566 Eh   |
          | GRADIENT NORM               0.000607287492 Eh/α |
          | HOMO-LUMO GAP               4.738313864199 eV   |
           -------------------------------------------------

------------------------------------------------------------------------
 * finished run on 2025/10/31 at 09:56:12.787     
------------------------------------------------------------------------
 total:
 * wall-time:     0 d,  0 h,  0 min,  0.039 sec
 *  cpu-time:     0 d,  0 h,  0 min,  0.136 sec
 * ratio c/w:     3.432 speedup
 SCF:
 * wall-time:     0 d,  0 h,  0 min,  0.018 sec
 *  cpu-time:     0 d,  0 h,  0 min,  0.070 sec
 * ratio c/w:     3.970 speedup


-------------------------   --------------------
FINAL SINGLE POINT ENERGY       -63.588620118570
-------------------------   --------------------


-------------
DIPOLE MOMENT
-------------
                                X             Y             Z
Total Dipole Moment    :     -0.23100      -1.02900       0.26500
                        -----------------------------------------
Magnitude (a.u.)       :      1.08739
Magnitude (Debye)      :      2.76394


------------------
CARTESIAN GRADIENT
------------------

   1   O   :   -0.000148095   -0.000022156   -0.000089245
   2   C   :    0.000152016    0.000016764    0.000072380
   3   H   :   -0.000045374   -0.000035946   -0.000012962
   4   C   :   -0.000030427    0.000010682   -0.000039657
   5   H   :   -0.000019809    0.000010853    0.000021457
   6   C   :   -0.000071397   -0.000099325    0.000119990
   7   H   :    0.000015988    0.000025412   -0.000024148
   8   C   :   -0.000012521   -0.000071600    0.000064289
   9   O   :   -0.000121321    0.000124423   -0.000043947
  10   C   :    0.000125611   -0.000059168    0.000001401
  11   H   :    0.000012022    0.000038371   -0.000031131
  12   C   :   -0.000006525   -0.000002322    0.000043541
  13   C   :    0.000015088   -0.000008252    0.000099632
  14   C   :    0.000002672    0.000027617   -0.000027065
  15   C   :   -0.000006179    0.000013416   -0.000025191
  16   C   :    0.000051160    0.000054279   -0.000010526
  17   C   :   -0.000063583   -0.000111772    0.000023136
  18   O   :    0.000058775   -0.000071498   -0.000021560
  19   O   :    0.000020644    0.000089868   -0.000070851
  20   C   :   -0.000170091    0.000029665    0.000061679
  21   H   :    0.000053905    0.000019470   -0.000009828
  22   O   :    0.000034862   -0.000070833    0.000040504
  23   C   :    0.000025228   -0.000000822    0.000023076
  24   C   :    0.000096954   -0.000084341   -0.000178463
  25   H   :   -0.000050631   -0.000008783    0.000069594
  26   O   :    0.000001419   -0.000002839    0.000119851
  27   H   :    0.000041713    0.000057539    0.000049990
  28   H   :    0.000002135    0.000017594   -0.000031914
  29   H   :    0.000021425   -0.000026211   -0.000033496
  30   H   :    0.000014068    0.000010245    0.000000995
  31   H   :    0.000004650    0.000006265    0.000027716
  32   H   :    0.000015281    0.000006131   -0.000009326
  33   H   :   -0.000011718   -0.000006204   -0.000012219
  34   H   :   -0.000005502    0.000030205   -0.000058140
  35   H   :    0.000019492   -0.000011239   -0.000004121
  36   H   :   -0.000040638    0.000005580   -0.000044117
  37   H   :   -0.000024588    0.000035697   -0.000005510
  38   H   :    0.000043292    0.000063236   -0.000055814

Difference to translation invariance:
           :   -0.0000000000   -0.0000000000    0.0000000000

Difference to rotation invariance:
           :   -0.0001177349    0.0006602420    0.0001858836

Norm of the Cartesian gradient     ...    0.0006072875
RMS gradient                       ...    0.0000568777
MAX gradient                       ...    0.0001784633
------------------------------------------------------------------------------
                         ORCA GEOMETRY RELAXATION STEP
------------------------------------------------------------------------------

Reading the OPT-File                    .... done
Getting information on internals        .... done
Copying old internal coords+grads       .... done
Making the new internal coordinates     .... (2022 redundants) done
Validating the new internal coordinates .... (2022 redundants) done
Calculating the B-matrix                .... done
Calculating the G,G- and P matrices     .... done
Transforming gradient to internals      .... done
Projecting the internal gradient        .... done
Number of atoms                         ....  38
Number of internal coordinates          .... 203
Current Energy                          ....   -63.588620119 Eh
Current gradient norm                   ....     0.000607287 Eh/bohr
Maximum allowed component of the step   ....  0.300
Current trust radius                    ....  0.675
Updating the Hessian (BFGS)             .... done
Forming the augmented Hessian           .... done
Diagonalizing the augmented Hessian     .... done
Last element of RFO vector              ....  0.999178789
Lowest eigenvalues of augmented Hessian:
 -0.000005293  0.001061921  0.005101961  0.015150073  0.016277854
Length of the computed step             ....  0.040551780
The final length of the internal step   ....  0.040551780
Converting the step to Cartesian space:
 Initial RMS(Int)=    0.0028461770
Transforming coordinates:
 Iter   0:  RMS(Cart)=    0.0134914382 RMS(Int)=    0.4409329654
done
Storing new coordinates                 .... done
The predicted energy change is          ....    -0.000002651
Previously predicted energy change      ....    -0.000001807
Actually observed energy change         ....    -0.000002896
Ratio of predicted to observed change   ....     1.602723007
New trust radius                        ....     0.450000000

                                .--------------------.
          ----------------------|Geometry convergence|-------------------------
          Item                value                   Tolerance       Converged
          ---------------------------------------------------------------------
          Energy change      -0.0000028959            0.0000050000      YES
          RMS gradient        0.0000293614            0.0001000000      YES
          MAX gradient        0.0001204908            0.0003000000      YES
          RMS step            0.0028461770            0.0020000000      NO
          MAX step            0.0171888266            0.0040000000      NO
          -------------------------------------------------------------------------
          ........................................................
          Max(Bonds)      0.0038      Max(Angles)    0.10
          Max(Dihed)        0.98      Max(Improp)    0.00
          ---------------------------------------------------------------------

    ---------------------------------------------------------------------------
                         Redundant Internal Coordinates
                            (Angstroem and degrees)

        Definition                    Value    dE/dq     Step     New-Value
    ----------------------------------------------------------------------------
     1. B(C   1,O   0)                1.4053  0.000069 -0.0001    1.4052   
     2. B(H   2,C   1)                1.1022 -0.000029  0.0001    1.1023   
     3. B(C   3,C   1)                1.5263 -0.000013 -0.0002    1.5261   
     4. B(H   4,C   3)                1.1042 -0.000011  0.0001    1.1043   
     5. B(C   5,C   3)                1.5334 -0.000014  0.0001    1.5335   
     6. B(H   6,C   5)                1.1035 -0.000013  0.0001    1.1036   
     7. B(C   7,C   5)                1.5317  0.000024  0.0000    1.5317   
     8. B(O   8,C   7)                1.4115 -0.000088  0.0002    1.4117   
     9. B(C   9,O   8)                1.4037 -0.000120  0.0003    1.4040   
    10. B(H  10,C   9)                1.1126  0.000024  0.0002    1.1128   
    11. B(C  11,C   9)                1.5082  0.000006 -0.0000    1.5082   
    12. B(C  12,C  11)                1.3875 -0.000071  0.0001    1.3876   
    13. B(C  13,C  12)                1.3848 -0.000052  0.0001    1.3849   
    14. B(C  14,C  13)                1.3848 -0.000028  0.0001    1.3848   
    15. B(C  15,C  14)                1.3854 -0.000007  0.0000    1.3854   
    16. B(C  16,C  15)                1.3837 -0.000077  0.0002    1.3838   
    17. B(C  16,C  11)                1.3882 -0.000068  0.0000    1.3883   
    18. B(O  17,C   9)                1.4140 -0.000042 -0.0004    1.4136   
    19. B(O  17,C   3)                1.4134 -0.000012  0.0001    1.4135   
    20. B(O  18,C   5)                1.4029  0.000074 -0.0001    1.4028   
    21. B(C  19,O  18)                1.4196 -0.000014 -0.0003    1.4194   
    22. B(H  20,C  19)                1.1114  0.000020  0.0002    1.1116   
    23. B(O  21,C  19)                1.3782 -0.000045  0.0000    1.3783   
    24. B(C  22,O  21)                1.4205 -0.000005 -0.0002    1.4203   
    25. B(C  23,C  19)                1.5402 -0.000104  0.0003    1.5406   
    26. B(C  23,C   1)                1.5392 -0.000031 -0.0000    1.5392   
    27. B(H  24,C  23)                1.0996 -0.000036  0.0001    1.0997   
    28. B(O  25,C  23)                1.4012  0.000045  0.0000    1.4012   
    29. B(H  26,O   0)                0.9662 -0.000039  0.0001    0.9663   
    30. B(H  26,O  17)                2.5385  0.000042 -0.0038    2.5346   
    31. B(H  27,C   7)                1.0901  0.000003 -0.0001    1.0901   
    32. B(H  28,C   7)                1.0998  0.000020 -0.0000    1.0997   
    33. B(H  29,C  12)                1.0804 -0.000003 -0.0000    1.0804   
    34. B(H  30,C  13)                1.0799 -0.000015  0.0000    1.0799   
    35. B(H  31,C  14)                1.0801 -0.000015  0.0000    1.0801   
    36. B(H  32,C  15)                1.0800 -0.000016  0.0000    1.0800   
    37. B(H  33,C  16)                1.0782 -0.000008  0.0000    1.0782   
    38. B(H  34,C  22)                1.0871 -0.000007  0.0000    1.0872   
    39. B(H  35,C  22)                1.0923 -0.000005  0.0000    1.0924   
    40. B(H  36,C  22)                1.0952 -0.000003  0.0001    1.0953   
    41. B(H  37,O   0)                2.5338  0.000041 -0.0036    2.5302   
    42. B(H  37,O  25)                0.9676 -0.000034  0.0001    0.9677   
    43. A(C   1,O   0,H  26)          108.22 -0.000103   -0.02    108.21   
    44. A(O   0,C   1,H   2)          110.18  0.000001    0.02    110.20   
    45. A(H   2,C   1,C   3)          108.56 -0.000007    0.01    108.58   
    46. A(H   2,C   1,C  23)          108.87  0.000021   -0.04    108.83   
    47. A(O   0,C   1,C   3)          112.49 -0.000005    0.01    112.50   
    48. A(O   0,C   1,C  23)          107.38 -0.000015    0.02    107.40   
    49. A(C   3,C   1,C  23)          109.30  0.000006   -0.02    109.28   
    50. A(H   4,C   3,C   5)          108.65  0.000011   -0.01    108.64   
    51. A(H   4,C   3,O  17)          109.80  0.000035   -0.02    109.77   
    52. A(C   1,C   3,C   5)          109.01 -0.000014    0.02    109.04   
    53. A(C   5,C   3,O  17)          110.19 -0.000054    0.04    110.22   
    54. A(C   1,C   3,H   4)          109.14 -0.000005   -0.01    109.13   
    55. A(C   1,C   3,O  17)          110.02  0.000027   -0.02    110.01   
    56. A(C   7,C   5,O  18)          111.03 -0.000001    0.03    111.06   
    57. A(H   6,C   5,O  18)          110.45 -0.000014    0.02    110.47   
    58. A(C   3,C   5,C   7)          107.52  0.000015    0.00    107.52   
    59. A(H   6,C   5,C   7)          109.05 -0.000000   -0.02    109.03   
    60. A(C   3,C   5,O  18)          110.28 -0.000015   -0.01    110.27   
    61. A(C   3,C   5,H   6)          108.43  0.000016   -0.03    108.40   
    62. A(O   8,C   7,H  27)          106.53  0.000029   -0.01    106.51   
    63. A(C   5,C   7,H  27)          111.65 -0.000000    0.02    111.67   
    64. A(C   5,C   7,O   8)          109.21 -0.000043   -0.02    109.19   
    65. A(O   8,C   7,H  28)          110.90  0.000001   -0.00    110.90   
    66. A(C   5,C   7,H  28)          109.04  0.000043   -0.02    109.02   
    67. A(H  27,C   7,H  28)          109.50 -0.000030    0.03    109.53   
    68. A(C   7,O   8,C   9)          112.88  0.000051   -0.02    112.86   
    69. A(H  10,C   9,O  17)          108.06 -0.000009    0.00    108.06   
    70. A(O   8,C   9,O  17)          111.88  0.000003    0.00    111.88   
    71. A(O   8,C   9,C  11)          109.27  0.000027   -0.04    109.23   
    72. A(O   8,C   9,H  10)          108.85 -0.000009   -0.04    108.82   
    73. A(C  11,C   9,O  17)          107.92 -0.000064    0.10    108.02   
    74. A(H  10,C   9,C  11)          110.86  0.000053   -0.03    110.83   
    75. A(C   9,C  11,C  12)          120.63  0.000024    0.00    120.63   
    76. A(C  12,C  11,C  16)          119.74 -0.000002    0.00    119.74   
    77. A(C   9,C  11,C  16)          119.62 -0.000023   -0.00    119.62   
    78. A(C  11,C  12,H  29)          119.88 -0.000024    0.03    119.90   
    79. A(C  13,C  12,H  29)          120.07  0.000013   -0.02    120.04   
    80. A(C  11,C  12,C  13)          120.05  0.000011   -0.00    120.05   
    81. A(C  14,C  13,H  30)          120.11 -0.000007    0.01    120.12   
    82. A(C  12,C  13,H  30)          119.77  0.000024   -0.02    119.75   
    83. A(C  12,C  13,C  14)          120.12 -0.000017    0.01    120.13   
    84. A(C  13,C  14,H  31)          120.03 -0.000002    0.01    120.03   
    85. A(C  13,C  14,C  15)          119.89  0.000007   -0.01    119.88   
    86. A(C  15,C  14,H  31)          120.09 -0.000004    0.01    120.09   
    87. A(C  16,C  15,H  32)          119.81  0.000028   -0.01    119.80   
    88. A(C  14,C  15,H  32)          120.07 -0.000000    0.00    120.07   
    89. A(C  14,C  15,C  16)          120.12 -0.000028    0.01    120.13   
    90. A(C  11,C  16,C  15)          120.08  0.000029   -0.01    120.07   
    91. A(C  15,C  16,H  33)          120.89  0.000051   -0.04    120.84   
    92. A(C  11,C  16,H  33)          119.03 -0.000079    0.05    119.08   
    93. A(C   3,O  17,C   9)          111.26  0.000016   -0.01    111.25   
    94. A(C   5,O  18,C  19)          112.61 -0.000018    0.06    112.67   
    95. A(O  18,C  19,O  21)          108.35 -0.000027    0.02    108.37   
    96. A(O  21,C  19,C  23)          107.60  0.000017   -0.01    107.59   
    97. A(H  20,C  19,C  23)          108.06  0.000035   -0.04    108.02   
    98. A(O  18,C  19,C  23)          112.92  0.000001    0.02    112.95   
    99. A(H  20,C  19,O  21)          111.19 -0.000030   -0.00    111.18   
   100. A(O  18,C  19,H  20)          108.75  0.000003    0.01    108.77   
   101. A(C  19,O  21,C  22)          114.46  0.000030    0.03    114.49   
   102. A(H  35,C  22,H  36)          109.66  0.000059   -0.05    109.62   
   103. A(H  34,C  22,H  36)          109.99 -0.000015    0.00    109.99   
   104. A(O  21,C  22,H  36)          110.46 -0.000015    0.02    110.48   
   105. A(H  34,C  22,H  35)          110.19 -0.000020    0.01    110.20   
   106. A(O  21,C  22,H  35)          110.83 -0.000044    0.04    110.87   
   107. A(O  21,C  22,H  34)          105.64  0.000033   -0.03    105.61   
   108. A(H  24,C  23,O  25)          110.92  0.000029   -0.02    110.90   
   109. A(C  19,C  23,O  25)          106.91 -0.000048    0.03    106.94   
   110. A(C   1,C  23,O  25)          110.62 -0.000009    0.02    110.64   
   111. A(C  19,C  23,H  24)          107.64  0.000029   -0.05    107.60   
   112. A(C   1,C  23,H  24)          108.54 -0.000019    0.03    108.57   
   113. A(C   1,C  23,C  19)          112.18  0.000021   -0.01    112.17   
   114. A(C  23,O  25,H  37)          107.85 -0.000023   -0.04    107.81   
   115. D(C   3,C   1,O   0,H  26)     54.57  0.000025   -0.27     54.31   
   116. D(C  23,C   1,O   0,H  26)    174.86  0.000020   -0.27    174.59   
   117. D(H   2,C   1,O   0,H  26)    -66.71  0.000037   -0.30    -67.01   
   118. D(C   5,C   3,C   1,C  23)     54.38 -0.000002    0.06     54.44   
   119. D(H   4,C   3,C   1,O   0)     55.03 -0.000023    0.08     55.11   
   120. D(H   4,C   3,C   1,C  23)    -64.14 -0.000005    0.06    -64.08   
   121. D(C   5,C   3,C   1,H   2)    -64.24 -0.000027    0.11    -64.13   
   122. D(H   4,C   3,C   1,H   2)    177.23 -0.000030    0.11    177.34   
   123. D(C   5,C   3,C   1,O   0)    173.56 -0.000020    0.07    173.63   
   124. D(C   7,C   5,C   3,O  17)     55.31  0.000017   -0.04     55.27   
   125. D(C   7,C   5,C   3,C   1)    176.14  0.000007   -0.02    176.12   
   126. D(C   7,C   5,C   3,H   4)    -65.02 -0.000000   -0.03    -65.05   
   127. D(H   6,C   5,C   3,O  17)    -62.46  0.000000   -0.01    -62.47   
   128. D(H   6,C   5,C   3,H   4)    177.21 -0.000017    0.00    177.21   
   129. D(H   6,C   5,C   3,C   1)     58.37 -0.000009    0.01     58.38   
   130. D(H  27,C   7,C   5,H   6)    -54.51  0.000010   -0.02    -54.53   
   131. D(H  27,C   7,C   5,O  18)     67.41 -0.000008    0.02     67.42   
   132. D(H  27,C   7,C   5,C   3)   -171.88 -0.000017    0.02   -171.86   
   133. D(O   8,C   7,C   5,H   6)     63.03  0.000017   -0.04     63.00   
   134. D(O   8,C   7,C   5,C   3)    -54.34 -0.000010    0.01    -54.33   
   135. D(O   8,C   7,C   5,O  18)   -175.05 -0.000000    0.00   -175.05   
   136. D(C   9,O   8,C   7,H  28)    -62.45 -0.000026    0.08    -62.37   
   137. D(C   9,O   8,C   7,H  27)    178.47 -0.000008    0.05    178.52   
   138. D(C   9,O   8,C   7,C   5)     57.74 -0.000000    0.04     57.78   
   139. D(O  17,C   9,O   8,C   7)    -59.89 -0.000007   -0.06    -59.96   
   140. D(C  11,C   9,O   8,C   7)   -179.35  0.000053   -0.16   -179.52   
   141. D(H  10,C   9,O   8,C   7)     59.45 -0.000023   -0.08     59.37   
   142. D(C  12,C  11,C   9,O  17)    104.37 -0.000026    0.94    105.31   
   143. D(C  12,C  11,C   9,H  10)    -13.79 -0.000007    0.89    -12.89   
   144. D(C  12,C  11,C   9,O   8)   -133.76 -0.000046    0.98   -132.77   
   145. D(C  16,C  11,C   9,O   8)     47.52 -0.000042    0.88     48.40   
   146. D(C  16,C  11,C   9,H  10)    167.49 -0.000003    0.79    168.29   
   147. D(H  29,C  12,C  11,C  16)    179.92  0.000000    0.04    179.96   
   148. D(H  29,C  12,C  11,C   9)      1.20  0.000004   -0.07      1.14   
   149. D(C  13,C  12,C  11,C  16)     -0.07  0.000001    0.02     -0.05   
   150. D(C  13,C  12,C  11,C   9)   -178.79  0.000005   -0.08   -178.87   
   151. D(H  30,C  13,C  12,H  29)     -0.06 -0.000004    0.02     -0.04   
   152. D(H  30,C  13,C  12,C  11)    179.94 -0.000005    0.03    179.97   
   153. D(C  14,C  13,C  12,H  29)    179.92 -0.000004    0.02    179.94   
   154. D(C  14,C  13,C  12,C  11)     -0.08 -0.000004    0.03     -0.05   
   155. D(H  31,C  14,C  13,H  30)      0.08  0.000006   -0.05      0.02   
   156. D(C  15,C  14,C  13,C  12)      0.07  0.000005   -0.06      0.01   
   157. D(H  31,C  14,C  13,C  12)   -179.91  0.000005   -0.05   -179.96   
   158. D(C  15,C  14,C  13,H  30)   -179.95  0.000005   -0.06   -180.00   
   159. D(H  32,C  15,C  14,H  31)     -0.01 -0.000003    0.03      0.03   
   160. D(H  32,C  15,C  14,C  13)   -179.98 -0.000002    0.04   -179.94   
   161. D(C  16,C  15,C  14,H  31)   -179.93 -0.000002    0.03   -179.90   
   162. D(C  16,C  15,C  14,C  13)      0.10 -0.000001    0.03      0.13   
   163. D(H  33,C  16,C  15,H  32)      0.34  0.000002   -0.02      0.32   
   164. D(C  11,C  16,C  15,H  32)    179.83 -0.000001    0.02    179.85   
   165. D(C  11,C  16,C  15,C  14)     -0.25 -0.000002    0.02     -0.23   
   166. D(H  33,C  16,C  11,C  12)    179.73  0.000000   -0.01    179.72   
   167. D(H  33,C  16,C  11,C   9)     -1.54 -0.000003    0.09     -1.45   
   168. D(H  33,C  16,C  15,C  14)   -179.74  0.000001   -0.01   -179.75   
   169. D(C  15,C  16,C  11,C  12)      0.24  0.000002   -0.05      0.19   
   170. D(C  15,C  16,C  11,C   9)    178.97 -0.000001    0.05    179.02   
   171. D(C   3,O  17,C   9,C  11)    179.59 -0.000007    0.01    179.60   
   172. D(C   3,O  17,C   9,H  10)    -60.47  0.000015    0.04    -60.44   
   173. D(C   3,O  17,C   9,O   8)     59.34 -0.000000   -0.00     59.34   
   174. D(C   9,O  17,C   3,C   5)    -57.99 -0.000003    0.05    -57.94   
   175. D(C   9,O  17,C   3,H   4)     61.64 -0.000001    0.05     61.69   
   176. D(C   9,O  17,C   3,C   1)   -178.22  0.000032    0.01   -178.21   
   177. D(C  19,O  18,C   5,C   3)     63.37  0.000006   -0.09     63.28   
   178. D(C  19,O  18,C   5,C   7)   -177.56  0.000014   -0.07   -177.63   
   179. D(C  19,O  18,C   5,H   6)    -56.46  0.000004   -0.05    -56.52   
   180. D(C  23,C  19,O  18,C   5)    -56.00 -0.000014    0.08    -55.92   
   181. D(O  21,C  19,O  18,C   5)   -175.09 -0.000019    0.07   -175.02   
   182. D(H  20,C  19,O  18,C   5)     63.93  0.000032    0.06     63.99   
   183. D(C  22,O  21,C  19,C  23)    166.79  0.000012    0.03    166.82   
   184. D(C  22,O  21,C  19,H  20)     48.64 -0.000024    0.09     48.73   
   185. D(C  22,O  21,C  19,O  18)    -70.82  0.000008    0.06    -70.76   
   186. D(H  36,C  22,O  21,C  19)    -60.35 -0.000017    0.00    -60.34   
   187. D(H  35,C  22,O  21,C  19)     61.41  0.000018   -0.01     61.40   
   188. D(H  34,C  22,O  21,C  19)   -179.25 -0.000010    0.01   -179.24   
   189. D(H  24,C  23,C  19,O  21)     48.33 -0.000005   -0.01     48.31   
   190. D(H  24,C  23,C  19,H  20)    168.47 -0.000011   -0.05    168.43   
   191. D(H  24,C  23,C  19,O  18)    -71.19  0.000016   -0.04    -71.24   
   192. D(C   1,C  23,C  19,O  21)    167.67  0.000003   -0.02    167.65   
   193. D(C   1,C  23,C  19,H  20)    -72.19 -0.000004   -0.05    -72.24   
   194. D(C   1,C  23,C  19,O  18)     48.14  0.000024   -0.05     48.10   
   195. D(H  24,C  23,C   1,C   3)     70.86  0.000023   -0.07     70.80   
   196. D(H  24,C  23,C   1,H   2)   -170.70  0.000031   -0.09   -170.79   
   197. D(H  24,C  23,C   1,O   0)    -51.43  0.000035   -0.08    -51.51   
   198. D(C  19,C  23,C   1,C   3)    -47.95 -0.000013   -0.02    -47.97   
   199. D(C  19,C  23,C   1,H   2)     70.49 -0.000006   -0.04     70.44   
   200. D(C  19,C  23,C   1,O   0)   -170.24 -0.000001   -0.03   -170.27   
   201. D(H  37,O  25,C  23,H  24)     60.94 -0.000050    0.43     61.37   
   202. D(H  37,O  25,C  23,C  19)    178.03 -0.000027    0.38    178.41   
   203. D(H  37,O  25,C  23,C   1)    -59.56 -0.000038    0.40    -59.17   
    ----------------------------------------------------------------------------

Geometry step timings:
Preparation and reading OPT file:      0.001 s ( 6.989 %)
Internal coordinates            :      0.000 s ( 0.168 %)
B/P matrices and projection     :      0.003 s (16.078 %)
Hessian update/contruction      :      0.009 s (49.340 %)
Making the step                 :      0.002 s (11.396 %)
Converting the step to Cartesian:      0.000 s ( 1.403 %)
Storing new data                :      0.001 s ( 5.266 %)
Checking convergence            :      0.000 s ( 0.146 %)
Final printing                  :      0.002 s ( 9.207 %)
Total time                      :      0.018 s

Time for energy+gradient        :      0.067 s
Time for complete geometry iter :      0.099 s

         *************************************************************
         *                GEOMETRY OPTIMIZATION CYCLE  12            *
         *************************************************************
---------------------------------
CARTESIAN COORDINATES (ANGSTROEM)
---------------------------------
  O    -2.763080    2.935194    0.162822
  C    -1.364829    2.798030    0.137511
  H    -0.970555    2.729023    1.164532
  C    -0.913016    1.565295   -0.640517
  H    -1.342867    1.601325   -1.657100
  C     0.616237    1.578324   -0.754219
  H     1.041163    1.593150    0.264163
  C     1.037741    0.281902   -1.452528
  O     0.495705   -0.818764   -0.754293
  C    -0.904031   -0.768031   -0.658078
  H    -1.334032   -0.752036   -1.684320
  C    -1.393158   -1.970589    0.109536
  C    -2.454663   -2.728029   -0.364600
  C    -2.909244   -3.816057    0.361680
  C    -2.305608   -4.151852    1.561956
  C    -1.245107   -3.396860    2.036061
  C    -0.790511   -2.307405    1.313967
  O    -1.343915    0.392021    0.019545
  O     1.040081    2.702133   -1.478954
  C     0.713690    3.923800   -0.834302
  H     1.264787    3.977924    0.129590
  O     1.066117    4.962790   -1.668528
  C     2.466169    5.156551   -1.808407
  C    -0.790684    4.059807   -0.531348
  H    -1.309774    4.215880   -1.488236
  O    -0.939516    5.173679    0.305604
  H    -3.141033    2.113081    0.501965
  H     2.120073    0.152705   -1.442315
  H     0.679598    0.301900   -2.492097
  H    -2.926024   -2.467827   -1.301270
  H    -3.736105   -4.401896   -0.011548
  H    -2.661001   -5.001118    2.126787
  H    -0.771413   -3.656406    2.971282
  H     0.036456   -1.714271    1.670146
  H     2.578444    6.007362   -2.475855
  H     2.940130    4.272551   -2.241065
  H     2.921121    5.379685   -0.837416
  H    -1.884015    5.286002    0.483649

----------------------------
CARTESIAN COORDINATES (A.U.)
----------------------------
  NO LB    ZA    FRAG    MASS        X           Y           Z
   0 O   8.0000    1    15.999   -5.221465    5.546712    0.307689
   1 C   6.0000    1    12.011   -2.579153    5.287510    0.259859
   2 H   1.0000    1     1.008   -1.834084    5.157106    2.200647
   3 C   6.0000    1    12.011   -1.725350    2.957979   -1.210402
   4 H   1.0000    1     1.008   -2.537650    3.026066   -3.131466
   5 C   6.0000    1    12.011    1.164519    2.982600   -1.425268
   6 H   1.0000    1     1.008    1.967514    3.010618    0.499196
   7 C   6.0000    1    12.011    1.961047    0.532717   -2.744881
   8 O   8.0000    1    15.999    0.936746   -1.547240   -1.425407
   9 C   6.0000    1    12.011   -1.708372   -1.451369   -1.243588
  10 H   1.0000    1     1.008   -2.520955   -1.421143   -3.182904
  11 C   6.0000    1    12.011   -2.632687   -3.723874    0.206993
  12 C   6.0000    1    12.011   -4.638641   -5.155227   -0.688993
  13 C   6.0000    1    12.011   -5.497674   -7.211304    0.683475
  14 C   6.0000    1    12.011   -4.356969   -7.845863    2.951670
  15 C   6.0000    1    12.011   -2.352911   -6.419135    3.847598
  16 C   6.0000    1    12.011   -1.493850   -4.360363    2.483038
  17 O   8.0000    1    15.999   -2.539632    0.740812    0.036934
  18 O   8.0000    1    15.999    1.965469    5.106291   -2.794819
  19 C   6.0000    1    12.011    1.348678    7.414906   -1.576602
  20 H   1.0000    1     1.008    2.390100    7.517187    0.244891
  21 O   8.0000    1    15.999    2.014669    9.378314   -3.153061
  22 C   6.0000    1    12.011    4.660384    9.744469   -3.417393
  23 C   6.0000    1    12.011   -1.494177    7.671923   -1.004102
  24 H   1.0000    1     1.008   -2.475114    7.966859   -2.812358
  25 O   8.0000    1    15.999   -1.775427    9.776836    0.577509
  26 H   1.0000    1     1.008   -5.935693    3.993145    0.948576
  27 H   1.0000    1     1.008    4.006358    0.288572   -2.725580
  28 H   1.0000    1     1.008    1.284255    0.570508   -4.709381
  29 H   1.0000    1     1.008   -5.529385   -4.663517   -2.459045
  30 H   1.0000    1     1.008   -7.060216   -8.318378   -0.021823
  31 H   1.0000    1     1.008   -5.028563   -9.450744    4.019044
  32 H   1.0000    1     1.008   -1.457758   -6.909607    5.614910
  33 H   1.0000    1     1.008    0.068892   -3.239503    3.156118
  34 H   1.0000    1     1.008    4.872553   11.352268   -4.678688
  35 H   1.0000    1     1.008    5.556041    8.073951   -4.234998
  36 H   1.0000    1     1.008    5.520118   10.166132   -1.582488
  37 H   1.0000    1     1.008   -3.560272    9.989097    0.913964

      -----------------------------------------------------------      
     |                   =====================                   |     
     |                           x T B                           |     
     |                   =====================                   |     
     |                         S. Grimme                         |     
     |          Mulliken Center for Theoretical Chemistry        |     
     |                    University of Bonn                     |     
      -----------------------------------------------------------      

   * xtb version 6.7.1 (edcfbbe) compiled by 'albert@albert-system' on 2024-07-22

   xtb is free software: you can redistribute it and/or modify it under
   the terms of the GNU Lesser General Public License as published by
   the Free Software Foundation, either version 3 of the License, or
   (at your option) any later version.
   
   xtb is distributed in the hope that it will be useful,
   but WITHOUT ANY WARRANTY; without even the implied warranty of
   MERCHANTABILITY or FITNESS FOR A PARTICULAR PURPOSE.  See the
   GNU Lesser General Public License for more details.
   
   Cite this work as:
   * C. Bannwarth, E. Caldeweyher, S. Ehlert, A. Hansen, P. Pracht,
     J. Seibert, S. Spicher, S. Grimme, WIREs Comput. Mol. Sci., 2020, 11,
     e01493. DOI: 10.1002/wcms.1493
   
   for GFN2-xTB:
   * C. Bannwarth, S. Ehlert and S. Grimme., J. Chem. Theory Comput., 2019,
     15, 1652-1671. DOI: 10.1021/acs.jctc.8b01176
   for GFN1-xTB:
   * S. Grimme, C. Bannwarth, P. Shushkov, J. Chem. Theory Comput., 2017,
     13, 1989-2009. DOI: 10.1021/acs.jctc.7b00118
   for GFN0-xTB:
   * P. Pracht, E. Caldeweyher, S. Ehlert, S. Grimme, ChemRxiv, 2019, preprint.
     DOI: 10.26434/chemrxiv.8326202.v1
   for GFN-FF:
   * S. Spicher and S. Grimme, Angew. Chem. Int. Ed., 2020, 59, 15665-15673.
     DOI: 10.1002/anie.202004239
   
   for ALPB and GBSA implicit solvation:
   * S. Ehlert, M. Stahn, S. Spicher, S. Grimme, J. Chem. Theory Comput.,
     2021, 17, 4250-4261. DOI: 10.1021/acs.jctc.1c00471
   
   for ddCOSMO and CPCM-X implicit solvation:
   * M. Stahn, S. Ehlert, S. Grimme, J. Phys. Chem. A,
     2023, XX, XXXX-XXXX. DOI: 10.1021/acs.jpca.3c04382
   
   for DFT-D4:
   * E. Caldeweyher, C. Bannwarth and S. Grimme, J. Chem. Phys., 2017,
     147, 034112. DOI: 10.1063/1.4993215
   * E. Caldeweyher, S. Ehlert, A. Hansen, H. Neugebauer, S. Spicher,
     C. Bannwarth and S. Grimme, J. Chem. Phys., 2019, 150, 154122.
     DOI: 10.1063/1.5090222
   * E. Caldeweyher, J.-M. Mewes, S. Ehlert and S. Grimme, Phys. Chem. Chem. Phys.
     2020, 22, 8499-8512. DOI: 10.1039/D0CP00502A
   
   for sTDA-xTB:
   * S. Grimme and C. Bannwarth, J. Chem. Phys., 2016, 145, 054103.
     DOI: 10.1063/1.4959605
   
   in the mass-spec context:
   * V. Asgeirsson, C. Bauer and S. Grimme, Chem. Sci., 2017, 8, 4879.
     DOI: 10.1039/c7sc00601b
   * J. Koopman and S. Grimme, ACS Omega 2019, 4, 12, 15120-15133.
     DOI: 10.1021/acsomega.9b02011
   
   for metadynamics refer to:
   * S. Grimme, J. Chem. Theory Comput., 2019, 155, 2847-2862
     DOI: 10.1021/acs.jctc.9b00143
   
   for SPH calculations refer to:
   * S. Spicher and S. Grimme, J. Chem. Theory Comput., 2021, 17, 1701-1714
     DOI: 10.1021/acs.jctc.0c01306
   
   for ONIOM refer to:
   * C. Plett, A. Katbashev, S. Ehlert, S. Grimme, M. Bursch,
     Phys. Chem. Chem. Phys., 2023, 25, 17860-17868. DOI: 10.1039/D3CP02178E
   
   for DIPRO refer to:
   * J. Kohn, N. Gildemeister, S. Grimme, D. Fazzi, A. Hansen,
     J. Chem. Phys., 2023, just accepted.
   
   for PTB refer to:
   * S. Grimme, M. Mueller, A. Hansen, J. Chem. Phys., 2023, 158, 124111.
     DOI: 10.1063/5.0137838
   
   with help from (in alphabetical order)
   P. Atkinson, C. Bannwarth, F. Bohle, G. Brandenburg, E. Caldeweyher
   M. Checinski, S. Dohm, S. Ehlert, S. Ehrlich, I. Gerasimov, C. Hölzer
   A. Katbashev, J. Kohn, J. Koopman, C. Lavigne, S. Lehtola, F. März, M. Müller,
   F. Musil, H. Neugebauer, J. Pisarek, C. Plett, P. Pracht, F. Pultar,
   J. Seibert, P. Shushkov, S. Spicher, M. Stahn, M. Steiner, T. Strunk,
   J. Stückrath, T. Rose, and J. Unsleber
   
 * started run on 2025/10/31 at 09:56:12.848     
   ID    Z sym.   atoms
    1    8 O      1, 9, 18, 19, 22, 26
    2    6 C      2, 4, 6, 8, 10, 12-17, 20, 23, 24
    3    1 H      3, 5, 7, 11, 21, 25, 27-38

           -------------------------------------------------
          |                Calculation Setup                |
           -------------------------------------------------

          program call               : /home/kmoult/orca_6_1/otool_xtb goat_0_XTB.xyz --grad -c 0 -u 0 -P 4 --namespace goat_0 --input goat_0_XTB.input.tmp --alpb ACETONE --acc 0.200000
          hostname                   : node3103
          calculation namespace      : goat_0
          coordinate file            : goat_0_XTB.xyz
          omp threads                :                     4


           -------------------------------------------------
          |                 G F N 2 - x T B                 |
           -------------------------------------------------

        Reference                      10.1021/acs.jctc.8b01176
      * Hamiltonian:
        H0-scaling (s, p, d)           1.850000    2.230000    2.230000
        zeta-weighting                 0.500000
      * Dispersion:
        s8                             2.700000
        a1                             0.520000
        a2                             5.000000
        s9                             5.000000
      * Repulsion:
        kExp                           1.500000    1.000000
        rExp                           1.000000
      * Coulomb:
        alpha                          2.000000
        third order                    shell-resolved
        anisotropic                    true
        a3                             3.000000
        a5                             4.000000
        cn-shift                       1.200000
        cn-exp                         4.000000
        max-rad                        5.000000

      * Solvation model:               ALPB
        Solvent                        ACETONE
        Parameter file                 internal GFN2-xTB/ALPB
        Dielectric constant                2.0700E+01
        Reference state                gsolv [1 M gas/solution]
        Free energy shift                  5.9241E-03 Eh       3.7175E+00 kcal/mol
        Temperature                        2.9815E+02 K
        Density                            7.9000E-01 kg/L
        Solvent mass                       5.8080E+01 g/mol
        Interaction kernel             P16
        Born radius scaling (c1)           1.8274E+00
        Born radii integrator          GBOBC
        Born offset                        0.0000E+00 a0       0.0000E+00 AA
        H-bond correction              true
        Ion screening                  false
        Surface tension                    1.0000E-05 Eh       1.5569E+01 dyn/cm
        Grid points                               230 per atom
q/qsh data taken from xtbrestart
CAMM data taken from xtbrestart

          ...................................................
          :                      SETUP                      :
          :.................................................:
          :  # basis functions                  98          :
          :  # atomic orbitals                  98          :
          :  # shells                           58          :
          :  # electrons                       110          :
          :  max. iterations                   250          :
          :  Hamiltonian                  GFN2-xTB          :
          :  restarted?                       true          :
          :  GBSA solvation                   true          :
          :  PC potential                    false          :
          :  electronic temp.          300.0000000     K    :
          :  accuracy                    0.2000000          :
          :  -> integral cutoff          0.3198970E+02      :
          :  -> integral neglect         0.2000000E-08      :
          :  -> SCF convergence          0.2000000E-06 Eh   :
          :  -> wf. convergence          0.2000000E-04 e    :
          :  Broyden damping             0.4000000          :
          :  net charge                          0          :
          :  unpaired electrons                  0          :
          ...................................................

 iter      E             dE          RMSdq      gap      omega  full diag
   1    -64.2446460 -0.642446E+02  0.586E-02    4.74       0.0  T
   2    -64.2446461 -0.122199E-06  0.344E-02    4.74       1.0  T
   3    -64.2446461 -0.358820E-07  0.103E-03    4.74      15.7  T
   4    -64.2446462 -0.219892E-07  0.541E-04    4.74      30.0  T
   5    -64.2446462 -0.109277E-08  0.230E-04    4.74      70.6  T
   6    -64.2446462 -0.630990E-09  0.541E-05    4.74     300.0  T
   7    -64.2446462 -0.308802E-10  0.265E-05    4.74     611.8  T

   *** convergence criteria satisfied after 7 iterations ***

         #    Occupation            Energy/Eh            Energy/eV
      -------------------------------------------------------------
         1        2.0000           -0.7320313             -19.9196
       ...           ...                  ...                  ...
        49        2.0000           -0.4287577             -11.6671
        50        2.0000           -0.4253775             -11.5751
        51        2.0000           -0.4220676             -11.4850
        52        2.0000           -0.4182773             -11.3819
        53        2.0000           -0.4117514             -11.2043
        54        2.0000           -0.4108616             -11.1801
        55        2.0000           -0.4086299             -11.1194 (HOMO)
        56                         -0.2345022              -6.3811 (LUMO)
        57                         -0.2291851              -6.2364
        58                         -0.1047141              -2.8494
        59                         -0.0373648              -1.0167
        60                         -0.0070572              -0.1920
       ...                                ...                  ...
        98                          0.6579549              17.9039
      -------------------------------------------------------------
                  HL-Gap            0.1741277 Eh            4.7383 eV
             Fermi-level           -0.3215661 Eh           -8.7503 eV

 SCC (total)                   0 d,  0 h,  0 min,  0.033 sec
 SCC setup                      ...        0 min,  0.000 sec (  1.367%)
 Dispersion                     ...        0 min,  0.000 sec (  0.819%)
 classical contributions        ...        0 min,  0.000 sec (  0.105%)
 integral evaluation            ...        0 min,  0.002 sec (  6.036%)
 iterations                     ...        0 min,  0.026 sec ( 76.627%)
 molecular gradient             ...        0 min,  0.005 sec ( 14.545%)
 printout                       ...        0 min,  0.000 sec (  0.434%)

         :::::::::::::::::::::::::::::::::::::::::::::::::::::
         ::                     SUMMARY                     ::
         :::::::::::::::::::::::::::::::::::::::::::::::::::::
         :: total energy             -63.588623657577 Eh    ::
         :: total w/o Gsasa/hb       -63.559511016437 Eh    ::
         :: gradient norm              0.000677041031 Eh/a0 ::
         :: HOMO-LUMO gap              4.738254979329 eV    ::
         ::.................................................::
         :: SCC energy               -64.244528102281 Eh    ::
         :: -> isotropic ES            0.130029332247 Eh    ::
         :: -> anisotropic ES         -0.006282385074 Eh    ::
         :: -> anisotropic XC          0.001017117966 Eh    ::
         :: -> dispersion             -0.036420203318 Eh    ::
         :: -> Gsolv                  -0.032465273185 Eh    ::
         ::    -> Gelec               -0.003352632045 Eh    ::
         ::    -> Gsasa               -0.028302208608 Eh    ::
         ::    -> Ghb                 -0.006734573795 Eh    ::
         ::    -> Gshift               0.005924141264 Eh    ::
         :: repulsion energy           0.655904444705 Eh    ::
         :: add. restraining           0.000000000000 Eh    ::
         :: total charge               0.000000000000 e     ::
         :::::::::::::::::::::::::::::::::::::::::::::::::::::


Property printout bound to 'properties.out'

           -------------------------------------------------
          | TOTAL ENERGY              -63.588623657577 Eh   |
          | GRADIENT NORM               0.000677041031 Eh/α |
          | HOMO-LUMO GAP               4.738254979329 eV   |
           -------------------------------------------------

------------------------------------------------------------------------
 * finished run on 2025/10/31 at 09:56:12.903     
------------------------------------------------------------------------
 total:
 * wall-time:     0 d,  0 h,  0 min,  0.055 sec
 *  cpu-time:     0 d,  0 h,  0 min,  0.183 sec
 * ratio c/w:     3.353 speedup
 SCF:
 * wall-time:     0 d,  0 h,  0 min,  0.034 sec
 *  cpu-time:     0 d,  0 h,  0 min,  0.122 sec
 * ratio c/w:     3.627 speedup


-------------------------   --------------------
FINAL SINGLE POINT ENERGY       -63.588623657580
-------------------------   --------------------


-------------
DIPOLE MOMENT
-------------
                                X             Y             Z
Total Dipole Moment    :     -0.23100      -1.03500       0.26500
                        -----------------------------------------
Magnitude (a.u.)       :      1.09307
Magnitude (Debye)      :      2.77837


------------------
CARTESIAN GRADIENT
------------------

   1   O   :   -0.000095983    0.000076012   -0.000120820
   2   C   :   -0.000015662   -0.000123349    0.000056772
   3   H   :    0.000014655    0.000011009   -0.000026638
   4   C   :    0.000059622    0.000128341    0.000050726
   5   H   :   -0.000046714    0.000007249    0.000009706
   6   C   :    0.000027851   -0.000088580   -0.000126803
   7   H   :   -0.000013085   -0.000015218    0.000021241
   8   C   :    0.000074795   -0.000051075   -0.000013103
   9   O   :   -0.000083912    0.000036005   -0.000006026
  10   C   :    0.000049731    0.000068020    0.000254037
  11   H   :   -0.000008434    0.000029046   -0.000112589
  12   C   :    0.000022056   -0.000054594    0.000024918
  13   C   :   -0.000008943    0.000063686   -0.000022256
  14   C   :    0.000005476    0.000004572   -0.000034185
  15   C   :   -0.000009514   -0.000021652    0.000039486
  16   C   :    0.000007250   -0.000024154    0.000017794
  17   C   :    0.000029366    0.000039335   -0.000034018
  18   O   :    0.000011146   -0.000150630   -0.000107555
  19   O   :   -0.000047027    0.000137144    0.000104766
  20   C   :   -0.000060133   -0.000104778   -0.000254368
  21   H   :    0.000035208    0.000036368    0.000067764
  22   O   :    0.000145522    0.000033553    0.000050666
  23   C   :   -0.000111966   -0.000041272   -0.000011291
  24   C   :   -0.000008757   -0.000104686    0.000033823
  25   H   :   -0.000009403    0.000018259    0.000015612
  26   O   :    0.000063558    0.000108160    0.000090670
  27   H   :    0.000033338   -0.000024494    0.000050911
  28   H   :   -0.000019238   -0.000005780   -0.000001342
  29   H   :   -0.000019250    0.000009976   -0.000003292
  30   H   :   -0.000022568   -0.000016987    0.000002317
  31   H   :   -0.000019006   -0.000005835    0.000015033
  32   H   :    0.000002255   -0.000008018    0.000006559
  33   H   :    0.000012780   -0.000003035    0.000002732
  34   H   :    0.000012435    0.000002938    0.000012341
  35   H   :   -0.000029514    0.000015677   -0.000012784
  36   H   :    0.000024149    0.000005824   -0.000002052
  37   H   :    0.000020942    0.000011098   -0.000009544
  38   H   :   -0.000023024    0.000001866   -0.000029209

Difference to translation invariance:
           :   -0.0000000000   -0.0000000000   -0.0000000000

Difference to rotation invariance:
           :   -0.0002749483    0.0007520950    0.0001726317

Norm of the Cartesian gradient     ...    0.0006770410
RMS gradient                       ...    0.0000634107
MAX gradient                       ...    0.0002543682
------------------------------------------------------------------------------
                         ORCA GEOMETRY RELAXATION STEP
------------------------------------------------------------------------------

Reading the OPT-File                    .... done
Getting information on internals        .... done
Copying old internal coords+grads       .... done
Making the new internal coordinates     .... (2022 redundants) done
Validating the new internal coordinates .... (2022 redundants) done
Calculating the B-matrix                .... done
Calculating the G,G- and P matrices     .... done
Transforming gradient to internals      .... done
Projecting the internal gradient        .... done
Number of atoms                         ....  38
Number of internal coordinates          .... 203
Current Energy                          ....   -63.588623658 Eh
Current gradient norm                   ....     0.000677041 Eh/bohr
Maximum allowed component of the step   ....  0.300
Current trust radius                    ....  0.450
Updating the Hessian (BFGS)             .... done
Forming the augmented Hessian           .... done
Diagonalizing the augmented Hessian     .... done
Last element of RFO vector              ....  0.999091743
Lowest eigenvalues of augmented Hessian:
 -0.000002598  0.000791157  0.003972997  0.015238249  0.016213782
Length of the computed step             ....  0.042649647
The final length of the internal step   ....  0.042649647
Converting the step to Cartesian space:
 Initial RMS(Int)=    0.0029934184
Transforming coordinates:
 Iter   0:  RMS(Cart)=    0.0152021108 RMS(Int)=    0.7637397396
done
Storing new coordinates                 .... done
The predicted energy change is          ....    -0.000001301
Previously predicted energy change      ....    -0.000002651
Actually observed energy change         ....    -0.000003539
Ratio of predicted to observed change   ....     1.335106252
New trust radius                        ....     0.450000000

                                .--------------------.
          ----------------------|Geometry convergence|-------------------------
          Item                value                   Tolerance       Converged
          ---------------------------------------------------------------------
          Energy change      -0.0000035390            0.0000050000      YES
          RMS gradient        0.0000307290            0.0001000000      YES
          MAX gradient        0.0001448952            0.0003000000      YES
          RMS step            0.0029934184            0.0020000000      NO
          MAX step            0.0195323009            0.0040000000      NO
          -------------------------------------------------------------------------
          ........................................................
          Max(Bonds)      0.0023      Max(Angles)    0.08
          Max(Dihed)        1.12      Max(Improp)    0.00
          ---------------------------------------------------------------------

    ---------------------------------------------------------------------------
                         Redundant Internal Coordinates
                            (Angstroem and degrees)

        Definition                    Value    dE/dq     Step     New-Value
    ----------------------------------------------------------------------------
     1. B(C   1,O   0)                1.4052  0.000058 -0.0001    1.4051   
     2. B(H   2,C   1)                1.1023 -0.000023  0.0001    1.1023   
     3. B(C   3,C   1)                1.5261 -0.000027 -0.0001    1.5261   
     4. B(H   4,C   3)                1.1043  0.000010  0.0000    1.1043   
     5. B(C   5,C   3)                1.5335  0.000028  0.0000    1.5335   
     6. B(H   6,C   5)                1.1036  0.000017  0.0000    1.1036   
     7. B(C   7,C   5)                1.5317  0.000023  0.0000    1.5317   
     8. B(O   8,C   7)                1.4117  0.000011  0.0001    1.4117   
     9. B(C   9,O   8)                1.4040 -0.000059  0.0003    1.4042   
    10. B(H  10,C   9)                1.1128  0.000107 -0.0000    1.1128   
    11. B(C  11,C   9)                1.5082  0.000020 -0.0000    1.5081   
    12. B(C  12,C  11)                1.3876  0.000018  0.0000    1.3876   
    13. B(C  13,C  12)                1.3849  0.000024  0.0000    1.3849   
    14. B(C  14,C  13)                1.3848  0.000043  0.0000    1.3848   
    15. B(C  15,C  14)                1.3854  0.000023  0.0000    1.3854   
    16. B(C  16,C  15)                1.3838  0.000044  0.0001    1.3839   
    17. B(C  16,C  11)                1.3883  0.000009  0.0000    1.3883   
    18. B(O  17,C   9)                1.4136 -0.000135 -0.0001    1.4135   
    19. B(O  17,C   3)                1.4135  0.000046  0.0000    1.4135   
    20. B(O  18,C   5)                1.4028  0.000057 -0.0001    1.4027   
    21. B(C  19,O  18)                1.4194 -0.000085 -0.0001    1.4193   
    22. B(H  20,C  19)                1.1116  0.000080  0.0000    1.1116   
    23. B(O  21,C  19)                1.3783  0.000009  0.0000    1.3783   
    24. B(C  22,O  21)                1.4203 -0.000084 -0.0000    1.4203   
    25. B(C  23,C  19)                1.5406  0.000017  0.0002    1.5408   
    26. B(C  23,C   1)                1.5392 -0.000005 -0.0000    1.5392   
    27. B(H  24,C  23)                1.0997 -0.000005  0.0001    1.0998   
    28. B(O  25,C  23)                1.4012  0.000100 -0.0001    1.4011   
    29. B(H  26,O   0)                0.9663  0.000027  0.0000    0.9663   
    30. B(H  26,O  17)                2.5346  0.000009 -0.0023    2.5323   
    31. B(H  27,C   7)                1.0901 -0.000015 -0.0000    1.0900   
    32. B(H  28,C   7)                1.0997  0.000005 -0.0000    1.0997   
    33. B(H  29,C  12)                1.0804  0.000006 -0.0000    1.0804   
    34. B(H  30,C  13)                1.0799  0.000015 -0.0000    1.0799   
    35. B(H  31,C  14)                1.0801  0.000009  0.0000    1.0801   
    36. B(H  32,C  15)                1.0800  0.000006  0.0000    1.0800   
    37. B(H  33,C  16)                1.0782  0.000013 -0.0000    1.0782   
    38. B(H  34,C  22)                1.0872  0.000014  0.0000    1.0872   
    39. B(H  35,C  22)                1.0924  0.000005  0.0000    1.0924   
    40. B(H  36,C  22)                1.0953  0.000009  0.0000    1.0953   
    41. B(H  37,O   0)                2.5302  0.000020 -0.0015    2.5287   
    42. B(H  37,O  25)                0.9677  0.000024  0.0000    0.9677   
    43. A(C   1,O   0,H  26)          108.21 -0.000092    0.01    108.22   
    44. A(O   0,C   1,H   2)          110.20  0.000035    0.00    110.20   
    45. A(H   2,C   1,C   3)          108.57 -0.000002    0.01    108.58   
    46. A(H   2,C   1,C  23)          108.83 -0.000022   -0.02    108.81   
    47. A(O   0,C   1,C   3)          112.50  0.000010    0.00    112.50   
    48. A(O   0,C   1,C  23)          107.40 -0.000024    0.02    107.42   
    49. A(C   3,C   1,C  23)          109.28  0.000001   -0.02    109.26   
    50. A(H   4,C   3,C   5)          108.64 -0.000002   -0.01    108.63   
    51. A(H   4,C   3,O  17)          109.77  0.000027   -0.01    109.76   
    52. A(C   1,C   3,C   5)          109.04  0.000046   -0.00    109.03   
    53. A(C   5,C   3,O  17)          110.22 -0.000045    0.03    110.25   
    54. A(C   1,C   3,H   4)          109.13 -0.000022   -0.00    109.13   
    55. A(C   1,C   3,O  17)          110.01 -0.000003    0.00    110.01   
    56. A(C   7,C   5,O  18)          111.06  0.000081   -0.00    111.06   
    57. A(H   6,C   5,O  18)          110.47 -0.000021    0.01    110.48   
    58. A(C   3,C   5,C   7)          107.52  0.000021   -0.00    107.52   
    59. A(H   6,C   5,C   7)          109.03 -0.000019    0.00    109.03   
    60. A(C   3,C   5,O  18)          110.27 -0.000044   -0.01    110.26   
    61. A(C   3,C   5,H   6)          108.40 -0.000020   -0.00    108.40   
    62. A(O   8,C   7,H  27)          106.51  0.000004   -0.01    106.50   
    63. A(C   5,C   7,H  27)          111.67  0.000029    0.01    111.68   
    64. A(C   5,C   7,O   8)          109.19 -0.000051    0.00    109.20   
    65. A(O   8,C   7,H  28)          110.90  0.000006   -0.00    110.89   
    66. A(C   5,C   7,H  28)          109.02 -0.000005   -0.01    109.01   
    67. A(H  27,C   7,H  28)          109.53  0.000016    0.01    109.55   
    68. A(C   7,O   8,C   9)          112.86  0.000046   -0.02    112.85   
    69. A(H  10,C   9,O  17)          108.06 -0.000030    0.01    108.07   
    70. A(O   8,C   9,O  17)          111.88  0.000024   -0.01    111.88   
    71. A(O   8,C   9,C  11)          109.23  0.000004   -0.04    109.19   
    72. A(O   8,C   9,H  10)          108.82 -0.000028   -0.01    108.81   
    73. A(C  11,C   9,O  17)          108.02  0.000003    0.08    108.10   
    74. A(H  10,C   9,C  11)          110.83  0.000028   -0.02    110.80   
    75. A(C   9,C  11,C  12)          120.63 -0.000013    0.02    120.64   
    76. A(C  12,C  11,C  16)          119.74  0.000020   -0.00    119.74   
    77. A(C   9,C  11,C  16)          119.62 -0.000007   -0.01    119.61   
    78. A(C  11,C  12,H  29)          119.90  0.000033    0.01    119.92   
    79. A(C  13,C  12,H  29)          120.04 -0.000019   -0.01    120.03   
    80. A(C  11,C  12,C  13)          120.05 -0.000014    0.00    120.05   
    81. A(C  14,C  13,H  30)          120.12 -0.000015    0.01    120.12   
    82. A(C  12,C  13,H  30)          119.75  0.000005   -0.01    119.74   
    83. A(C  12,C  13,C  14)          120.13  0.000010    0.00    120.13   
    84. A(C  13,C  14,H  31)          120.03  0.000004    0.00    120.04   
    85. A(C  13,C  14,C  15)          119.88 -0.000008   -0.01    119.87   
    86. A(C  15,C  14,H  31)          120.09  0.000005    0.00    120.10   
    87. A(C  16,C  15,H  32)          119.80 -0.000002   -0.01    119.79   
    88. A(C  14,C  15,H  32)          120.07  0.000002    0.00    120.07   
    89. A(C  14,C  15,C  16)          120.13  0.000000    0.01    120.13   
    90. A(C  11,C  16,C  15)          120.07 -0.000007   -0.00    120.07   
    91. A(C  15,C  16,H  33)          120.84 -0.000007   -0.03    120.82   
    92. A(C  11,C  16,H  33)          119.08  0.000014    0.03    119.11   
    93. A(C   3,O  17,C   9)          111.25  0.000045   -0.02    111.23   
    94. A(C   5,O  18,C  19)          112.67  0.000067    0.03    112.70   
    95. A(O  18,C  19,O  21)          108.37  0.000037    0.00    108.37   
    96. A(O  21,C  19,C  23)          107.59 -0.000001   -0.01    107.58   
    97. A(H  20,C  19,C  23)          108.02 -0.000009   -0.02    108.00   
    98. A(O  18,C  19,C  23)          112.95 -0.000009    0.01    112.96   
    99. A(H  20,C  19,O  21)          111.18 -0.000025    0.01    111.19   
   100. A(O  18,C  19,H  20)          108.77  0.000008    0.01    108.78   
   101. A(C  19,O  21,C  22)          114.49  0.000145   -0.00    114.49   
   102. A(H  35,C  22,H  36)          109.62 -0.000019   -0.02    109.60   
   103. A(H  34,C  22,H  36)          109.99 -0.000007    0.00    110.00   
   104. A(O  21,C  22,H  36)          110.48  0.000030    0.01    110.49   
   105. A(H  34,C  22,H  35)          110.20  0.000003    0.01    110.21   
   106. A(O  21,C  22,H  35)          110.87  0.000049    0.01    110.89   
   107. A(O  21,C  22,H  34)          105.61 -0.000057   -0.01    105.60   
   108. A(H  24,C  23,O  25)          110.90 -0.000010   -0.01    110.90   
   109. A(C  19,C  23,O  25)          106.94 -0.000019    0.01    106.95   
   110. A(C   1,C  23,O  25)          110.64  0.000028    0.01    110.65   
   111. A(C  19,C  23,H  24)          107.60 -0.000012   -0.02    107.58   
   112. A(C   1,C  23,H  24)          108.56 -0.000003    0.01    108.58   
   113. A(C   1,C  23,C  19)          112.17  0.000015   -0.01    112.16   
   114. A(C  23,O  25,H  37)          107.81 -0.000075   -0.01    107.80   
   115. D(C   3,C   1,O   0,H  26)     54.31  0.000030   -0.15     54.15   
   116. D(C  23,C   1,O   0,H  26)    174.59  0.000021   -0.16    174.43   
   117. D(H   2,C   1,O   0,H  26)    -67.01  0.000001   -0.17    -67.18   
   118. D(C   5,C   3,C   1,C  23)     54.44 -0.000019    0.07     54.51   
   119. D(H   4,C   3,C   1,O   0)     55.11 -0.000053    0.10     55.20   
   120. D(H   4,C   3,C   1,C  23)    -64.08 -0.000030    0.08    -64.00   
   121. D(C   5,C   3,C   1,H   2)    -64.13  0.000008    0.10    -64.03   
   122. D(H   4,C   3,C   1,H   2)    177.34 -0.000003    0.11    177.45   
   123. D(C   5,C   3,C   1,O   0)    173.63 -0.000041    0.08    173.72   
   124. D(C   7,C   5,C   3,O  17)     55.27 -0.000010   -0.03     55.24   
   125. D(C   7,C   5,C   3,C   1)    176.12 -0.000013   -0.01    176.11   
   126. D(C   7,C   5,C   3,H   4)    -65.05 -0.000015   -0.02    -65.07   
   127. D(H   6,C   5,C   3,O  17)    -62.47  0.000011   -0.03    -62.50   
   128. D(H   6,C   5,C   3,H   4)    177.21  0.000006   -0.02    177.19   
   129. D(H   6,C   5,C   3,C   1)     58.38  0.000008   -0.01     58.37   
   130. D(H  27,C   7,C   5,H   6)    -54.53 -0.000012    0.02    -54.50   
   131. D(H  27,C   7,C   5,O  18)     67.42  0.000002    0.04     67.47   
   132. D(H  27,C   7,C   5,C   3)   -171.86  0.000010    0.03   -171.83   
   133. D(O   8,C   7,C   5,H   6)     63.00 -0.000021    0.02     63.02   
   134. D(O   8,C   7,C   5,C   3)    -54.33  0.000000    0.03    -54.30   
   135. D(O   8,C   7,C   5,O  18)   -175.05 -0.000008    0.04   -175.01   
   136. D(C   9,O   8,C   7,H  28)    -62.37  0.000014    0.03    -62.34   
   137. D(C   9,O   8,C   7,H  27)    178.52 -0.000012    0.02    178.54   
   138. D(C   9,O   8,C   7,C   5)     57.78 -0.000021    0.01     57.80   
   139. D(O  17,C   9,O   8,C   7)    -59.96  0.000014   -0.05    -60.01   
   140. D(C  11,C   9,O   8,C   7)   -179.52 -0.000008   -0.11   -179.63   
   141. D(H  10,C   9,O   8,C   7)     59.37 -0.000027   -0.05     59.32   
   142. D(C  12,C  11,C   9,O  17)    105.31 -0.000043    1.11    106.42   
   143. D(C  12,C  11,C   9,H  10)    -12.89 -0.000024    1.06    -11.83   
   144. D(C  12,C  11,C   9,O   8)   -132.77 -0.000009    1.12   -131.65   
   145. D(C  16,C  11,C   9,O   8)     48.40 -0.000008    1.00     49.41   
   146. D(C  16,C  11,C   9,H  10)    168.29 -0.000023    0.95    169.23   
   147. D(H  29,C  12,C  11,C  16)    179.96 -0.000002    0.04    180.00   
   148. D(H  29,C  12,C  11,C   9)      1.14 -0.000001   -0.07      1.07   
   149. D(C  13,C  12,C  11,C  16)     -0.05  0.000002    0.03     -0.02   
   150. D(C  13,C  12,C  11,C   9)   -178.87  0.000003   -0.09   -178.96   
   151. D(H  30,C  13,C  12,H  29)     -0.04 -0.000004    0.02     -0.02   
   152. D(H  30,C  13,C  12,C  11)    179.96 -0.000007    0.04    180.00   
   153. D(C  14,C  13,C  12,H  29)    179.94  0.000002    0.01    179.95   
   154. D(C  14,C  13,C  12,C  11)     -0.05 -0.000001    0.03     -0.02   
   155. D(H  31,C  14,C  13,H  30)      0.02  0.000006   -0.06     -0.03   
   156. D(C  15,C  14,C  13,C  12)      0.01 -0.000002   -0.05     -0.04   
   157. D(H  31,C  14,C  13,C  12)   -179.96 -0.000000   -0.05   -180.01   
   158. D(C  15,C  14,C  13,H  30)    180.00  0.000004   -0.06    179.94   
   159. D(H  32,C  15,C  14,H  31)      0.03  0.000000    0.03      0.05   
   160. D(H  32,C  15,C  14,C  13)   -179.94  0.000002    0.03   -179.91   
   161. D(C  16,C  15,C  14,H  31)   -179.90  0.000003    0.02   -179.89   
   162. D(C  16,C  15,C  14,C  13)      0.13  0.000005    0.02      0.14   
   163. D(H  33,C  16,C  15,H  32)      0.32 -0.000002   -0.01      0.31   
   164. D(C  11,C  16,C  15,H  32)    179.85 -0.000002    0.02    179.87   
   165. D(C  11,C  16,C  15,C  14)     -0.23 -0.000004    0.04     -0.19   
   166. D(H  33,C  16,C  11,C  12)    179.72  0.000001   -0.02    179.70   
   167. D(H  33,C  16,C  11,C   9)     -1.45 -0.000000    0.09     -1.36   
   168. D(H  33,C  16,C  15,C  14)   -179.75 -0.000005   -0.00   -179.75   
   169. D(C  15,C  16,C  11,C  12)      0.19  0.000001   -0.06      0.13   
   170. D(C  15,C  16,C  11,C   9)    179.02 -0.000000    0.06    179.07   
   171. D(C   3,O  17,C   9,C  11)    179.60 -0.000006    0.02    179.63   
   172. D(C   3,O  17,C   9,H  10)    -60.44  0.000012    0.05    -60.39   
   173. D(C   3,O  17,C   9,O   8)     59.34 -0.000028    0.03     59.37   
   174. D(C   9,O  17,C   3,C   5)    -57.94  0.000029   -0.00    -57.95   
   175. D(C   9,O  17,C   3,H   4)     61.69  0.000015   -0.00     61.68   
   176. D(C   9,O  17,C   3,C   1)   -178.21  0.000003   -0.02   -178.23   
   177. D(C  19,O  18,C   5,C   3)     63.28 -0.000048   -0.05     63.23   
   178. D(C  19,O  18,C   5,C   7)   -177.63  0.000002   -0.06   -177.69   
   179. D(C  19,O  18,C   5,H   6)    -56.52  0.000018   -0.05    -56.57   
   180. D(C  23,C  19,O  18,C   5)    -55.92  0.000007    0.06    -55.86   
   181. D(O  21,C  19,O  18,C   5)   -175.02 -0.000010    0.06   -174.95   
   182. D(H  20,C  19,O  18,C   5)     63.99 -0.000005    0.05     64.04   
   183. D(C  22,O  21,C  19,C  23)    166.82 -0.000012    0.03    166.85   
   184. D(C  22,O  21,C  19,H  20)     48.73  0.000015    0.06     48.79   
   185. D(C  22,O  21,C  19,O  18)    -70.76 -0.000003    0.04    -70.72   
   186. D(H  36,C  22,O  21,C  19)    -60.34 -0.000026    0.03    -60.31   
   187. D(H  35,C  22,O  21,C  19)     61.40  0.000004    0.01     61.41   
   188. D(H  34,C  22,O  21,C  19)   -179.24  0.000000    0.02   -179.22   
   189. D(H  24,C  23,C  19,O  21)     48.31  0.000022   -0.02     48.29   
   190. D(H  24,C  23,C  19,H  20)    168.43 -0.000015   -0.03    168.40   
   191. D(H  24,C  23,C  19,O  18)    -71.24 -0.000017   -0.02    -71.26   
   192. D(C   1,C  23,C  19,O  21)    167.65  0.000018   -0.03    167.62   
   193. D(C   1,C  23,C  19,H  20)    -72.24 -0.000018   -0.04    -72.27   
   194. D(C   1,C  23,C  19,O  18)     48.10 -0.000020   -0.03     48.07   
   195. D(H  24,C  23,C   1,C   3)     70.80  0.000017   -0.06     70.74   
   196. D(H  24,C  23,C   1,H   2)   -170.79  0.000002   -0.07   -170.86   
   197. D(H  24,C  23,C   1,O   0)    -51.51  0.000018   -0.06    -51.57   
   198. D(C  19,C  23,C   1,C   3)    -47.97  0.000025   -0.03    -48.00   
   199. D(C  19,C  23,C   1,H   2)     70.44  0.000010   -0.05     70.40   
   200. D(C  19,C  23,C   1,O   0)   -170.27  0.000026   -0.04   -170.31   
   201. D(H  37,O  25,C  23,H  24)     61.37 -0.000000    0.19     61.56   
   202. D(H  37,O  25,C  23,C  19)    178.41 -0.000031    0.17    178.58   
   203. D(H  37,O  25,C  23,C   1)    -59.16 -0.000008    0.17    -58.99   
    ----------------------------------------------------------------------------

Geometry step timings:
Preparation and reading OPT file:      0.002 s (10.799 %)
Internal coordinates            :      0.000 s ( 0.160 %)
B/P matrices and projection     :      0.003 s (15.227 %)
Hessian update/contruction      :      0.009 s (47.225 %)
Making the step                 :      0.002 s (11.114 %)
Converting the step to Cartesian:      0.000 s ( 1.312 %)
Storing new data                :      0.001 s ( 4.733 %)
Checking convergence            :      0.000 s ( 0.129 %)
Final printing                  :      0.002 s ( 9.290 %)
Total time                      :      0.019 s

Time for energy+gradient        :      0.083 s
Time for complete geometry iter :      0.114 s

         *************************************************************
         *                GEOMETRY OPTIMIZATION CYCLE  13            *
         *************************************************************
---------------------------------
CARTESIAN COORDINATES (ANGSTROEM)
---------------------------------
  O    -2.758528    2.938026    0.175280
  C    -1.360603    2.800037    0.144023
  H    -0.961911    2.730872    1.169394
  C    -0.912759    1.567238   -0.636049
  H    -1.345489    1.604602   -1.651387
  C     0.616175    1.578384   -0.754350
  H     1.044128    1.592272    0.262809
  C     1.033896    0.281668   -1.454397
  O     0.492038   -0.818659   -0.755319
  C    -0.907682   -0.765702   -0.655876
  H    -1.339703   -0.747641   -1.681199
  C    -1.396097   -1.969573    0.110045
  C    -2.444607   -2.738459   -0.374501
  C    -2.897516   -3.828731    0.349530
  C    -2.305556   -4.155111    1.558192
  C    -1.257730   -3.388947    2.042453
  C    -0.804397   -2.297577    1.322353
  O    -1.343844    0.394129    0.024244
  O     1.039005    2.701833   -1.480083
  C     0.715347    3.924047   -0.835221
  H     1.269520    3.978682    0.126884
  O     1.065372    4.962320   -1.671411
  C     2.464988    5.154746   -1.816943
  C    -0.788054    4.061311   -0.527113
  H    -1.310011    4.217453   -1.482510
  O    -0.933522    5.175605    0.309750
  H    -3.135812    2.115214    0.513584
  H     2.116015    0.150672   -1.447133
  H     0.672802    0.302874   -2.492894
  H    -2.907125   -2.485795   -1.317609
  H    -3.713871   -4.423700   -0.032281
  H    -2.660107   -5.005698    2.121593
  H    -0.792755   -3.641315    2.984004
  H     0.012829   -1.696106    1.686926
  H     2.575258    6.005390   -2.484951
  H     2.936664    4.270287   -2.251191
  H     2.924172    5.377517   -0.847842
  H    -1.877198    5.286803    0.492997

----------------------------
CARTESIAN COORDINATES (A.U.)
----------------------------
  NO LB    ZA    FRAG    MASS        X           Y           Z
   0 O   8.0000    1    15.999   -5.212862    5.552064    0.331231
   1 C   6.0000    1    12.011   -2.571167    5.291302    0.272164
   2 H   1.0000    1     1.008   -1.817749    5.160601    2.209835
   3 C   6.0000    1    12.011   -1.724865    2.961652   -1.201959
   4 H   1.0000    1     1.008   -2.542607    3.032258   -3.120669
   5 C   6.0000    1    12.011    1.164402    2.982714   -1.425514
   6 H   1.0000    1     1.008    1.973116    3.008959    0.496636
   7 C   6.0000    1    12.011    1.953780    0.532275   -2.748412
   8 O   8.0000    1    15.999    0.929817   -1.547041   -1.427347
   9 C   6.0000    1    12.011   -1.715270   -1.446967   -1.239427
  10 H   1.0000    1     1.008   -2.531672   -1.412837   -3.177005
  11 C   6.0000    1    12.011   -2.638241   -3.721954    0.207954
  12 C   6.0000    1    12.011   -4.619638   -5.174937   -0.707705
  13 C   6.0000    1    12.011   -5.475512   -7.235252    0.660517
  14 C   6.0000    1    12.011   -4.356870   -7.852022    2.944556
  15 C   6.0000    1    12.011   -2.376765   -6.404181    3.859677
  16 C   6.0000    1    12.011   -1.520090   -4.341792    2.498885
  17 O   8.0000    1    15.999   -2.539497    0.744795    0.045814
  18 O   8.0000    1    15.999    1.963435    5.105725   -2.796952
  19 C   6.0000    1    12.011    1.351810    7.415373   -1.578338
  20 H   1.0000    1     1.008    2.399045    7.518619    0.239777
  21 O   8.0000    1    15.999    2.013261    9.377425   -3.158508
  22 C   6.0000    1    12.011    4.658152    9.741059   -3.433524
  23 C   6.0000    1    12.011   -1.489206    7.674766   -0.996098
  24 H   1.0000    1     1.008   -2.475562    7.969832   -2.801538
  25 O   8.0000    1    15.999   -1.764100    9.780476    0.585342
  26 H   1.0000    1     1.008   -5.925826    3.997175    0.970534
  27 H   1.0000    1     1.008    3.998690    0.284728   -2.734686
  28 H   1.0000    1     1.008    1.271412    0.572349   -4.710887
  29 H   1.0000    1     1.008   -5.493671   -4.697471   -2.489920
  30 H   1.0000    1     1.008   -7.018199   -8.359582   -0.061003
  31 H   1.0000    1     1.008   -5.026874   -9.459399    4.009230
  32 H   1.0000    1     1.008   -1.498090   -6.881088    5.638950
  33 H   1.0000    1     1.008    0.024243   -3.205175    3.187828
  34 H   1.0000    1     1.008    4.866532   11.348543   -4.695876
  35 H   1.0000    1     1.008    5.549491    8.069673   -4.254134
  36 H   1.0000    1     1.008    5.525884   10.162034   -1.602190
  37 H   1.0000    1     1.008   -3.547391    9.990610    0.931629

      -----------------------------------------------------------      
     |                   =====================                   |     
     |                           x T B                           |     
     |                   =====================                   |     
     |                         S. Grimme                         |     
     |          Mulliken Center for Theoretical Chemistry        |     
     |                    University of Bonn                     |     
      -----------------------------------------------------------      

   * xtb version 6.7.1 (edcfbbe) compiled by 'albert@albert-system' on 2024-07-22

   xtb is free software: you can redistribute it and/or modify it under
   the terms of the GNU Lesser General Public License as published by
   the Free Software Foundation, either version 3 of the License, or
   (at your option) any later version.
   
   xtb is distributed in the hope that it will be useful,
   but WITHOUT ANY WARRANTY; without even the implied warranty of
   MERCHANTABILITY or FITNESS FOR A PARTICULAR PURPOSE.  See the
   GNU Lesser General Public License for more details.
   
   Cite this work as:
   * C. Bannwarth, E. Caldeweyher, S. Ehlert, A. Hansen, P. Pracht,
     J. Seibert, S. Spicher, S. Grimme, WIREs Comput. Mol. Sci., 2020, 11,
     e01493. DOI: 10.1002/wcms.1493
   
   for GFN2-xTB:
   * C. Bannwarth, S. Ehlert and S. Grimme., J. Chem. Theory Comput., 2019,
     15, 1652-1671. DOI: 10.1021/acs.jctc.8b01176
   for GFN1-xTB:
   * S. Grimme, C. Bannwarth, P. Shushkov, J. Chem. Theory Comput., 2017,
     13, 1989-2009. DOI: 10.1021/acs.jctc.7b00118
   for GFN0-xTB:
   * P. Pracht, E. Caldeweyher, S. Ehlert, S. Grimme, ChemRxiv, 2019, preprint.
     DOI: 10.26434/chemrxiv.8326202.v1
   for GFN-FF:
   * S. Spicher and S. Grimme, Angew. Chem. Int. Ed., 2020, 59, 15665-15673.
     DOI: 10.1002/anie.202004239
   
   for ALPB and GBSA implicit solvation:
   * S. Ehlert, M. Stahn, S. Spicher, S. Grimme, J. Chem. Theory Comput.,
     2021, 17, 4250-4261. DOI: 10.1021/acs.jctc.1c00471
   
   for ddCOSMO and CPCM-X implicit solvation:
   * M. Stahn, S. Ehlert, S. Grimme, J. Phys. Chem. A,
     2023, XX, XXXX-XXXX. DOI: 10.1021/acs.jpca.3c04382
   
   for DFT-D4:
   * E. Caldeweyher, C. Bannwarth and S. Grimme, J. Chem. Phys., 2017,
     147, 034112. DOI: 10.1063/1.4993215
   * E. Caldeweyher, S. Ehlert, A. Hansen, H. Neugebauer, S. Spicher,
     C. Bannwarth and S. Grimme, J. Chem. Phys., 2019, 150, 154122.
     DOI: 10.1063/1.5090222
   * E. Caldeweyher, J.-M. Mewes, S. Ehlert and S. Grimme, Phys. Chem. Chem. Phys.
     2020, 22, 8499-8512. DOI: 10.1039/D0CP00502A
   
   for sTDA-xTB:
   * S. Grimme and C. Bannwarth, J. Chem. Phys., 2016, 145, 054103.
     DOI: 10.1063/1.4959605
   
   in the mass-spec context:
   * V. Asgeirsson, C. Bauer and S. Grimme, Chem. Sci., 2017, 8, 4879.
     DOI: 10.1039/c7sc00601b
   * J. Koopman and S. Grimme, ACS Omega 2019, 4, 12, 15120-15133.
     DOI: 10.1021/acsomega.9b02011
   
   for metadynamics refer to:
   * S. Grimme, J. Chem. Theory Comput., 2019, 155, 2847-2862
     DOI: 10.1021/acs.jctc.9b00143
   
   for SPH calculations refer to:
   * S. Spicher and S. Grimme, J. Chem. Theory Comput., 2021, 17, 1701-1714
     DOI: 10.1021/acs.jctc.0c01306
   
   for ONIOM refer to:
   * C. Plett, A. Katbashev, S. Ehlert, S. Grimme, M. Bursch,
     Phys. Chem. Chem. Phys., 2023, 25, 17860-17868. DOI: 10.1039/D3CP02178E
   
   for DIPRO refer to:
   * J. Kohn, N. Gildemeister, S. Grimme, D. Fazzi, A. Hansen,
     J. Chem. Phys., 2023, just accepted.
   
   for PTB refer to:
   * S. Grimme, M. Mueller, A. Hansen, J. Chem. Phys., 2023, 158, 124111.
     DOI: 10.1063/5.0137838
   
   with help from (in alphabetical order)
   P. Atkinson, C. Bannwarth, F. Bohle, G. Brandenburg, E. Caldeweyher
   M. Checinski, S. Dohm, S. Ehlert, S. Ehrlich, I. Gerasimov, C. Hölzer
   A. Katbashev, J. Kohn, J. Koopman, C. Lavigne, S. Lehtola, F. März, M. Müller,
   F. Musil, H. Neugebauer, J. Pisarek, C. Plett, P. Pracht, F. Pultar,
   J. Seibert, P. Shushkov, S. Spicher, M. Stahn, M. Steiner, T. Strunk,
   J. Stückrath, T. Rose, and J. Unsleber
   
 * started run on 2025/10/31 at 09:56:12.962     
   ID    Z sym.   atoms
    1    8 O      1, 9, 18, 19, 22, 26
    2    6 C      2, 4, 6, 8, 10, 12-17, 20, 23, 24
    3    1 H      3, 5, 7, 11, 21, 25, 27-38

           -------------------------------------------------
          |                Calculation Setup                |
           -------------------------------------------------

          program call               : /home/kmoult/orca_6_1/otool_xtb goat_0_XTB.xyz --grad -c 0 -u 0 -P 4 --namespace goat_0 --input goat_0_XTB.input.tmp --alpb ACETONE --acc 0.200000
          hostname                   : node3103
          calculation namespace      : goat_0
          coordinate file            : goat_0_XTB.xyz
          omp threads                :                     4


           -------------------------------------------------
          |                 G F N 2 - x T B                 |
           -------------------------------------------------

        Reference                      10.1021/acs.jctc.8b01176
      * Hamiltonian:
        H0-scaling (s, p, d)           1.850000    2.230000    2.230000
        zeta-weighting                 0.500000
      * Dispersion:
        s8                             2.700000
        a1                             0.520000
        a2                             5.000000
        s9                             5.000000
      * Repulsion:
        kExp                           1.500000    1.000000
        rExp                           1.000000
      * Coulomb:
        alpha                          2.000000
        third order                    shell-resolved
        anisotropic                    true
        a3                             3.000000
        a5                             4.000000
        cn-shift                       1.200000
        cn-exp                         4.000000
        max-rad                        5.000000

      * Solvation model:               ALPB
        Solvent                        ACETONE
        Parameter file                 internal GFN2-xTB/ALPB
        Dielectric constant                2.0700E+01
        Reference state                gsolv [1 M gas/solution]
        Free energy shift                  5.9241E-03 Eh       3.7175E+00 kcal/mol
        Temperature                        2.9815E+02 K
        Density                            7.9000E-01 kg/L
        Solvent mass                       5.8080E+01 g/mol
        Interaction kernel             P16
        Born radius scaling (c1)           1.8274E+00
        Born radii integrator          GBOBC
        Born offset                        0.0000E+00 a0       0.0000E+00 AA
        H-bond correction              true
        Ion screening                  false
        Surface tension                    1.0000E-05 Eh       1.5569E+01 dyn/cm
        Grid points                               230 per atom
q/qsh data taken from xtbrestart
CAMM data taken from xtbrestart

          ...................................................
          :                      SETUP                      :
          :.................................................:
          :  # basis functions                  98          :
          :  # atomic orbitals                  98          :
          :  # shells                           58          :
          :  # electrons                       110          :
          :  max. iterations                   250          :
          :  Hamiltonian                  GFN2-xTB          :
          :  restarted?                       true          :
          :  GBSA solvation                   true          :
          :  PC potential                    false          :
          :  electronic temp.          300.0000000     K    :
          :  accuracy                    0.2000000          :
          :  -> integral cutoff          0.3198970E+02      :
          :  -> integral neglect         0.2000000E-08      :
          :  -> SCF convergence          0.2000000E-06 Eh   :
          :  -> wf. convergence          0.2000000E-04 e    :
          :  Broyden damping             0.4000000          :
          :  net charge                          0          :
          :  unpaired electrons                  0          :
          ...................................................

 iter      E             dE          RMSdq      gap      omega  full diag
   1    -64.2445811 -0.642446E+02  0.666E-02    4.74       0.0  T
   2    -64.2445812 -0.137410E-06  0.391E-02    4.74       1.0  T
   3    -64.2445813 -0.519213E-07  0.102E-03    4.74      15.9  T
   4    -64.2445813 -0.176599E-07  0.576E-04    4.74      28.2  T
   5    -64.2445813 -0.154564E-08  0.179E-04    4.74      90.8  T
   6    -64.2445813 -0.387800E-09  0.461E-05    4.74     351.8  T

   *** convergence criteria satisfied after 6 iterations ***

         #    Occupation            Energy/Eh            Energy/eV
      -------------------------------------------------------------
         1        2.0000           -0.7320500             -19.9201
       ...           ...                  ...                  ...
        49        2.0000           -0.4287818             -11.6677
        50        2.0000           -0.4254040             -11.5758
        51        2.0000           -0.4220654             -11.4850
        52        2.0000           -0.4182679             -11.3816
        53        2.0000           -0.4118179             -11.2061
        54        2.0000           -0.4108859             -11.1808
        55        2.0000           -0.4086622             -11.1203 (HOMO)
        56                         -0.2345469              -6.3823 (LUMO)
        57                         -0.2292281              -6.2376
        58                         -0.1047576              -2.8506
        59                         -0.0374595              -1.0193
        60                         -0.0070587              -0.1921
       ...                                ...                  ...
        98                          0.6578732              17.9016
      -------------------------------------------------------------
                  HL-Gap            0.1741153 Eh            4.7379 eV
             Fermi-level           -0.3216046 Eh           -8.7513 eV

 SCC (total)                   0 d,  0 h,  0 min,  0.018 sec
 SCC setup                      ...        0 min,  0.000 sec (  2.574%)
 Dispersion                     ...        0 min,  0.000 sec (  1.223%)
 classical contributions        ...        0 min,  0.000 sec (  0.171%)
 integral evaluation            ...        0 min,  0.002 sec ( 11.402%)
 iterations                     ...        0 min,  0.009 sec ( 50.893%)
 molecular gradient             ...        0 min,  0.006 sec ( 33.000%)
 printout                       ...        0 min,  0.000 sec (  0.662%)

         :::::::::::::::::::::::::::::::::::::::::::::::::::::
         ::                     SUMMARY                     ::
         :::::::::::::::::::::::::::::::::::::::::::::::::::::
         :: total energy             -63.588625189152 Eh    ::
         :: total w/o Gsasa/hb       -63.559519087896 Eh    ::
         :: gradient norm              0.000810092657 Eh/a0 ::
         :: HOMO-LUMO gap              4.737917898878 eV    ::
         ::.................................................::
         :: SCC energy               -64.244464195548 Eh    ::
         :: -> isotropic ES            0.130018556401 Eh    ::
         :: -> anisotropic ES         -0.006275010993 Eh    ::
         :: -> anisotropic XC          0.001015254980 Eh    ::
         :: -> dispersion             -0.036420803574 Eh    ::
         :: -> Gsolv                  -0.032460566980 Eh    ::
         ::    -> Gelec               -0.003354465723 Eh    ::
         ::    -> Gsasa               -0.028299603643 Eh    ::
         ::    -> Ghb                 -0.006730638877 Eh    ::
         ::    -> Gshift               0.005924141264 Eh    ::
         :: repulsion energy           0.655839006396 Eh    ::
         :: add. restraining           0.000000000000 Eh    ::
         :: total charge              -0.000000000000 e     ::
         :::::::::::::::::::::::::::::::::::::::::::::::::::::


Property printout bound to 'properties.out'

           -------------------------------------------------
          | TOTAL ENERGY              -63.588625189152 Eh   |
          | GRADIENT NORM               0.000810092657 Eh/α |
          | HOMO-LUMO GAP               4.737917898878 eV   |
           -------------------------------------------------

------------------------------------------------------------------------
 * finished run on 2025/10/31 at 09:56:13.002     
------------------------------------------------------------------------
 total:
 * wall-time:     0 d,  0 h,  0 min,  0.040 sec
 *  cpu-time:     0 d,  0 h,  0 min,  0.138 sec
 * ratio c/w:     3.450 speedup
 SCF:
 * wall-time:     0 d,  0 h,  0 min,  0.018 sec
 *  cpu-time:     0 d,  0 h,  0 min,  0.073 sec
 * ratio c/w:     3.969 speedup


-------------------------   --------------------
FINAL SINGLE POINT ENERGY       -63.588625189150
-------------------------   --------------------


-------------
DIPOLE MOMENT
-------------
                                X             Y             Z
Total Dipole Moment    :     -0.23200      -1.03800       0.26400
                        -----------------------------------------
Magnitude (a.u.)       :      1.09589
Magnitude (Debye)      :      2.78552


------------------
CARTESIAN GRADIENT
------------------

   1   O   :   -0.000035858    0.000078912   -0.000107019
   2   C   :   -0.000097976   -0.000144880    0.000027329
   3   H   :    0.000037228    0.000029554   -0.000022152
   4   C   :    0.000109424    0.000149112    0.000067606
   5   H   :   -0.000053487   -0.000001372    0.000005553
   6   C   :    0.000064799   -0.000043830   -0.000214251
   7   H   :   -0.000024875   -0.000033644    0.000039134
   8   C   :    0.000085589   -0.000012460   -0.000049594
   9   O   :   -0.000018551   -0.000027849    0.000017553
  10   C   :   -0.000024534    0.000121743    0.000281879
  11   H   :   -0.000006540   -0.000006877   -0.000104549
  12   C   :    0.000017158   -0.000072197    0.000001213
  13   C   :   -0.000012363    0.000079605   -0.000078403
  14   C   :    0.000016369   -0.000006427   -0.000027837
  15   C   :   -0.000007072   -0.000028194    0.000059571
  16   C   :   -0.000023832   -0.000047431    0.000029305
  17   C   :    0.000065716    0.000113234   -0.000051053
  18   O   :   -0.000020542   -0.000143342   -0.000101756
  19   O   :   -0.000064004    0.000115371    0.000156894
  20   C   :    0.000031135   -0.000159967   -0.000327993
  21   H   :    0.000005787    0.000037495    0.000080071
  22   O   :    0.000141741    0.000086191    0.000026935
  23   C   :   -0.000154716   -0.000051477   -0.000026432
  24   C   :   -0.000043726   -0.000072168    0.000141660
  25   H   :    0.000007504    0.000029035   -0.000010054
  26   O   :    0.000066878    0.000112515    0.000051962
  27   H   :    0.000015334   -0.000050183    0.000042715
  28   H   :   -0.000022417   -0.000014689    0.000013116
  29   H   :   -0.000035897    0.000022085    0.000014080
  30   H   :   -0.000033492   -0.000024205    0.000006236
  31   H   :   -0.000025266   -0.000010649    0.000010784
  32   H   :   -0.000004645   -0.000014168    0.000011597
  33   H   :    0.000022634   -0.000000311    0.000007632
  34   H   :    0.000014665   -0.000013983    0.000044848
  35   H   :   -0.000043822    0.000022828   -0.000015571
  36   H   :    0.000052314    0.000004923    0.000020383
  37   H   :    0.000039970   -0.000007549   -0.000011504
  38   H   :   -0.000040630   -0.000014749   -0.000009884

Difference to translation invariance:
           :   -0.0000000000   -0.0000000000    0.0000000000

Difference to rotation invariance:
           :   -0.0004958740    0.0007328798    0.0001655678

Norm of the Cartesian gradient     ...    0.0008100927
RMS gradient                       ...    0.0000758721
MAX gradient                       ...    0.0003279930
------------------------------------------------------------------------------
                         ORCA GEOMETRY RELAXATION STEP
------------------------------------------------------------------------------

Reading the OPT-File                    .... done
Getting information on internals        .... done
Copying old internal coords+grads       .... done
Making the new internal coordinates     .... (2022 redundants) done
Validating the new internal coordinates .... (2022 redundants) done
Calculating the B-matrix                .... done
Calculating the G,G- and P matrices     .... done
Transforming gradient to internals      .... done
Projecting the internal gradient        .... done
Number of atoms                         ....  38
Number of internal coordinates          .... 203
Current Energy                          ....   -63.588625189 Eh
Current gradient norm                   ....     0.000810093 Eh/bohr
Maximum allowed component of the step   ....  0.300
Current trust radius                    ....  0.450
Updating the Hessian (BFGS)             .... done
Forming the augmented Hessian           .... done
Diagonalizing the augmented Hessian     .... done
Last element of RFO vector              ....  0.999918609
Lowest eigenvalues of augmented Hessian:
 -0.000001438  0.000959334  0.003376119  0.014798313  0.016153863
Length of the computed step             ....  0.012759402
The final length of the internal step   ....  0.012759402
Converting the step to Cartesian space:
 Initial RMS(Int)=    0.0008955345
Transforming coordinates:
 Iter   0:  RMS(Cart)=    0.0030819153 RMS(Int)=    0.0008952635
done
Storing new coordinates                 .... done
The predicted energy change is          ....    -0.000000719
Previously predicted energy change      ....    -0.000001301
Actually observed energy change         ....    -0.000001532
Ratio of predicted to observed change   ....     1.177006280
New trust radius                        ....     0.675000000

                                .--------------------.
          ----------------------|Geometry convergence|-------------------------
          Item                value                   Tolerance       Converged
          ---------------------------------------------------------------------
          Energy change      -0.0000015316            0.0000050000      YES
          RMS gradient        0.0000345975            0.0001000000      YES
          MAX gradient        0.0001427814            0.0003000000      YES
          RMS step            0.0008955345            0.0020000000      YES
          MAX step            0.0039637452            0.0040000000      YES
          -------------------------------------------------------------------------
          ........................................................
          Max(Bonds)      0.0018      Max(Angles)    0.03
          Max(Dihed)        0.23      Max(Improp)    0.00
          ---------------------------------------------------------------------

                    ***********************HURRAY********************
                    ***        THE OPTIMIZATION HAS CONVERGED     ***
                    *************************************************


    ---------------------------------------------------------------------------
                         Redundant Internal Coordinates

                          --- Optimized Parameters ---  
                            (Angstroem and degrees)

        Definition                    OldVal   dE/dq     Step     FinalVal
    ----------------------------------------------------------------------------
     1. B(C   1,O   0)                1.4051  0.000031 -0.0001    1.4050   
     2. B(H   2,C   1)                1.1023 -0.000011  0.0001    1.1024   
     3. B(C   3,C   1)                1.5261 -0.000023  0.0000    1.5261   
     4. B(H   4,C   3)                1.1043  0.000016 -0.0000    1.1043   
     5. B(C   5,C   3)                1.5335  0.000033 -0.0000    1.5335   
     6. B(H   6,C   5)                1.1036  0.000029 -0.0000    1.1036   
     7. B(C   7,C   5)                1.5317  0.000011 -0.0000    1.5317   
     8. B(O   8,C   7)                1.4118  0.000066  0.0000    1.4118   
     9. B(C   9,O   8)                1.4042  0.000008  0.0001    1.4043   
    10. B(H  10,C   9)                1.1128  0.000099 -0.0002    1.1126   
    11. B(C  11,C   9)                1.5081  0.000009 -0.0000    1.5081   
    12. B(C  12,C  11)                1.3876  0.000047 -0.0000    1.3876   
    13. B(C  13,C  12)                1.3849  0.000050 -0.0000    1.3849   
    14. B(C  14,C  13)                1.3848  0.000059 -0.0000    1.3848   
    15. B(C  15,C  14)                1.3854  0.000026 -0.0000    1.3854   
    16. B(C  16,C  15)                1.3839  0.000084 -0.0000    1.3839   
    17. B(C  16,C  11)                1.3883  0.000038  0.0000    1.3883   
    18. B(O  17,C   9)                1.4135 -0.000133  0.0002    1.4137   
    19. B(O  17,C   3)                1.4135  0.000059 -0.0001    1.4134   
    20. B(O  18,C   5)                1.4027  0.000027 -0.0000    1.4027   
    21. B(C  19,O  18)                1.4193 -0.000098  0.0002    1.4195   
    22. B(H  20,C  19)                1.1116  0.000077 -0.0001    1.1115   
    23. B(O  21,C  19)                1.3783  0.000040 -0.0000    1.3783   
    24. B(C  22,O  21)                1.4203 -0.000098  0.0001    1.4204   
    25. B(C  23,C  19)                1.5408  0.000070 -0.0000    1.5408   
    26. B(C  23,C   1)                1.5392  0.000003 -0.0000    1.5391   
    27. B(H  24,C  23)                1.0998  0.000010  0.0000    1.0998   
    28. B(O  25,C  23)                1.4011  0.000090 -0.0001    1.4010   
    29. B(H  26,O   0)                0.9663  0.000048 -0.0000    0.9663   
    30. B(H  26,O  17)                2.5323 -0.000011 -0.0011    2.5312   
    31. B(H  27,C   7)                1.0900 -0.000018  0.0000    1.0901   
    32. B(H  28,C   7)                1.0997 -0.000005 -0.0000    1.0997   
    33. B(H  29,C  12)                1.0804  0.000006 -0.0000    1.0804   
    34. B(H  30,C  13)                1.0799  0.000024 -0.0000    1.0799   
    35. B(H  31,C  14)                1.0801  0.000018 -0.0000    1.0801   
    36. B(H  32,C  15)                1.0800  0.000013 -0.0000    1.0800   
    37. B(H  33,C  16)                1.0782  0.000016 -0.0000    1.0782   
    38. B(H  34,C  22)                1.0872  0.000020 -0.0000    1.0872   
    39. B(H  35,C  22)                1.0924  0.000009 -0.0000    1.0924   
    40. B(H  36,C  22)                1.0953  0.000012 -0.0000    1.0953   
    41. B(H  37,O   0)                2.5287  0.000011 -0.0018    2.5269   
    42. B(H  37,O  25)                0.9677  0.000040 -0.0000    0.9677   
    43. A(C   1,O   0,H  26)          108.22 -0.000046    0.02    108.24   
    44. A(O   0,C   1,H   2)          110.20  0.000040   -0.01    110.19   
    45. A(H   2,C   1,C   3)          108.58 -0.000001   -0.00    108.58   
    46. A(H   2,C   1,C  23)          108.81 -0.000036    0.01    108.82   
    47. A(O   0,C   1,C   3)          112.50  0.000016    0.01    112.51   
    48. A(O   0,C   1,C  23)          107.42 -0.000019    0.02    107.44   
    49. A(C   3,C   1,C  23)          109.26 -0.000003   -0.02    109.25   
    50. A(H   4,C   3,C   5)          108.63 -0.000005   -0.01    108.62   
    51. A(H   4,C   3,O  17)          109.76  0.000006    0.00    109.76   
    52. A(C   1,C   3,C   5)          109.03  0.000058   -0.02    109.01   
    53. A(C   5,C   3,O  17)          110.25 -0.000017    0.01    110.26   
    54. A(C   1,C   3,H   4)          109.13 -0.000019    0.01    109.13   
    55. A(C   1,C   3,O  17)          110.01 -0.000023    0.01    110.02   
    56. A(C   7,C   5,O  18)          111.06  0.000095   -0.02    111.04   
    57. A(H   6,C   5,O  18)          110.48 -0.000013    0.00    110.48   
    58. A(C   3,C   5,C   7)          107.52  0.000017   -0.01    107.51   
    59. A(H   6,C   5,C   7)          109.03 -0.000027    0.01    109.05   
    60. A(C   3,C   5,O  18)          110.26 -0.000044    0.00    110.26   
    61. A(C   3,C   5,H   6)          108.40 -0.000030    0.01    108.41   
    62. A(O   8,C   7,H  27)          106.50 -0.000010   -0.00    106.50   
    63. A(C   5,C   7,H  27)          111.68  0.000028   -0.00    111.68   
    64. A(C   5,C   7,O   8)          109.20 -0.000037    0.02    109.21   
    65. A(O   8,C   7,H  28)          110.89  0.000004   -0.00    110.89   
    66. A(C   5,C   7,H  28)          109.01 -0.000020   -0.00    109.01   
    67. A(H  27,C   7,H  28)          109.55  0.000036   -0.01    109.54   
    68. A(C   7,O   8,C   9)          112.85  0.000019   -0.00    112.84   
    69. A(H  10,C   9,O  17)          108.07 -0.000004    0.00    108.08   
    70. A(O   8,C   9,O  17)          111.88  0.000020   -0.01    111.86   
    71. A(O   8,C   9,C  11)          109.19  0.000009   -0.01    109.18   
    72. A(O   8,C   9,H  10)          108.81 -0.000038    0.01    108.82   
    73. A(C  11,C   9,O  17)          108.10  0.000017    0.01    108.11   
    74. A(H  10,C   9,C  11)          110.80 -0.000004   -0.01    110.80   
    75. A(C   9,C  11,C  12)          120.64 -0.000026    0.00    120.65   
    76. A(C  12,C  11,C  16)          119.74  0.000031   -0.00    119.74   
    77. A(C   9,C  11,C  16)          119.61 -0.000005    0.00    119.61   
    78. A(C  11,C  12,H  29)          119.92  0.000053   -0.01    119.91   
    79. A(C  13,C  12,H  29)          120.03 -0.000026    0.00    120.03   
    80. A(C  11,C  12,C  13)          120.05 -0.000027    0.00    120.06   
    81. A(C  14,C  13,H  30)          120.12 -0.000019    0.01    120.13   
    82. A(C  12,C  13,H  30)          119.74 -0.000002   -0.00    119.74   
    83. A(C  12,C  13,C  14)          120.13  0.000022   -0.00    120.13   
    84. A(C  13,C  14,H  31)          120.04  0.000003    0.00    120.04   
    85. A(C  13,C  14,C  15)          119.87 -0.000013    0.00    119.87   
    86. A(C  15,C  14,H  31)          120.10  0.000010   -0.00    120.09   
    87. A(C  16,C  15,H  32)          119.79 -0.000016   -0.00    119.79   
    88. A(C  14,C  15,H  32)          120.07  0.000003   -0.00    120.07   
    89. A(C  14,C  15,C  16)          120.13  0.000014    0.00    120.13   
    90. A(C  11,C  16,C  15)          120.07 -0.000026    0.00    120.07   
    91. A(C  15,C  16,H  33)          120.82 -0.000034   -0.00    120.81   
    92. A(C  11,C  16,H  33)          119.11  0.000060   -0.00    119.11   
    93. A(C   3,O  17,C   9)          111.23  0.000046   -0.02    111.21   
    94. A(C   5,O  18,C  19)          112.70  0.000080   -0.00    112.70   
    95. A(O  18,C  19,O  21)          108.37  0.000057   -0.01    108.36   
    96. A(O  21,C  19,C  23)          107.58 -0.000019    0.00    107.58   
    97. A(H  20,C  19,C  23)          108.00 -0.000034    0.01    108.01   
    98. A(O  18,C  19,C  23)          112.96 -0.000005   -0.01    112.95   
    99. A(H  20,C  19,O  21)          111.19 -0.000008    0.01    111.20   
   100. A(O  18,C  19,H  20)          108.78  0.000009   -0.00    108.77   
   101. A(C  19,O  21,C  22)          114.49  0.000143   -0.02    114.46   
   102. A(H  35,C  22,H  36)          109.60 -0.000058    0.00    109.60   
   103. A(H  34,C  22,H  36)          110.00 -0.000001    0.00    110.00   
   104. A(O  21,C  22,H  36)          110.49  0.000046   -0.01    110.48   
   105. A(H  34,C  22,H  35)          110.21  0.000011    0.00    110.21   
   106. A(O  21,C  22,H  35)          110.89  0.000085   -0.01    110.88   
   107. A(O  21,C  22,H  34)          105.60 -0.000082    0.01    105.61   
   108. A(H  24,C  23,O  25)          110.90 -0.000019    0.01    110.90   
   109. A(C  19,C  23,O  25)          106.95  0.000003    0.01    106.97   
   110. A(C   1,C  23,O  25)          110.65  0.000032   -0.00    110.65   
   111. A(C  19,C  23,H  24)          107.58 -0.000028    0.00    107.58   
   112. A(C   1,C  23,H  24)          108.58  0.000003    0.01    108.58   
   113. A(C   1,C  23,C  19)          112.16  0.000007   -0.03    112.13   
   114. A(C  23,O  25,H  37)          107.80 -0.000069    0.01    107.81   
   115. D(C   3,C   1,O   0,H  26)     54.15  0.000027   -0.12     54.03   
   116. D(C  23,C   1,O   0,H  26)    174.43  0.000021   -0.12    174.31   
   117. D(H   2,C   1,O   0,H  26)    -67.18 -0.000011   -0.11    -67.29   
   118. D(C   5,C   3,C   1,C  23)     54.51 -0.000020    0.08     54.59   
   119. D(H   4,C   3,C   1,O   0)     55.20 -0.000052    0.12     55.32   
   120. D(H   4,C   3,C   1,C  23)    -64.00 -0.000037    0.10    -63.90   
   121. D(C   5,C   3,C   1,H   2)    -64.03  0.000025    0.08    -63.95   
   122. D(H   4,C   3,C   1,H   2)    177.45  0.000008    0.10    177.56   
   123. D(C   5,C   3,C   1,O   0)    173.72 -0.000035    0.10    173.81   
   124. D(C   7,C   5,C   3,O  17)     55.24 -0.000027    0.01     55.24   
   125. D(C   7,C   5,C   3,C   1)    176.11 -0.000029    0.01    176.12   
   126. D(C   7,C   5,C   3,H   4)    -65.07 -0.000021    0.00    -65.07   
   127. D(H   6,C   5,C   3,O  17)    -62.50  0.000012   -0.01    -62.51   
   128. D(H   6,C   5,C   3,H   4)    177.19  0.000018   -0.01    177.18   
   129. D(H   6,C   5,C   3,C   1)     58.37  0.000010   -0.00     58.37   
   130. D(H  27,C   7,C   5,H   6)    -54.50 -0.000020    0.03    -54.47   
   131. D(H  27,C   7,C   5,O  18)     67.47  0.000007    0.03     67.50   
   132. D(H  27,C   7,C   5,C   3)   -171.83  0.000021    0.02   -171.81   
   133. D(O   8,C   7,C   5,H   6)     63.02 -0.000038    0.04     63.06   
   134. D(O   8,C   7,C   5,C   3)    -54.30  0.000002    0.02    -54.28   
   135. D(O   8,C   7,C   5,O  18)   -175.01 -0.000012    0.04   -174.97   
   136. D(C   9,O   8,C   7,H  28)    -62.34  0.000034   -0.02    -62.36   
   137. D(C   9,O   8,C   7,H  27)    178.54 -0.000005   -0.01    178.53   
   138. D(C   9,O   8,C   7,C   5)     57.80 -0.000012   -0.01     57.78   
   139. D(O  17,C   9,O   8,C   7)    -60.01  0.000011   -0.01    -60.02   
   140. D(C  11,C   9,O   8,C   7)   -179.63 -0.000029   -0.00   -179.63   
   141. D(H  10,C   9,O   8,C   7)     59.32 -0.000006    0.00     59.32   
   142. D(C  12,C  11,C   9,O  17)    106.42 -0.000023    0.23    106.65   
   143. D(C  12,C  11,C   9,H  10)    -11.83 -0.000026    0.22    -11.61   
   144. D(C  12,C  11,C   9,O   8)   -131.66  0.000018    0.21   -131.44   
   145. D(C  16,C  11,C   9,O   8)     49.41  0.000024    0.16     49.57   
   146. D(C  16,C  11,C   9,H  10)    169.23 -0.000020    0.17    169.41   
   147. D(H  29,C  12,C  11,C  16)   -180.00 -0.000006    0.03   -179.97   
   148. D(H  29,C  12,C  11,C   9)      1.07  0.000000   -0.02      1.05   
   149. D(C  13,C  12,C  11,C  16)     -0.02 -0.000002    0.01     -0.01   
   150. D(C  13,C  12,C  11,C   9)   -178.96  0.000004   -0.03   -178.99   
   151. D(H  30,C  13,C  12,H  29)     -0.02 -0.000002    0.01     -0.01   
   152. D(H  30,C  13,C  12,C  11)   -180.00 -0.000006    0.03   -179.97   
   153. D(C  14,C  13,C  12,H  29)    179.95  0.000007   -0.02    179.94   
   154. D(C  14,C  13,C  12,C  11)     -0.03  0.000004    0.00     -0.02   
   155. D(H  31,C  14,C  13,H  30)     -0.03  0.000007   -0.03     -0.06   
   156. D(C  15,C  14,C  13,C  12)     -0.04 -0.000005   -0.01     -0.04   
   157. D(H  31,C  14,C  13,C  12)    179.99 -0.000003   -0.00    179.99   
   158. D(C  15,C  14,C  13,H  30)    179.94  0.000005   -0.03    179.90   
   159. D(H  32,C  15,C  14,H  31)      0.05  0.000002   -0.00      0.05   
   160. D(H  32,C  15,C  14,C  13)   -179.91  0.000004    0.00   -179.91   
   161. D(C  16,C  15,C  14,H  31)   -179.89  0.000002   -0.00   -179.89   
   162. D(C  16,C  15,C  14,C  13)      0.14  0.000004   -0.00      0.14   
   163. D(H  33,C  16,C  15,H  32)      0.31 -0.000005    0.01      0.32   
   164. D(C  11,C  16,C  15,H  32)    179.87 -0.000002    0.01    179.88   
   165. D(C  11,C  16,C  15,C  14)     -0.19 -0.000002    0.01     -0.18   
   166. D(H  33,C  16,C  11,C  12)    179.70  0.000004   -0.02    179.68   
   167. D(H  33,C  16,C  11,C   9)     -1.36 -0.000002    0.03     -1.33   
   168. D(H  33,C  16,C  15,C  14)   -179.75 -0.000005    0.01   -179.74   
   169. D(C  15,C  16,C  11,C  12)      0.13  0.000001   -0.02      0.11   
   170. D(C  15,C  16,C  11,C   9)    179.07 -0.000005    0.03    179.10   
   171. D(C   3,O  17,C   9,C  11)    179.63  0.000003    0.02    179.65   
   172. D(C   3,O  17,C   9,H  10)    -60.39  0.000006    0.02    -60.37   
   173. D(C   3,O  17,C   9,O   8)     59.37 -0.000032    0.03     59.40   
   174. D(C   9,O  17,C   3,C   5)    -57.95  0.000040   -0.04    -57.98   
   175. D(C   9,O  17,C   3,H   4)     61.68  0.000027   -0.04     61.64   
   176. D(C   9,O  17,C   3,C   1)   -178.23 -0.000007   -0.02   -178.25   
   177. D(C  19,O  18,C   5,C   3)     63.23 -0.000053   -0.02     63.22   
   178. D(C  19,O  18,C   5,C   7)   -177.69  0.000001   -0.04   -177.73   
   179. D(C  19,O  18,C   5,H   6)    -56.57  0.000021   -0.04    -56.61   
   180. D(C  23,C  19,O  18,C   5)    -55.86  0.000017   -0.00    -55.86   
   181. D(O  21,C  19,O  18,C   5)   -174.95  0.000007    0.01   -174.95   
   182. D(H  20,C  19,O  18,C   5)     64.04 -0.000022   -0.00     64.04   
   183. D(C  22,O  21,C  19,C  23)    166.85 -0.000022    0.01    166.86   
   184. D(C  22,O  21,C  19,H  20)     48.79  0.000035   -0.01     48.78   
   185. D(C  22,O  21,C  19,O  18)    -70.72 -0.000007   -0.01    -70.72   
   186. D(H  36,C  22,O  21,C  19)    -60.31 -0.000021    0.04    -60.27   
   187. D(H  35,C  22,O  21,C  19)     61.41 -0.000006    0.03     61.44   
   188. D(H  34,C  22,O  21,C  19)   -179.22  0.000004    0.03   -179.19   
   189. D(H  24,C  23,C  19,O  21)     48.29  0.000024    0.05     48.34   
   190. D(H  24,C  23,C  19,H  20)    168.40 -0.000015    0.07    168.47   
   191. D(H  24,C  23,C  19,O  18)    -71.26 -0.000031    0.07    -71.19   
   192. D(C   1,C  23,C  19,O  21)    167.62  0.000014    0.04    167.67   
   193. D(C   1,C  23,C  19,H  20)    -72.27 -0.000025    0.07    -72.21   
   194. D(C   1,C  23,C  19,O  18)     48.07 -0.000041    0.06     48.13   
   195. D(H  24,C  23,C   1,C   3)     70.74  0.000014   -0.11     70.63   
   196. D(H  24,C  23,C   1,H   2)   -170.86 -0.000009   -0.12   -170.98   
   197. D(H  24,C  23,C   1,O   0)    -51.57  0.000008   -0.12    -51.70   
   198. D(C  19,C  23,C   1,C   3)    -48.00  0.000043   -0.10    -48.11   
   199. D(C  19,C  23,C   1,H   2)     70.40  0.000019   -0.11     70.28   
   200. D(C  19,C  23,C   1,O   0)   -170.31  0.000036   -0.12   -170.43   
   201. D(H  37,O  25,C  23,H  24)     61.56  0.000018    0.11     61.67   
   202. D(H  37,O  25,C  23,C  19)    178.58 -0.000024    0.13    178.71   
   203. D(H  37,O  25,C  23,C   1)    -58.99  0.000005    0.10    -58.89   
    ----------------------------------------------------------------------------

Geometry step timings:
Preparation and reading OPT file:      0.001 s ( 7.861 %)
Internal coordinates            :      0.000 s ( 0.161 %)
B/P matrices and projection     :      0.003 s (15.843 %)
Hessian update/contruction      :      0.009 s (47.750 %)
Making the step                 :      0.002 s (11.680 %)
Converting the step to Cartesian:      0.000 s ( 1.334 %)
Storing new data                :      0.001 s ( 5.419 %)
Checking convergence            :      0.000 s ( 0.155 %)
Final printing                  :      0.002 s ( 9.787 %)
Total time                      :      0.018 s
                 *******************************************************
                 *** FINAL ENERGY EVALUATION AT THE STATIONARY POINT ***
                 ***               (AFTER   13 CYCLES)               ***
                 *******************************************************
---------------------------------
CARTESIAN COORDINATES (ANGSTROEM)
---------------------------------
  O    -2.756990    2.938593    0.180114
  C    -1.359196    2.800881    0.145799
  H    -0.958427    2.732359    1.170458
  C    -0.912569    1.567738   -0.634465
  H    -1.345710    1.605207   -1.649604
  C     0.616278    1.578673   -0.753637
  H     1.045053    1.592661    0.263134
  C     1.033171    0.281922   -1.454101
  O     0.491186   -0.818549   -0.755345
  C    -0.908555   -0.764982   -0.655196
  H    -1.341241   -0.746166   -1.680029
  C    -1.396934   -1.969161    0.110257
  C    -2.443084   -2.739990   -0.376287
  C    -2.895582   -3.830958    0.346929
  C    -2.305550   -4.156113    1.556825
  C    -1.259999   -3.388126    2.043068
  C    -0.807009   -2.296165    1.323708
  O    -1.343616    0.394819    0.026019
  O     1.038883    2.701711   -1.480077
  C     0.715379    3.924417   -0.835699
  H     1.269787    3.979526    0.126089
  O     1.065107    4.962038   -1.672807
  C     2.464888    5.153958   -1.818597
  C    -0.787984    4.061610   -0.527423
  H    -1.310344    4.215945   -1.482921
  O    -0.933924    5.176881    0.307820
  H    -3.133744    2.115390    0.517990
  H     2.115270    0.150523   -1.447287
  H     0.671828    0.303600   -2.492493
  H    -2.903886   -2.488368   -1.320508
  H    -3.709786   -4.427619   -0.036771
  H    -2.659796   -5.007189    2.119660
  H    -0.796523   -3.639557    2.985604
  H     0.008583   -1.693398    1.689765
  H     2.575605    6.004353   -2.486807
  H     2.935988    4.269108   -2.252656
  H     2.924176    5.376642   -0.849545
  H    -1.877405    5.286757    0.492815

----------------------------
CARTESIAN COORDINATES (A.U.)
----------------------------
  NO LB    ZA    FRAG    MASS        X           Y           Z
   0 O   8.0000    1    15.999   -5.209956    5.553136    0.340366
   1 C   6.0000    1    12.011   -2.568509    5.292898    0.275521
   2 H   1.0000    1     1.008   -1.811165    5.163409    2.211846
   3 C   6.0000    1    12.011   -1.724505    2.962595   -1.198964
   4 H   1.0000    1     1.008   -2.543023    3.033401   -3.117300
   5 C   6.0000    1    12.011    1.164597    2.983260   -1.424168
   6 H   1.0000    1     1.008    1.974865    3.009693    0.497251
   7 C   6.0000    1    12.011    1.952411    0.532755   -2.747853
   8 O   8.0000    1    15.999    0.928207   -1.546833   -1.427395
   9 C   6.0000    1    12.011   -1.716920   -1.445606   -1.238141
  10 H   1.0000    1     1.008   -2.534578   -1.410050   -3.174794
  11 C   6.0000    1    12.011   -2.639822   -3.721175    0.208355
  12 C   6.0000    1    12.011   -4.616761   -5.177831   -0.711079
  13 C   6.0000    1    12.011   -5.471857   -7.239462    0.655600
  14 C   6.0000    1    12.011   -4.356858   -7.853915    2.941973
  15 C   6.0000    1    12.011   -2.381053   -6.402630    3.860840
  16 C   6.0000    1    12.011   -1.525026   -4.339122    2.501445
  17 O   8.0000    1    15.999   -2.539066    0.746100    0.049169
  18 O   8.0000    1    15.999    1.963205    5.105494   -2.796940
  19 C   6.0000    1    12.011    1.351870    7.416074   -1.579241
  20 H   1.0000    1     1.008    2.399549    7.520214    0.238273
  21 O   8.0000    1    15.999    2.012760    9.376893   -3.161147
  22 C   6.0000    1    12.011    4.657963    9.739568   -3.436650
  23 C   6.0000    1    12.011   -1.489074    7.675330   -0.996685
  24 H   1.0000    1     1.008   -2.476191    7.966982   -2.802314
  25 O   8.0000    1    15.999   -1.764861    9.782888    0.581696
  26 H   1.0000    1     1.008   -5.921918    3.997508    0.978859
  27 H   1.0000    1     1.008    3.997281    0.284447   -2.734977
  28 H   1.0000    1     1.008    1.269571    0.573720   -4.710129
  29 H   1.0000    1     1.008   -5.487549   -4.702333   -2.495399
  30 H   1.0000    1     1.008   -7.010480   -8.366988   -0.069487
  31 H   1.0000    1     1.008   -5.026286   -9.462216    4.005576
  32 H   1.0000    1     1.008   -1.505211   -6.877767    5.641974
  33 H   1.0000    1     1.008    0.016219   -3.200059    3.193193
  34 H   1.0000    1     1.008    4.867189   11.346582   -4.699383
  35 H   1.0000    1     1.008    5.548214    8.067445   -4.256902
  36 H   1.0000    1     1.008    5.525893   10.160380   -1.605408
  37 H   1.0000    1     1.008   -3.547781    9.990523    0.931286

      -----------------------------------------------------------      
     |                   =====================                   |     
     |                           x T B                           |     
     |                   =====================                   |     
     |                         S. Grimme                         |     
     |          Mulliken Center for Theoretical Chemistry        |     
     |                    University of Bonn                     |     
      -----------------------------------------------------------      

   * xtb version 6.7.1 (edcfbbe) compiled by 'albert@albert-system' on 2024-07-22

   xtb is free software: you can redistribute it and/or modify it under
   the terms of the GNU Lesser General Public License as published by
   the Free Software Foundation, either version 3 of the License, or
   (at your option) any later version.
   
   xtb is distributed in the hope that it will be useful,
   but WITHOUT ANY WARRANTY; without even the implied warranty of
   MERCHANTABILITY or FITNESS FOR A PARTICULAR PURPOSE.  See the
   GNU Lesser General Public License for more details.
   
   Cite this work as:
   * C. Bannwarth, E. Caldeweyher, S. Ehlert, A. Hansen, P. Pracht,
     J. Seibert, S. Spicher, S. Grimme, WIREs Comput. Mol. Sci., 2020, 11,
     e01493. DOI: 10.1002/wcms.1493
   
   for GFN2-xTB:
   * C. Bannwarth, S. Ehlert and S. Grimme., J. Chem. Theory Comput., 2019,
     15, 1652-1671. DOI: 10.1021/acs.jctc.8b01176
   for GFN1-xTB:
   * S. Grimme, C. Bannwarth, P. Shushkov, J. Chem. Theory Comput., 2017,
     13, 1989-2009. DOI: 10.1021/acs.jctc.7b00118
   for GFN0-xTB:
   * P. Pracht, E. Caldeweyher, S. Ehlert, S. Grimme, ChemRxiv, 2019, preprint.
     DOI: 10.26434/chemrxiv.8326202.v1
   for GFN-FF:
   * S. Spicher and S. Grimme, Angew. Chem. Int. Ed., 2020, 59, 15665-15673.
     DOI: 10.1002/anie.202004239
   
   for ALPB and GBSA implicit solvation:
   * S. Ehlert, M. Stahn, S. Spicher, S. Grimme, J. Chem. Theory Comput.,
     2021, 17, 4250-4261. DOI: 10.1021/acs.jctc.1c00471
   
   for ddCOSMO and CPCM-X implicit solvation:
   * M. Stahn, S. Ehlert, S. Grimme, J. Phys. Chem. A,
     2023, XX, XXXX-XXXX. DOI: 10.1021/acs.jpca.3c04382
   
   for DFT-D4:
   * E. Caldeweyher, C. Bannwarth and S. Grimme, J. Chem. Phys., 2017,
     147, 034112. DOI: 10.1063/1.4993215
   * E. Caldeweyher, S. Ehlert, A. Hansen, H. Neugebauer, S. Spicher,
     C. Bannwarth and S. Grimme, J. Chem. Phys., 2019, 150, 154122.
     DOI: 10.1063/1.5090222
   * E. Caldeweyher, J.-M. Mewes, S. Ehlert and S. Grimme, Phys. Chem. Chem. Phys.
     2020, 22, 8499-8512. DOI: 10.1039/D0CP00502A
   
   for sTDA-xTB:
   * S. Grimme and C. Bannwarth, J. Chem. Phys., 2016, 145, 054103.
     DOI: 10.1063/1.4959605
   
   in the mass-spec context:
   * V. Asgeirsson, C. Bauer and S. Grimme, Chem. Sci., 2017, 8, 4879.
     DOI: 10.1039/c7sc00601b
   * J. Koopman and S. Grimme, ACS Omega 2019, 4, 12, 15120-15133.
     DOI: 10.1021/acsomega.9b02011
   
   for metadynamics refer to:
   * S. Grimme, J. Chem. Theory Comput., 2019, 155, 2847-2862
     DOI: 10.1021/acs.jctc.9b00143
   
   for SPH calculations refer to:
   * S. Spicher and S. Grimme, J. Chem. Theory Comput., 2021, 17, 1701-1714
     DOI: 10.1021/acs.jctc.0c01306
   
   for ONIOM refer to:
   * C. Plett, A. Katbashev, S. Ehlert, S. Grimme, M. Bursch,
     Phys. Chem. Chem. Phys., 2023, 25, 17860-17868. DOI: 10.1039/D3CP02178E
   
   for DIPRO refer to:
   * J. Kohn, N. Gildemeister, S. Grimme, D. Fazzi, A. Hansen,
     J. Chem. Phys., 2023, just accepted.
   
   for PTB refer to:
   * S. Grimme, M. Mueller, A. Hansen, J. Chem. Phys., 2023, 158, 124111.
     DOI: 10.1063/5.0137838
   
   with help from (in alphabetical order)
   P. Atkinson, C. Bannwarth, F. Bohle, G. Brandenburg, E. Caldeweyher
   M. Checinski, S. Dohm, S. Ehlert, S. Ehrlich, I. Gerasimov, C. Hölzer
   A. Katbashev, J. Kohn, J. Koopman, C. Lavigne, S. Lehtola, F. März, M. Müller,
   F. Musil, H. Neugebauer, J. Pisarek, C. Plett, P. Pracht, F. Pultar,
   J. Seibert, P. Shushkov, S. Spicher, M. Stahn, M. Steiner, T. Strunk,
   J. Stückrath, T. Rose, and J. Unsleber
   
 * started run on 2025/10/31 at 09:56:13.065     
   ID    Z sym.   atoms
    1    8 O      1, 9, 18, 19, 22, 26
    2    6 C      2, 4, 6, 8, 10, 12-17, 20, 23, 24
    3    1 H      3, 5, 7, 11, 21, 25, 27-38

           -------------------------------------------------
          |                Calculation Setup                |
           -------------------------------------------------

          program call               : /home/kmoult/orca_6_1/otool_xtb goat_0_XTB.xyz --grad -c 0 -u 0 -P 4 --namespace goat_0 --input goat_0_XTB.input.tmp --alpb ACETONE --acc 0.200000
          hostname                   : node3103
          calculation namespace      : goat_0
          coordinate file            : goat_0_XTB.xyz
          omp threads                :                     4


           -------------------------------------------------
          |                 G F N 2 - x T B                 |
           -------------------------------------------------

        Reference                      10.1021/acs.jctc.8b01176
      * Hamiltonian:
        H0-scaling (s, p, d)           1.850000    2.230000    2.230000
        zeta-weighting                 0.500000
      * Dispersion:
        s8                             2.700000
        a1                             0.520000
        a2                             5.000000
        s9                             5.000000
      * Repulsion:
        kExp                           1.500000    1.000000
        rExp                           1.000000
      * Coulomb:
        alpha                          2.000000
        third order                    shell-resolved
        anisotropic                    true
        a3                             3.000000
        a5                             4.000000
        cn-shift                       1.200000
        cn-exp                         4.000000
        max-rad                        5.000000

      * Solvation model:               ALPB
        Solvent                        ACETONE
        Parameter file                 internal GFN2-xTB/ALPB
        Dielectric constant                2.0700E+01
        Reference state                gsolv [1 M gas/solution]
        Free energy shift                  5.9241E-03 Eh       3.7175E+00 kcal/mol
        Temperature                        2.9815E+02 K
        Density                            7.9000E-01 kg/L
        Solvent mass                       5.8080E+01 g/mol
        Interaction kernel             P16
        Born radius scaling (c1)           1.8274E+00
        Born radii integrator          GBOBC
        Born offset                        0.0000E+00 a0       0.0000E+00 AA
        H-bond correction              true
        Ion screening                  false
        Surface tension                    1.0000E-05 Eh       1.5569E+01 dyn/cm
        Grid points                               230 per atom
q/qsh data taken from xtbrestart
CAMM data taken from xtbrestart

          ...................................................
          :                      SETUP                      :
          :.................................................:
          :  # basis functions                  98          :
          :  # atomic orbitals                  98          :
          :  # shells                           58          :
          :  # electrons                       110          :
          :  max. iterations                   250          :
          :  Hamiltonian                  GFN2-xTB          :
          :  restarted?                       true          :
          :  GBSA solvation                   true          :
          :  PC potential                    false          :
          :  electronic temp.          300.0000000     K    :
          :  accuracy                    0.2000000          :
          :  -> integral cutoff          0.3198970E+02      :
          :  -> integral neglect         0.2000000E-08      :
          :  -> SCF convergence          0.2000000E-06 Eh   :
          :  -> wf. convergence          0.2000000E-04 e    :
          :  Broyden damping             0.4000000          :
          :  net charge                          0          :
          :  unpaired electrons                  0          :
          ...................................................

 iter      E             dE          RMSdq      gap      omega  full diag
   1    -64.2446446 -0.642446E+02  0.122E-02    4.74       0.0  T
   2    -64.2446446 -0.121413E-07  0.717E-03    4.74       2.3  T
   3    -64.2446446  0.279854E-09  0.402E-04    4.74      40.3  T
   4    -64.2446446 -0.444560E-08  0.173E-04    4.74      93.8  T
   5    -64.2446446 -0.110148E-09  0.959E-05    4.74     169.1  T

   *** convergence criteria satisfied after 5 iterations ***

         #    Occupation            Energy/Eh            Energy/eV
      -------------------------------------------------------------
         1        2.0000           -0.7320533             -19.9202
       ...           ...                  ...                  ...
        49        2.0000           -0.4287797             -11.6677
        50        2.0000           -0.4254014             -11.5758
        51        2.0000           -0.4220795             -11.4854
        52        2.0000           -0.4182784             -11.3819
        53        2.0000           -0.4118361             -11.2066
        54        2.0000           -0.4108965             -11.1811
        55        2.0000           -0.4086708             -11.1205 (HOMO)
        56                         -0.2345589              -6.3827 (LUMO)
        57                         -0.2292309              -6.2377
        58                         -0.1047605              -2.8507
        59                         -0.0374617              -1.0194
        60                         -0.0071059              -0.1934
       ...                                ...                  ...
        98                          0.6579136              17.9027
      -------------------------------------------------------------
                  HL-Gap            0.1741120 Eh            4.7378 eV
             Fermi-level           -0.3216148 Eh           -8.7516 eV

 SCC (total)                   0 d,  0 h,  0 min,  0.017 sec
 SCC setup                      ...        0 min,  0.000 sec (  2.701%)
 Dispersion                     ...        0 min,  0.000 sec (  1.447%)
 classical contributions        ...        0 min,  0.000 sec (  0.175%)
 integral evaluation            ...        0 min,  0.002 sec ( 12.442%)
 iterations                     ...        0 min,  0.008 sec ( 47.667%)
 molecular gradient             ...        0 min,  0.006 sec ( 34.790%)
 printout                       ...        0 min,  0.000 sec (  0.691%)

         :::::::::::::::::::::::::::::::::::::::::::::::::::::
         ::                     SUMMARY                     ::
         :::::::::::::::::::::::::::::::::::::::::::::::::::::
         :: total energy             -63.588626273771 Eh    ::
         :: total w/o Gsasa/hb       -63.559523948843 Eh    ::
         :: gradient norm              0.000507366619 Eh/a0 ::
         :: HOMO-LUMO gap              4.737827776962 eV    ::
         ::.................................................::
         :: SCC energy               -64.244527832236 Eh    ::
         :: -> isotropic ES            0.130016805170 Eh    ::
         :: -> anisotropic ES         -0.006273982024 Eh    ::
         :: -> anisotropic XC          0.001014462301 Eh    ::
         :: -> dispersion             -0.036422323452 Eh    ::
         :: -> Gsolv                  -0.032456889171 Eh    ::
         ::    -> Gelec               -0.003354564244 Eh    ::
         ::    -> Gsasa               -0.028297718246 Eh    ::
         ::    -> Ghb                 -0.006728747946 Eh    ::
         ::    -> Gshift               0.005924141264 Eh    ::
         :: repulsion energy           0.655901558465 Eh    ::
         :: add. restraining           0.000000000000 Eh    ::
         :: total charge              -0.000000000000 e     ::
         :::::::::::::::::::::::::::::::::::::::::::::::::::::


Property printout bound to 'properties.out'

           -------------------------------------------------
          | TOTAL ENERGY              -63.588626273771 Eh   |
          | GRADIENT NORM               0.000507366619 Eh/α |
          | HOMO-LUMO GAP               4.737827776962 eV   |
           -------------------------------------------------

------------------------------------------------------------------------
 * finished run on 2025/10/31 at 09:56:13.106     
------------------------------------------------------------------------
 total:
 * wall-time:     0 d,  0 h,  0 min,  0.041 sec
 *  cpu-time:     0 d,  0 h,  0 min,  0.137 sec
 * ratio c/w:     3.383 speedup
 SCF:
 * wall-time:     0 d,  0 h,  0 min,  0.017 sec
 *  cpu-time:     0 d,  0 h,  0 min,  0.069 sec
 * ratio c/w:     3.974 speedup


-------------------------   --------------------
FINAL SINGLE POINT ENERGY       -63.588626273770
-------------------------   --------------------


-------------
DIPOLE MOMENT
-------------
                                X             Y             Z
Total Dipole Moment    :     -0.23100      -1.04000       0.26500
                        -----------------------------------------
Magnitude (a.u.)       :      1.09781
Magnitude (Debye)      :      2.79041

                                *** OPTIMIZATION RUN DONE ***

		     ------------------------------
			                   _   
			                  | |  
			  __ _  ___   __ _| |_ 
			 / _` |/ _ \ / _` | __|
			| (_| | (_) | (_| | |_ 
			 \__, |\___/ \__,_|\__|
			 __/ |                
			|___/                 

		      A Global Optimizer Algorithm
		     ------------------------------

Global parameters
-----------------
  GOAT version                               ... default
  Minimum global steps                       ... 3
  Number of base workers                     ... 4
  Split workers by                           ... 2
  Final number of workers                    ... 8
  Number of available CPUs                   ... 4
  Parameter list (worker : temperature)      ...  0 : 2903.97,  1 : 1451.98, 
                                                  2 :  725.99,  3 :  363.00, 
                                                  4 : 2903.97,  5 : 1451.98, 
                                                  6 :  725.99,  7 :  363.00 
  GradComp (mean : sigma)                    ... 1.00 : 0.50
  Number of fragments                        ... 1
  Number of atoms                            ... 38
  Flexibility parameter                      ... 0.45
  Optimizations per global step              ... 424
  Optimizations per worker                   ... 53

Filtering criteria
------------------
  RMSD                                       ... 0.125 Angs (atom. pos.)
  EnDiff                                     ... 0.100 kcal/mol
  RotConst                                   ... 1.00-2.50 %
  Maximum Conf. Energy                       ... 6.000 kcal/mol

Thermodynamics
--------------
  Ensemble temperature                       ... 298.15 K
  Degeneracy of conformers                   ... 1
  *No rotamers will be included in Gconf

------------------------------------------------------------------------------
   Iter  MinTemp     MaxEn       GradComp    NOpt   NProcs    Output
------------------------------------------------------------------------------
List of participating nodes    ...  goat_0.goat.0.hostnames

   1     1451.98    114.00    1.00 : 0.50      53        1    goat_0.goat.0.1.out
   0     2903.97    114.00    1.00 : 0.50      53        1    goat_0.goat.0.0.out
   3      363.00    114.00    1.00 : 0.50      53        1    goat_0.goat.0.3.out
   2      725.99    114.00    1.00 : 0.50      53        1    goat_0.goat.0.2.out
   4     2903.97    114.00    1.00 : 0.50      53        1    goat_0.goat.0.4.out
   5     1451.98    114.00    1.00 : 0.50      53        1    goat_0.goat.0.5.out
   6      725.99    114.00    1.00 : 0.50      53        1    goat_0.goat.0.6.out
   7      363.00    114.00    1.00 : 0.50      53        1    goat_0.goat.0.7.out

			     GOAT Global Iter 1
		Iter    Min En       Sconf       Gconf   
		        Hartree      cal/(molK)  kcal/mol
		=========================================

		   1    -63.588884   6.180       -1.285

List of participating nodes    ...  goat_0.goat.1.hostnames

   0     2903.97    114.00    1.00 : 0.50      53        1    goat_0.goat.1.0.out
   3      363.00    114.00    1.00 : 0.50      53        1    goat_0.goat.1.3.out
   1     1451.98    114.00    1.00 : 0.50      53        1    goat_0.goat.1.1.out
   2      725.99    114.00    1.00 : 0.50      53        1    goat_0.goat.1.2.out
   4     2903.97    114.00    1.00 : 0.50      53        1    goat_0.goat.1.4.out
   5     1451.98    114.00    1.00 : 0.50      53        1    goat_0.goat.1.5.out
   6      725.99    114.00    1.00 : 0.50      53        1    goat_0.goat.1.6.out
   7      363.00    114.00    1.00 : 0.50      53        1    goat_0.goat.1.7.out

			     GOAT Global Iter 2
		Iter    Min En       Sconf       Gconf   
		        Hartree      cal/(molK)  kcal/mol
		=========================================

		   1    -63.588884   6.180       -1.285
		   2    -63.588884   6.488       -1.376

List of participating nodes    ...  goat_0.goat.2.hostnames

   2      725.99    114.00    1.00 : 0.50      53        1    goat_0.goat.2.2.out
   0     2903.97    114.00    1.00 : 0.50      53        1    goat_0.goat.2.0.out
   1     1451.98    114.00    1.00 : 0.50      53        1    goat_0.goat.2.1.out
   3      363.00    114.00    1.00 : 0.50      53        1    goat_0.goat.2.3.out
   4     2903.97    114.00    1.00 : 0.50      53        1    goat_0.goat.2.4.out
   5     1451.98    114.00    1.00 : 0.50      53        1    goat_0.goat.2.5.out
   6      725.99    114.00    1.00 : 0.50      53        1    goat_0.goat.2.6.out
   7      363.00    114.00    1.00 : 0.50      53        1    goat_0.goat.2.7.out

			     GOAT Global Iter 3
		Iter    Min En       Sconf       Gconf   
		        Hartree      cal/(molK)  kcal/mol
		=========================================

		   1    -63.588884   6.180       -1.285
		   2    -63.588884   6.488       -1.376
		   3    -63.588884   6.685       -1.426

		Global minimum found!
		Writing structure to goat_0.globalminimum.xyz

		# Final ensemble info #
		Conformer     Energy     Degen.   % total   % cumul.  
		              (kcal/mol)
		------------------------------------------------------
		        0     0.000	     1       9.01       9.01
		        1     0.126	     1       7.28      16.29
		        2     0.134	     1       7.19      23.47
		        3     0.168	     1       6.79      30.26
		        4     0.215	     1       6.27      36.53
		        5     0.313	     1       5.31      41.84
		        6     0.347	     1       5.02      46.86
		        7     0.451	     1       4.21      51.07
		        8     0.475	     1       4.04      55.11
		        9     0.534	     1       3.66      58.77
		       10     0.595	     1       3.30      62.07
		       11     0.613	     1       3.20      65.27
		       12     0.621	     1       3.16      68.43
		       13     0.656	     1       2.98      71.40
		       14     0.665	     1       2.93      74.34
		       15     0.688	     1       2.82      77.16
		       16     0.699	     1       2.77      79.93
		       17     0.901	     1       1.97      81.90
		       18     0.973	     1       1.74      83.64
		       19     0.994	     1       1.68      85.33
		       20     0.994	     1       1.68      87.01
		       21     1.010	     1       1.64      88.65
		       22     1.098	     1       1.41      90.06
		       23     1.131	     1       1.34      91.40
		       24     1.170	     1       1.25      92.65
		       25     1.370	     1       0.89      93.54
		       26     1.565	     1       0.64      94.18
		       27     1.765	     1       0.46      94.64
		       28     1.819	     1       0.42      95.06
		       29     1.882	     1       0.38      95.43
		       30     2.035	     1       0.29      95.72
		       31     2.037	     1       0.29      96.01
		       32     2.179	     1       0.23      96.24
		       33     2.182	     1       0.23      96.47
		       34     2.280	     1       0.19      96.66
		       35     2.302	     1       0.19      96.84
		       36     2.346	     1       0.17      97.02
		       37     2.352	     1       0.17      97.19
		       38     2.360	     1       0.17      97.35
		       39     2.361	     1       0.17      97.52
		       40     2.371	     1       0.16      97.69
		       41     2.381	     1       0.16      97.85
		       42     2.480	     1       0.14      97.99
		       43     2.560	     1       0.12      98.11
		       44     2.622	     1       0.11      98.21
		       45     2.647	     1       0.10      98.32
		       46     2.680	     1       0.10      98.41
		       47     2.807	     1       0.08      98.49
		       48     2.829	     1       0.08      98.57
		       49     2.880	     1       0.07      98.64
		       50     2.903	     1       0.07      98.71
		       51     2.910	     1       0.07      98.77
		       52     2.918	     1       0.07      98.84
		       53     2.926	     1       0.06      98.90
		       54     2.959	     1       0.06      98.96
		       55     2.994	     1       0.06      99.02
		       56     3.023	     1       0.05      99.08
		       57     3.032	     1       0.05      99.13
		       58     3.095	     1       0.05      99.18
		       59     3.132	     1       0.05      99.22
		       60     3.143	     1       0.04      99.27
		       61     3.244	     1       0.04      99.31
		       62     3.254	     1       0.04      99.34
		       63     3.277	     1       0.04      99.38
		       64     3.277	     1       0.04      99.42
		       65     3.285	     1       0.04      99.45
		       66     3.331	     1       0.03      99.48
		       67     3.338	     1       0.03      99.52
		       68     3.344	     1       0.03      99.55
		       69     3.379	     1       0.03      99.58
		       70     3.385	     1       0.03      99.61
		       71     3.409	     1       0.03      99.64
		       72     3.435	     1       0.03      99.66
		       73     3.475	     1       0.03      99.69
		       74     3.553	     1       0.02      99.71
		       75     3.553	     1       0.02      99.73
		       76     3.569	     1       0.02      99.75
		       77     3.577	     1       0.02      99.78
		       78     3.672	     1       0.02      99.79
		       79     3.677	     1       0.02      99.81
		       80     3.706	     1       0.02      99.83
		       81     3.754	     1       0.02      99.85
		       82     3.773	     1       0.02      99.86
		       83     3.776	     1       0.02      99.88
		       84     3.792	     1       0.01      99.89
		       85     3.802	     1       0.01      99.91
		       86     3.955	     1       0.01      99.92
		       87     3.956	     1       0.01      99.93
		       88     4.162	     1       0.01      99.94
		       89     4.189	     1       0.01      99.95
		       90     4.192	     1       0.01      99.95
		       91     4.315	     1       0.01      99.96
		       92     4.346	     1       0.01      99.96
		       93     4.375	     1       0.01      99.97
		       94     4.416	     1       0.01      99.98
		       95     4.466	     1       0.00      99.98
		       96     4.675	     1       0.00      99.98
		       97     4.768	     1       0.00      99.99
		       98     4.991	     1       0.00      99.99
		       99     5.039	     1       0.00      99.99
		      100     5.225	     1       0.00      99.99
		      101     5.231	     1       0.00      99.99
		      102     5.270	     1       0.00      99.99
		      103     5.402	     1       0.00     100.00
		      104     5.468	     1       0.00     100.00
		      105     5.538	     1       0.00     100.00
		      106     5.694	     1       0.00     100.00
		      107     5.702	     1       0.00     100.00
		      108     5.728	     1       0.00     100.00
		      109     5.866	     1       0.00     100.00
		      110     5.924	     1       0.00     100.00
		      111     5.948	     1       0.00     100.00

		Conformers below 3 kcal/mol: 56
		Lowest energy conformer    : -63.588884 Eh
		Sconf at 298.15 K          :  6.69 cal/(molK)
		Gconf at 298.15 K          : -1.43 kcal/mol

		Writing final ensemble to goat_0.finalensemble.xyz

--------------------------------
SUGGESTED CITATIONS FOR THIS RUN
--------------------------------

Below you find a list of papers that are relevant to this ORCA run
We neither can nor want to force you to cite these papers, but we appreciate if you do
You receive ORCA, which is the product of decades of hard work by many enthusiastic individuals, for free
The only thing we kindly ask in return is that you cite our papers,
We deeply appreciate it, if you show your appreciation for ORCA by not just citing the generic ORCA reference.

Please note that relegating all ORCA citations to the supporting information does *not* help us.
SI sections are not indexed - citations you put there will not count into any citation statistics
But we need these citations in order to attract the funding resources that allow us to do what we are doing

Therefore, if you are a happy ORCA user, please consider citing a few of the papers listed below in the main body of your paper

In addition to the list printed below, the program has created the file goat_0.bibtex that contains the list in bibtex format
You can import this file easily into all common literature databanks and citation aid programs


List of essential papers. We consider these as the minimum necessary citations

  1. Bannwarth, C.; Ehlert, S.; Grimme, S.
     GFN2-xTB—An Accurate and Broadly Parametrized Self-Consistent Tight-Binding Quantum Chemical Method with Multipole Electrostatics and Density-Dependent Dispersion Contributions
     J. Chem. Theory Comput. 2019 15(3), 1652-1671
     doi.org/10.1021/acs.jctc.8b01176
  2. Neese, F.
     Software update: the ORCA program system, version 6.0
     WIRES Comput. Molec. Sci. 2025 15(1), e70019
     doi.org/10.1002/wcms.7019
  3. de Souza, B.
     GOAT: A Global Optimization Algorithm for Molecules and Atomic Clusters
     Angewandte Chemie 2025 64(18), e202500393
     doi.org/10.1002/anie.202500393

List of papers to cite with high priority. The work reported in these papers was absolutely
necessary for this run to complete.
Our perspective: the developers of density functionals and basis sets usually get cited in chemistry papers
Good! But without the algorithms to do something with them, the functionals or basis sets would not do anything.
Hence, in our opinion, the algorithm design and method developments papers are equally worthy of getting cited

  1. Bannwarth, C.; Caldeweyher, E.; Ehlert, S.; Hansen, A.; Pracht, P.; Seibert, J.; Spicher, S.; Grimme, S.
     Extended tight-binding quantum chemistry methods
     WIRES Comput. Molec. Sci. 2020 11(2), e1493
     doi.org/10.1002/wcms.1493

List of suggested additional citations. These are papers that are important in the 'surrounding' of 
of this run, or papers that preceded the highly important papers. If you like your results we are grateful for a citation.

  1. Neese, F.
     The ORCA program system
     WIRES Comput. Molec. Sci. 2012 2(1), 73-78
     doi.org/10.1002/wcms.81
  2. Neese, F.
     Software update: the ORCA program system, version 4.0
     WIRES Comput. Molec. Sci. 2018 8(1), 1-6
     doi.org/10.1002/wcms.1327
  3. Neese, F.; Wennmohs, F.; Becker, U.; Riplinger, C.
     The ORCA quantum chemistry program package
     J. Chem. Phys. 2020 152(22), 224108
     doi.org/10.1063/5.0004608
  4. Neese, F.
     Software update: The ORCA program system—Version 5.0
     WIRES Comput. Molec. Sci. 2022 12(1), e1606
     doi.org/10.1002/wcms.1606

List of optional additional citations

  1. Neese, F.
     Approximate second-order SCF convergence for spin unrestricted wavefunctions
     Chem. Phys. Lett. 2000 325(1-3), 93-98
     doi.org/10.1016/s0009-2614(00)00662-x

Timings for individual modules:

Sum of individual times          ...     2441.909 sec (=  40.698 min)
Geometry relaxation              ...        0.272 sec (=   0.005 min)   0.0 %
GOAT                             ...     2440.607 sec (=  40.677 min)  99.9 %
XTB module                       ...        1.029 sec (=   0.017 min)   0.0 %
                             ****ORCA TERMINATED NORMALLY****
TOTAL RUN TIME: 0 days 0 hours 40 minutes 42 seconds 631 msec
