48
Coordinates from ORCA-job goat_0_332 E -1253.944332030841
  O           1.63339927348139      3.85291218843969     -0.86980660780238
  C           0.97617461596249      3.31539851926383     -2.01389283272072
  H           1.69999319495622      2.76814050967730     -2.63259424321556
  C          -0.13860865236080      2.35578459133884     -1.63367750679047
  H          -0.81705549747916      2.85326239085915     -0.92637397688777
  O           0.47723146860016      1.22680328828990     -1.02410900252419
  C          -0.93259572032329      1.96843675812955     -2.88537029190244
  H          -0.28425366500328      1.38144919383776     -3.55141222032725
  C          -2.19646467429495      1.18270319103211     -2.56223118748510
  O          -1.86183252583911      0.00979258963491     -1.83035589711661
  Si         -2.89153619721145     -0.67434128913596     -0.68723546712047
  C          -4.44652220485129     -1.35172304420819     -1.51920260533605
  C          -5.39567368096992     -0.21517793812022     -1.92683944187921
  C          -4.05412849283090     -2.15867306039857     -2.76481839121048
  C          -5.17173483477581     -2.27118914448989     -0.52347429774103
  C          -1.85557176848085     -2.03572322562112      0.05836777982575
  C          -3.30779921509788      0.62025636280936      0.59652740033910
  O          -1.38820301916658      3.14320670610029     -3.54642305895744
  C          -0.33025528229246      3.97089805383846     -4.01224115077560
  H           0.32471843362512      3.38179786086948     -4.67478260648637
  O          -0.88571510405558      5.03938786243626     -4.69591287559426
  C          -1.40274322906923      4.68041863882450     -5.97802477412424
  C           0.45505148306354      4.49408861287637     -2.81913096975476
  H          -0.22655384663440      5.09142371847594     -2.19948953537593
  O           1.52975319550526      5.29006895723518     -3.29369967949682
  H           2.12128393241800      3.13717909420138     -0.44628770660007
  H          -0.18335212635964      0.51723907573593     -1.03929237901780
  H          -2.86397938442905      1.83261910922289     -1.98555812191955
  H          -2.69963852094901      0.91170530125722     -3.49520377037941
  H          -4.93298489782234      0.46983050516396     -2.64232076615198
  H          -5.72067720177853      0.36889201198042     -1.06127102512851
  H          -6.29175211781491     -0.63245572096134     -2.40225058641948
  H          -4.94888711644694     -2.59042240952285     -3.22952120885491
  H          -3.37812705704904     -2.98292571232497     -2.51751008922257
  H          -3.55963366925466     -1.52978037811500     -3.51069916053615
  H          -6.09758668752358     -2.65046524434694     -0.97244609916564
  H          -5.44286068451090     -1.74072094723507      0.39507698340308
  H          -4.55792041070037     -3.13326457657917     -0.24761935314127
  H          -1.63754065443604     -2.81853429224362     -0.67296483283127
  H          -2.37096861715479     -2.49411567793695      0.90673355594524
  H          -0.90582315234826     -1.62958215644828      0.41959105056927
  H          -3.94950016562047      0.19103667935645      1.37189873294543
  H          -3.83026964823949      1.47852083998928      0.16718669225074
  H          -2.39184927870534      0.98051765824003      1.07481206980533
  H          -0.62170909865769      4.21187991348642     -6.58665733252551
  H          -1.73081529091631      5.60391382584278     -6.45397430047912
  H          -2.25018492991344      3.99690441465312     -5.88315680628284
  H           2.11353272375589      5.44520639458988     -2.54021210580255
