48
Coordinates from ORCA-job goat_0_161 E -1253.935348636513
  O           2.19464540311149      2.37623945704861     -1.60704015639737
  C           1.07469102111526      2.61445553708611     -2.45132154639634
  H           1.26006436528411      2.19282514028770     -3.44782305444200
  C          -0.20060238122709      2.00584891876763     -1.90234848096783
  H          -0.46607717936083      2.49819268491432     -0.95869436788000
  O           0.03864461543057      0.62156470172342     -1.67381419265150
  C          -1.30748584831680      2.19602251455495     -2.94372626400338
  H          -1.17616877081275      1.41076567030864     -3.69363810519973
  C          -2.70277759151732      2.07898487741975     -2.34050959599572
  O          -2.83535351527254      0.81232430470610     -1.69557885549416
  Si         -3.76000375987419     -0.41274882794648     -2.37685822937905
  C          -3.69879368166321     -1.82272300475600     -1.12586960625580
  C          -4.30021219748413     -3.08176076903507     -1.76946295489342
  C          -2.24778331434466     -2.10979641294891     -0.71484323852143
  C          -4.51255693006137     -1.45216379443901      0.12237983097576
  C          -5.50699570141627      0.20365791147818     -2.63955003767510
  C          -3.01296917430750     -0.90464480329160     -4.02036092526585
  O          -1.18778742206912      3.43370275707476     -3.66170524414045
  C          -0.53457293394695      4.48192341938120     -3.00452382871744
  H          -0.48792757125827      5.29992621508887     -3.73157993806025
  O          -1.31516803167754      4.87185056912690     -1.89188427883359
  C          -1.08899496873470      6.22173257869710     -1.50155145587484
  C           0.90158726824596      4.11891808870271     -2.58115019717689
  H           1.09423448473912      4.56416845784695     -1.59918719682563
  O           1.78672801511222      4.67215958886331     -3.55012186267479
  H           2.27399484012484      1.42016482265395     -1.50124353450613
  H          -0.80616881693347      0.24508207460025     -1.39123851116864
  H          -2.85204117220995      2.86386209286825     -1.59668799078502
  H          -3.44748956761549      2.21088935140368     -3.13295808008186
  H          -5.32727571765227     -2.91462641182406     -2.10946672549727
  H          -4.32170532308161     -3.89988778438287     -1.03972402575245
  H          -3.71046650986732     -3.41660690138825     -2.62758972059783
  H          -2.20928821529157     -2.99458977508961     -0.06807616913264
  H          -1.82179558815666     -1.27547749692484     -0.15014435284593
  H          -1.60589463893594     -2.30452416683879     -1.58000806911109
  H          -5.56930636479114     -1.30272273690011     -0.11633029402584
  H          -4.13770967636216     -0.53613883659008      0.58908916730576
  H          -4.44899177503990     -2.25696835566566      0.86484371124752
  H          -5.91715495202078      0.63700307950870     -1.72365071887179
  H          -6.15522009413506     -0.62283010173590     -2.94641388001982
  H          -5.54300821981200      0.96308640857589     -3.42570413212549
  H          -2.97430025146788     -0.04362649469354     -4.69481076692969
  H          -3.61900878093136     -1.67778683291184     -4.50136845185723
  H          -1.99639714528858     -1.28920213138492     -3.89975319751926
  H          -0.05631250652547      6.38236476518797     -1.17323711773586
  H          -1.76143993710490      6.42728879597668     -0.66924794677562
  H          -1.31109299662060      6.90440839983727     -2.32976430071273
  H           2.68753921002582      4.45199245505760     -3.28360110975385
