48
Coordinates from ORCA-job goat_0_1002 E -1253.937242056657
  O           2.17625989230286      2.05112354805925     -1.16830080905465
  C           1.24129203836094      2.62771976308319     -2.06981994597106
  H           1.72347688729527      2.81221007026241     -3.04065666560463
  C           0.08026954791781      1.68002858593083     -2.28215649000958
  H          -0.47991112277786      1.58462165138303     -1.34264462719062
  O           0.56809296932169      0.40577456038756     -2.68076701995873
  C          -0.81893912675071      2.26006049972342     -3.38605060325446
  H          -0.37989839136320      1.95024614496972     -4.33916962666085
  C          -2.24139719560743      1.72024969344750     -3.30374954371441
  O          -2.16877560957916      0.29709166352974     -3.34659376209502
  Si         -3.46625161120681     -0.68273954753952     -2.92321323596930
  C          -3.44636581760911     -1.01175898000227     -1.06100522896595
  C          -4.66014269258756     -1.88113204846350     -0.69661518116969
  C          -2.15821979294580     -1.75604189278162     -0.68029990296131
  C          -3.51754978674497      0.30174474711738     -0.26868168332521
  C          -5.05114709583027      0.16172165103921     -3.44683805755135
  C          -3.19170936032648     -2.25899577523449     -3.88534983250726
  O          -0.83313546935206      3.69248563658625     -3.42340324601033
  C          -0.62285096377176      4.35112073358941     -2.19170882856144
  H          -0.58650730661194      5.41406769036051     -2.45396787046862
  O          -1.65914370692305      4.11464018813338     -1.27406181592418
  C          -2.88498073839240      4.74502377851752     -1.64110341606453
  C           0.70186076336370      3.94443021929318     -1.52028804046638
  H           0.50758259764900      3.81451904808943     -0.45437436694740
  O           1.68495810299401      4.97002884730576     -1.60686600930324
  H           2.86675667347258      2.70837364562833     -1.01747641212166
  H          -0.21770784168289     -0.10292460990744     -2.93083458170497
  H          -2.70855423566889      2.06017611092701     -2.37728979259166
  H          -2.82573000418172      2.09688229847643     -4.14945435081485
  H          -4.64610328232871     -2.10992737923657      0.37590609386015
  H          -4.65767033795582     -2.83234339271622     -1.23754168361068
  H          -5.60307750571379     -1.37061587367244     -0.91387100522295
  H          -1.26662686277185     -1.17703811182747     -0.93928420948848
  H          -2.08933164245294     -2.72635768660996     -1.18039258613899
  H          -2.13489409897756     -1.93697775409134      0.40129639585313
  H          -4.40015364150094      0.89263450795418     -0.53193722652448
  H          -2.63219211254942      0.92118655128989     -0.43341704137441
  H          -3.57143355885477      0.08542559061857      0.80537579321685
  H          -5.01000698048537      0.41635170902826     -4.51010974034317
  H          -5.23460426743463      1.07974717126069     -2.88232184981424
  H          -5.90369037236112     -0.50584201971711     -3.29285108254517
  H          -3.28520501571956     -2.06566813665730     -4.95784869749761
  H          -3.92688499936928     -3.02072562222858     -3.61144697579488
  H          -2.19425990441135     -2.66537482354446     -3.69732071242279
  H          -3.60779243048697      4.50797784116207     -0.86083526574172
  H          -3.25385504522171      4.37448498130999     -2.60116593364143
  H          -2.75050462789989      5.83070263716046     -1.70048120740842
  H           1.91448508373211      5.09419188860569     -2.53686211841692
