48
Coordinates from ORCA-job goat_0_241 E -1253.937171382261
  O          -0.26248966871113      4.38030549489508     -1.24444522247895
  C           0.65645099195797      3.41359524885057     -1.73777446714699
  H           1.57548134446049      3.52100427584904     -1.15667691887432
  C           0.14803656059726      1.97796059282527     -1.53601059269275
  H          -0.26727038415779      1.89973925494076     -0.53039589242679
  O           1.24024381723910      1.06046306605785     -1.59363146592973
  C          -0.94427984811269      1.57914202292547     -2.52883313106556
  H          -0.93168848860183      0.48886920564150     -2.57399627049481
  C          -2.36092249435807      2.00417750029327     -2.12630957545360
  O          -2.73279546025984      1.45402235739809     -0.87669324999538
  Si         -3.04592491445252     -0.13404309777196     -0.46124839335809
  C          -4.17370643347781     -0.98648427414038     -1.72302522940335
  C          -3.43107222784819     -1.31310568327643     -3.02747815776846
  C          -4.66423904250888     -2.30587557453648     -1.10164981470615
  C          -5.39011912656198     -0.10091187355049     -2.02979157882950
  C          -1.45370331392906     -1.09758651562804     -0.23775335387488
  C          -3.89231833748278      0.02131399653861      1.19860329538603
  O          -0.65308370597853      1.97322315291997     -3.88176343649802
  C          -0.20275459139560      3.28672394738511     -4.09954988689984
  H           0.09325010754394      3.30225038733665     -5.15559887248909
  O          -1.19391266806528      4.26057398693486     -3.86916497391257
  C          -2.27172910647457      4.21935512152721     -4.80548287502356
  C           0.98469093305353      3.66243960500426     -3.21013820928446
  H           1.20924973775111      4.72254088993772     -3.36228854689373
  O           2.11561767739971      2.85501246407677     -3.52524355231773
  H          -0.88355921502209      4.59582314426564     -1.95483861315103
  H           1.73985508148648      1.26528129605994     -2.39762396450831
  H          -2.44453581688980      3.08593567928244     -2.03605081956626
  H          -3.04482494813272      1.68522712138425     -2.91814091266336
  H          -3.08140685530306     -0.41631162939485     -3.54517000383043
  H          -4.10280302255271     -1.84457627085247     -3.71290517597270
  H          -2.56549979763973     -1.95695067692852     -2.84808782214528
  H          -5.30185214468664     -2.83829702932294     -1.81771535899688
  H          -5.25275274129459     -2.13283087836291     -0.19645000278280
  H          -3.83196740552303     -2.96823264734711     -0.84358689859902
  H          -5.95513725034081      0.13467153653229     -1.12297329177539
  H          -6.06839966360078     -0.62083951110132     -2.71752151854186
  H          -5.10091053765617      0.84329055276931     -2.49899158156501
  H          -0.92093818881293     -1.27642642178812     -1.17374323152789
  H          -1.67421496371963     -2.06944966847492      0.21482660722847
  H          -0.78271058907136     -0.55747398531493      0.43701613420460
  H          -4.86710791446844      0.50821691227860      1.10906402925080
  H          -3.27359241024969      0.61986388950926      1.87402819898115
  H          -4.03944464991823     -0.96038910856241      1.65680357437481
  H          -1.88892819263885      4.35477278896902     -5.82227487892248
  H          -2.94023625628621      5.04100011527140     -4.55220167520300
  H          -2.81297606912413      3.27307988418745     -4.74200950386961
  H           2.32076219381892      2.95248935450657     -4.46296291798656
