48
Coordinates from ORCA-job goat_0_23 E -1253.938590675452
  O           2.46235463580631      1.98297251994422     -2.94775376924774
  C           1.24517849055731      2.71216660103723     -3.05121027666300
  H           1.21851674336426      3.26491559159483     -3.99923509310350
  C           0.02628913340117      1.81538873443394     -2.97550617858111
  H          -0.02493862949885      1.35502669003913     -1.98055028663745
  O           0.15546388300240      0.80235027939253     -3.96628809933043
  C          -1.21922447097619      2.67127076581622     -3.23507614657592
  H          -1.31882502856404      2.77131381219641     -4.32016721801974
  C          -2.47757422085706      2.01261649854878     -2.68640541088570
  O          -2.58891518157280      0.73561707045493     -3.30536410021291
  Si         -3.80046747184753     -0.36762579734430     -2.94611447719856
  C          -3.62905925352291     -1.00047977388983     -1.16930145141638
  C          -2.14635336037068     -1.22704621895521     -0.84161605794490
  C          -4.23572235135289     -0.01857874041742     -0.15567284487811
  C          -4.38114198434722     -2.33757576014707     -1.06092192461879
  C          -5.46543572500248      0.44266041901844     -3.20732084191327
  C          -3.51166463057780     -1.73803837754050     -4.18055026208748
  O          -1.09138147201784      4.00908433233611     -2.73592788518402
  C          -0.23056278084713      4.18824155252680     -1.63063702908994
  H          -0.21618684612148      5.27119706200805     -1.47054657183823
  O          -0.69834414113594      3.53258942940730     -0.48039845594311
  C          -1.87666150535945      4.12869152990034      0.05922506670190
  C           1.20211726300297      3.70310477981660     -1.89997566001377
  H           1.55898476184770      3.19483039490756     -0.99830226059896
  O           1.99899238445048      4.85359451093146     -2.16375712002137
  H           2.47213413900405      1.33894929491731     -3.66651245986838
  H          -0.68548603062837      0.32176702001861     -3.96442674267491
  H          -2.38831552259826      1.90870383901173     -1.60261801826150
  H          -3.35128934255683      2.63301009891446     -2.91230622257161
  H          -1.58478352604537     -0.28887680335226     -0.84808643035506
  H          -1.67268854627886     -1.90642253367392     -1.55744282290507
  H          -2.04494405492890     -1.67148168336807      0.15606669626305
  H          -3.74819113751427      0.95964617812826     -0.17965571358995
  H          -4.12372855190564     -0.41754535069887      0.86003697696876
  H          -5.30342843024580      0.13464016303172     -0.33566283059739
  H          -3.93663150655221     -3.10481228852844     -1.70047731186683
  H          -5.43529813721922     -2.23456463829494     -1.33946899834935
  H          -4.34619032500558     -2.70185961006962     -0.02710704117644
  H          -5.57767103207822      1.33929648763885     -2.59193723128006
  H          -6.27051055209212     -0.24929867434600     -2.94186090877827
  H          -5.59221236322195      0.72701546603655     -4.25596821234035
  H          -4.31927817207195     -2.47383401924332     -4.14158016234162
  H          -2.56862186393311     -2.25665406742140     -3.98571411940598
  H          -3.47428632225882     -1.32686955553174     -5.19344915844468
  H          -2.70506640162850      4.09369898181000     -0.65309133386273
  H          -1.68227210034194      5.17080870836689      0.33609245176905
  H          -2.14065751632519      3.55696871858576      0.94852574461479
  H           2.90180905496721      4.55200636205135     -2.32183179564242
