48
Coordinates from ORCA-job goat_0_1042 E -1253.935500756922
  O           1.19879978189344      3.99576413566207     -0.94823739640170
  C           0.81932868835532      3.41397742889308     -2.18690423774242
  H           1.61812591576943      3.55752571243091     -2.92820900980903
  C           0.55384282008957      1.91990869683218     -2.01745462628688
  H          -0.04938572624563      1.79221461216518     -1.11616694621249
  O           1.77215628377352      1.23173827717857     -1.73944276375359
  C          -0.21065410731302      1.34087709706796     -3.22163901444327
  H           0.33329052499460      0.46283166987212     -3.57682629305886
  C          -1.62247965288922      0.88710448736841     -2.85565750471715
  O          -1.50363413172012     -0.19847550985052     -1.95132586899648
  Si         -2.55296894439896     -0.43762117495987     -0.67021656117035
  C          -4.28279347711326     -0.86790284600299     -1.30630752247624
  C          -4.17326909608301     -1.94586110826537     -2.39414675468413
  C          -5.12354685975244     -1.40726251188737     -0.13871521847791
  C          -4.98061404771451      0.36964933971792     -1.88967952665910
  C          -1.80222402696358     -1.86514477276716      0.27077974999624
  C          -2.60265692035222      1.09953636994126      0.39887675542826
  O          -0.21195985334455      2.24357660643183     -4.33047579149757
  C          -0.75941264104623      3.52336625631880     -4.09191372301961
  H          -0.28630789306570      4.16835722119228     -4.84143333436665
  O          -2.15333379693902      3.55754105920059     -4.24992167076925
  C          -2.57245941677803      3.33765756938357     -5.59475156157984
  C          -0.44599006446538      4.07456441371966     -2.69372866625418
  H          -1.27272972202006      3.83485429962223     -2.01423571878262
  O          -0.26264170300835      5.48151510259085     -2.75229408878858
  H           1.93054905620986      3.46638874821002     -0.60660305097255
  H           2.33940082202100      1.29461804454982     -2.51882496679131
  H          -2.19092610616987      1.71177424889110     -2.41684318887928
  H          -2.14109847326572      0.56781593375047     -3.76521367250309
  H          -3.60289092869018     -1.58713082722743     -3.25577307354002
  H          -5.17275841476546     -2.22895870175329     -2.74661924708338
  H          -3.68521699261316     -2.85096193760214     -2.01977360394881
  H          -5.20831566205969     -0.67660495676355      0.67217408452731
  H          -4.69800141065771     -2.32500992312371      0.27702316583492
  H          -6.13896827433891     -1.63727650401449     -0.48384728327119
  H          -5.08980231354613      1.16180184542504     -1.14338928355526
  H          -5.98528298589984      0.10055938411474     -2.23866717001807
  H          -4.43652068262522      0.78265597266435     -2.74348831266367
  H          -2.34880172820038     -2.04675798831357      1.20029569003978
  H          -0.76335052922095     -1.63799397893897      0.52732725239272
  H          -1.81589229913976     -2.78606663239286     -0.31834072096528
  H          -2.88946819377946      1.99004258362852     -0.16635384745443
  H          -1.62253001579120      1.28150549679526      0.84944064254962
  H          -3.32807966483560      0.96956586241961      1.20780962257071
  H          -2.32961253885952      2.32310305030156     -5.92146385642816
  H          -2.09690843725422      4.05967217131212     -6.26842569424085
  H          -3.65305027869079      3.47691053869943     -5.61649759599994
  H          -1.12112588148916      5.88263513751178     -2.93176859507571
