48
Coordinates from ORCA-job goat_0_326 E -1253.945271941076
  O           1.37433356438774      3.82804396059316     -0.88592993067202
  C           0.86674088730711      3.36394165861269     -2.13292207921643
  H           1.70001351996111      3.09755711224920     -2.79753496401440
  C           0.05222591431294      2.11241134810848     -1.85205453977155
  H          -0.72312300667497      2.35101483355270     -1.11496273424352
  O           0.88624171844337      1.06506539853351     -1.37269859873310
  C          -0.62541108034457      1.62886194938513     -3.13187982580928
  H           0.14768589272941      1.33996599683042     -3.85888176292662
  C          -1.52451289789859      0.42855538485981     -2.90535465421835
  O          -2.49189312170115      0.71197332219635     -1.91295252440614
  Si         -2.94368504802599     -0.31801870154252     -0.67952805983125
  C          -4.45745761416688     -1.30840602327910     -1.22908109853127
  C          -4.14257035033013     -2.04435173076486     -2.53929206091845
  C          -4.82855617344529     -2.33200774539498     -0.14688137953112
  C          -5.64073431217332     -0.35770159640364     -1.45898962177546
  C          -1.52925615476448     -1.46053528762518     -0.23446778490608
  C          -3.35738780401805      0.80271125482018      0.75805193924179
  O          -1.42137618449644      2.68329882529497     -3.66925860716970
  C          -0.63921320183952      3.80204480605567     -4.05362073723971
  H           0.12860605269543      3.47805688474627     -4.77571817516360
  O          -1.47136449053371      4.75600035092120     -4.62206564980624
  C          -1.90447524132572      4.42027417006660     -5.94115308934833
  C           0.01723234212161      4.41614537525108     -2.82357060129898
  H          -0.77609679781624      4.75308074026107     -2.14498692401685
  O           0.87390569290475      5.49340903436964     -3.17474808899570
  H           1.97026737776183      4.56446652667353     -1.06682838904571
  H           1.37421271245113      1.41435270494471     -0.61687964502647
  H          -2.02327942356713      0.18868783372474     -3.85024764724490
  H          -0.89631777369840     -0.42138871871500     -2.62456378092581
  H          -3.91118420497615     -1.34341003773852     -3.34651487295526
  H          -5.00845833498675     -2.63959680728705     -2.85456941445820
  H          -3.29423198151250     -2.72708781614187     -2.42988741229733
  H          -5.04773401978830     -1.84829305407602      0.81029315918148
  H          -4.02428287409684     -3.05537683215714      0.01701246189865
  H          -5.72286281585624     -2.89172973610272     -0.44757646643420
  H          -5.93578289901044      0.14816198375882     -0.53505481253696
  H          -6.51040691165692     -0.91764354358412     -1.82465801639672
  H          -5.40067185817894      0.40893046691982     -2.20229152344077
  H          -0.61196972942345     -0.88589207490292     -0.08027837828833
  H          -1.33849431952103     -2.21045077406652     -1.00664180149511
  H          -1.76334554935958     -1.98791463294807      0.69504563896569
  H          -2.45270479365781      1.30148832879208      1.11847683890913
  H          -3.78769277094114      0.23566823518218      1.58859794789328
  H          -4.07601146687236      1.57180582506408      0.46231828279721
  H          -2.47264586406866      5.27261193370876     -6.31217352301364
  H          -2.54212287893370      3.53277706166775     -5.92959366156789
  H          -1.04164839910160      4.24289258834293     -6.59213015372059
  H           0.32532667368695      6.19812921724290     -3.53922327749518
