48
Coordinates from ORCA-job goat_0_227 E -1253.945286017200
  O           2.44703342216990      1.88198004295002     -1.88326269828962
  C           1.28276294208297      2.29586424791928     -2.59251965338356
  H           1.33107082979708      1.93109167067163     -3.62739674969270
  C           0.00923879355608      1.75921941348963     -1.96211222522071
  H          -0.00965395011191      2.03509043617163     -0.89846721086297
  O           0.03434453752647      0.34458826535270     -2.11030276441172
  C          -1.20495909142551      2.39015972224964     -2.65094008700504
  H          -1.23600591440772      2.05762372114385     -3.69818863915899
  C          -2.51901386449359      2.04701395900965     -1.96400629269021
  O          -2.67878255044889      0.63447151545031     -1.94022615299423
  Si         -4.11281105843191     -0.08068150934351     -1.43345390325923
  C          -3.71309120149245     -1.91841421090237     -1.31091289882334
  C          -3.12815619146443     -2.41957862817870     -2.63937945234759
  C          -2.69996316231784     -2.16323616067180     -0.18320666349106
  C          -5.00627067349962     -2.68948482112543     -1.00395177600475
  C          -4.60312036195079      0.65261039358925      0.21539075468020
  C          -5.44016656250900      0.26790432472004     -2.70358456008025
  O          -1.10188433478562      3.80768221559035     -2.58416214967025
  C           0.02549498274231      4.31611418999270     -3.28585989863019
  H          -0.01807611148304      3.97541208089399     -4.33323091352806
  O          -0.00973597783816      5.69875640234969     -3.21785234150201
  C          -1.00865610014736      6.27962923127343     -4.05710369068939
  C           1.29848843229320      3.81549404395245     -2.61942239620657
  H           1.31777121543313      4.20098710794190     -1.59164073727837
  O           2.41507462885888      4.29181536154833     -3.35488923765390
  H           2.54064074552324      0.92953587486646     -2.00160099150941
  H          -0.86968445531122      0.03792123897324     -1.93642069191291
  H          -2.49843861735962      2.44571974594263     -0.94337169720332
  H          -3.34002145178827      2.52638346585622     -2.50791233522258
  H          -2.91754685566233     -3.49386557199458     -2.57279106170781
  H          -2.19224795793481     -1.91056541395628     -2.88619249808491
  H          -3.82411689639416     -2.26894424500242     -3.47011635555533
  H          -3.09881405817470     -1.86000831710227      0.78910790129040
  H          -1.76605576863957     -1.61839312798049     -0.34975280041498
  H          -2.45634950033199     -3.23096431490754     -0.12485043211536
  H          -5.74399373611521     -2.57601794623872     -1.80371121706122
  H          -5.46584043365110     -2.35488188110924     -0.06868336182832
  H          -4.78765829881373     -3.75915230523891     -0.90215108080375
  H          -5.47114128540232      0.12632956233631      0.62337447017720
  H          -4.87466833197973      1.70658359507112      0.10395261215794
  H          -3.78883423668457      0.58386116412966      0.94163623552214
  H          -5.18948077571166     -0.16813351772436     -3.67424028244568
  H          -5.57025726025613      1.34616954308158     -2.83611089862439
  H          -6.39952902217994     -0.14543571773599     -2.37911622559855
  H          -0.86696192290653      5.96098110259866     -5.09556073119922
  H          -0.88701983641945      7.36008936067939     -3.98776069475307
  H          -2.01215424832347      6.00257223271830     -3.72432514247748
  H           3.18707152686515      3.81068245669859     -3.03057038243451
