48
Coordinates from ORCA-job goat_0_1088 E -1253.932077032607
  O           0.71319194512671      3.55210405076014     -1.00499856253779
  C           0.76554719765653      3.17742246161536     -2.37527316809358
  H           1.79118409756620      2.85868871589972     -2.57210871562849
  C          -0.17331172787897      2.00027334812217     -2.64985143736095
  H          -0.13180283202436      1.33023750120876     -1.78558217152022
  O           0.29978631234414      1.32032758984662     -3.81468163741790
  C          -1.61349485571200      2.50788949003613     -2.86041366458985
  H          -1.81393126288760      2.52024302973592     -3.94084830001003
  C          -2.62775900955394      1.59777330447210     -2.19558299102440
  O          -2.42242956856688      0.30584484105710     -2.74493489255296
  Si         -2.54438703879900     -1.12302685313308     -1.87771090655568
  C          -4.35144283852438     -1.45923455994546     -1.43476969712953
  C          -4.48454924985527     -2.90723175434445     -0.93832766472934
  C          -4.82713464591147     -0.50635431413435     -0.32825322330392
  C          -5.22801896131438     -1.26568821546324     -2.68020537857348
  C          -1.87349029705881     -2.40876196318499     -3.05312486354750
  C          -1.48326182780343     -1.01774695223314     -0.33982125153298
  O          -1.76753730242265      3.82738833766075     -2.34620068364976
  C          -1.06688610648274      4.74737408510271     -3.18526804289934
  H          -1.49545353294852      4.69613120498355     -4.19256904171169
  O          -1.31709170120027      6.04217787112401     -2.74466032259448
  C          -0.89880194818084      6.35688502959812     -1.41519593147040
  C           0.43479675547071      4.35912568114461     -3.29267772704827
  H           1.04505443213657      5.21731026174670     -3.00754099597919
  O           0.77647461175836      4.05403814380810     -4.64249798389997
  H          -0.21270588923921      3.71926947146215     -0.78602701844465
  H          -0.34513307826815      0.62957752234303     -4.01820335144917
  H          -2.47185155222079      1.60937661434354     -1.11055427027489
  H          -3.64441284400159      1.94369005088558     -2.40473659832351
  H          -4.20709222312750     -3.62708605843993     -1.71363799137200
  H          -5.52340431042661     -3.11018203858769     -0.65100942941126
  H          -3.85649610282511     -3.09511499727666     -0.06163981185095
  H          -4.76304718536629      0.54148573738217     -0.63502071652457
  H          -4.24189245390426     -0.62707518199657      0.58779149193513
  H          -5.87598911746943     -0.71383713802861     -0.08290551035237
  H          -4.92432491515959     -1.92850884356510     -3.49629848474769
  H          -5.18005377492758     -0.23609735410997     -3.04643000240228
  H          -6.27507538872203     -1.48954923700469     -2.44198429852520
  H          -0.86618391402527     -2.12836395351566     -3.37551881477860
  H          -2.50305921791069     -2.50668927074277     -3.94156275755969
  H          -1.81364069973226     -3.38651423779725     -2.56724162442843
  H          -1.76200508003287     -0.17748999045636      0.30099012039003
  H          -0.42973975089734     -0.90611739955670     -0.61274377427668
  H          -1.58460976288963     -1.93456886819981      0.24885919319036
  H           0.17354356382836      6.19518889731066     -1.27917623489126
  H          -1.45387134750895      5.76982637120066     -0.67915011470259
  H          -1.12258727129332      7.41344691987741     -1.27223913921563
  H           0.55621167118659      3.12472264898846     -4.80631160662245
