48
Coordinates from ORCA-job goat_0_195 E -1253.938723150817
  O           1.90276086424338      3.70641737482146     -1.22880877740350
  C           1.18844068331180      3.24943819475363     -2.36899496794434
  H           1.89031427568759      2.84517560426340     -3.11290334186943
  C           0.19882029239137      2.15627243095598     -2.01388797321181
  H          -0.56921114710858      2.56447810648186     -1.34505425326830
  O           0.91730240585332      1.12315966599819     -1.34690974840361
  C          -0.43854986894953      1.62525701186309     -3.30223044423814
  H           0.25947017954171      0.90000049300320     -3.73144769061131
  C          -1.76799298654712      0.93288572512474     -3.02964190061344
  O          -1.53908890993772     -0.11738442276669     -2.09356053586966
  Si         -2.63261422829656     -0.48002735844971     -0.87009042710398
  C          -4.25388136156857     -1.12601008011252     -1.59719792891238
  C          -5.07512406192022     -1.76372945235983     -0.46486445241936
  C          -5.07548462172978      0.01019951609784     -2.22418019125648
  C          -3.95419995833331     -2.18585893710441     -2.66647945919589
  C          -1.75320928518848     -1.79309873335564      0.12326202829256
  C          -2.91539962944849      1.05245392710406      0.16607501154625
  O          -0.60482863125168      2.63992588795442     -4.30198343077070
  C          -0.75433841530377      3.96220381505321     -3.82375566192466
  H          -0.81007029113318      4.57431541954534     -4.72997836518407
  O          -1.91884714118491      4.12411798148599     -3.05668092280048
  C          -3.11204368444339      4.06812999386958     -3.83710303450642
  C           0.44633781528099      4.43000797695079     -2.97785600144564
  H           0.05956830493667      5.05095336414070     -2.16831076397582
  O           1.31337816372485      5.26980704539478     -3.72901586891444
  H           2.30345724627201      2.93024215906858     -0.81776099308069
  H           0.30780989055073      0.37515363127362     -1.27213714542732
  H          -2.47703981032066      1.66385163069049     -2.63392133843357
  H          -2.17191896990416      0.52213162446580     -3.96024627466109
  H          -6.03639402001875     -2.11863189178590     -0.85559322479104
  H          -5.28759942100830     -1.04722985083326      0.33509503893790
  H          -4.55846544498731     -2.62040882488375     -0.02309108460673
  H          -6.01943527871605     -0.38760723883252     -2.61650213731285
  H          -4.55000127353411      0.48775079249180     -3.05551885583511
  H          -5.32090834755961      0.78340627698723     -1.49058669077211
  H          -3.39254322029783     -1.76262484019787     -3.50427437536751
  H          -4.89145846233974     -2.59500827931860     -3.06302873144158
  H          -3.37460936035763     -3.01990782413579     -2.25906646077437
  H          -0.76411411897691     -1.43485814486393      0.42455578261754
  H          -1.62311601473658     -2.71169693309158     -0.45507264516713
  H          -2.31443378996937     -2.03613180136988      1.02954009941455
  H          -1.97523564063908      1.37096802721726      0.62657024666570
  H          -3.63100060818314      0.84259037231942      0.96684909964632
  H          -3.30648447071383      1.88625676857471     -0.42241062672818
  H          -3.11379617013336      4.86866403253733     -4.58491740438977
  H          -3.94626166051568      4.20730651755834     -3.14998819270724
  H          -3.21521132893160      3.10354752377192     -4.34122222591081
  H           1.73508151239439      4.73572572164286     -4.41352275786976
