48
Coordinates from ORCA-job goat_0_1090 E -1253.942589121778
  O           1.56766769125001      3.32660758552360     -0.32985166151471
  C           0.99993989425457      3.05959584888791     -1.60420588824464
  H           1.82321264980670      3.17628208501404     -2.31977797710968
  C           0.47512720281276      1.63308424464595     -1.70748643191353
  H          -0.26091569131001      1.46976189743699     -0.91277924597679
  O           1.57453526948143      0.74191625567557     -1.55672891043315
  C          -0.20918092192369      1.41749328231060     -3.05912756840458
  H           0.53715668705638      1.53591410819976     -3.85902807040665
  C          -0.82386315820159      0.03580659630564     -3.19508235939110
  O          -1.62510364615027     -0.32187262972650     -2.08528258056849
  Si         -3.22288360222484      0.10172089751931     -1.83135783325504
  C          -3.98527960196002     -1.41319892437851     -0.99338898331508
  C          -5.45768903701445     -1.13922044558863     -0.65461689458835
  C          -3.90135297827818     -2.62104897468281     -1.93707035078151
  C          -3.22062940170011     -1.72955930613964      0.30024475931246
  C          -3.32321163215859      1.58631261720353     -0.69537144193093
  C          -4.06479525692389      0.46758155322335     -3.46189914179411
  O          -1.24946086006196      2.37418613527592     -3.22266660434733
  C          -0.76304130668719      3.70456457813037     -3.27307561547216
  H          -0.03758082727115      3.79004538626364     -4.10150455179468
  O          -1.84104090109793      4.55146530830305     -3.48289618815809
  C          -2.36485721915363      4.48075782749190     -4.80873133974664
  C          -0.09574818962684      4.07229203187017     -1.94887424537127
  H          -0.86623172731316      4.04895608100821     -1.17133840632868
  O           0.40424436551961      5.39909973662424     -1.97197233947085
  H           0.87422068270516      3.22255631367726      0.33391194437989
  H           1.23669465034102     -0.10007829732735     -1.23271762902669
  H          -1.39912596608304      0.00352974032733     -4.12615469854453
  H          -0.01808131536419     -0.69871582896269     -3.27333622761555
  H          -5.56537416911561     -0.29700170345873      0.03512938152824
  H          -5.90274363651278     -2.01943451129755     -0.17450878153995
  H          -6.04577517657561     -0.91938259812418     -1.55093036356969
  H          -2.86640633582850     -2.84126114918848     -2.21457687674902
  H          -4.46995112630602     -2.45365005601021     -2.85673815213083
  H          -4.31491575439015     -3.51193526329801     -1.44832622837229
  H          -3.27614310296044     -0.90239908655329      1.01440154136210
  H          -2.16474147501609     -1.93450953336275      0.10146567329087
  H          -3.64926149829511     -2.61588135910263      0.78438798661588
  H          -4.36021269022356      1.78311969960746     -0.40744021843673
  H          -2.93119165309328      2.47308057606305     -1.19714984084476
  H          -2.74342985542033      1.42285192712173      0.21756005147756
  H          -3.64135171037421      1.36420237325191     -3.91994141636575
  H          -5.13218176539112      0.64172825731595     -3.29614040755393
  H          -3.96366206192951     -0.36244248810333     -4.16652691893043
  H          -3.13161893601295      5.25117674974863     -4.88520846479782
  H          -2.81006734110258      3.50207537043890     -5.00565060851106
  H          -1.57517503770730      4.67667848683701     -5.54255811741453
  H           1.15930747353226      5.42972860400223     -2.57293175724478
