48
Coordinates from ORCA-job goat_0_1079 E -1253.930896163462
  O           2.40231985955046      3.74763704567174     -2.44449555638510
  C           1.12971128771227      3.22223633912542     -2.81248558783023
  H           1.08247483721911      3.08631273605081     -3.89943720650939
  C           0.98660185925088      1.86114223448103     -2.15605593448782
  H           0.95327014519978      1.98374984305833     -1.06645260124495
  O           2.06534858983154      1.00612470725665     -2.51175746598044
  C          -0.29337800081736      1.19929071129884     -2.66849216395223
  H          -0.06502171529646      0.78389530427759     -3.65429405023871
  C          -0.75055564534646      0.06342354000812     -1.76360021132207
  O          -1.52507564462700     -0.90525259472745     -2.44742292989395
  Si         -3.13592466476103     -0.93105280776904     -2.87861941155386
  C          -4.28123233083242     -0.45188452899726     -1.44535644870712
  C          -3.82785322663626     -1.14330689895253     -0.15165890578873
  C          -4.32252926626714      1.06748986880016     -1.23052975985289
  C          -5.70057250385765     -0.93421798656679     -1.79214801520618
  C          -3.46030693862620      0.13942434235980     -4.37980276893035
  C          -3.40318702525291     -2.72398659549750     -3.34923696475532
  O          -1.34550126611923      2.15225658920400     -2.89281411020707
  C          -1.29605306440906      3.32182735675338     -2.12701868781135
  H          -2.17007437135202      3.90826338097077     -2.43305167135392
  O          -1.39556310625397      2.98878471971720     -0.75488497211732
  C          -2.02700227001026      4.00251475052058      0.01727020687224
  C          -0.01385439117749      4.13560507403728     -2.39222793760940
  H           0.26960255067335      4.64243620812374     -1.46459235905690
  O          -0.19765117754759      5.08425547962621     -3.43940808978360
  H           2.63739052476879      4.43855287888546     -3.07369610098456
  H           2.87654689818560      1.49613770098480     -2.32534370093693
  H           0.14064738583411     -0.45045466357933     -1.39081619518633
  H          -1.28873877112201      0.47914762297689     -0.90957827565765
  H          -2.84080495473351     -0.80051494635306      0.16978301214982
  H          -3.78346048337022     -2.23052501537158     -0.26891398735313
  H          -4.53564081810052     -0.92582924874486      0.65802802317351
  H          -3.34330388012154      1.47656059395613     -0.97744862609585
  H          -5.01200911436349      1.30749275015056     -0.41088125414404
  H          -4.67873736011678      1.58730372382982     -2.12496623046283
  H          -6.39794519010580     -0.63161839325434     -1.00137987805572
  H          -5.74939957362457     -2.02290429908976     -1.88032706866319
  H          -6.05972345314307     -0.50217459334466     -2.73179496787996
  H          -4.50626497762596      0.04747504654430     -4.68910481630359
  H          -2.83324302802807     -0.18956511745108     -5.21448159819067
  H          -3.24439767314886      1.18988133454625     -4.18206039881870
  H          -4.38555630880898     -2.86777335251571     -3.80733586980802
  H          -3.33075275451394     -3.38369185250100     -2.48005568413784
  H          -2.64426020355436     -3.03279102724886     -4.07453913126575
  H          -3.04524297863648      4.18413330012717     -0.34561205094509
  H          -1.46349824029034      4.94191488883691     -0.00950829161483
  H          -2.06601454012685      3.64158502393937      1.04470284972761
  H          -0.74575302549968      5.80326882584529     -3.10394615483984
