48
Coordinates from ORCA-job goat_0_222 E -1253.945495610947
  O           2.87719343379704      3.23727679598817     -1.58303418581378
  C           1.69040892149961      2.98685640709513     -2.32841925400735
  H           1.94267705759689      2.81232461111556     -3.38320451264142
  C           1.06879755978515      1.71608235527631     -1.76985246199162
  H           0.90395021207494      1.84764009755321     -0.69165982212010
  O           1.91618711612688      0.59941002192763     -2.00707318256002
  C          -0.27601077670204      1.45753734917546     -2.44642924618248
  H          -0.11246875385622      1.28368742525307     -3.51937745129553
  C          -0.99650862419985      0.26193252346308     -1.85574032157554
  O          -2.15260853442779     -0.03461382575332     -2.61700795951778
  Si         -3.72245539652821      0.07047730749360     -2.05577545144772
  C          -4.24131171106573     -1.62825010272327     -1.40563113022719
  C          -4.24178008517284     -2.64379452395569     -2.55684251043752
  C          -3.24859496380566     -2.09063074050051     -0.32935812632127
  C          -5.64899030324612     -1.54692365248110     -0.79874813071396
  C          -3.87174814924641      1.36181349936111     -0.70903887046157
  C          -4.74119638409623      0.56197232844129     -3.54367580785498
  O          -1.11207029260568      2.59626999889147     -2.26543523766566
  C          -0.59765741970837      3.74977755194998     -2.90736647136580
  H          -0.44477133495131      3.53374521793226     -3.97773486181534
  O          -1.50077727122094      4.79095180573716     -2.74345610567013
  C          -2.67957745907882      4.64885793692409     -3.53808374474871
  C           0.71774189680471      4.15143364225472     -2.25237759741664
  H           0.51562537814390      4.39395931386056     -1.20182542394631
  O           1.31807467950169      5.25242179402706     -2.91939106667137
  H           3.34392633366159      3.96704810432944     -2.00680486338519
  H           2.79266175873290      0.83581235431280     -1.67857128041345
  H          -0.32473321741540     -0.59956348450538     -1.87432352276300
  H          -1.24267865273133      0.47991585538926     -0.81044859859086
  H          -3.25926919666847     -2.70924794303666     -3.03452479426969
  H          -4.97423608311612     -2.38035004352928     -3.32543349662718
  H          -4.49776132671214     -3.64211396575200     -2.18073551804543
  H          -2.23738158459709     -2.19249040290321     -0.73438108481549
  H          -3.54863236746223     -3.06945926353447      0.06482947506301
  H          -3.20729707926549     -1.39344170279048      0.51322991801949
  H          -5.68161430028316     -0.86388801588501      0.05519518146588
  H          -5.96554184515949     -2.53612432590975     -0.44548430913881
  H          -6.38679096504032     -1.20612417039928     -1.53205642329039
  H          -4.92848041018359      1.51829847421717     -0.47225004590573
  H          -3.44948083512936      2.31070630277428     -1.04748857781851
  H          -3.36201507787435      1.06833391685159      0.21230788881574
  H          -5.80994542126679      0.53860064093939     -3.31174248885007
  H          -4.56085068284104     -0.11103616875504     -4.38620929143494
  H          -4.48319073955972      1.57801750265776     -3.85688387219942
  H          -3.26655764913247      3.78535842003969     -3.21511297691900
  H          -2.41567474462774      4.53722919821474     -4.59533290723722
  H          -3.26283470110165      5.55881959912721     -3.40109431485987
  H           0.74407999235488      6.01806397984038     -2.79799516232967
