48
Coordinates from ORCA-job goat_0_148 E -1253.938288004720
  O           2.73657059380755      3.57542639854501     -2.37729504606235
  C           1.40223789092554      3.30826343214703     -2.78698624975067
  H           1.27841560211175      3.54942492580723     -3.85035379995279
  C           1.14416065785664      1.82560238913215     -2.57861619746354
  H           1.49982739900064      1.57178548477436     -1.57125661586976
  O           1.83885264706365      1.03264483743604     -3.53760284075319
  C          -0.35761516936975      1.51282759788787     -2.68494398453206
  H          -0.47204545800389      0.72764600786428     -3.43421831013203
  C          -0.89999057487210      1.00455693802460     -1.35138376856305
  O          -2.28440812910621      0.73544265788190     -1.37712129953855
  Si         -3.01235651471802     -0.48718944396439     -2.24985364669558
  C          -4.58823349188075     -0.88797371230393     -1.28958348016628
  C          -5.40706361091376     -1.94023441540490     -2.05111213222789
  C          -4.22233623023587     -1.43725420215651      0.09654169642722
  C          -5.42992106602600      0.38570065070676     -1.12210504947090
  C          -3.42630732992978      0.09872822588321     -3.97999164712538
  C          -1.85959974412456     -1.96047634893538     -2.34311553753402
  O          -1.10046669614505      2.61064209510358     -3.21847663692236
  C          -1.00890736286537      3.83785855694444     -2.52546942949966
  H          -1.24502566027307      4.59661232922323     -3.28128303914157
  O          -1.91176356262765      3.93652364724472     -1.45731180172981
  C          -3.27427416628343      3.94268593154519     -1.87623461585677
  C           0.39499581376369      4.10064581406742     -1.97341313624149
  H           0.44375748780074      3.78080779681907     -0.92667954809779
  O           0.73404879630431      5.47872635336168     -2.07365046361601
  H           2.86032691071955      4.53186179044323     -2.42300342400621
  H           2.78239960722767      1.20195627153466     -3.42514816379903
  H          -0.32894573266984      0.10303194579077     -1.09490940740676
  H          -0.72524521674125      1.74249695102973     -0.56473282326809
  H          -4.84053214647886     -2.86458000254190     -2.20122639620221
  H          -5.72360906015398     -1.57449163708902     -3.03218846380633
  H          -6.31106620919331     -2.19438384406885     -1.48430196303293
  H          -3.65955109062129     -2.37259550749022      0.02349178507255
  H          -5.13291405131095     -1.64132818226403      0.67320494106864
  H          -3.61920874433385     -0.72278755702340      0.66429501127205
  H          -5.72323816377891      0.80691971644049     -2.08847430433530
  H          -4.88451393225210      1.15576192580970     -0.56967736295340
  H          -6.34802647417365      0.15888604448210     -0.56608238564493
  H          -2.52094698527319      0.35131846139348     -4.53760715645865
  H          -4.06532708010321      0.98552580687750     -3.95354147928951
  H          -3.95324654780919     -0.68600299466918     -4.53109606541973
  H          -1.53834414913119     -2.28239239354008     -1.34882994718155
  H          -0.96713146017726     -1.72542490084005     -2.93070491609732
  H          -2.36341202166765     -2.80235450875930     -2.82705268902122
  H          -3.54556009299377      2.98754290072671     -2.33024427277847
  H          -3.45224594137873      4.75619351264503     -2.58962287762906
  H          -3.87894676370267      4.10393879950926     -0.98372843165706
  H           0.34456322473835      5.94406345396839     -1.32515262690899
