48
Coordinates from ORCA-job goat_0_153 E -1253.938274492713
  O           1.64129606668941      2.13816573751586     -0.76390934045408
  C           1.06688966546420      2.44794508103535     -2.02691830647349
  H           1.85613933231701      2.56945665939534     -2.77992399037574
  C           0.17033311465807      1.28755686726407     -2.42485751070177
  H          -0.42975671970882      1.01807845398260     -1.54950587301949
  O           0.93635778246278      0.15657450164563     -2.83701608773023
  C          -0.76720729663152      1.68758177720751     -3.57444667668432
  H          -0.67583705165881      0.92621560789762     -4.35126934377405
  C          -2.23352848332409      1.73124396882622     -3.14747390097937
  O          -2.60928039590687      0.41318401583290     -2.78142088619834
  Si         -3.60068011744038      0.11107720242660     -1.46940639657507
  C          -3.71089726454149     -1.76870707201545     -1.37870628941427
  C          -2.30566294728478     -2.36125831802006     -1.19699027496612
  C          -4.58922971063552     -2.16837508799377     -0.18378443427568
  C          -4.33059002946163     -2.32007428315551     -2.67065721554655
  C          -2.84115338835713      0.83203387822320      0.08474577228858
  C          -5.26892735219927      0.90784991835512     -1.76312953578185
  O          -0.35548631969023      2.90271736522619     -4.20627380270037
  C          -0.26924274095170      4.04409339156091     -3.37655171565733
  H           0.45632093658649      4.69580028829784     -3.87690836273826
  O          -1.49529144566348      4.71247504598144     -3.24340848626842
  C          -1.94538892074325      5.30868741009471     -4.45777414330025
  C           0.23511712840086      3.71592753804165     -1.96874730898701
  H          -0.61765621234056      3.55955263820725     -1.29899815933910
  O           1.05819977190911      4.76202337680298     -1.46674201373367
  H           2.12275038061871      2.92287266493581     -0.47280700129136
  H           1.49047218981985     -0.10508960476128     -2.09140411224988
  H          -2.37885159347307      2.43310450711603     -2.32091036374977
  H          -2.83984660078748      2.07641385360869     -3.99064369489490
  H          -2.36325008511894     -3.45571249526216     -1.15191067825037
  H          -1.83914262853444     -2.01521049128654     -0.26993355272280
  H          -1.64620416138193     -2.09335744248336     -2.02732791627936
  H          -4.17126552627724     -1.81215255240312      0.76262701876194
  H          -4.66489058590783     -3.26080801587955     -0.12301994061298
  H          -5.60460914063017     -1.77075465808328     -0.27620201365880
  H          -3.73310614208077     -2.05435850921512     -3.54731524153337
  H          -5.34553326351148     -1.94197086440272     -2.82515684994649
  H          -4.38744832296192     -3.41443475683275     -2.62181712354732
  H          -2.69394709582221      1.91179780534827     -0.01123365402197
  H          -1.87452421690936      0.37562526980815      0.31261199803746
  H          -3.50649718916370      0.66399878101491      0.93701855703068
  H          -5.15870811731828      1.99305184822153     -1.85501787852923
  H          -5.94684101429886      0.71070066016786     -0.92753278332386
  H          -5.73461975839134      0.53436874939869     -2.67896597784582
  H          -2.84767997889197      5.87128206778718     -4.21915853490841
  H          -2.17864400901672      4.54756375862137     -5.20703710062537
  H          -1.18466658754265      5.98948238817493     -4.85666990983512
  H           0.49004604563343      5.44634107376981     -1.09596896261638
