48
Coordinates from ORCA-job goat_0_321 E -1253.939956435955
  O           2.52994886634706      3.44323290964909     -1.80228133533597
  C           1.34339917330561      3.02046219265841     -2.46530024885154
  H           1.51526334099198      2.98586087366020     -3.54981306306923
  C           1.03633504456193      1.61124694087026     -1.98491336824028
  H           0.94652619034482      1.62078531295686     -0.88980832700600
  O           2.05968189070147      0.71214980239023     -2.38993793278078
  C          -0.28729442771742      1.14261547633036     -2.58709713079451
  H          -0.18252290437914      1.08708064922491     -3.67985552173057
  C          -0.70510057988699     -0.21528378168850     -2.05855383235483
  O          -1.69683738994810     -0.82926946477016     -2.85705871609268
  Si         -3.35389737873768     -0.63397161356755     -2.90391420537161
  C          -4.13136883478701     -0.61442650594927     -1.17387245063303
  C          -3.91591737870656      0.72443095914713     -0.45440042658557
  C          -5.64550101334119     -0.83478821043176     -1.33986738175296
  C          -3.55757837025463     -1.75536830430794     -0.32123837386017
  C          -3.85379914606388      0.87977339126826     -3.88526554588793
  C          -3.90926862904825     -2.15556182851466     -3.84509167563071
  O          -1.31155645316877      2.07130670916966     -2.24661131613897
  C          -1.09268642947931      3.35646421912716     -2.79963446586569
  H          -0.97312308525288      3.28059235756705     -3.88832507763158
  O          -2.23362373142009      4.13336957162679     -2.60619232393100
  C          -2.58621315328284      4.39624145181128     -1.24382602963343
  C           0.17722159723323      3.95375987720042     -2.18880940527960
  H           0.05443851418761      4.04991321267710     -1.10437405426474
  O           0.49245681113166      5.20873565678441     -2.77643965918523
  H           2.79566636465341      4.28767896368117     -2.18484854796176
  H           2.90071520613733      1.10253254679338     -2.12106573880124
  H           0.16796058731058     -0.87098076876705     -2.06357050161888
  H          -1.03582793823390     -0.09941195157260     -1.02144987251625
  H          -2.85900041763932      0.94114250081283     -0.28778019277852
  H          -4.41351722010617      0.70346269732718      0.52345148046019
  H          -4.33692784493404      1.55741170165412     -1.02418316094476
  H          -5.86782832940066     -1.80842049608312     -1.78473257086202
  H          -6.10209600394439     -0.06307372940321     -1.96772477892073
  H          -6.13493063851247     -0.79617031068154     -0.35907354892951
  H          -4.06155305568399     -1.78547150584215      0.65279817947147
  H          -2.48740808584642     -1.62933154607040     -0.13690873076945
  H          -3.70301015026934     -2.72886979927981     -0.79914455239121
  H          -3.59736623499570      1.80851334577428     -3.37579715943741
  H          -4.93309391588823      0.86379148524750     -4.06751291992318
  H          -3.35054514369818      0.87200529534939     -4.85748043535968
  H          -3.73469778701423     -3.07051689484740     -3.27231336952814
  H          -3.35267963887490     -2.23158844743160     -4.78424134084896
  H          -4.97384018229147     -2.10119430055492     -4.08841657562549
  H          -2.57698765485681      3.48169077257800     -0.64875408954274
  H          -3.59749477432473      4.80101778709416     -1.26734787086154
  H          -1.91833535756633      5.13671703239224     -0.79354683381169
  H          -0.16835430735032      5.85229376693994     -2.49572500058985
