48
Coordinates from ORCA-job goat_0_1133 E -1253.932354875513
  O           0.33929936587300      3.48654847744959     -0.69324954667872
  C           0.94857798171509      2.68539091361056     -1.69993501522270
  H           1.82940974225825      2.23050430730308     -1.24043996773461
  C          -0.00094272016340      1.57808156125753     -2.16615686618235
  H          -0.38131815736518      1.03573744544605     -1.29729010457055
  O           0.69290455076135      0.67397211371482     -3.03778542536354
  C          -1.17401877806965      2.18137937514319     -2.96114634416037
  H          -1.19858341446560      1.69752323370856     -3.94519697812550
  C          -2.51433562277522      1.97635685479256     -2.27485636718089
  O          -2.72513664376823      0.58367060232985     -2.14949333036229
  Si         -4.18498425326494     -0.04770668124249     -1.63119809139093
  C          -3.81961242074053     -1.86449817752147     -1.28559168991969
  C          -3.19328725983297     -2.51660705278639     -2.52674194777599
  C          -2.84248330928555     -1.97977743843624     -0.10673820322249
  C          -5.12783996426999     -2.58881387561714     -0.93601123570397
  C          -4.73787214142953      0.86722508746897     -0.09471806618269
  C          -5.46352850696230      0.16607429219017     -2.98107862158538
  O          -1.01766586359203      3.59027408141477     -3.13758709719343
  C           0.20701572260992      3.88845403650104     -3.79890625774974
  H           0.27448664909506      3.28324643297374     -4.71135045391508
  O           0.17951751807470      5.21241949511160     -4.23088923234918
  C          -0.08716978684680      6.18665925295137     -3.21945532108145
  C           1.41010318622126      3.53677819572899     -2.89048017908165
  H           1.85927470594283      4.45040230448781     -2.49966688665010
  O           2.42816389542358      2.89008492932547     -3.64474752908766
  H          -0.41737383770120      3.93048101817426     -1.09881136670738
  H           1.27366749433285      0.12495303917853     -2.49660224306255
  H          -2.50162390557866      2.45704020113210     -1.28901917576681
  H          -3.29736451957034      2.44908392542244     -2.87858802455977
  H          -2.24849737541579     -2.03664076589495     -2.79637270086647
  H          -3.85993049114160     -2.46271209462517     -3.39272901150808
  H          -2.98892981725245     -3.57624101989303     -2.33008513738000
  H          -3.26857014121519     -1.56600995284870      0.81188946281627
  H          -1.90404453851997     -1.45555572977177     -0.31096456309889
  H          -2.60405338075738     -3.03363129365462      0.08220130759376
  H          -5.83991869558351     -2.55833611756046     -1.76607192212429
  H          -5.61263344912404     -2.15043554933964     -0.05803050506726
  H          -4.92434915133837     -3.64267232329260     -0.71080781049599
  H          -5.63095531474690      0.39846751066351      0.32909285975138
  H          -4.98789479481028      1.90542139209178     -0.33320613695594
  H          -3.95750487338748      0.87041167495212      0.67097208496924
  H          -5.56287615484230      1.22270530778729     -3.24802179051707
  H          -6.44297065041288     -0.18646288920733     -2.64477652928944
  H          -5.19042594390264     -0.38911668016900     -3.88247850128928
  H          -1.12064390416716      6.11632016016978     -2.87326086050075
  H           0.07534221449468      7.15854063918987     -3.68405374913181
  H           0.58757326709610      6.08392964242040     -2.36466114816174
  H           2.10183348840127      1.99966013776916     -3.84275378017610
