48
Coordinates from ORCA-job goat_0_1006 E -1253.932599882618
  O           1.02292226347035      1.45702161360939     -0.80032069248954
  C           0.99413066641629      2.09179859503047     -2.07609782784610
  H           1.95572677218211      1.95251917449703     -2.58390468505342
  C          -0.08116253751680      1.40143452888157     -2.92814731063330
  H          -0.22448779779971      0.38962357687721     -2.53946703761106
  O           0.31130726694098      1.35968236728761     -4.30053879900832
  C          -1.42187162545125      2.11479487877925     -2.88319037274074
  H          -2.05734321208503      1.66616149704420     -3.65198683916975
  C          -2.12588611982697      1.96341248358304     -1.53430162219673
  O          -2.41108428372231      0.59775609712652     -1.28302587923202
  Si         -3.95389543126684     -0.02682459470555     -1.44377537398916
  C          -3.73604043271604     -1.89023407597257     -1.25780752026229
  C          -2.83136066351197     -2.42121863260329     -2.37912555215383
  C          -3.09681008630383     -2.20866985646392      0.10144905848730
  C          -5.10915158025082     -2.57256317378103     -1.34557645681492
  C          -5.04802389860978      0.69102845471861     -0.10460377654175
  C          -4.65636699343641      0.43056333969418     -3.11874379376768
  O          -1.32642070598003      3.51128187485049     -3.19588251937292
  C          -0.03817520298224      4.10803386299397     -3.15139599106295
  H           0.49387199915707      3.91151534390693     -4.09186895404014
  O          -0.20343081592115      5.48072755490047     -2.97795900447956
  C          -0.64482344641619      6.15547184504671     -4.15570249131409
  C           0.75286791344778      3.59412331171964     -1.95754410439648
  H           0.15377288441296      3.79309442412256     -1.06110259335963
  O           2.01549634052289      4.23772276499189     -1.85888530506894
  H           1.71750948625436      1.87493943720535     -0.27738134199987
  H           1.10956898362193      0.82273882709737     -4.36642318892710
  H          -1.49692881585739      2.34049802532685     -0.72506485405312
  H          -3.03534282662139      2.57452860155553     -1.56236246621769
  H          -1.84510520954523     -1.94849069386473     -2.35659452747009
  H          -3.26766390897144     -2.24608212888650     -3.36687976296932
  H          -2.68844855870109     -3.50286500583071     -2.26583234714652
  H          -3.71857362303461     -1.86128127390723      0.93192672445560
  H          -2.11143409446832     -1.74431916884395      0.19881543223544
  H          -2.97022759292035     -3.29270267314483      0.21173795027000
  H          -5.77936751552926     -2.23634642212660     -0.54863209463141
  H          -4.99486204365384     -3.65886994854184     -1.24691635110273
  H          -5.59891049211754     -2.37698228767527     -2.30451851956133
  H          -6.06813856173552      0.30472299128713     -0.18657190107922
  H          -5.09591350558091      1.78055365222113     -0.19694781407169
  H          -4.66858772091866      0.45068137261133      0.89211607935959
  H          -4.05245212136871      0.02810995747580     -3.93594269863097
  H          -4.70494029896457      1.51781145713553     -3.23366405415270
  H          -5.67363083727288      0.04065367418686     -3.22036793551606
  H          -1.65856461572656      5.84867395939814     -4.42640989512667
  H           0.03401858916919      5.95144641758989     -4.99082702866491
  H          -0.63566945834316      7.22164648299999     -3.93085610888600
  H           1.84773346953280      5.18525749059542     -1.78074785199515
