48
Coordinates from ORCA-job goat_0_177 E -1253.945561664948
  O           2.59550559318530      3.26851521230038     -2.44907322069435
  C           1.28290886424827      2.77801684396556     -2.70035141656984
  H           1.33322640617820      1.89640414895812     -3.35369213738107
  C           0.70112343138570      2.34844344655123     -1.36285486069858
  H           0.74216059119171      3.20021388579226     -0.67014167189145
  O           1.42653877566478      1.24572014532438     -0.83357899230154
  C          -0.75645347943491      1.92582255496917     -1.53980814110728
  H          -0.79278795405744      1.04559246221996     -2.19605850411385
  C          -1.41272084011458      1.59933353104357     -0.21152394278883
  O          -2.73432440006204      1.12287975633661     -0.38060448745663
  Si         -3.17632215838986     -0.47686999414745     -0.57574999856268
  C          -4.23891556566258     -0.55784234837246     -2.13640046622829
  C          -3.39844721023831     -0.16079753093289     -3.35762497327104
  C          -4.77195164035230     -1.98506573792196     -2.32699906210342
  C          -5.42127204819565      0.41333958213004     -2.00553184297111
  C          -1.65789672505006     -1.56480375116317     -0.71651267262284
  C          -4.16349401551658     -0.97746684160373      0.93319622856624
  O          -1.48559748914551      2.99598688404718     -2.13469986366776
  C          -1.02404289612981      3.29613693305502     -3.44156966675261
  H          -1.06572961334784      2.38475304595672     -4.06095116051727
  O          -1.82641066060059      4.29062927119864     -3.98199903855291
  C          -3.11545958510773      3.82423935763368     -4.38493505066041
  C           0.40385573631422      3.82157047810506     -3.36755290526360
  H           0.40018294063312      4.73965782285228     -2.76709306204960
  O           0.93599588565661      4.06518903440878     -4.66148620630610
  H           3.02493398848776      3.41491599724313     -3.30004353176993
  H           2.36140412373636      1.48578518620194     -0.85626786653437
  H          -0.78771800266327      0.87640196158884      0.31876765329548
  H          -1.45840977610841      2.51399256241343      0.38833053197589
  H          -2.54696090909758     -0.83300540287150     -3.50024871329299
  H          -3.01533156110815      0.85838503145671     -3.26256849959746
  H          -4.01162571227212     -0.20241065411911     -4.26636392215577
  H          -3.95921190046760     -2.71000529254923     -2.43455679783183
  H          -5.38606415238926     -2.03871675759465     -3.23431638663615
  H          -5.39637136344092     -2.29960400063292     -1.48553497522893
  H          -6.03554511289349      0.38285258280873     -2.91403305505987
  H          -5.07899851315202      1.44311922091625     -1.86741512509274
  H          -6.06633058509981      0.15392980549340     -1.16072370011076
  H          -1.01501090168606     -1.28461736361825     -1.55434858365990
  H          -1.96933927633633     -2.60355362159680     -0.86240479020353
  H          -1.06249077253924     -1.52392718685430      0.20026001717258
  H          -4.50678945351665     -2.01311361411181      0.85521116093253
  H          -5.03917552623217     -0.33630832379787      1.06633536784053
  H          -3.54153555555172     -0.89358341421995      1.82973002024645
  H          -3.01676498578504      3.00790850180844     -5.10850382738949
  H          -3.62294371790627      4.66772875137918     -4.85172657565427
  H          -3.69357380118128      3.47912932198144     -3.52387390750948
  H           0.42201152415120      4.77767851596789     -5.05995737776878
