48
Coordinates from ORCA-job goat_0_1138 E -1253.932330326479
  O           0.17950082195206      3.62207696586767     -1.21560546105369
  C           0.68268264305704      2.71752112019117     -2.19288277784430
  H           1.59288351108348      2.28360608410319     -1.77173643872489
  C          -0.31329171843092      1.58738422236709     -2.47117406965424
  H          -0.65948114747680      1.19562473590504     -1.51425888237298
  O           0.31605762333278      0.49551522290578     -3.13567003074897
  C          -1.51958338674289      2.13490965389125     -3.27116669606170
  H          -1.56003564875744      1.60589416187554     -4.23172596510247
  C          -2.83925202804431      1.94922764491078     -2.54047804214497
  O          -3.05657134149721      0.56255941286233     -2.35842153819290
  Si         -3.69109813263347     -0.05102811489564     -0.93717149430027
  C          -3.87218759812976     -1.90017930157641     -1.25388517106220
  C          -2.51816099606935     -2.49093790162808     -1.67324592343612
  C          -4.34975065920711     -2.58881437426557      0.03328677905946
  C          -4.89865683444338     -2.14161021137253     -2.36987491553692
  C          -2.51738383641444      0.29414918480774      0.48099082251265
  C          -5.33453476413154      0.77578061573752     -0.59356879339273
  O          -1.39472067146349      3.53937239627136     -3.51600290098213
  C          -0.23268925074523      3.82713906325410     -4.28050462628888
  H          -0.24887751651848      3.22320844631190     -5.19556152441022
  O          -0.28366007983556      5.15173553024701     -4.70398869053164
  C          -0.41459522761846      6.12929129390429     -3.66908634932219
  C           1.04048498936808      3.45794376913016     -3.48713689296734
  H           1.60348453912005      4.35999578498256     -3.23693029338301
  O           1.81624735455380      2.62232222659315     -4.35345032470971
  H          -0.63954560433760      3.99666258229417     -1.56660253614503
  H           0.85504943666478      0.86601771193289     -3.85044582455123
  H          -2.79503390319243      2.48536588032695     -1.58375365501481
  H          -3.64971902535711      2.38291337822031     -3.13469633273096
  H          -2.14750811473221     -2.03115532539031     -2.59343809027412
  H          -2.61919003703802     -3.56851044337798     -1.85178311666636
  H          -1.75886487127101     -2.35345980294475     -0.89749847815046
  H          -5.31222264764211     -2.19321239333155      0.37261630028356
  H          -3.62839396867515     -2.46799202313513      0.84689748303254
  H          -4.47637857338632     -3.66397436468846     -0.14194733529043
  H          -4.60034370317326     -1.65390038425336     -3.30248869049279
  H          -5.88919322811995     -1.76811690660201     -2.09414839592954
  H          -4.99179364265799     -3.21639983861040     -2.56812979556821
  H          -1.56301005524505     -0.22222524939027      0.34809790882382
  H          -2.95830601076033     -0.04072182591716      1.42460863041111
  H          -2.31540025480609      1.36569038559298      0.57127800973320
  H          -6.02274091344638      0.66100955043985     -1.43518880300096
  H          -5.19218502817865      1.84576202646413     -0.41267867300427
  H          -5.80533619883248      0.34732573662510      0.29610704406466
  H          -1.38330191155849      6.04526457649632     -3.17172905634939
  H          -0.34107274403691      7.09941347339641     -4.15897903590867
  H           0.38365733280408      6.04370386687520     -2.92607447678802
  H           2.70185302267150      2.54043175659548     -3.97862287983135
