48
Coordinates from ORCA-job goat_0_260 E -1253.939010998372
  O           2.56149468734369      3.99119175101789     -1.76177801627561
  C           1.73501737038653      3.06632962104753     -2.45571353503843
  H           2.29411129409988      2.60471046141742     -3.27950270670155
  C           1.31820247220523      1.99141407817075     -1.46713831146366
  H           0.97141034084063      2.50425927631718     -0.56034591451803
  O           2.40637308858522      1.13307162510572     -1.13600310151860
  C           0.17695293389956      1.13108352490834     -2.03568431567343
  H           0.49513430092191      0.08768146987277     -1.99371618894113
  C          -1.08460683225294      1.27228382383052     -1.19667460816756
  O          -2.07387034022336      0.37585946175740     -1.66327822128604
  Si         -3.62000757168934      0.39339486202775     -1.02854135981057
  C          -4.48323511084023     -1.09753139461587     -1.79553078398677
  C          -4.37502774179765     -1.03628272988717     -3.32576777887239
  C          -3.83344600860391     -2.39420284990304     -1.29254081192583
  C          -5.96509423593667     -1.08214190372233     -1.39115276746589
  C          -3.51873605592524      0.25873620756995      0.83706975316454
  C          -4.48102205691595      1.99373639602304     -1.47944420149215
  O          -0.03941192581444      1.37047694841436     -3.42940155401288
  C          -0.30027971426154      2.70151157784856     -3.82328895566068
  H           0.03212929348990      2.74793199214469     -4.86731965304601
  O          -1.65783796281687      3.04545059080011     -3.74658089375403
  C          -2.46821956206903      2.33602719120503     -4.68003439254986
  C           0.48560687818719      3.72872207950115     -3.00530752276383
  H          -0.13098140500608      4.08599133153287     -2.17286259735573
  O           0.88676009001898      4.82656794832051     -3.81587793456396
  H           2.73510250921528      4.72421584544048     -2.36558315665324
  H           3.09616563706412      1.68064669745790     -0.74099619064155
  H          -0.81161095092787      1.03824299013793     -0.15977691792233
  H          -1.44768323200356      2.30566947507323     -1.22404881040371
  H          -3.33274842406177     -1.06761955790360     -3.65424684481101
  H          -4.82828416513575     -0.12509739725630     -3.72775603608161
  H          -4.89586404582186     -1.89210976441982     -3.77268360207948
  H          -4.32069315352616     -3.26236042534607     -1.75318905738528
  H          -3.92816071750413     -2.49717189775715     -0.20760080738388
  H          -2.76967207741282     -2.43472120502454     -1.54484132651242
  H          -6.47531317897230     -0.18857978387876     -1.76276600723679
  H          -6.08961250301865     -1.11573278896912     -0.30424627859721
  H          -6.47729870199613     -1.95647057923292     -1.81067427519776
  H          -2.90777658865597     -0.59449093466631      1.14408779593593
  H          -4.51716843403598      0.13677834851163      1.26733885652271
  H          -3.08014310508827      1.16476904421338      1.26622571383461
  H          -3.87070775730293      2.85516968205699     -1.19259064778745
  H          -5.43596940591545      2.07073416101477     -0.95113061727961
  H          -4.67696519738903      2.05804191284854     -2.55220157606245
  H          -3.46646669425382      2.76985149653545     -4.62853199785104
  H          -2.52016594869645      1.27519514630295     -4.42624686581205
  H          -2.07293776433386      2.45165155196760     -5.69609759897495
  H           0.14038767394739      5.42969464218840     -3.90387737793907
