48
Coordinates from ORCA-job goat_0_1020 E -1253.934741080946
  O           1.27613519415049      2.27129694586128     -1.19125458488619
  C           1.15033049069703      2.44832211839698     -2.60012621682406
  H           2.06635718206479      2.04362226664497     -3.04436808108748
  C          -0.03437436828826      1.63882607274252     -3.14868770262599
  H          -0.05581046050191      0.68434911480808     -2.61412123305751
  O           0.10274536414815      1.40821113714256     -4.55169077344011
  C          -1.38442760366971      2.31698768979946     -2.93925708690680
  H          -2.04351622051664      1.93540667352115     -3.72226948044635
  C          -2.04303247930811      1.98654792057835     -1.59382728262665
  O          -2.25106857502094      0.59272873876391     -1.45714516111400
  Si         -3.42148571918878     -0.29564753352247     -2.25528026475398
  C          -3.95357101948379     -1.62694801627142     -1.02661517211128
  C          -4.59463500355840     -0.96622454620879      0.20199594433692
  C          -4.97242179516438     -2.56689567717774     -1.68689140548799
  C          -2.72915417278535     -2.44000733441789     -0.58105727874683
  C          -4.84938320367977      0.81892207505748     -2.72831644673511
  C          -2.67569232530451     -1.06651747296701     -3.79021115601781
  O          -1.36817846015388      3.73399284164596     -3.17333021883946
  C          -0.32399295134236      4.48333255189368     -2.60211845816771
  H          -0.44513783641692      5.48723970795773     -3.02222808833480
  O          -0.39152537338638      4.53759163445232     -1.19504514094076
  C          -1.50501097346720      5.28264356563551     -0.70268680298772
  C           1.05842074040679      3.93759687602102     -2.94573723789340
  H           1.79178872769854      4.47755005408517     -2.33631049016600
  O           1.26209381353192      4.20018757184096     -4.32426500845393
  H           0.71998461007727      2.93425069718219     -0.75760226943645
  H           0.92867470931247      0.93246063659593     -4.69701411130909
  H          -1.42677363433511      2.30662497609292     -0.75483000360482
  H          -2.99151361100092      2.53112075631946     -1.54401380470353
  H          -5.49865513432949     -0.41043085549503     -0.06407159771778
  H          -3.90324840464599     -0.27392484313647      0.69126884214241
  H          -4.87846304578821     -1.73105388674185      0.93524400346606
  H          -5.29508465071589     -3.33278524133784     -0.97112728721881
  H          -4.54572694388653     -3.08179393243511     -2.55257672393395
  H          -5.86519680011387     -2.02834524792558     -2.01941070739172
  H          -1.97802800165198     -1.80416278983273     -0.10397298134886
  H          -2.25462965953671     -2.95082288527851     -1.42427882745008
  H          -3.03077042334076     -3.20575900300863      0.14419118111923
  H          -5.64988678916824      0.22207859659928     -3.17540355034165
  H          -4.54178998494569      1.56676526698167     -3.46489329215399
  H          -5.26023485438929      1.34156870334684     -1.86053992188504
  H          -1.79687133923047     -1.66735867616656     -3.53977018083042
  H          -2.36613299722208     -0.29717461168157     -4.50250623065922
  H          -3.40132381385760     -1.71566659021797     -4.28901469964769
  H          -1.46750880571591      6.30806909572516     -1.08485322130085
  H          -1.42258966678958      5.29283189983955      0.38337672539772
  H          -2.45068103025727      4.81999019656201     -0.99323233608539
  H           2.08882730007167      3.78298276172881     -4.59197417679066
