48
Coordinates from ORCA-job goat_0_290 E -1253.939095262363
  O           1.10350574046706      2.29553192932048     -0.74313890727847
  C           1.31684300414168      2.05595292313265     -2.12869411532424
  H           2.25331553400842      1.49979196806538     -2.21557977257764
  C           0.20635638268960      1.19087147327284     -2.74419363672983
  H          -0.01218723785886      0.37212156567394     -2.05713240408867
  O           0.67044363915186      0.58867961883038     -3.95317629777486
  C          -1.09326277851664      1.95859960982942     -2.98979832078209
  H          -1.63950059119433      1.39908858751401     -3.75151213358449
  C          -2.01612098738230      2.04681891100171     -1.76992834728002
  O          -2.41386717323884      0.73524529508983     -1.39910362515021
  Si         -3.93401580668026      0.13859459362689     -1.75855750714812
  C          -3.85960401623129     -1.68099388696212     -1.27112075618287
  C          -2.77532637687291     -2.39420455766527     -2.09196981250663
  C          -3.52885426748943     -1.80816631525472      0.22293942747602
  C          -5.22068322666728     -2.33642513848203     -1.54756649321085
  C          -5.21318006641564      1.08061199359589     -0.76759184522115
  C          -4.29586056697270      0.35897400796201     -3.58304414772377
  O          -0.88054780358167      3.24798958395602     -3.59199976042886
  C           0.10973703558174      4.07143668340271     -3.03062320183505
  H           0.18697381323679      4.91974217060820     -3.72163790594194
  O          -0.22113143133366      4.53548656607244     -1.74236015753783
  C          -1.31406071982834      5.45463460389857     -1.72446985661381
  C           1.46244422121347      3.36730387367697     -2.90098209146934
  H           2.14995920849623      4.03235076821571     -2.36947699472677
  O           1.97270008310210      3.03582948516992     -4.18925338308617
  H           0.55128828190167      3.08558521126331     -0.65560153146674
  H           1.05458938583073      1.29642534218950     -4.49110813515218
  H          -1.52921072090129      2.50970070017499     -0.91261016878712
  H          -2.87550589447530      2.66993714019661     -2.04267884364409
  H          -2.98879500429433     -2.35448585515595     -3.16418077195882
  H          -2.72065417427755     -3.45095614606820     -1.80298856732486
  H          -1.78970780551959     -1.94968705676981     -1.92668112820417
  H          -4.29054482753896     -1.33151713662891      0.84708646733306
  H          -2.56318074166594     -1.35262954544659      0.45963121838607
  H          -3.48041748636663     -2.86640331311511      0.50766091800585
  H          -5.18912124253909     -3.39699492550717     -1.27009378054859
  H          -5.49031862941058     -2.27873859929180     -2.60654290876269
  H          -6.02128044608152     -1.86618988704280     -0.96844845158735
  H          -6.21944532661404      0.70822131139119     -0.98089125479145
  H          -5.18956372203739      2.14356995146476     -1.02711591517688
  H          -5.03336761806368      0.98845250626588      0.30679103618374
  H          -4.26063162047303      1.41746036807574     -3.85886677211431
  H          -5.29909771517398     -0.01072782737971     -3.81515138955367
  H          -3.57938086588951     -0.18071134740646     -4.20751185412031
  H          -1.45125964930963      5.76121808875802     -0.68843916281510
  H          -2.22938007038297      4.98615907865989     -2.09232399300440
  H          -1.07741741644466      6.32879406587995     -2.33980665705085
  H           2.03615769790283      3.84023156194050     -4.71800630711680
