48
Coordinates from ORCA-job goat_0_114 E -1253.935978638350
  O           2.52873612553663      3.51631811873216     -3.62896672827491
  C           1.15958989376052      3.30584419205450     -3.31112047189216
  H           0.62276000249385      3.38086872894830     -4.26217109724230
  C           0.87738651120581      1.94925461739929     -2.67826243194753
  H           1.32894956567197      1.92265008962886     -1.67984056735712
  O           1.46639034342981      0.86386611144086     -3.37919832186372
  C          -0.64632610332633      1.76379506004097     -2.58323629405219
  H          -0.96656836250716      1.31221706709445     -3.52718184161998
  C          -1.00616072728806      0.82689593204920     -1.43769566790511
  O          -2.39433550634929      0.56833875151410     -1.34330287096416
  Si         -3.27431881247064     -0.33262104950877     -2.44131230507520
  C          -4.68349447869705     -1.08728663880107     -1.43615775230116
  C          -4.11076589127911     -2.04000355607536     -0.37730611816831
  C          -5.47668546375497      0.02661229087575     -0.73714453241011
  C          -5.62281021466892     -1.86914006184691     -2.36606670220026
  C          -3.94765113756814      0.78008067458010     -3.78991167624583
  C          -2.17520647596238     -1.64864200070462     -3.19467376890166
  O          -1.36223142533382      3.00389701241170     -2.53273632125753
  C          -0.74970366553243      4.06871161407940     -1.83942045453537
  H          -1.40876396645845      4.92392996375585     -2.02403604172149
  O          -0.64428040787234      3.82881335962593     -0.46034579925267
  C          -1.91345690599598      3.75138611063524      0.18817064040728
  C           0.65646944037524      4.38936004530030     -2.36667686492240
  H           1.33678025299899      4.43485393931808     -1.50725835546859
  O           0.60484467691559      5.65501361937879     -3.01370113756559
  H           3.05122426982439      3.38150413235849     -2.82745713890676
  H           1.17204377217931      0.90100287878639     -4.29842564158181
  H          -0.44412952547862     -0.10324422217793     -1.58302117752775
  H          -0.68755896666337      1.26830908404533     -0.49156385799755
  H          -3.42448381744743     -1.52159669183186      0.29860079845034
  H          -3.56998810145436     -2.87379349413040     -0.83481312919355
  H          -4.92268474158182     -2.46223948853369      0.22749044475001
  H          -4.84410239093327      0.60161596382454     -0.05501970280504
  H          -6.29584314596038     -0.40745259295313     -0.15064816032391
  H          -5.91765884970260      0.72209416114138     -1.45761656017062
  H          -5.09838429813379     -2.67400019473234     -2.89052521221338
  H          -6.08172794219459     -1.21912736750614     -3.11665195544318
  H          -6.43197795105288     -2.32561866291412     -1.78315319330577
  H          -4.54115924201922      1.59537035145795     -3.36709541000544
  H          -4.58640133957850      0.21212997352448     -4.47280633052541
  H          -3.13780992984943      1.22114865704547     -4.37700849027781
  H          -1.38053214198235     -1.20067440827439     -3.79850364755315
  H          -2.76392393502279     -2.29859079117530     -3.84883380014050
  H          -1.70896562664867     -2.27161322185444     -2.42661952775184
  H          -2.48657052608575      2.89079663913060     -0.16462939270271
  H          -2.48640046805032      4.66878282945329      0.01133882492351
  H          -1.71543642215545      3.64619756916752      1.25465943704863
  H           1.48115405266886      5.81656490422094     -3.38599369400839
