48
Coordinates from ORCA-job goat_0_1117 E -1253.941954792220
  O           0.26394889078993      4.51120292517070     -0.93970456576092
  C           0.32608087929699      3.70008718740320     -2.10743772983680
  H           1.35848281918208      3.67366182731761     -2.48713199018875
  C          -0.13181515201072      2.27450926605529     -1.83443834452128
  H          -1.12124974449266      2.29547735688787     -1.37316463560111
  O           0.72565327918698      1.63920748435869     -0.89224188306731
  C          -0.21317771822703      1.49691192907369     -3.14972207542046
  H           0.79874918614700      1.40758199932868     -3.57607852373398
  C          -0.76593805823611      0.09725659959968     -2.96999058295223
  O          -2.04071839520003      0.14672416289753     -2.35462425102599
  Si         -2.59600498252637     -1.07737947580222     -1.36429412587990
  C          -4.30617239519396     -0.50274116442490     -0.81524311811812
  C          -5.22533623773201     -0.35774403443356     -2.03644325594100
  C          -4.90540383271090     -1.53522439129251      0.15090465465107
  C          -4.19161382090028      0.85318455610711     -0.10356659779920
  C          -2.66388602575907     -2.67660092578580     -2.33537248245336
  C          -1.43623853593911     -1.28783835358107      0.09087806932633
  O          -1.05413970577630      2.19085149354880     -4.06843152087481
  C          -0.56083484114775      3.47815114615532     -4.40803092637492
  H           0.46277418216025      3.39128671517678     -4.79559250254941
  O          -1.31644126775788      3.97817147905227     -5.46202342481504
  C          -2.66758578581050      4.32605179360327     -5.14740756424044
  C          -0.55742557810360      4.35365174807975     -3.15609778279466
  H          -1.57660838788202      4.41904709653758     -2.75646678200069
  O          -0.07570525878460      5.63959541349433     -3.51415200964830
  H           0.84586859838137      4.11616160043344     -0.27913678501025
  H           1.60671804406070      1.56554717092309     -1.28186459967963
  H          -0.84320766081465     -0.37837050558488     -3.95372649335791
  H          -0.05066210225398     -0.47412062519463     -2.36900919943959
  H          -6.21687209926005     -0.01007788117437     -1.72119905952665
  H          -5.35836979785060     -1.31098917711107     -2.55651795336331
  H          -4.82903962894710      0.36689752640503     -2.75355000492937
  H          -5.90495402960528     -1.21517217748728      0.46931501379440
  H          -4.29266822092780     -1.65099624717418      1.04990135581270
  H          -5.00665754815375     -2.51859802817958     -0.31865098315174
  H          -3.56073118446653      0.78933115102170      0.78808390463590
  H          -5.18408845830496      1.19481030656691      0.21526140446203
  H          -3.76876438891497      1.61672613004884     -0.76259270330818
  H          -3.29932542567773     -2.58037307188605     -3.21978518994915
  H          -3.05499429194163     -3.49088422204989     -1.71836428621126
  H          -1.66015967577094     -2.96145577051760     -2.66632835395066
  H          -1.80023994858056     -2.07633837954916      0.75617077784330
  H          -1.34873172102876     -0.36411353309825      0.66873811905721
  H          -0.43546708298188     -1.57403231074810     -0.24563064861389
  H          -2.70973095797033      5.25083095931346     -4.56546531963937
  H          -3.16840554789107      3.52229859657867     -4.60282462621297
  H          -3.17043403300527      4.48098807647565     -6.10156337120235
  H           0.05935364933398      6.12942657745989     -2.69323704643707
