48
Coordinates from ORCA-job goat_0_25 E -1253.939228152945
  O           2.05112846953233      3.53941570510669     -1.46510340874505
  C           1.21070116553466      3.14888986259104     -2.54440355865023
  H           1.82049932115975      2.80144821511962     -3.38818156908413
  C           0.24111577751504      2.05096085886153     -2.15579670433339
  H          -0.45355045875675      2.43256997483535     -1.39613150971006
  O           0.99042246024497      0.96668908470345     -1.61813824930646
  C          -0.52355622659604      1.61232955869600     -3.41056243319279
  H           0.09992656154447      0.87339081680389     -3.92276764487923
  C          -1.85940083339993      0.97062096221521     -3.05920756885812
  O          -1.59964117111849     -0.13007125892202     -2.19197548328520
  Si         -2.60549751611592     -0.51800732147518     -0.90408471601239
  C          -4.29264574752170     -1.09572493072315     -1.53184964062462
  C          -5.04747511096883     -1.75738822476389     -0.36772333269241
  C          -5.12459252838034      0.08459050292023     -2.05487043132187
  C          -4.09976477054061     -2.11968599285312     -2.65926680117163
  C          -1.68862223070687     -1.88983916305410     -0.03084139684211
  C          -2.77219751349515      0.97544602711277      0.21186333829353
  O          -0.70537378157723      2.67527721034228     -4.35511665085910
  C          -0.79665888279874      3.98170328048586     -3.82559143102448
  H          -0.83708198075179      4.62830604058746     -4.70812590489212
  O          -1.94665712911654      4.16027788223956     -3.03982119645673
  C          -3.15087651208935      4.14202697574863     -3.80452377303677
  C           0.42066250581337      4.37237991414460     -2.97311372588032
  H           0.05344911218261      4.87448240396745     -2.07199719555280
  O           1.21508609370434      5.26766030486331     -3.74427269548468
  H           2.55704878938228      2.76243756818881     -1.19788300035980
  H           0.36800113097014      0.23272469338844     -1.51812692701578
  H          -2.49859818690576      1.71198337799280     -2.57351512302754
  H          -2.35724147929272      0.62068288538476     -3.96891097097636
  H          -4.52367783140590     -2.64358099046042      0.00145686063671
  H          -6.04382477961319     -2.07266210946989     -0.70026456274156
  H          -5.18188028275647     -1.06876503764198      0.47262264467829
  H          -5.29451257803399      0.83565569411566     -1.27808361687692
  H          -6.10540024707413     -0.27323631420068     -2.39138164742343
  H          -4.64690214102692      0.57957583552486     -2.90478000954172
  H          -5.07389290539157     -2.48810119677916     -3.00341481709446
  H          -3.51762547303183     -2.98417389887091     -2.32566173138749
  H          -3.58582922732236     -1.67829945697917     -3.51807031296375
  H          -1.61989298254323     -2.78651635583145     -0.65246692257084
  H          -2.19041001948683     -2.15847588581356      0.90271152624735
  H          -0.67302591338544     -1.56390958856378      0.21378946714097
  H          -1.79450879348987      1.24956247201520      0.61963233025035
  H          -3.43800026260273      0.74957942992932      1.05036735607476
  H          -3.17841977212191      1.84359155509117     -0.31322295652258
  H          -3.97009524978787      4.31581741269758     -3.10735645043767
  H          -3.29519236123484      3.17867129617286     -4.30053442286728
  H          -3.13411874100855      4.93733687362649     -4.55788750539286
  H           1.97643023386724      5.51493305092931     -3.20526552422466
