48
Coordinates from ORCA-job goat_0_100 E -1253.936309579546
  O           2.50806392925778      2.11659907342872     -3.04907509545338
  C           1.22132077578000      2.71382875511533     -3.15594365031798
  H           1.17494718136195      3.34365656717443     -4.05432015364017
  C           0.11775496486146      1.66413927512157     -3.21922477171117
  H           0.33557440008584      0.89603443864835     -2.47391717890678
  O           0.15075054533787      0.98054232414981     -4.47075781185081
  C          -1.25269792694766      2.29628748088106     -2.90669351138920
  H          -1.93992776967176      2.02408517712961     -3.71120679588419
  C          -1.84836340643146      1.79069818072006     -1.59085897610460
  O          -2.10416913690716      0.40064143194389     -1.67968375767395
  Si         -3.47863096408174     -0.28302644694964     -2.34593556092487
  C          -4.01021609244073     -1.63942738680512     -1.14457829174866
  C          -2.87070259736963     -2.65420994140800     -0.97134869374870
  C          -4.34102236268761     -1.01397682435376      0.21782895581511
  C          -5.25215329305724     -2.36044145689973     -1.68767143626140
  C          -4.80734439684112      1.02148442287256     -2.54400742554042
  C          -3.04538852939083     -1.00118084849292     -4.01872917847672
  O          -1.20017188041833      3.72640214241884     -2.95735799945580
  C          -0.29289035693687      4.35584375314994     -2.07531242912690
  H          -0.09027036796810      5.32854554603630     -2.53835733929575
  O          -0.82546239788075      4.54170159295111     -0.79219269506970
  C          -1.91663765352714      5.45850445672449     -0.76543061672536
  C           1.01918038886179      3.58598105312615     -1.93165578545616
  H           0.96987741060757      2.94682162449505     -1.04127514961786
  O           2.05816701077578      4.54298107623926     -1.78171333734404
  H           2.66226723882445      1.60654752448045     -3.85306088343414
  H          -0.06881836885248      1.61359507591134     -5.16618426145624
  H          -1.15455788394373      1.94610881987821     -0.76249135277203
  H          -2.75988478131838      2.35607173017418     -1.37581853938430
  H          -1.96356696214461     -2.17787324742074     -0.58828480239734
  H          -2.62184180757557     -3.14664316921759     -1.91609607384750
  H          -3.16683614293915     -3.43317862309809     -0.25802564521482
  H          -4.62580140253533     -1.79577292928685      0.93256903672529
  H          -5.17542798541519     -0.30988996193910      0.14658114083602
  H          -3.48122968419018     -0.47894816135674      0.63163475798165
  H          -5.05420738360602     -2.83758418441663     -2.65211081124649
  H          -6.09530116944715     -1.67479469652392     -1.81600118679249
  H          -5.56667559946883     -3.14486596463021     -0.98846980752625
  H          -5.70997680104899      0.56271852166181     -2.95845481435483
  H          -4.48715795684500      1.80696767110646     -3.23491502542672
  H          -5.07192380794145      1.48941504422004     -1.59236679656419
  H          -3.90075125203706     -1.53108145539193     -4.44799738153346
  H          -2.21082332720013     -1.70368143603722     -3.94413691942280
  H          -2.75686006959837     -0.20589971731785     -4.71182376923071
  H          -1.62272212680001      6.41940643430707     -1.20327575449782
  H          -2.18300850662150      5.60239455376237      0.28139531280084
  H          -2.77823414828203      5.06144011672552     -1.30872981658998
  H           2.89158245461532      4.05561258699204     -1.79236792074223
