48
Coordinates from ORCA-job goat_0_18 E -1253.938614176359
  O           2.45787607962802      1.90640993219043     -3.02493260022468
  C           1.25810429375847      2.66939317003633     -3.07258565134290
  H           1.22122320477335      3.25272393338938     -4.00182016888238
  C           0.01903920869459      1.80102694277333     -2.99428334105640
  H          -0.01951870042127      1.30945364755223     -2.01385730595975
  O           0.09797946727700      0.81926930202797     -4.02103879204062
  C          -1.20991441052335      2.69574036653503     -3.19392967032463
  H          -1.32976159251344      2.83938560533918     -4.27209165714669
  C          -2.47250555636555      2.04774729179657     -2.64238707652943
  O          -2.62952609178615      0.79810072599174     -3.30567807216712
  Si         -3.85802628295181     -0.29042352393104     -2.95931422040879
  C          -3.66303845516579     -0.99209637472057     -1.21132517749180
  C          -2.17961674980375     -1.26529552057841     -0.92518335715342
  C          -4.22413859634146     -0.03428882906308     -0.14950857561656
  C          -4.44422927584973     -2.31463795431450     -1.13473987159136
  C          -5.50947490538650      0.56478435490202     -3.15384686122883
  C          -3.62613136355285     -1.61983978614227     -4.24935378164417
  O          -1.03898800440719      4.00992936867023     -2.64674383482892
  C          -0.14389260043638      4.12656664591886     -1.56040098140700
  H          -0.10243842418332      5.20146224606225     -1.35672481021765
  O          -0.59272359166350      3.43299697675216     -0.42498033830437
  C          -1.73996095738025      4.03156687993926      0.17533031907883
  C           1.27008856769704      3.62507567308237     -1.89090499520001
  H           1.64643206066883      3.08375053408907     -1.01689055698499
  O           2.07853941142959      4.76953418786695     -2.14589338449430
  H           2.42828096822430      1.28164363435257     -3.76002946787109
  H          -0.75576322257694      0.36167313247777     -4.01569570771323
  H          -2.36290115313600      1.90129681825128     -1.56537584280603
  H          -3.33475818293585      2.69751370703248     -2.82588622475572
  H          -1.73728032459965     -1.92650413881447     -1.67717095027998
  H          -2.06843734717191     -1.75150914871857      0.05175420023108
  H          -1.59563122119353     -0.34103029556787     -0.90665782408417
  H          -5.29224336214822      0.14720658089168     -0.29796298257852
  H          -3.71626793408553      0.93385954302296     -0.15146490065270
  H          -4.09681770133610     -0.47113506737738      0.84866067086335
  H          -4.39528638246283     -2.71785587135042     -0.11604154233772
  H          -4.03223401049779     -3.06776750367245     -1.81175693344211
  H          -5.50148983097322     -2.17732342862687     -1.38527354434336
  H          -6.32384376624085     -0.11974301018451     -2.89758589594511
  H          -5.65156586457491      0.89134866532002     -4.18813861062793
  H          -5.58970236564459      1.43964502845401     -2.50312384424770
  H          -2.68822890388005     -2.16134612167365     -4.09646734473871
  H          -3.60549541343547     -1.17243222935278     -5.24724131411419
  H          -4.44589147585703     -2.34234686356316     -4.21707957403277
  H          -2.59112105398046      4.04225655378899     -0.51048564636610
  H          -1.51404740032325      5.05763493676194      0.48619037182692
  H          -1.98829059810293      3.43080776761691      1.04988514060239
  H           2.97144981173844      4.45835151476609     -2.33781746941856
