48
Coordinates from ORCA-job goat_0_1113 E -1253.937079623908
  O          -0.59123340024488      1.60242296798505     -0.36481605502093
  C           0.41955366374522      2.40079904958955     -0.94599688909349
  H           1.20992437481334      2.50733032055132     -0.19852745091319
  C           1.04655377369448      1.74031313374735     -2.17946994239166
  H           1.22244121595461      0.68019678378616     -1.96822237519598
  O           2.29778191094651      2.41800920689551     -2.36652846174598
  C           0.18957744976536      1.85751381818904     -3.44499093354921
  H           0.87576620033441      1.75924262132130     -4.29318546571285
  C          -0.80527883154208      0.72392417825723     -3.67175511102275
  O          -1.64580968205795      0.43244228550053     -2.56303750458259
  Si         -3.13331104117165     -0.31536992577925     -2.80834535607545
  C          -3.83214991273609     -0.63761292212286     -1.08670310430424
  C          -5.11772713861470     -1.46789014743403     -1.23296558536326
  C          -2.82068438657499     -1.42612745884746     -0.24185827309676
  C          -4.16929353082093      0.68482014359041     -0.38258891472101
  C          -4.24295055760704      0.80199322923972     -3.81605622141634
  C          -2.83270189174364     -1.90628081000186     -3.74711885073712
  O          -0.35972396356017      3.16905645974600     -3.62837686295666
  C          -0.96237397564100      3.82203264905816     -2.54395340870084
  H          -1.07772061217224      4.86219178486721     -2.87213190668005
  O          -2.23534793767518      3.25667547716546     -2.31517384502631
  C          -3.14922455460055      4.15419446388425     -1.70053807487253
  C          -0.08173686478216      3.80840600375795     -1.29012427715554
  H          -0.66907018975933      4.17821406680897     -0.44792544350053
  O           1.00443299895598      4.71418545415189     -1.46276570668000
  H          -1.14223523076124      1.24106805546876     -1.08600892039862
  H           2.71549055940338      2.08537164157065     -3.16965360411360
  H          -1.40024682558402      0.98927351177060     -4.55193663391379
  H          -0.21846897636998     -0.16883553728440     -3.91647700758416
  H          -5.55569446262229     -1.65136453970034     -0.24459206465430
  H          -4.92141159499266     -2.43983360162276     -1.69475116738111
  H          -5.86947895687597     -0.95072185937808     -1.83722192950831
  H          -1.89467848073382     -0.86574405016398     -0.08910835649116
  H          -2.56426276071192     -2.38197047733375     -0.70856143682280
  H          -3.24766897176707     -1.64255448896185      0.74497568978143
  H          -4.92093669089566      1.25454998119678     -0.93626367545291
  H          -3.28931446472984      1.32114062004530     -0.26122565140109
  H          -4.57454453535975      0.48101351400225      0.61606732358019
  H          -5.22478066633013      0.33692442859681     -3.94655726414908
  H          -3.82419916735481      0.97545327103811     -4.81159399038583
  H          -4.37790753887107      1.76950818659770     -3.32898417047807
  H          -2.19043882716636     -2.58955102282958     -3.18488246179170
  H          -2.35013965109907     -1.69664604541008     -4.70660780117152
  H          -3.77782678759928     -2.41592278664777     -3.95455866816927
  H          -2.86884469747986      4.37970533007038     -0.66604496288819
  H          -4.12266297959402      3.66409697425641     -1.70113148278558
  H          -3.21445638530716      5.09180698992829     -2.26573444526751
  H           1.67284497589787      4.25512907088283     -1.99384129803687
