48
Coordinates from ORCA-job goat_0_221 E -1253.944779313709
  O           2.42928555037744      2.75621723938961     -3.25374599772145
  C           1.02898133827932      2.98472601668440     -3.12579864549441
  H           0.57146351976649      3.04799532788582     -4.12250191977337
  C           0.33641581014989      1.87197754315727     -2.35835321343043
  H           0.84428753965833      1.73059313740661     -1.39415778124557
  O           0.43658534738305      0.69599814102379     -3.15255594846562
  C          -1.11910095609509      2.26765752836181     -2.09179151591379
  H          -1.64946962154967      2.34329991047179     -3.05137428217155
  C          -1.84338923070577      1.28838831669805     -1.17568990229070
  O          -1.79811142845560     -0.02749966174119     -1.71259436897344
  Si         -3.10365676873332     -0.78243580723546     -2.45722154076773
  C          -4.13167212368348     -1.66516387350330     -1.14180036437131
  C          -4.59168877629424     -0.66505472611639     -0.07128368054230
  C          -5.36212028405971     -2.30596699946571     -1.80094404180924
  C          -3.28317145143315     -2.75826033466053     -0.47633928234599
  C          -4.12115350510806      0.48648538240352     -3.38107323081576
  C          -2.31450730049558     -1.99081244093384     -3.64109142657101
  O          -1.15044242990940      3.51708415468968     -1.41105880233148
  C          -0.61631484265395      4.58366396884258     -2.18475640063084
  H          -1.16266838169628      4.64395939001880     -3.14029385799574
  O          -0.75853676617865      5.75699395970302     -1.46332387234343
  C          -2.10582044512100      6.22787438644153     -1.41126517250705
  C           0.86263360968929      4.32886315282774     -2.43600528067966
  H           1.37278646412181      4.30764642960346     -1.46411118475414
  O           1.37300702040590      5.37529596934807     -3.24782940902328
  H           2.55078869137536      1.98344052036211     -3.81764562401584
  H          -0.16203454982125      0.04635243574506     -2.75278840466759
  H          -1.34550483147409      1.28064541493986     -0.20136154952099
  H          -2.87072999009773      1.63350696785380     -1.02908937670726
  H          -5.18225982071667      0.14990465524730     -0.50098236845088
  H          -3.74226257543911     -0.22616685989775      0.46016604712133
  H          -5.21866469296538     -1.17397786642899      0.67095267278699
  H          -5.07848823851090     -3.01719998909012     -2.58303665812387
  H          -6.01810563050181     -1.55395831137200     -2.24905949641936
  H          -5.94660215224284     -2.85291971327321     -1.05126564531890
  H          -2.98079026756872     -3.52656257898058     -1.19374166661237
  H          -3.85940004179414     -3.25093739735101      0.31628735526572
  H          -2.37795629267904     -2.34306261285119     -0.02267478141611
  H          -4.57749521865087      1.22342390557734     -2.71523861135439
  H          -4.92549849127280     -0.01221339746530     -3.92964727766364
  H          -3.49907227125929      1.01741978732154     -4.10725262359557
  H          -3.07080947495908     -2.61742539147998     -4.12219706609931
  H          -1.60853825006178     -2.64600345971785     -3.12383644008482
  H          -1.77184375206803     -1.45233224354908     -4.42376772087586
  H          -2.08192721288300      7.19088823982765     -0.90231767355067
  H          -2.74320533700763      5.53595712617827     -0.85503026052196
  H          -2.50403468486677      6.35825226575003     -2.42345040498845
  H           2.24864319780683      5.09602239135301     -3.54391130221664
