48
Coordinates from ORCA-job goat_0_141 E -1253.933985741690
  O           2.72952758882071      3.06514646613652     -3.49063968484044
  C           1.33103822562116      2.80686369243541     -3.39692829640471
  H           1.07423489922011      2.26169886124192     -4.30971894036554
  C           0.99483947696025      1.92636486210530     -2.20371429062508
  H           1.14449218100466      2.48909146382217     -1.27309229909231
  O           1.79523044086892      0.75186919048734     -2.19202634229431
  C          -0.45822785718296      1.47421932871541     -2.34298265838388
  H          -0.46387738673957      0.68518230929765     -3.10090337615748
  C          -1.01386916314794      0.88963729696816     -1.05030067747083
  O          -1.98772204560829     -0.11671705018288     -1.26486885537730
  Si         -3.47572149485250     -0.01205520668704     -2.01000335312984
  C          -4.38005336658013     -1.56514312778082     -1.42011074622083
  C          -4.60927286719775     -1.48170960952540      0.09576970742695
  C          -5.73750721248014     -1.67715382767907     -2.12977543988391
  C          -3.54424045358474     -2.81331484723525     -1.73754027334684
  C          -4.39416274718968      1.53213427346945     -1.48430217258875
  C          -3.28541923416293     -0.03022237623204     -3.87340602555105
  O          -1.30762385362672      2.51276196161975     -2.86223937635140
  C          -0.85992879392261      3.84169935684278     -2.69255083737276
  H          -1.61329239268422      4.45133400841130     -3.20127650963635
  O          -0.75896890562141      4.21678331113634     -1.34362548139409
  C          -2.01633515616818      4.46034349234221     -0.71823684464049
  C           0.50916970430555      4.08925638028262     -3.34172977511560
  H           1.03610128830442      4.82305550244177     -2.72085485332290
  O           0.27530006210288      4.62433307966500     -4.63950519393032
  H           2.98120252319357      3.64928022327961     -2.76329532082359
  H           2.70707160739105      1.03886253486522     -2.33197604507081
  H          -0.19238070321264      0.41776558530629     -0.50427616023188
  H          -1.41737319769741      1.69465103913102     -0.42945916853816
  H          -3.66428984746278     -1.39150135255433      0.63935317248689
  H          -5.11636496301313     -2.38712180302502      0.45168833994163
  H          -5.23540704830392     -0.62457001012247      0.36152194992053
  H          -5.62104777502393     -1.77308817886439     -3.21323060334742
  H          -6.37281114912975     -0.80800762253229     -1.93365406569553
  H          -6.27370821100544     -2.56533554207621     -1.77371268847338
  H          -4.06948655929704     -3.71444870954733     -1.39716069116599
  H          -2.57228291138880     -2.78208358310416     -1.23784919519454
  H          -3.36867836994989     -2.91873771456155     -2.81253059787894
  H          -4.00135661618701      2.40929000798038     -2.00246882245988
  H          -4.31825814229269      1.70091466510642     -0.40666578864287
  H          -5.45450961734606      1.43790291771922     -1.73741965465700
  H          -2.73234311560491      0.84898147138308     -4.21170461750088
  H          -4.26812573466627     -0.01690355237573     -4.35466691119220
  H          -2.75453607568030     -0.92483402605525     -4.21053887340451
  H          -2.60395490528584      3.54514784669763     -0.62725667059310
  H          -2.58840329893592      5.20136889562965     -1.28731591130235
  H          -1.80230323797619      4.85180642966166      0.27608757079546
  H           1.13346641241665      4.76778168595997     -5.05675665090116
