48
Coordinates from ORCA-job goat_0_14 E -1253.938629103620
  O           2.42989331765290      2.65130468245406     -1.62268669412009
  C           1.32686109076995      2.45778880968160     -2.49945917751375
  H           1.54770233934540      1.64996551280844     -3.20910492138416
  C           0.05036605089420      2.12076213784089     -1.75607524174723
  H          -0.24783048768485      2.97894668727375     -1.13969013415489
  O           0.30548014524041      0.99711196882193     -0.92115635064714
  C          -1.03646905839075      1.79473877330186     -2.78722811486565
  H          -0.90023462292101      0.74654051700638     -3.06953857231316
  C          -2.43552677839876      1.96593034918293     -2.20933244819532
  O          -2.53149032183603      1.14911932953248     -1.04523926771110
  Si         -3.79170579673786      0.08450304311553     -0.74416255522923
  C          -3.54870120651394     -1.51078232244225     -1.73063858945866
  C          -4.64286144912712     -2.51420720859401     -1.33329219205218
  C          -3.64407378770342     -1.24355455298616     -3.23980899272666
  C          -2.17122057276895     -2.10988971120541     -1.41248918559612
  C          -3.68050677335737     -0.23456640875819      1.09227452212657
  C          -5.41202495484251      0.91235839482846     -1.17987518106033
  O          -0.89289429841880      2.53802270988391     -4.00483585571422
  C          -0.27722220352143      3.80518113403740     -3.90673969052835
  H          -0.18153733518223      4.13966868650049     -4.94489024005080
  O          -1.05185060633206      4.71743854142037     -3.17272121977889
  C          -2.25137992622102      5.09338047348491     -3.84689727290971
  C           1.11903904253631      3.75096514362427     -3.26745804666013
  H           1.19727853932073      4.58314067534270     -2.56019493792242
  O           2.07554802365505      3.90344534379753     -4.31124343930922
  H           2.53094052010417      1.84182231783495     -1.10703354933184
  H          -0.54840020509301      0.75249260792993     -0.53577212543585
  H          -2.59841911047578      3.00824611399225     -1.92376087630029
  H          -3.17881101683683      1.69331169744660     -2.96444256763335
  H          -4.51591091118127     -3.44681865042953     -1.89627336121062
  H          -5.64395149241148     -2.13002454956597     -1.55188589724140
  H          -4.60010832643095     -2.76153257786839     -0.26856142903007
  H          -3.54061923652079     -2.18580225524808     -3.79179465444372
  H          -2.85206821758681     -0.57433753660734     -3.58658418355604
  H          -4.60648284046374     -0.80242062585579     -3.51500988519999
  H          -2.02465449667361     -3.03759385503235     -1.97910317672062
  H          -2.07051728402013     -2.35121218203379     -0.35015654718947
  H          -1.36322413257290     -1.42335041687542     -1.68137476243177
  H          -3.81333279044821      0.70153560204930      1.64229987439330
  H          -2.70886052189219     -0.65558990942479      1.36438740521010
  H          -4.45710333153712     -0.93230105854193      1.41700548376031
  H          -5.48768873951729      1.14441771889993     -2.24508412591418
  H          -5.51892418352896      1.84501750848753     -0.61793586190227
  H          -6.25108736934277      0.26163664310185     -0.91700098882169
  H          -2.75368656729429      5.82442336106107     -3.21402127194630
  H          -2.90904556027184      4.23412830004877     -4.00117649732887
  H          -2.01592039953086      5.54688426084321     -4.81616313321674
  H           2.95106784407007      3.88233477583424     -3.90592406898586
