48
Coordinates from ORCA-job goat_0_165 E -1253.938232820013
  O           2.41354891790414      2.62221534616853     -1.48859922707814
  C           1.34447337190840      2.42807631523910     -2.40431786379482
  H           1.55901115264887      1.56487139156879     -3.05107063528586
  C           0.03314485208764      2.16015850398340     -1.69199559394815
  H          -0.25143658259688      3.04164863201314     -1.10467518783787
  O           0.23330550594494      1.04820962066305     -0.82552520801519
  C          -1.03930109510448      1.84078674651399     -2.73852088020967
  H          -0.89550498437604      0.79681282995425     -3.03323839298027
  C          -2.44721984961132      2.00427981930550     -2.17927978033602
  O          -2.57465571059067      1.16921102472259     -1.03153955981368
  Si         -3.82781841304753      0.08009098677182     -0.79101409555290
  C          -3.52904461994166     -1.49333899396317     -1.79715618750718
  C          -4.61654862093977     -2.52209042102308     -1.44929035757293
  C          -3.58624727865427     -1.20035979368534     -3.30346320195902
  C          -2.15125713543707     -2.07493029374067     -1.44917740180164
  C          -3.77011394581448     -0.26952016947650      1.04223003245991
  C          -5.44545404368861      0.89143173919894     -1.26561467251644
  O          -0.89438418651560      2.60880148444091     -3.94157852929257
  C          -0.21263432152665      3.84063261887662     -3.81490719118370
  H          -0.16137391562988      4.23040504723786     -4.83695138411917
  O          -0.89482297543017      4.74332311050083     -2.98465026720472
  C          -2.08983479211306      5.24887343246005     -3.57783056507322
  C           1.21913316516991      3.67307390016602     -3.27262519540710
  H           1.44666141977973      4.54771697026557     -2.66146602066265
  O           2.17365787281366      3.67820304207592     -4.32703045708757
  H           2.41890334866703      1.85852753847699     -0.89782433286657
  H          -0.63990188672855      0.82499458593166     -0.47046609252368
  H          -2.60922512312924      3.04250343724522     -1.87861222820931
  H          -3.17715186447161      1.75087913880217     -2.95384013420380
  H          -4.45805151334055     -3.44143932540896     -2.02592068417975
  H          -5.61774360681421     -2.15059662044635     -1.68842196777322
  H          -4.59874811349173     -2.78904845792779     -0.38861110030551
  H          -2.80060130171866     -0.50669340039961     -3.61457388775425
  H          -4.55025180912556     -0.77604908572110     -3.59875659638840
  H          -3.44503090028008     -2.12948702668705     -3.86917626188209
  H          -1.34746328289786     -1.37050179980261     -1.68158310086814
  H          -1.97237289500979     -2.98988503371495     -2.02715666567656
  H          -2.07786696720286     -2.33352608534980     -0.38866214335763
  H          -4.54527037135917     -0.98497553081733      1.32975356789559
  H          -3.93553774986217      0.65433642761867      1.60399823579727
  H          -2.80086938939593     -0.68011648293934      1.33790957208556
  H          -6.28239150426500      0.22349661672914     -1.04202997668367
  H          -5.48965833725502      1.14071423619758     -2.32870413541684
  H          -5.58552954949198      1.81237989501286     -0.69181955788078
  H          -2.53631103603444      5.93309811872003     -2.85688812792654
  H          -2.79621413292145      4.44478175473038     -3.80015441032782
  H          -1.85557777494227      5.78996804529332     -4.50122244522427
  H           2.04541197383211      2.88063616421865     -4.85579970254863
