48
Coordinates from ORCA-job goat_0_1082 E -1253.936693704856
  O          -0.67349805511188      2.71399122221827     -0.62256224001841
  C           0.55226398877328      2.76644945285063     -1.33455390957802
  H           1.34540750611764      2.97351644034121     -0.60875608354072
  C           0.86840488118287      1.44261084696034     -2.03187916321016
  H           0.82573750965705      0.62161340036200     -1.31003089387302
  O           2.18142258718909      1.51989009960832     -2.60371527090023
  C          -0.11754784751589      1.17010123610484     -3.18603537257034
  H           0.47485022343468      0.82824545284106     -4.04495819431093
  C          -1.13611193906078      0.09513327110979     -2.86296642626436
  O          -1.90488203893278      0.47059569907341     -1.72666693628368
  Si         -3.58574444461865      0.41226877406568     -1.65891026077494
  C          -4.11871912263803     -1.31703618717013     -1.12244410736615
  C          -3.54047699079812     -2.36547587523317     -2.08391506467355
  C          -3.60455197734376     -1.59658995504340      0.29675554234826
  C          -5.65193340738701     -1.40483274035606     -1.13819537288290
  C          -4.02818046545848      1.69929476956491     -0.38057116972129
  C          -4.30461065893615      0.85821783463970     -3.32632459914069
  O          -0.85211154544925      2.33621422140662     -3.55108506477477
  C          -0.01702097527705      3.46761282687687     -3.71271073085296
  H           0.81681677793527      3.21392419089421     -4.38043356490516
  O          -0.73076598403881      4.46558647175606     -4.38002293463862
  C          -1.98954996679482      4.81328183703693     -3.79988684655142
  C           0.56069251892888      3.91693493230332     -2.35636695645646
  H          -0.04401084771332      4.72314605119379     -1.94154876804004
  O           1.86371193965495      4.46123383858300     -2.54278189815492
  H          -1.22652328570263      2.01037041456390     -1.00680041833786
  H           2.82245691606017      1.46176837450586     -1.88442437341138
  H          -1.77524931038839     -0.05668275443991     -3.73704593317984
  H          -0.60736637927463     -0.83982182905680     -2.65506864957900
  H          -2.44704192937798     -2.37142828277476     -2.06199782852913
  H          -3.85890728621614     -2.19257381517869     -3.11641780225865
  H          -3.88206347630628     -3.36682930073987     -1.79486107577006
  H          -4.03578660620777     -0.90371431069593      1.02505628268382
  H          -2.51486541537553     -1.51149431665025      0.35299516043358
  H          -3.87685921505999     -2.61408763576579      0.60278059301942
  H          -5.97431223583408     -2.39729613815083     -0.80069032750592
  H          -6.05428639856286     -1.24924718383543     -2.14356841419992
  H          -6.10795639148735     -0.66498659891670     -0.47287626981027
  H          -5.09462358063336      1.65703942146478     -0.14204333424314
  H          -3.80375726898661      2.70170119373917     -0.75683150278045
  H          -3.46639310970440      1.54703871150425      0.54490945671499
  H          -3.85041134631039      1.77932837763245     -3.70178302001513
  H          -5.38027423672326      1.02924676339757     -3.22222499877880
  H          -4.16152729097998      0.07359044729622     -4.07329861395452
  H          -2.33413524542324      5.69914485523647     -4.33275705726646
  H          -1.89992145813269      5.04999646895991     -2.73594056077060
  H          -2.71440567278493      4.00639350364415     -3.92580826578593
  H           2.43244855761350      3.72919552227196     -2.81858675953907
