48
Coordinates from ORCA-job goat_0_204 E -1253.945542836917
  O           2.25889394526611      3.24296820818674     -1.49620417404339
  C           1.27032273787164      2.95870685637853     -2.48069890865326
  H           1.72839786079035      2.95922682675424     -3.47932670570441
  C           0.73347061310180      1.56633502890312     -2.19441895903835
  H           0.35055850962473      1.53702032828134     -1.16782341309058
  O           1.74802130562508      0.58621532062898     -2.37369017793509
  C          -0.41140370656262      1.24659824184947     -3.15258006184372
  H          -0.02321179636727      1.24393729530298     -4.18167550698459
  C          -1.04425454275494     -0.10631377245461     -2.89533024938851
  O          -1.46935946215955     -0.21302342160428     -1.54764978840745
  Si         -2.82792955043114     -1.05725916917579     -1.06586710748235
  C          -4.36350809685403      0.04033143318941     -1.20239719848328
  C          -4.17471142154580      1.29921381192848     -0.34364938079179
  C          -4.60151656816567      0.46086670222607     -2.66005049627468
  C          -5.58761499672319     -0.73906011818782     -0.69824780342866
  C          -3.00704447111260     -2.59829887447991     -2.11605116011288
  C          -2.49117954574905     -1.51290584352374      0.71515249990600
  O          -1.42186015617863      2.24343948041870     -3.02138708855263
  C          -0.96332321907629      3.52975157263273     -3.40298224805350
  H          -0.59506603557416      3.49079051946393     -4.44166958275027
  O          -2.01486796082590      4.42867422859824     -3.29125701682711
  C          -3.00053237685660      4.28182426658143     -4.31471860814640
  C           0.14765858569326      3.98141734179934     -2.46309744094295
  H          -0.26868524822777      4.05131046515497     -1.45068003777256
  O           0.69805290121360      5.22592685475010     -2.87060513215528
  H           2.66650832036888      4.08688961743653     -1.72368906058378
  H           2.50754418508046      0.86617814304295     -1.84803565510238
  H          -1.87778887988893     -0.22827957718606     -3.59409932660141
  H          -0.30326966458746     -0.88170554672917     -3.11257318971743
  H          -3.30617322448933      1.87915003141594     -0.66871891628542
  H          -4.04131613286985      1.05089896977857      0.71344432398847
  H          -5.05801720269684      1.94508748422358     -0.42392890183777
  H          -5.51154373570550      1.07035597614473     -2.72822142531226
  H          -4.73408839757905     -0.40485827618412     -3.31606508302202
  H          -3.77271234995347      1.05957340570662     -3.04541858436895
  H          -6.48424511226449     -0.11050657935490     -0.76377324359027
  H          -5.47342115239599     -1.04472931767265      0.34613216815897
  H          -5.76964411739942     -1.63762674468496     -1.29566171024553
  H          -3.20577208054593     -2.36345473001825     -3.16496167343230
  H          -3.83063393252981     -3.21687211570765     -1.74783465546397
  H          -2.09023390325414     -3.19384027646238     -2.06769057301442
  H          -2.29233798677686     -0.62499588876890      1.32125827817264
  H          -1.61772851148725     -2.16891366532537      0.77458541157611
  H          -3.34254112717682     -2.04089063106376      1.15370702108650
  H          -3.71115604196472      5.09760560968122     -4.18608419870287
  H          -3.52089131973388      3.32530077026869     -4.22213729092438
  H          -2.53624880348069      4.35231193823815     -5.30428312550168
  H           0.01423386730998      5.89820781961864     -2.76689484231839
