48
Coordinates from ORCA-job goat_0_121 E -1253.938279224731
  O           1.26529535394469      2.54830372421418     -0.13810248096120
  C           0.99036032433352      2.59626184909284     -1.53203367208257
  H           1.92880304817305      2.60329151576506     -2.10112636690721
  C           0.19711135319895      1.35106632295900     -1.89025057220789
  H          -0.59680791144261      1.23849758652381     -1.14436923957121
  O           1.02325335399139      0.18799301012056     -1.87818166273896
  C          -0.43626629506823      1.48654870373794     -3.28371471693424
  H          -0.15313809287829      0.60325879234989     -3.85914150718182
  C          -1.96228866465059      1.52735616302277     -3.23094285484262
  O          -2.40267233713428      0.27332037894855     -2.73472089304795
  Si         -3.68990990827907      0.14863544719105     -1.67494481137033
  C          -3.84050564119960     -1.69736333667812     -1.32353980845221
  C          -4.16111221168888     -2.45227222746584     -2.62144067778649
  C          -2.52011339584902     -2.22438210284392     -0.74275821835045
  C          -4.97015197909750     -1.92933608035662     -0.30912812760056
  C          -3.32524650885620      1.12124509873315     -0.11547686135212
  C          -5.22480943453660      0.84559562286581     -2.48880722691672
  O           0.10593993022443      2.58678180477645     -4.01896464003337
  C          -0.00694108883679      3.86191951099948     -3.42020254327066
  H           0.80539667066314      4.44823522411877     -3.86493235377246
  O          -1.23853685901192      4.47978565019433     -3.68412691436572
  C          -1.41409059173171      4.82011854510006     -5.05740251277861
  C           0.17414258968616      3.82136887095152     -1.90022182511320
  H          -0.80616416557610      3.76273231158766     -1.41457706427449
  O           0.87241926835016      4.97228768267082     -1.43980229263681
  H           1.67674706490284      3.38946346062775      0.09730433371490
  H           1.38054964349068      0.09667389144298     -0.98623948624084
  H          -2.30929790745755      2.35197156841551     -2.60062990663771
  H          -2.35026672395296      1.69122516149907     -4.24108910669106
  H          -3.38037009247196     -2.30733639594737     -3.37363247894342
  H          -5.11203780535862     -2.12617072556764     -3.05292357223093
  H          -4.23839598250268     -3.52788373050424     -2.42076331597494
  H          -2.26779142741731     -1.72958333760771      0.19981997682299
  H          -1.68781027139777     -2.07430635481848     -1.43603653563695
  H          -2.60168967411465     -3.29967622644224     -0.54202497322266
  H          -5.07424424966479     -3.00132570140125     -0.10221661422839
  H          -5.93283086351972     -1.56987599326204     -0.68566741261742
  H          -4.76932649322461     -1.42619338428259      0.64150245570840
  H          -4.18773511146818      1.09029616167595      0.55703858014472
  H          -3.12345912010899      2.17142114757229     -0.34681357628367
  H          -2.46112412976178      0.71856039360608      0.41922686862243
  H          -6.09302652140373      0.74816302968552     -1.83050399142456
  H          -5.44698401842383      0.33272162579859     -3.42835342858814
  H          -5.08796328977234      1.90972423642125     -2.70564073555306
  H          -1.47006849424097      3.92396473398262     -5.68100902233236
  H          -0.58947816819685      5.45313870214905     -5.40465068679808
  H          -2.35128440746669      5.37151482899606     -5.12984887802460
  H           0.24175123680474      5.69484283938164     -1.34578864903472
