48
Coordinates from ORCA-job goat_0_369 E -1253.944496138794
  O           2.32422405286316      3.76687224658643     -3.58847572481102
  C           0.97788365139640      3.40295988764993     -3.30250376052077
  H           0.51918857470950      3.19950274397144     -4.27568177793816
  C           0.93768243663270      2.12099216173635     -2.47428646126702
  H           1.48172559027965      2.29011741019964     -1.53324133640366
  O           1.52727923222430      1.04948761352989     -3.19794068368319
  C          -0.50555437038019      1.75280914590725     -2.14120422967089
  H          -1.04926625580109      1.55383058955202     -3.07437217224499
  C          -0.59569026389646      0.54012314910697     -1.23524145515552
  O          -1.94653982123589      0.17666416040647     -1.00804895916967
  Si         -2.69537866120682     -1.06151388554071     -1.84374408317291
  C          -4.53147757813611     -0.84363063487877     -1.47251502130349
  C          -5.32892210190176     -1.94280850899996     -2.18985076149595
  C          -4.77472250974047     -0.94464261201568      0.04004337176573
  C          -4.99928539155180      0.53207282567192     -1.96954276384008
  C          -2.33609245387670     -0.92052144058766     -3.67709558230204
  C          -2.03896632827701     -2.70176116762866     -1.22423998947815
  O          -1.11022855001497      2.84845361246422     -1.45888084386219
  C          -1.20136552235280      3.99590055246280     -2.28297754409819
  H          -1.74157174216685      3.73700297184136     -3.20890200853916
  O          -1.87280898892896      4.99430118787841     -1.59080403360855
  C          -3.27898537552176      4.76204028834435     -1.48490926479854
  C           0.19448438845405      4.51261285324926     -2.61939958505029
  H           0.68747099991439      4.78857206677522     -1.67674342114087
  O           0.12241287095054      5.62498251607010     -3.49568445473979
  H           2.74401413992196      4.04617562851215     -2.76427740626459
  H           2.36376185545850      1.37987705676764     -3.55065044522058
  H          -0.02191221626987     -0.27741862757615     -1.68329387321565
  H          -0.13821803794963      0.78520239082405     -0.27124797187040
  H          -5.19551906270745     -1.89683316909129     -3.27499618749082
  H          -6.39948359497579     -1.82665183359593     -1.98166134180659
  H          -5.03269121837459     -2.94148862843242     -1.85455607424652
  H          -5.84127750752480     -0.81000704715245      0.25858034482402
  H          -4.22102924109227     -0.17612653004235      0.58690820611652
  H          -4.47654557158507     -1.92133385937393      0.43251865292029
  H          -4.44798396672031      1.34231177017939     -1.48379397795209
  H          -6.06474329109213      0.66890261451051     -1.74741469363020
  H          -4.87000143387396      0.63647909124837     -3.05089385581868
  H          -2.72202587214233      0.01056202880443     -4.09971266254192
  H          -2.79669164731023     -1.75607146658999     -4.21281952597685
  H          -1.25882910568647     -0.96017258005407     -3.86582726027154
  H          -0.95955508485687     -2.76503588285409     -1.39508599188422
  H          -2.50960491431364     -3.53551358283893     -1.75348686874403
  H          -2.22144348935528     -2.82680114386437     -0.15364639055580
  H          -3.70630687984206      5.63703746424890     -0.99646844521760
  H          -3.48342568675270      3.87098683686552     -0.88616967132580
  H          -3.72147565661978      4.64340486022735     -2.47978769021532
  H          -0.40667839877036      6.30067487552519     -3.05382432308181
