48
Coordinates from ORCA-job goat_0_1147 E -1253.942617895322
  O          -0.23921636154627      5.05118027326556     -1.42413993132393
  C           0.09965450027271      3.89340060516737     -2.18042364055880
  H           1.18993929537193      3.80736541101915     -2.10277080019479
  C          -0.53505366098730      2.61727272703488     -1.64131395730313
  H          -1.62181796913483      2.73218742575190     -1.63022505830278
  O          -0.15465926852218      2.35280259041388     -0.29885935671650
  C          -0.18091048593501      1.44665618001166     -2.56256653243392
  H           0.91076170682043      1.29922300191048     -2.55052229230963
  C          -0.82186206132460      0.14164726031516     -2.13143840317971
  O          -2.22699727716023      0.25938645538225     -2.01814905424447
  Si         -3.12595076595784      0.02957650727412     -0.62941039061953
  C          -4.65111455267651     -0.93913156394040     -1.18192523997650
  C          -5.38492857823763     -0.16188395524010     -2.28473309576528
  C          -4.21532175033573     -2.30477744209312     -1.73149847271260
  C          -5.60125189189049     -1.14954363221912      0.00541905494005
  C          -2.13112210892114     -0.92583715030228      0.63662961890263
  C          -3.61798179838865      1.69077063435174      0.08034955956548
  O          -0.60619774707680      1.74228684029213     -3.89013007457039
  C           0.08144631385138      2.85294101523944     -4.44657307574664
  H           1.16705144849001      2.66163963449029     -4.41039535680797
  O          -0.34171497484112      3.01896806325778     -5.75579770730015
  C           0.17525431195349      2.02904524953584     -6.64569289585135
  C          -0.25997687582469      4.10231060542507     -3.64937664434827
  H          -1.34315345440321      4.26814183017617     -3.73630023406094
  O           0.45843620260806      5.20172166010586     -4.18548840345972
  H          -1.20262640992752      5.11374748605476     -1.38551264594774
  H           0.80907226563983      2.30739157401753     -0.25721733151932
  H          -0.59139606904744     -0.61819371458499     -2.88525891075669
  H          -0.36596278837391     -0.16765168011214     -1.18781769751501
  H          -4.74092430257813      0.00641590744842     -3.15255281668561
  H          -5.73443785584497      0.81187435338441     -1.92828370557366
  H          -6.26271222662804     -0.72679348027181     -2.62220510612885
  H          -5.08880480680126     -2.86505301195602     -2.08721103802514
  H          -3.72331077492647     -2.90968034546796     -0.96392686078556
  H          -3.52308540997246     -2.19554479248221     -2.57163810677558
  H          -5.95511540378811     -0.19848035139509      0.41399994345037
  H          -5.12205721941109     -1.70826720088383      0.81524842324675
  H          -6.48134988268529     -1.72054304637799     -0.31500128518135
  H          -1.74108395299760     -1.86199855899911      0.22820959269370
  H          -2.76699524008711     -1.16841042355876      1.49330411327955
  H          -1.28938915199724     -0.33293134322900      1.00498105648600
  H          -4.29989282913174      1.56048790211784      0.92590874804686
  H          -4.11927581664363      2.31107376321157     -0.66793579346027
  H          -2.73566176419556      2.22797516176396      0.43802439011426
  H           1.26996394657897      2.01430254395265     -6.60601863091850
  H          -0.14887039941637      2.30779101777319     -7.64789121938294
  H          -0.21191603479166      1.03717234705512     -6.39917187009979
  H           0.38034993082332      5.92054566591389     -3.54455086418237
