48
Coordinates from ORCA-job goat_0_262 E -1253.938480428239
  O           0.15018462211870      4.09067018530420     -0.98439068475145
  C           1.00827416243629      3.16008128690341     -1.63426229416436
  H           1.96179107116537      3.18326093111368     -1.09930926653937
  C           0.47267176305841      1.72182119076845     -1.55719886553368
  H           0.11579590936918      1.53861047748022     -0.54241669515881
  O           1.53643077819551      0.79637560914116     -1.78559589200629
  C          -0.68497707618738      1.45594535590939     -2.52059475221162
  H          -0.72253668852688      0.37417033978261     -2.66459991893917
  C          -2.05989359215089      1.86536902874029     -1.98637827321199
  O          -2.36252498958998      1.03693860797353     -0.87289792445862
  Si         -3.80532117105975      0.20947173380992     -0.70252504297435
  C          -3.79649677923429     -1.36388207443755     -1.75443385165301
  C          -5.09446782132478     -2.14503038370090     -1.49658353861730
  C          -3.71022986524495     -1.02666244168768     -3.25002933741777
  C          -2.59430134200406     -2.23656451027052     -1.36648406852178
  C          -3.88543370018408     -0.20365957683252      1.11761131670515
  C          -5.22485824831289      1.33035950390871     -1.18827152514540
  O          -0.44384791214673      1.97426585443559     -3.84062176490358
  C           0.01553448971847      3.29910787870640     -3.94300613691129
  H           0.25317283327572      3.42990402560506     -5.00373447706648
  O          -0.94651439847749      4.24596037633915     -3.54027819481593
  C          -2.06424992682867      4.34095550793459     -4.42416544368104
  C           1.25685437819742      3.55555211096464     -3.09338124066586
  H           1.50175535918161      4.61957867540767     -3.15350939936439
  O           2.30019638999429      2.76363579157733     -3.66234673960657
  H          -0.50665830474466      4.39175726833620     -1.62844964825850
  H           1.97852061192015      1.07812579217860     -2.60021169251459
  H          -2.09100104734754      2.90760047969437     -1.66839410359908
  H          -2.78457828026158      1.74000090569477     -2.79633029497387
  H          -5.10082035334496     -3.06642810703650     -2.09170371013889
  H          -5.97876474384878     -1.56465661405557     -1.77691201725544
  H          -5.19569126424046     -2.42963581900571     -0.44518155092569
  H          -2.77432333643532     -0.52079045678969     -3.50152426756223
  H          -4.53864135666876     -0.38924299532949     -3.57283926120942
  H          -3.75191176743074     -1.94918006520814     -3.84224767225200
  H          -2.57743682909824     -3.14793563955473     -1.97686908491267
  H          -2.63864646490813     -2.54161803337817     -0.31679464495382
  H          -1.64858730352779     -1.71007947918617     -1.52570043417937
  H          -4.78265134672938     -0.78340581794462      1.35083296948813
  H          -3.91267443244403      0.71628126862861      1.70887322912350
  H          -3.01348554945651     -0.78431059930499      1.43044182535532
  H          -5.18893642767529      2.25437224642413     -0.60325947638628
  H          -6.18206239743932      0.84059849854655     -0.98720015305768
  H          -5.19966767568576      1.59664338412106     -2.24802363409625
  H          -2.72266727829689      5.10763873494574     -4.01818172085405
  H          -2.60113585984035      3.39195622707325     -4.48496236249982
  H          -1.72671746895920      4.63535493934559     -5.42325687481647
  H           3.13936063102549      3.07329839692807     -3.30055140790568
