48
Coordinates from ORCA-job goat_0_250 E -1253.945522453334
  O           2.54791904941544      2.64826193359165     -1.90831362640151
  C           1.32287426380980      2.84655830842007     -2.60639862523068
  H           1.52600706960400      3.24981879006210     -3.60798045045503
  C           0.66149916499314      1.48694478677192     -2.75658582073674
  H           0.52990660997049      1.04397446235606     -1.76278990794859
  O           1.44335588797446      0.63201902663301     -3.58106672707433
  C          -0.71096955535386      1.64952246721430     -3.40531909283031
  H          -0.57996888760797      2.06638471023358     -4.41467742016458
  C          -1.46529233137413      0.34223400614574     -3.54243190422262
  O          -1.57693359195278     -0.30512027907583     -2.28671178395204
  Si         -2.88572739238841     -1.24300335048477     -1.84086075891604
  C          -4.25422234053048     -0.15478396270966     -1.11681252231119
  C          -4.75690885468947      0.85415470226037     -2.15969313986664
  C          -5.42530028179036     -1.04520209152019     -0.67456921050329
  C          -3.71225694969034      0.61183270113493      0.09839493182172
  C          -3.50445195922746     -2.19597034191860     -3.32969186510829
  C          -2.20803438798798     -2.41018514427982     -0.54823111787413
  O          -1.49809266978415      2.53769708175699     -2.61538866294106
  C          -0.95012535405970      3.84459419995529     -2.56685358862970
  H          -0.84614513383102      4.23325785730526     -3.59362947307836
  O          -1.79511733461004      4.65516215257439     -1.82164601669169
  C          -3.00547930131925      4.99299283815481     -2.50079583178757
  C           0.40634897750740      3.81062829078666     -1.87351379758198
  H           0.25562648328168      3.46283002903152     -0.84414440654446
  O           1.02944893594434      5.08703806060975     -1.88990225483140
  H           3.01605110852890      3.49128324264722     -1.89024653997897
  H           2.33867933864247      0.63301222752441     -3.22050352272891
  H          -2.44691228357183      0.56175363469788     -3.97404204924001
  H          -0.92191819985421     -0.29856511943848     -4.24355245435419
  H          -5.57169524817636      1.45379756572537     -1.73456457305627
  H          -5.14530611760824      0.35655422292358     -3.05353370678126
  H          -3.96556775656245      1.54225016696359     -2.46673078643017
  H          -6.22118702226580     -0.42808972473289     -0.23971844789195
  H          -5.11900735132222     -1.77255958748444      0.08318529729758
  H          -5.85636314292815     -1.59503387381285     -1.51671141106678
  H          -4.49759577683681      1.25163462580288      0.51990319385859
  H          -2.87016746085581      1.25343619469972     -0.17663834813804
  H          -3.37841614607505     -0.06676915057132      0.88888415940151
  H          -2.68662027530899     -2.77099503896778     -3.77457121947590
  H          -3.91612832071732     -1.53733489246649     -4.09884293097014
  H          -4.28840277030324     -2.89871738306596     -3.03311447227923
  H          -2.99807218064730     -3.04417759978151     -0.13628183141596
  H          -1.74656932656857     -1.86130321025956      0.27704411852536
  H          -1.44853324298877     -3.06003251576006     -0.99266326234062
  H          -3.62987762420241      4.10869216789293     -2.65044315847596
  H          -2.78363014607430      5.45302607161520     -3.46978186916560
  H          -3.53126444352732      5.70814852304877     -1.86904708025311
  H           0.49837427292094      5.68092821778998     -1.34626603117872
