48
Coordinates from ORCA-job goat_0_105 E -1253.938291827965
  O           2.75341540528410      3.52129150493483     -2.45002921115457
  C           1.49038119015093      3.09834128706446     -2.94589802766497
  H           1.54253331945437      2.94611673876964     -4.03138297795300
  C           1.14905084765875      1.78168798476222     -2.27041639021189
  H           1.32014070582275      1.91669695836891     -1.19410897148826
  O           1.96883944402154      0.71777118338510     -2.74716751542841
  C          -0.32195641784653      1.40501737412721     -2.51210914611259
  H          -0.33916131984729      0.41180736166542     -2.96274281966644
  C          -1.09721698248856      1.35282843038426     -1.19973775353418
  O          -2.44240578633064      0.97245473297192     -1.41174920971590
  Si         -2.98753570780092     -0.57908804393169     -1.12002548092740
  C          -4.70666289839720     -0.63655071545459     -1.89303479794007
  C          -5.57738654961189      0.48761142540022     -1.31377774823142
  C          -4.59636582796873     -0.45849326389383     -3.41415521417757
  C          -5.35744691037545     -1.99310281213350     -1.58540288976317
  C          -1.83061304694921     -1.82706308046874     -1.90316927638729
  C          -3.03951648946901     -0.87420075893405      0.72825862117790
  O          -0.94008345458890      2.23923591847816     -3.49674190313388
  C          -0.91334584839470      3.63204553731457     -3.26646999365207
  H          -1.00634368448078      4.07567780057984     -4.26501477245146
  O          -1.96465690684989      4.07878626161042     -2.45213678588428
  C          -3.24617648258557      3.92284775449694     -3.05652215402030
  C           0.39735138744306      4.10264849546238     -2.62980709744259
  H           0.27322979200664      4.17024051158612     -1.54316551687343
  O           0.79432197561382      5.36584476941540     -3.15033453863453
  H           2.91533964002850      4.40491787665898     -2.80361038023655
  H           2.88466388366053      0.94482508071270     -2.54394000352451
  H          -0.57270568738347      0.64940399004577     -0.53960394048827
  H          -1.08754999183455      2.33039279679068     -0.71090079625830
  H          -5.15316555176563      1.47240500352294     -1.52783604575168
  H          -5.68877727326928      0.39484033815198     -0.22920615620100
  H          -6.58086205235540      0.44985107450709     -1.75538353941863
  H          -5.59579335634456     -0.45819776850670     -3.86635332901944
  H          -4.02437900506698     -1.26950926671576     -3.87411833724556
  H          -4.11065848143136      0.48664235565536     -3.67374950586888
  H          -5.48057020656528     -2.14681194107744     -0.50914318730488
  H          -4.76640341948863     -2.82520041239252     -1.98057438140126
  H          -6.35208107601813     -2.04485555560377     -2.04462972154412
  H          -0.82666481829446     -1.74874626406198     -1.47462352139507
  H          -1.75224145649041     -1.68458667596973     -2.98389755755649
  H          -2.19202430741417     -2.84299922445335     -1.71735542201726
  H          -3.35311662646653     -1.89821633619464      0.95088173116865
  H          -3.73153731399746     -0.18756986816221      1.22332828546966
  H          -2.04568084118389     -0.72749519917285      1.16289741430778
  H          -3.97075878033021      4.38480193526665     -2.38588563532011
  H          -3.49073250118699      2.86617977680676     -3.18308159078487
  H          -3.27559851449152      4.42764507507137     -4.02935653454766
  H           0.30673798421919      6.05440985315929     -2.68486627378930
