48
Coordinates from ORCA-job goat_0_344 E -1253.944705461847
  O           2.64222839408412      3.28639068712094     -3.50475813587473
  C           1.26263591742185      3.08084645478072     -3.21977328077014
  H           0.76312050715793      3.07106187436709     -4.19407897244748
  C           1.05348135381667      1.72121840976974     -2.55733524790324
  H           1.63582813271759      1.68807444196390     -1.62481672222879
  O           1.46324293755067      0.67877556585579     -3.43120602947234
  C          -0.42079830594812      1.52048084210860     -2.21397687837930
  H          -0.99845167259753      1.52404182517402     -3.14889662600900
  C          -0.65189622374717      0.22091794760007     -1.46436636879292
  O          -2.00907538569652      0.01352481164410     -1.12052255885713
  Si         -3.23772502086019     -0.25587933691295     -2.22138041798911
  C          -4.50433190099349     -1.29996917469702     -1.28803724455344
  C          -3.87273759528789     -2.64132191246897     -0.88943536045735
  C          -4.95703879834646     -0.55825213926805     -0.02176115260918
  C          -5.72378465068577     -1.56049035144175     -2.18414906575638
  C          -3.99077097227144      1.37504181959969     -2.75313129113011
  C          -2.55824684275942     -1.16407423218683     -3.71154987425180
  O          -0.84983754303763      2.59188851346016     -1.38113097670759
  C          -0.79033184953269      3.83699049227119     -2.05331202589057
  H          -1.38051256823830      3.77623649943137     -2.98280666902119
  O          -1.29732931200213      4.82304961328565     -1.21880709330133
  C          -2.71974639660955      4.77948042897220     -1.08878591805317
  C           0.65819621548412      4.19209866581168     -2.37573581373194
  H           1.20487234262689      4.27447940372482     -1.42590484027353
  O           0.72739710545097      5.40634354341348     -3.10465647769258
  H           3.11211867304489      3.38553384649628     -2.66630564398762
  H           2.33437044151464      0.92428597823427     -3.76897149938196
  H          -0.27251848657975     -0.60348365167228     -2.07511803498956
  H          -0.07842170576001      0.24780091389238     -0.53256574415186
  H          -2.99026096499368     -2.49655381000431     -0.25965172972622
  H          -3.57113865105492     -3.22156138161303     -1.76652747490106
  H          -4.59408122612846     -3.24397943400069     -0.32398371552897
  H          -5.68630078551390     -1.16549704225151      0.52855513560316
  H          -5.43477830016259      0.39632265810330     -0.26186615359793
  H          -4.11601123725162     -0.35699881855567      0.64772641538660
  H          -5.44855034909068     -2.09276997595463     -3.09989140704754
  H          -6.22203541473816     -0.62971743287874     -2.47061032109185
  H          -6.45611921277001     -2.17786438010124     -1.64981511716224
  H          -4.34751586155562      1.94254597771672     -1.88950229735375
  H          -4.83935825486072      1.20370176016030     -3.42227799371572
  H          -3.26389125539402      1.99396638807687     -3.28551564171111
  H          -2.04743709967859     -2.08571622545827     -3.41987577426205
  H          -1.84987509383746     -0.54323959206337     -4.26748503940800
  H          -3.37362356093145     -1.42818167877956     -4.39144071851033
  H          -3.19398099493142      4.82760596068850     -2.07477825303196
  H          -3.00828143446885      5.64965800249686     -0.50026059449563
  H          -3.03705354367551      3.86771800448000     -0.57698605162154
  H           0.31418645112144      6.08804923960788     -2.56038730315815
