48
Coordinates from ORCA-job goat_0_353 E -1253.935374250472
  O           2.40497267874821      3.33380270658003     -1.59536078529917
  C           1.22224096238441      3.31583432521925     -2.38349757132527
  H           1.54705747109620      3.54459007715698     -3.40334653452649
  C           0.58175792303434      1.93226896990361     -2.36266442824567
  H           0.45585502618552      1.63770576705763     -1.31251749466219
  O           1.41201114310728      0.97955555187859     -3.02161624757964
  C          -0.79263682062737      1.94690362637259     -3.04764461003393
  H          -0.77445870916808      1.19112769856192     -3.83466078551165
  C          -1.93110803708722      1.59450835987083     -2.09118811148545
  O          -1.72281170736908      0.27447577144210     -1.61231281876452
  Si         -2.65656734624484     -1.03293231631794     -2.07797920376101
  C          -4.20350315705327     -1.11581351546074     -0.99304536145686
  C          -5.11943682412106     -2.24426160331706     -1.48912576219892
  C          -3.79626653197539     -1.39400236792220      0.46088272184870
  C          -4.96439044454570      0.21644683144421     -1.05353766301866
  C          -3.12067659733812     -0.87597497599009     -3.88624543507605
  C          -1.56103930361475     -2.52117453731987     -1.80718356487380
  O          -1.03184651659627      3.17789114696962     -3.73661673816685
  C          -0.95785003279184      4.35892235300494     -2.96511498728348
  H          -0.76365115876844      5.14933302274373     -3.70134275629042
  O          -2.14743028896009      4.63650575775112     -2.27812683055075
  C          -3.24099652708694      4.93503642176895     -3.14236271820303
  C           0.18249424434100      4.33624290941808     -1.93707004811103
  H          -0.22167720508279      4.03675039070923     -0.96480510831194
  O           0.70963763552809      5.63758742534013     -1.74018304892704
  H           2.15293691095916      3.23887476502400     -0.66754462949164
  H           2.28183416351368      1.02856866242620     -2.60443374097874
  H          -1.95471317955069      2.27312919590012     -1.23583814545684
  H          -2.87982545861826      1.69723469672435     -2.62613559547410
  H          -4.61047596232751     -3.21332766529728     -1.48200595531964
  H          -5.47538156344473     -2.05703292643847     -2.50637438402520
  H          -5.99890356673577     -2.32735042323059     -0.83883721885862
  H          -3.11563460925333     -0.62573504739734      0.84095682964617
  H          -3.30139821118185     -2.36415153035821      0.56229007022685
  H          -4.68338355310211     -1.40336637884954      1.10615239657627
  H          -5.25640656819803      0.47388499254174     -2.07640526249245
  H          -4.36527684357590      1.03996226570092     -0.65448744423874
  H          -5.88029557910188      0.15235559956315     -0.45318069306166
  H          -2.22585517340761     -0.74311649382318     -4.50112873111037
  H          -3.79403231314866     -0.03565897543202     -4.07395777622875
  H          -3.62355469658666     -1.78860504318794     -4.21938186807786
  H          -1.16371663976698     -2.53742533966765     -0.78882695542038
  H          -0.71721814107858     -2.49960459508739     -2.50302275759575
  H          -2.11476046093826     -3.45004964209744     -1.97156997091247
  H          -3.53246237064429      4.05819825786802     -3.72663336483310
  H          -2.98121465438516      5.75456389143065     -3.82231395257946
  H          -4.07211052237755      5.23975780149530     -2.50677082595629
  H           1.17999911695732      5.90014413532679     -2.54173413252216
