48
Coordinates from ORCA-job goat_0_193 E -1253.936068523117
  O           2.67284797619499      2.25911877107912     -3.15654831580994
  C           1.25659821024511      2.35043451939088     -3.23249738793585
  H           0.90174290452074      1.93638529830070     -4.18644332578683
  C           0.57879760901331      1.61176777643527     -2.08920202683029
  H           0.85461258642169      2.08882479889945     -1.14356232408214
  O           1.04661193310015      0.27136005040775     -1.98067380243675
  C          -0.93913295215776      1.65594373137277     -2.30192477500371
  H          -1.19737738465783      0.81802426026294     -2.95624434791039
  C          -1.67490627665840      1.50233059984224     -0.97747005501862
  O          -3.08266028733934      1.49602144185315     -1.10413916207460
  Si         -4.07147594895887      0.40696593463915     -1.89337957580043
  C          -3.67262869733172     -1.38242015977270     -1.41232762584811
  C          -3.56827394356929     -1.50411668010767      0.11478635949968
  C          -4.82348260572059     -2.27558537443038     -1.90682538517136
  C          -2.36728260011094     -1.87335297550823     -2.05584996651449
  C          -5.78128742632822      0.88980538029870     -1.31020736089671
  C          -3.98182113447989      0.63047532711309     -3.75249729799793
  O          -1.35663350015298      2.81280018150304     -3.03727525063011
  C          -0.61003232343539      3.99555475049058     -2.84700590217076
  H          -1.04442546657864      4.70419407911580     -3.56010474785870
  O          -0.71657550727763      4.49566566046238     -1.54012124502754
  C          -2.03447458474358      4.94217342568482     -1.22225283718634
  C           0.88388231088433      3.81998395389668     -3.15987771056491
  H           1.45768877855111      4.27552422987193     -2.34609976209212
  O           1.15026581836489      4.49474381634481     -4.38528604564492
  H           2.89374731439945      1.32271870011232     -3.07323859123565
  H           0.73837324636259     -0.22289648793356     -2.75171597976979
  H          -1.31852008512418      0.58120915747581     -0.50353719629230
  H          -1.41144624646833      2.33465042563977     -0.32187556111416
  H          -2.74251944392707     -0.90911188136764      0.51444488639189
  H          -3.39358011899837     -2.54952735212250      0.39771791830963
  H          -4.48785138963867     -1.17685073524281      0.60914260914291
  H          -5.77392622973193     -2.01010420382747     -1.43577410553999
  H          -4.61135859845086     -3.32355799846650     -1.66257995283823
  H          -4.95270618741469     -2.20877656193828     -2.99170180587632
  H          -2.40401347385661     -1.80536847101689     -3.14691492808233
  H          -2.19856005176606     -2.92543853689381     -1.79493347431247
  H          -1.49631981268470     -1.31004663061160     -1.71210050156103
  H          -5.91006083431506      0.69948307177820     -0.24133791532118
  H          -6.55213242938589      0.33608321351179     -1.85289065279042
  H          -5.94375229994677      1.95716807948617     -1.48815718832972
  H          -4.16536114546537      1.67763239147226     -4.00999911149131
  H          -4.75696510984408      0.02426520420015     -4.23188132915198
  H          -3.01883247553829      0.34010313085891     -4.17719380075867
  H          -2.35877667408826      5.70691638129373     -1.93710815516636
  H          -1.98698639255363      5.37477801790513     -0.22315790166168
  H          -2.74665570976762      4.11361666112558     -1.22861948867182
  H           2.09545666040929      4.41301162711487     -4.56140789708489
