48
Coordinates from ORCA-job goat_0_284 E -1253.937635217317
  O           2.36103319583636      1.74035635015072     -3.21477915233489
  C           1.08372613657193      2.32814409222890     -3.44928674736926
  H           1.06009792243378      2.56004150139543     -4.51703890833193
  C          -0.04892497422594      1.36973622967278     -3.11161946805784
  H           0.12729016594272      0.97435192868595     -2.10261366861023
  O          -0.10699189471060      0.28763055802346     -4.03767305062702
  C          -1.40018649333476      2.10267389855649     -3.13164835880613
  H          -2.05172782513641      1.55978931543086     -3.81726986086661
  C          -2.07577168480929      2.12326761481664     -1.76018702088271
  O          -2.30428525325167      0.78569096437846     -1.34497322746878
  Si         -3.80160617414126      0.05298029959298     -1.47565414106563
  C          -3.48670165357156     -1.75502051732856     -1.04286492977931
  C          -2.93672510630922     -1.86266789249260      0.38669251865746
  C          -4.80525427922923     -2.53669590729175     -1.13887956485048
  C          -2.46802947113909     -2.35430153095850     -2.02324310446130
  C          -4.98734921802171      0.86737043691520     -0.27718969562552
  C          -4.46730442488710      0.24674473222869     -3.21562801062988
  O          -1.29477451375482      3.41071312145865     -3.70211557374106
  C          -0.38366871049203      4.30160441323647     -3.09158870751919
  H          -0.14821554293849      5.03178160951906     -3.87440883514460
  O          -0.92876550618749      4.95724067354609     -1.97874019298986
  C          -1.99014011027688      5.84661413159244     -2.31757842821253
  C           0.90441670649687      3.60865289253641     -2.64820263638168
  H           0.82858370083071      3.35768418088584     -1.58119909259329
  O           1.97660669475457      4.51591508415687     -2.85543127900437
  H           2.39294379736905      1.43801386097174     -2.29712688188791
  H           0.74926010509257     -0.15781403123504     -4.01577934530061
  H          -1.44193028426743      2.60899334074769     -1.01557867601355
  H          -3.00597239767189      2.69798443681545     -1.83332223135122
  H          -3.64664241140537     -1.47379567188300      1.12260689651083
  H          -1.99798517987894     -1.31254124373154      0.49768922003144
  H          -2.74179853555247     -2.91309221575329      0.63543361187754
  H          -5.55850807273023     -2.14698395929887     -0.44728464511707
  H          -4.63578360056406     -3.59022566118474     -0.88551134356084
  H          -5.22360251637355     -2.50243094933014     -2.14937843783692
  H          -2.28181218336326     -3.40609131503168     -1.77355094974722
  H          -1.51213484370536     -1.82487243136703     -1.98195194886598
  H          -2.82970631532081     -2.31727305892627     -3.05510893027903
  H          -5.10610461039613      1.92773711700856     -0.52063479668117
  H          -4.62884272926050      0.79268300691676      0.75281400512549
  H          -5.97516858250127      0.40048667149835     -0.33201227801953
  H          -4.57154292036720      1.30503261461793     -3.47434836204372
  H          -5.45796451111620     -0.21147944462396     -3.29131414706530
  H          -3.81531434570185     -0.22380622598353     -3.95598328893630
  H          -2.27192656413267      6.36619400158672     -1.40207921241706
  H          -2.85338147795613      5.29999333037291     -2.70636943749310
  H          -1.65631878295320      6.57630344111531     -3.06425311022768
  H           2.79273527630767      4.00926620576069     -2.75168457400447
