48
Coordinates from ORCA-job goat_0_1017 E -1253.943667447972
  O           0.37988532299026      4.33932901523223     -0.71436945599683
  C           0.33183687582004      3.66644300900512     -1.96710767770882
  H           1.35293275917574      3.52132902919542     -2.35081307071700
  C          -0.29002381655279      2.30213830436378     -1.73275041975667
  H          -1.27952164475579      2.43805986776939     -1.28262243806691
  O           0.52978717917172      1.49616906641676     -0.89600433637565
  C          -0.45952949533922      1.58477623795271     -3.06675727490632
  H           0.52885932739664      1.43685411181065     -3.52659623521435
  C          -1.11100477222343      0.22207349315592     -2.92909634268701
  O          -2.35327753482690      0.29971827150016     -2.25789296335202
  Si         -2.74360192882381     -0.43374205880587     -0.80961232211307
  C          -4.48280283397217     -1.12959988437549     -1.05978722048361
  C          -4.44912806948716     -2.19421337089856     -2.16547898578939
  C          -4.99036186208959     -1.76525239001062      0.24212524029464
  C          -5.43585260543425      0.00017672190740     -1.47672446310085
  C          -1.51528021050419     -1.79087033478984     -0.41709219431670
  C          -2.73472232241246      0.83979488622478      0.56269567722436
  O          -1.27090074078663      2.39005355536682     -3.91853567448097
  C          -0.65426529818205      3.62440688784717     -4.25618519991743
  H           0.32164710441935      3.41844262566528     -4.73053115455353
  O          -1.48565775405699      4.30384289929716     -5.13175674848355
  C          -1.50761083657617      3.73858178849187     -6.44286354188881
  C          -0.46549246807101      4.46248202349593     -2.99448906452150
  H          -1.45391884733281      4.69552277088915     -2.58960769899302
  O           0.16055319666019      5.71124330709085     -3.25567101607040
  H           0.76981803500432      5.20893696669410     -0.86600991504744
  H           0.69239706479872      1.99604589962264     -0.08671093913311
  H          -1.27813732261606     -0.17984202976986     -3.93368398660750
  H          -0.41227599046615     -0.43933057571264     -2.41083917454912
  H          -3.81129283476130     -3.03997335626555     -1.89172768772817
  H          -4.07667386419899     -1.78029996789394     -3.10728407180060
  H          -5.45867887484576     -2.58358388633019     -2.34604510701027
  H          -4.34060037408354     -2.57960422536605      0.57730347727769
  H          -5.99293114272375     -2.18340666557117      0.08948647698951
  H          -5.05784156674625     -1.03204134901162      1.05114394328610
  H          -5.11078037370498      0.47389184528716     -2.40735171535302
  H          -5.50426692863867      0.77566626933554     -0.70776788965494
  H          -6.44508619817456     -0.39890057541273     -1.63726703220029
  H          -1.42243578114347     -2.50840476985842     -1.23664895744751
  H          -1.84390821438910     -2.33457060938925      0.47369972592089
  H          -0.52538055860850     -1.37621209901351     -0.20756737596209
  H          -3.09218119439884      0.39756332698093      1.49740039182576
  H          -3.37829836190759      1.69043042425780      0.32174391186625
  H          -1.72094648168977      1.21176098458443      0.73230230741020
  H          -0.49276744657832      3.68422970906295     -6.85218975618327
  H          -2.11419303319328      4.40060786628801     -7.06006342605016
  H          -1.95049049196813      2.73949564910064     -6.43355631456713
  H           1.02223321082776      5.54236133458274     -3.65869230330606
