48
Coordinates from ORCA-job goat_0_159 E -1253.939220467752
  O           2.22563924360435      2.18817742636315     -1.26710005461477
  C           1.36447385298214      2.41673910911285     -2.37447585080730
  H           1.81711428237112      2.00756835889780     -3.28919387769585
  C           0.01548514119055      1.75000540258933     -2.18704276975843
  H          -0.49692881792563      2.19364926046110     -1.32475864290502
  O           0.25135345189427      0.36614658172941     -1.94662843412605
  C          -0.81357102901832      1.94156309189651     -3.46176938011698
  H          -0.47443391090487      1.19081050169141     -4.18234512245652
  C          -2.30091604085914      1.73877941611196     -3.20528020074654
  O          -2.48998099679161      0.41429967586156     -2.70908260021157
  Si         -3.67078954604141      0.10937179593639     -1.55294367612319
  C          -3.75379505783587     -1.76933534721220     -1.43050155836207
  C          -2.34474318738940     -2.34776083636586     -1.23584234659765
  C          -4.63026584233964     -2.15331423566260     -0.22875737335385
  C          -4.36616930153988     -2.35049694644107     -2.71287893966899
  C          -3.13172545405698      0.89165264713736      0.05875779987193
  C          -5.28937013707036      0.85423023982403     -2.11940993439245
  O          -0.59116710466010      3.21216430021343     -4.08931419320854
  C          -0.14676458320962      4.25260646769966     -3.24130134157898
  H           0.00731717024279      5.10418593231447     -3.91222182339969
  O          -1.09084199998686      4.57615649318551     -2.25445589367915
  C          -2.23812950952673      5.24247763648911     -2.77947979026772
  C           1.18500967339104      3.91941443173257     -2.54333607128916
  H           1.16593088080047      4.38135375052824     -1.55510731948715
  O           2.28622816152266      4.50770626787307     -3.22457247382595
  H           2.27898151411990      1.23208136625657     -1.14398165394588
  H          -0.61289327698235     -0.06689907224374     -1.99248005743612
  H          -2.64712462279314      2.48335164317826     -2.48212502583950
  H          -2.86043883533540      1.87112294054337     -4.13650367983516
  H          -1.84812650775997     -1.92709656733410     -0.35579189296554
  H          -1.71217348939642     -2.16101101730782     -2.10844874280150
  H          -2.40199720962827     -3.43402474180940     -1.09647720040326
  H          -4.72305323157124     -3.24421003664090     -0.16743438167350
  H          -5.64024772090119     -1.73959397548267     -0.31322606361715
  H          -4.19873320131169     -1.80310807225215      0.71336171663233
  H          -3.78664856476724     -2.07106169058260     -3.59795995099224
  H          -5.39442936995642     -2.00771428244109     -2.85917312847072
  H          -4.38478137744313     -3.44566478230787     -2.65681178091367
  H          -3.89682551267710      0.75989238237202      0.82918485974352
  H          -2.96924376707055      1.96590853774357     -0.07093753604730
  H          -2.19960569609795      0.44903328614005      0.42125880355175
  H          -5.23260377966494      1.94670755458857     -2.12381452515278
  H          -6.09931174234708      0.56379881763897     -1.44367942890700
  H          -5.54883095263594      0.51990647157745     -3.12737731455217
  H          -1.94440051913369      6.18317660083491     -3.25799200840700
  H          -2.89635981688887      5.45082547477558     -1.93649941241389
  H          -2.76531012713578      4.61794669565314     -3.50547794431909
  H           2.37302846853547      4.08106104513284     -4.08642178243162
