48
Coordinates from ORCA-job goat_0_1008
  O           1.32484296942527      2.94084291084851     -0.47492152415632
  C           0.94838967544526      2.73220826915180     -1.83399354535617
  H           1.88528995175616      2.68424451502406     -2.39504853274460
  C           0.18724473911986      1.43007959588154     -2.01178212479984
  H          -0.62855841536627      1.41023495908819     -1.27797673783652
  O           1.03406671249382      0.30246747886550     -1.80961200437081
  C          -0.41345503057427      1.34732197392733     -3.42512667160575
  H          -0.05226934283334      0.42373502980328     -3.88019902227322
  C          -1.93858325723871      1.29075600003545     -3.39627371362960
  O          -2.29472405629458      0.09121566195255     -2.72605397782058
  Si         -3.67759788085359      0.00649651208323     -1.79295933073929
  C          -3.68369110796147     -1.75853532048668     -1.12726060632900
  C          -4.94370042779007     -1.98117016638737     -0.27753348927357
  C          -3.67758151546449     -2.75126290618036     -2.29947145678860
  C          -2.43454993425945     -1.98183490473669     -0.26126760121503
  C          -3.58161776164513      1.26746451052477     -0.41063738801952
  C          -5.17208470648748      0.37923189716735     -2.85539475992282
  O           0.07996156863548      2.38231198033474     -4.28299013936894
  C          -0.12179603091111      3.70464938709709     -3.87019959298421
  H           0.62464062095603      4.30481301674451     -4.40455739708178
  O          -1.41477584551883      4.09823757137272     -4.28153894455501
  C          -1.62435679754979      5.50442359615164     -4.19514699776079
  C           0.10853843004196      3.88549997952856     -2.35938782075187
  H          -0.86209976057058      3.88412079916372     -1.84263547135702
  O           0.76329429739067      5.12988045806937     -2.16318560562064
  H           0.52860840196116      2.89904647258109      0.07191289920973
  H           1.39809619101142      0.36436197957065     -0.91794821660649
  H          -2.33971101803441      2.17259517003854     -2.88713939892817
  H          -2.32216746160685      1.28983808636312     -4.42116363808466
  H          -4.95385316328641     -3.00358533508088      0.12011873089366
  H          -5.85556660714991     -1.84477631365062     -0.86762251746021
  H          -4.98507832141819     -1.29342770696868      0.57312586142412
  H          -4.56048146926118     -2.63033382267058     -2.93463187364538
  H          -3.67930007217783     -3.77996337846104     -1.91747786654744
  H          -2.78855133988758     -2.62556895769030     -2.92391455032606
  H          -1.51631567722804     -1.80711416690801     -0.82988186889968
  H          -2.41375430123559     -3.01595013320642      0.10502191241321
  H          -2.42542414289804     -1.31888504871977      0.60915603235661
  H          -2.67477185436511      1.13117616795331      0.18587714395919
  H          -4.44522706072408      1.17116473963567      0.25468205286161
  H          -3.57909360291442      2.28753616477893     -0.80702941795417
  H          -5.09611443250745      1.38780495679005     -3.27484922796320
  H          -6.09457241742843      0.32859781943644     -2.26941060997419
  H          -5.25281148736833     -0.32931598287465     -3.68524983595948
  H          -1.63203032188643      5.84940210555337     -3.15670319942823
  H          -2.59431772164039      5.70591091956777     -4.64923420371095
  H          -0.84572024248630      6.04915094236701     -4.74242313998725
  H           1.07116102858726      5.14748251657033     -1.24791061128095
