48
Coordinates from ORCA-job goat_0_219 E -1253.934380914326
  O           2.62343874223818      3.34864523311051     -3.50904044235036
  C           1.26020901550377      2.95097863851463     -3.45740517901694
  H           0.99099621468390      2.41400841197496     -4.37716495492427
  C           0.98304181595736      2.02867462058808     -2.28271072386960
  H           1.15960857056336      2.55798808584912     -1.34237847479110
  O           1.86393351758813      0.91074586461988     -2.38535817018176
  C          -0.46470812762108      1.54217477996289     -2.39313004492837
  H          -0.47687285176676      0.79154679136568     -3.18940371678388
  C          -0.95936589508824      0.88002652425776     -1.11395761510029
  O          -1.92480922810071     -0.13058118373734     -1.34375771653064
  Si         -3.44894410642192     -0.00399256226603     -2.01034369629813
  C          -4.31579785628680     -1.58967576283595     -1.45119950622483
  C          -4.49548562384814     -1.56689746400016      0.07342692203127
  C          -5.69456042248282     -1.68916677910363     -2.12062589809639
  C          -3.47854967204905     -2.81538175813925     -1.84339195509779
  C          -4.34905718372813      1.50596591995123     -1.36750555925077
  C          -3.34664150226073      0.06381097875895     -3.87911344865050
  O          -1.36330562485450      2.58074401092232     -2.82489387673482
  C          -0.92359339632831      3.90964318216277     -2.63732886361658
  H          -1.71559333610960      4.52565994921812     -3.07453894650610
  O          -0.74184917282028      4.23723469840583     -1.28376997332232
  C          -1.96069885448957      4.43511175336499     -0.57202957741185
  C           0.39610353958824      4.20095772443748     -3.36170374505425
  H           0.93751516243289      4.95227899514983     -2.77882775748419
  O           0.06395870412732      4.71834524474582     -4.64676185305976
  H           3.14695448338986      2.53710267584866     -3.48323999077128
  H           2.20425946622781      0.70243555197426     -1.50952724224400
  H          -0.11254898115430      0.39333158541947     -0.62133554297477
  H          -1.35016250135194      1.64488971396271     -0.43661892705075
  H          -4.97939298484702     -2.49204172388400      0.41037215518421
  H          -5.12253923951345     -0.72892856939300      0.39254317406830
  H          -3.53398111738725     -1.48512574764948      0.58878184916756
  H          -6.21366510624793     -2.59203317141623     -1.77637542864784
  H          -5.61096386508311     -1.74985004703495     -3.20959155614725
  H          -6.32881842344923     -0.83113846408033     -1.87745053848073
  H          -3.33515309742013     -2.87653091411806     -2.92656527926469
  H          -3.98465552940058     -3.73470616486108     -1.52318298895908
  H          -2.49218035777752     -2.79326346826975     -1.37240473744404
  H          -3.99082109983034      2.40898432880932     -1.86585924750754
  H          -4.21472452696832      1.62688461209133     -0.28908256347020
  H          -5.42112976882572      1.41280260036791     -1.56562724479174
  H          -2.80101971303240      0.95348302996089     -4.20163858907987
  H          -4.35054375571062      0.10741787285916     -4.31246618425008
  H          -2.84102450615681     -0.81831115707616     -4.28173154563663
  H          -1.69012138092554      4.78315047451413      0.42467123811865
  H          -2.53224913341786      3.50890238852843     -0.48845022014893
  H          -2.57457168558788      5.19395817441275     -1.06975103640318
  H           0.88791039604368      4.93232052175535     -5.10040478001170
