48
Coordinates from ORCA-job goat_0_156 E -1253.936290151397
  O           2.18560881875766      2.33757796190145     -1.39478588626787
  C           1.28767256270408      2.45979456921123     -2.48988982889278
  H           1.77423201554947      2.12507389508824     -3.41623105771381
  C           0.02248427574458      1.64307806935474     -2.26523420722217
  H          -0.49569858546922      2.03212738956589     -1.38429476440335
  O           0.35395972453025      0.29734079526395     -1.93692087203142
  C          -0.87402097726453      1.74540148857105     -3.50987037777260
  H          -0.63132789311312      0.90335240806188     -4.16616737735032
  C          -2.36776219025773      1.68089903087173     -3.20403776885128
  O          -2.69233252620636      0.38116478558078     -2.73911762888388
  Si         -3.62878381616199      0.14780769536644     -1.37551393844411
  C          -3.79093861039818     -1.72416777782535     -1.21245123898176
  C          -2.40073300783612     -2.35738529571093     -1.05692852976444
  C          -4.63901702474810     -2.05354032825968      0.02502837223396
  C          -4.47280244134477     -2.30101797836807     -2.46129462152899
  C          -2.78263895493843      0.90363430860001      0.11450616519584
  C          -5.29139423073378      0.97471009786292     -1.62115921527754
  O          -0.57449903362994      2.90867694695069     -4.29662097299139
  C          -0.25214429286320      4.09684704557654     -3.60376486077223
  H           0.04821126676574      4.79191521511025     -4.39467670942127
  O          -1.34138779500952      4.61875999523562     -2.88934964139683
  C          -2.37516624903837      5.12031776362815     -3.73477329480145
  C           0.91366542601373      3.92146086648096     -2.61970390912736
  H           0.59152307793178      4.27931871274612     -1.63587661455902
  O           2.00109136986456      4.70930311995684     -3.09369040566849
  H           2.27287402730022      1.39332038211215     -1.21014725527052
  H           0.69576497098143     -0.13592355724962     -2.72964719962490
  H          -2.62830665176300      2.45144376307864     -2.47140897952006
  H          -2.92101850826394      1.88710840861216     -4.12603465018584
  H          -1.76611521384817     -2.14836963324569     -1.92246215505415
  H          -2.49332157331764     -3.44628670318236     -0.96164699027539
  H          -1.88669353170473     -1.98832189136881     -0.16455357372412
  H          -4.17834065082736     -1.67743599967399      0.94348469248784
  H          -4.74480710735601     -3.14032935427190      0.12791199004127
  H          -5.64479852659583     -1.62856256464578     -0.04765618713235
  H          -5.48094101456342     -1.89740128279635     -2.59416281356213
  H          -4.56053959459130     -3.39075247634845     -2.37127401456584
  H          -3.89962163899218     -2.08492058127796     -3.36731038969321
  H          -1.79458048427228      0.46609754237051      0.27789652142023
  H          -3.38377807222409      0.74348880275723      1.01449844450773
  H          -2.66084984607207      1.98326458430558     -0.01494079267654
  H          -5.80986253666844      0.57708479704218     -2.49768098665110
  H          -5.16369261100427      2.05270333579723     -1.76091624387575
  H          -5.93160789510024      0.82560744590315     -0.74673336516723
  H          -1.98179864645575      5.90433770174631     -4.39138146948694
  H          -3.14018193408362      5.54051012233768     -3.08249461604351
  H          -2.81358467453384      4.32599582235212     -4.34372572917683
  H           2.72583080510804      4.60747055482464     -2.46464505207597
