48
Coordinates from ORCA-job goat_0_1033
  O           2.77903979120549      3.92652399101553     -2.71298733157384
  C           1.68776942755802      3.10925642673846     -3.10667692112715
  H           2.04902907488469      2.27031903190244     -3.71996744535750
  C           0.96396540272437      2.53438586864642     -1.90077299331578
  H           0.52126122638502      3.35347973076824     -1.32416612558054
  O           1.92371122544940      1.84698707679270     -1.09811691845082
  C          -0.11227322916503      1.55710467028113     -2.38376991510426
  H           0.37854877127025      0.59828762660042     -2.57339196873487
  C          -1.18082530457422      1.35437612046508     -1.32360526940842
  O          -2.10734467284471      0.37453723493406     -1.75656343033847
  Si         -3.40967243615090     -0.08223783412669     -0.81407934447487
  C          -4.40148011809553     -1.25528460916160     -1.90788980414828
  C          -3.54780850518118     -2.47792801894193     -2.27356059415696
  C          -5.65425940216065     -1.71967414080422     -1.15068756862709
  C          -4.82488230583878     -0.52976715466396     -3.19328773123827
  C          -2.78533160561228     -0.92406222630493      0.73746106654899
  C          -4.40733043464970      1.42760430160247     -0.33200819454200
  O          -0.66944548140248      1.93964125979339     -3.65102211674495
  C          -0.68695646133262      3.32214029040732     -3.93371411840538
  H          -1.10661677339004      3.38948286710513     -4.94341012488453
  O          -1.48327456765096      4.04405489952328     -3.02953624748414
  C          -2.87219437519594      3.74089913259633     -3.15756519258618
  C           0.72289282095444      3.94391571008251     -3.93526119735413
  H           0.65299794632480      4.93822654688689     -3.49094225420032
  O           1.20164181514210      4.14344423269452     -5.25932874575903
  H           3.28597605273132      3.41013212521199     -2.07242778489855
  H           1.73375552164468      2.02231002039389     -0.17082696836414
  H          -0.67906854006577      1.03292053519279     -0.40149751313827
  H          -1.68463128423517      2.30415852603232     -1.12125458235050
  H          -2.64098687487228     -2.18798602070110     -2.81193470306469
  H          -4.11955069387415     -3.15549299270777     -2.91960563290627
  H          -3.24844507063810     -3.04100729855925     -1.38463784154723
  H          -6.23736721484565     -2.40645785258345     -1.77614551818850
  H          -6.30332689811447     -0.87886014703414     -0.88808178226855
  H          -5.39713457999526     -2.24968028380899     -0.22839475687734
  H          -3.95730631411512     -0.18335814698714     -3.76179580485420
  H          -5.45606443561796      0.33762708027042     -2.97812061512080
  H          -5.39981497960424     -1.20828167322400     -3.83543942802726
  H          -2.19410663024880     -0.22663985485734      1.33883690528596
  H          -2.15641028632347     -1.78605914970851      0.49927170278879
  H          -3.62080862844537     -1.26912922770988      1.35358448912788
  H          -5.25073276853465      1.13588887441213      0.30077616226799
  H          -4.80152220960666      1.94953267907989     -1.20752804865374
  H          -3.79359873446006      2.13212176867697      0.23715363392181
  H          -3.22738232327221      4.00881837374348     -4.15897166673926
  H          -3.39690824634516      4.33760424410122     -2.41178066928383
  H          -3.06578497576635      2.68084552217134     -2.97677167499128
  H           1.35788828595131      3.27785986376238     -5.65740741506937
