48
Coordinates from ORCA-job goat_0_1030 E -1253.945449313305
  O           1.96142944320101      2.34139875482454     -0.72608178420259
  C           1.16879686694863      2.50648179329902     -1.89531654060907
  H           1.62409438249323      1.96403536423737     -2.73583287205049
  C          -0.20466655540780      1.91111842351138     -1.63827934821756
  H          -0.61212619020515      2.35106609938961     -0.71672330624720
  O          -0.05038445058793      0.50515368623357     -1.49202611919846
  C          -1.15623890243601      2.24278258282964     -2.79700482969797
  H          -0.81884749214765      1.70672409384612     -3.69544380495078
  C          -2.60054338201652      1.87330047543798     -2.48810583941674
  O          -2.70229301670518      0.47236879742901     -2.25417971527090
  Si         -3.92765884993530     -0.13657173337373     -1.27161969138446
  C          -3.89517979931743     -1.99696358689000     -1.56483488257555
  C          -4.35519761674797     -2.30688142809749     -2.99649646146844
  C          -2.47244154069572     -2.53764804164334     -1.36088169237013
  C          -4.84487973558365     -2.67574415503546     -0.56600825218094
  C          -3.52466810724552      0.30326529431029      0.50070316942727
  C          -5.55142253500057      0.63710373615946     -1.77896197587908
  O          -1.17797273430242      3.64470338904746     -3.03900671389979
  C           0.09302368974980      4.14088400496692     -3.43115450656003
  H           0.44170142092129      3.58572694139259     -4.31707282824119
  O          -0.02357682475358      5.49294525319083     -3.71424189873740
  C          -0.67416103966419      5.75927300283852     -4.95815340880316
  C           1.06742488461526      3.97475277641931     -2.27519244166187
  H           0.68525631380971      4.55025092150120     -1.42319739700556
  O           2.37551491421323      4.40354167542331     -2.62721189281984
  H           2.80676447295619      2.77528316159503     -0.89584076663189
  H          -0.93593544597296      0.12551133604157     -1.60282371821279
  H          -2.92212742611846      2.44687195503716     -1.61049616779949
  H          -3.23187407440029      2.15709506684201     -3.33545222690837
  H          -3.71979083971308     -1.81435834754635     -3.73862018024944
  H          -5.38663057936740     -1.98487978977547     -3.16625100267340
  H          -4.30915066683195     -3.38727362961836     -3.17930924137340
  H          -2.09232420462484     -2.31727387566090     -0.35868928501396
  H          -1.77484726013619     -2.11628271487969     -2.09044587003937
  H          -2.46539159611343     -3.62710823932673     -1.48644594871377
  H          -4.52293976500335     -2.51821286034932      0.46751715122414
  H          -4.86674739528124     -3.75699502460089     -0.74705554475756
  H          -5.86973841412440     -2.30332859452412     -0.66220874105442
  H          -2.58802357586630     -0.16221879284137      0.81979308148533
  H          -4.31996358559762     -0.02842540511322      1.17425904347774
  H          -3.42167410217425      1.38683889836865      0.61238749342895
  H          -5.73790330470672      0.50717073279412     -2.84822622890693
  H          -5.55737530327077      1.70815569764039     -1.55647201625810
  H          -6.37790580311446      0.17707348963783     -1.22922879696551
  H          -1.71709501119770      5.43385923659463     -4.93114827721093
  H          -0.15300494891085      5.25158309198944     -5.77681043678093
  H          -0.63195562009127      6.83713131843550     -5.11064126201698
  H           2.34848130646186      5.35929516801195     -2.75331602402674
