48
Coordinates from ORCA-job goat_0_104 E -1253.939818596610
  O          -0.67807216497765      3.34673020098468     -0.52761628847131
  C           0.52076461820200      2.83697514750574     -1.09903417486283
  H           1.22940467912132      2.70282541506193     -0.27707406364147
  C           0.31801904556167      1.46349341643344     -1.75811575137486
  H          -0.29473162812346      0.84828979856679     -1.09679895717181
  O           1.57585518282940      0.79835419928284     -1.88135718411962
  C          -0.38352874263160      1.53917083844444     -3.11532323949985
  H          -0.13192597434196      0.61757481690993     -3.64498672131069
  C          -1.91115518205069      1.57450880032305     -3.03410795319415
  O          -2.33624827704671      0.30412656918181     -2.56312717247212
  Si         -3.76853302907980      0.12237277769461     -1.71991784332284
  C          -3.91730194987568     -1.73395614687205     -1.42325632455567
  C          -3.93498657927433     -2.47739938090562     -2.76640814379129
  C          -2.72479324810341     -2.22307205975825     -0.58845520326548
  C          -5.22129207965094     -2.02463320151916     -0.66542353927269
  C          -3.67554652144348      1.07578353055791     -0.11121018627417
  C          -5.18123410030484      0.78807821348548     -2.75267083930762
  O           0.13839475953619      2.57998513010849     -3.95884592620141
  C           0.29677731225236      3.85557030948972     -3.38920166156695
  H           0.81643380626671      4.44014032166103     -4.15509374447738
  O          -0.92982991190296      4.46607360403116     -3.06139399423062
  C          -1.70700516708372      4.84284730450467     -4.19887187560779
  C           1.12105794346841      3.82381918674624     -2.10562946477893
  H           1.13271803836815      4.83024918202858     -1.67839784679666
  O           2.43743183654725      3.42086207888658     -2.48679384324398
  H          -1.15655881064882      3.82794183282728     -1.21775531771785
  H           2.18191415466761      1.42641223346261     -2.30163924607322
  H          -2.27099483980743      2.37463848822969     -2.38409136170764
  H          -2.30409183860983      1.75100477535880     -4.04053122173954
  H          -3.01893149665644     -2.29710380083014     -3.33579043358425
  H          -4.78408680453977     -2.17305784858049     -3.38568830306724
  H          -4.01837635511156     -3.55786969108556     -2.59609634422573
  H          -1.77415840828405     -2.02537412469546     -1.09216128348911
  H          -2.79975509274165     -3.30514809647308     -0.42467644392830
  H          -2.69467009603220     -1.74027014976411      0.39278341549210
  H          -6.09948082129540     -1.70083680127525     -1.23234012576302
  H          -5.24392493863432     -1.52550502375453      0.30802884668057
  H          -5.31930270192465     -3.10251052180042     -0.48808449119847
  H          -4.58000945945690      0.90890933591250      0.48138859962915
  H          -3.59321645432514      2.15033668332801     -0.29777293977271
  H          -2.81286011240922      0.76822159859883      0.48563784324087
  H          -5.03068746173006      1.85242539622609     -2.95910968135553
  H          -6.13256329055445      0.68303543142324     -2.22301377086786
  H          -5.26084547104928      0.26425205518502     -3.70901620988929
  H          -1.14412644783024      5.54740066093667     -4.81970106437858
  H          -2.60672182733793      5.32541870888315     -3.81955221754217
  H          -1.98271873597607      3.97037475270439     -4.79487340662970
  H           3.03332464402574      3.62111405234856     -1.75468289930011
