48
Coordinates from ORCA-job goat_0_357 E -1253.944632875139
  O           2.78409179626244      3.37284574355473     -2.67814421254150
  C           1.39677848906673      3.07000110554850     -2.77661495931992
  H           1.25784868724869      2.67238180825984     -3.78732691057250
  C           1.01917863654340      1.98167647635090     -1.77475428684351
  H           1.25160787704381      2.33817715818550     -0.76045982605062
  O           1.73518144664323      0.78656623286645     -2.05284635782144
  C          -0.47683988783444      1.68608877783198     -1.85154231965102
  H          -0.70499797599656      1.30187827323634     -2.85549207502236
  C          -0.90696511278588      0.67997595390908     -0.79921615395035
  O          -2.29402882698259      0.40107213674271     -0.83467101655684
  Si         -3.07413398391058     -0.39401363891282     -2.08104888095319
  C          -4.53899064503684     -1.26114535707262     -1.26394566810621
  C          -5.39096872661921     -1.95880405081054     -2.33405117263650
  C          -4.02618656273483     -2.30655867155463     -0.26353882081494
  C          -5.40309663577376     -0.23156507614418     -0.52140604582078
  C          -3.66757244334053      0.84525777298645     -3.35456116429026
  C          -1.90214123811897     -1.61956295405158     -2.87646348739078
  O          -1.19565518869779      2.89368266809602     -1.62585748325901
  C          -0.95272383930546      3.84874268678823     -2.64333588931303
  H          -1.19048777466960      3.40325535120977     -3.62372494033762
  O          -1.74491923460817      4.96397168593738     -2.41089599869604
  C          -3.12520197771009      4.75103757827376     -2.71388263312019
  C           0.50719696216459      4.29180486070013     -2.60999998866390
  H           0.69504461642821      4.75766553765016     -1.63248085353560
  O           0.78181700433354      5.20116266280490     -3.66260211593412
  H           2.93913316696919      3.80581661870283     -1.82845668338217
  H           2.66029921107706      1.03799158857672     -2.17225551663567
  H          -0.32021931809286     -0.23347164685491     -0.93310170522761
  H          -0.68020050330315      1.09012357167651      0.18980058361066
  H          -4.81341718774987     -2.70249903750101     -2.89184556103515
  H          -5.80446559717317     -1.24412124812549     -3.05162562145955
  H          -6.23289170408480     -2.47972520256855     -1.86197843890520
  H          -3.43617659888329     -3.08337973459850     -0.75892638340196
  H          -4.87128974903780     -2.79757627004129      0.23440183969767
  H          -3.40197449342277     -1.84897721100996      0.50950303148977
  H          -6.25101057064135     -0.73184867226973     -0.03745484848243
  H          -5.80816593759578      0.52239852762305     -1.20306282029188
  H          -4.83198941307801      0.28576061678193      0.25462559581325
  H          -4.22884049715268      0.34259685751790     -4.14790298431834
  H          -2.82762316686094      1.36885646225542     -3.81859109527579
  H          -4.31974322341901      1.59470991555692     -2.89812048615137
  H          -1.08241197605120     -1.11040195946988     -3.39138473010321
  H          -2.43782728885755     -2.22026706536676     -3.61755538494715
  H          -1.46988189472770     -2.29932988568017     -2.13721842746063
  H          -3.62701766444414      5.70907107366702     -2.58288138610371
  H          -3.56294556827991      4.01118640882018     -2.03941387809353
  H          -3.24018056523714      4.41312614167767     -3.74930915360910
  H           0.19283507843772      5.95694542824369     -3.54623268452416
