48
Coordinates from ORCA-job goat_0_1012 E -1253.942734837076
  O           1.32839369411982      3.60386260483940     -0.53048761000044
  C           0.97609708810322      3.08333051981581     -1.80740353890689
  H           1.85485444300028      3.09910612338573     -2.46965381465617
  C           0.45781014875193      1.65478037497719     -1.71408337044545
  H          -0.35077975035377      1.61540763990396     -0.98205527823193
  O           1.46874701246863      0.77942583220486     -1.22649421340150
  C          -0.08181446566662      1.20825410232174     -3.07393252656272
  H           0.74721352762499      1.17953036857988     -3.79894175743387
  C          -0.70983964171549     -0.17414533301667     -3.04125690519535
  O          -1.61731309933589     -0.35421508381498     -1.97339317663285
  Si         -3.22572695143414      0.09287034573686     -1.92235148564634
  C          -4.10318140348267     -1.34058274007178     -1.05371177498394
  C          -4.05347405891080     -2.58977376145665     -1.94469923636981
  C          -3.40904645262209     -1.64680811377723      0.28114016851195
  C          -5.56800215118433     -0.96609862693776     -0.78589152901360
  C          -3.39981064605638      1.65747465654645     -0.91002216513527
  C          -3.89971652713879      0.33986928267857     -3.65005513257151
  O          -1.06479585075113      2.13895030495656     -3.52415245183077
  C          -0.53031018887769      3.43758705271821     -3.73604234646343
  H           0.33436029866451      3.37358611832827     -4.40979976553369
  O          -1.46762347008595      4.20632209574339     -4.41496355308779
  C          -2.65437836266403      4.53560322690385     -3.68949259213948
  C          -0.08208041633331      4.00547145648389     -2.39057964466791
  H          -0.93575718505158      4.03068504081863     -1.70293534760705
  O           0.42875219294984      5.31210085222195     -2.60282304055639
  H           2.02625385956886      3.04371164049585     -0.16963021792287
  H           2.19645429349488      0.76933602838441     -1.86198157836996
  H          -1.19352836960771     -0.35429298185436     -4.00716028471412
  H           0.09067500352398     -0.90811705785202     -2.92081725025919
  H          -4.58705633217870     -2.43363335046289     -2.88683732619956
  H          -4.52337424552922     -3.43864392502245     -1.43266670838010
  H          -3.02319187338255     -2.87213171745920     -2.18232994043511
  H          -3.91528832071858     -2.47870875125254      0.78657493431771
  H          -3.43269859947111     -0.78610007091809      0.95646457406393
  H          -2.36371611870507     -1.93105426028909      0.13211725004840
  H          -5.64773873269577     -0.10007227979066     -0.12223540145690
  H          -6.08874894021037     -1.80283726614766     -0.30418047687966
  H          -6.10352804070147     -0.73268531948365     -1.71149887181533
  H          -3.08004959914411      1.49504140020553      0.12323359892345
  H          -4.43999385577291      1.99617201814492     -0.89441986123686
  H          -2.78718868523217      2.45469121717546     -1.33504275795386
  H          -4.98296804894739      0.48788572005566     -3.60600269012950
  H          -3.70447665045085     -0.52769648344883     -4.28635196374795
  H          -3.45213655727771      1.21890377107990     -4.11814072024612
  H          -3.31489356173374      5.02850346514871     -4.40225267376109
  H          -2.43939172984881      5.22347983078882     -2.86742110380404
  H          -3.14516759291156      3.63906798303735     -3.30520948482942
  H           0.84700491391374      5.58916604937477     -1.77797895664898
