48
Coordinates from ORCA-job goat_0_119 E -1253.938030799112
  O          -0.66921122975654      3.19865149679856     -0.54123093238240
  C           0.57321124616437      2.85716989270535     -1.13740700654896
  H           1.35259541994389      2.76727585206597     -0.37169319321252
  C           0.40979583783070      1.48888171151801     -1.79756797045115
  H          -0.12467687754393      0.82405012254930     -1.11307357825349
  O           1.74668593067225      1.01347559009502     -2.00958206065601
  C          -0.35645863414406      1.54454557164522     -3.11762440489025
  H          -0.15488279184688      0.60955880744143     -3.65056627364508
  C          -1.87458305867020      1.60975504226329     -2.94470942611754
  O          -2.29038505925953      0.35758334373304     -2.41421532807074
  Si         -3.78640936803800      0.17518574011958     -1.69266954595672
  C          -3.89904717705984     -1.66204181141061     -1.28046417920199
  C          -3.83411546962046     -2.49130526649807     -2.57090718908346
  C          -2.73476927341081     -2.06105008264822     -0.36230781412364
  C          -5.22864478382177     -1.94193841492385     -0.56432028018223
  C          -3.88006244715134      1.23672347980898     -0.15272945412107
  C          -5.11895318133697      0.71119699944895     -2.89403727313435
  O           0.14316407472422      2.56007173678381     -3.99242075624753
  C           0.25279175357883      3.86643998233053     -3.46284096087304
  H           0.81383505625759      4.41588486779102     -4.22733267066875
  O          -0.99052906165621      4.47696913098561     -3.25126308618049
  C          -1.66772899571052      4.79422873558183     -4.46435740254990
  C           1.05250569211318      3.89666940792461     -2.15876500663582
  H           0.96020007768473      4.89773467852326     -1.72992518648897
  O           2.43087740013188      3.69523592124663     -2.44875295258603
  H          -0.58631228909372      4.07970033071233     -0.15885634223486
  H           1.70433679808394      0.19654099801115     -2.52041119846259
  H          -2.16181771281166      2.43301622494291     -2.29079688117662
  H          -2.32234381336923      1.77011508476471     -3.93099880554483
  H          -3.88614432263588     -3.56091897048675     -2.33309447367417
  H          -2.90214217459906     -2.31380663008369     -3.11521302902427
  H          -4.66703725388956     -2.25930011761186     -3.24116438685513
  H          -2.79625909264412     -3.12938669354770     -0.12087883327704
  H          -2.75547696877459     -1.50625772023815      0.58050509030052
  H          -1.76758602218279     -1.88012443771345     -0.83980345673775
  H          -6.08820952145043     -1.67379208575527     -1.18632409036741
  H          -5.30546405582504     -1.38817557827534      0.37612785833857
  H          -5.30978938584136     -3.01000270212475     -0.32858084080820
  H          -3.76773890919673      2.29503825600306     -0.40533763301777
  H          -3.09666015793467      0.97355598530378      0.56291871594711
  H          -4.84978682254815      1.11218574718061      0.33816755928374
  H          -5.05801752250623      0.15622060261508     -3.83409001611366
  H          -5.02001266609312      1.77738791517021     -3.12050447650067
  H          -6.11306384413100      0.55230685943106     -2.46600190581877
  H          -1.91053566661929      3.89231615582894     -5.03238012827846
  H          -1.05279058591293      5.45679723044693     -5.08441407421866
  H          -2.58949819379999      5.30625185060022     -4.18880536890281
  H           2.55497510370076      2.74195915894673     -2.57714935059374
