48
Coordinates from ORCA-job goat_0_163 E -1253.936505313653
  O           2.55681663940574      2.58614547553159     -3.09890920701586
  C           1.20906763702807      3.04040360599221     -3.11691036730661
  H           1.08022562805903      3.80022577160111     -3.89949761686353
  C           0.23496768916804      1.89398021109699     -3.35594911076741
  H           0.53328577799218      1.05936595734306     -2.71777558442777
  O           0.35770194335314      1.39723592556582     -4.68743472212282
  C          -1.20317643230188      2.31897805350414     -2.99891011022015
  H          -1.83383469651563      2.12879529202370     -3.86946964700463
  C          -1.77709147055764      1.51760323028525     -1.83017700651196
  O          -1.82327256000456      0.14863604250537     -2.20077584075047
  Si         -3.22113525055572     -0.64899372623294     -2.65702046892777
  C          -4.11259100524059     -1.28149201944252     -1.11335127874028
  C          -3.21549396455645     -2.28924751588880     -0.38010173479819
  C          -4.42885698861956     -0.11390605735036     -0.16743038217868
  C          -5.42289123757112     -1.97124358323227     -1.52016380145195
  C          -4.32606733053599      0.50187596368933     -3.63867676614536
  C          -2.63079869934366     -2.06278328161262     -3.72526960349337
  O          -1.30722536644116      3.73121574366040     -2.78701323316780
  C          -0.47742605581409      4.28712811350696     -1.78800909267261
  H          -0.39236370508111      5.34557680529603     -2.05993692434037
  O          -1.02339153818027      4.16991261100849     -0.50209005411651
  C          -2.20858745820147      4.94177938893881     -0.32450170914097
  C           0.91700966432140      3.66241566958752     -1.76468190833387
  H           0.94831757648915      2.87725377563023     -0.99874050794457
  O           1.83778299328724      4.69338758283612     -1.43817862782927
  H           2.74792259335291      2.20286834396447     -3.96328076012333
  H           0.08612759128714      2.09592120394325     -5.29624062726150
  H          -1.14898099320714      1.61089187788953     -0.94181177366623
  H          -2.76601127415687      1.91570592930405     -1.58429334290470
  H          -2.25595301642970     -1.84332804581770     -0.10081377148335
  H          -3.01269721239111     -3.17092609755984     -0.99491580728189
  H          -3.70630603785799     -2.63048790739204      0.53970071115025
  H          -4.97919065009490     -0.48045598653886      0.70790656183560
  H          -5.04672357196178      0.64854917942583     -0.65183633275012
  H          -3.51639594913276      0.36795621135651      0.19525066597987
  H          -5.24652808932364     -2.80618386989941     -2.20545761278740
  H          -6.11241599741437     -1.27485751219835     -2.00616238370947
  H          -5.92683298304760     -2.37207861401620     -0.63211977248655
  H          -3.80933223512164      0.85779395408080     -4.53447951305360
  H          -4.64269019119300      1.37127152360283     -3.05641188876792
  H          -5.22556373819099     -0.03054064855883     -3.96106382558798
  H          -1.89475050286994     -2.67547612367909     -3.19800533617819
  H          -2.16287078863526     -1.67425914083295     -4.63464163448355
  H          -3.46335904602870     -2.70803172448707     -4.01968225425011
  H          -3.02023758755053      4.56892068781382     -0.95492233543659
  H          -2.02033692755585      5.99546007901126     -0.56079913457454
  H          -2.49201808749208      4.84936324669683      0.72365886057476
  H           2.72200290543292      4.31025439804737     -1.49645338648056
