48
Coordinates from ORCA-job goat_0_318 E -1253.936948308626
  O           1.73231163290472      2.37997850744547     -0.87764016762037
  C           1.06578573233104      2.50488730352743     -2.12962266387841
  H           1.86046036949227      2.60510645411923     -2.87561149995518
  C           0.20268370831738      1.29215058873790     -2.46028106838726
  H          -0.37917109318793      1.03224506543890     -1.57222836000506
  O           0.99314558186008      0.13840792852235     -2.72665338501500
  C          -0.77333159309294      1.62162024831013     -3.61001886377574
  H          -0.70090328293346      0.81463884601900     -4.34208185600761
  C          -2.23029507251792      1.68547938443270     -3.15268586551079
  O          -2.59115662674659      0.38980999851201     -2.70018106098648
  Si         -3.55121811249659      0.17483525140147     -1.34741875313872
  C          -3.72499020442790     -1.69403796008760     -1.17447886311000
  C          -4.55852802527269     -2.01206291985634      0.07570530108681
  C          -4.42591498307675     -2.27138157408205     -2.41236669943920
  C          -2.33516140268368     -2.33245209303335     -1.03445292347365
  C          -2.71321521496480      0.92986244617118      0.14902390641615
  C          -5.19837749753209      1.01974241919847     -1.62235287441030
  O          -0.37640590176056      2.79557658235226     -4.32458948645466
  C          -0.31296659971736      3.99181986438139     -3.57377296597560
  H           0.39629056390931      4.62492630608175     -4.11921175764750
  O          -1.55410237963104      4.63694910005039     -3.48202562179106
  C          -2.01898295283754      5.13747813621801     -4.73345399838436
  C           0.20498739752912      3.76082393009280     -2.15634581415924
  H          -0.64710334471277      3.62599389783385     -1.47622643445571
  O           0.94846737801750      4.90736797219215     -1.77284065396332
  H           1.07948834353045      2.13025857519016     -0.21065020814217
  H           1.54207635523231      0.32042813405107     -3.49966049291014
  H          -2.36213538680617      2.43447479694968     -2.36658282908126
  H          -2.85742474821226      1.97753038607403     -4.00060234827886
  H          -4.08163180299302     -1.63678586369195      0.98613648377614
  H          -4.67257994941291     -3.09743729410784      0.18387852937840
  H          -5.56139469022686     -1.57816271126422      0.01554943257895
  H          -4.51659964522302     -3.36045784573258     -2.31825296582507
  H          -3.86417314360844     -2.05997527051981     -3.32668518219071
  H          -5.43402599304998     -1.86384840000555     -2.53235297179543
  H          -1.81058867635938     -1.96644567714349     -0.14697002843011
  H          -1.70858146398320     -2.12542575563645     -1.90651235862172
  H          -2.43064574687641     -3.42097121987896     -0.93877333011806
  H          -1.76313910098580      0.43663846590363      0.37046897467713
  H          -3.35825627229605      0.83627146048743      1.02769791230171
  H          -2.51667875955001      1.99504804239288     -0.00523659940055
  H          -5.05658548428150      2.09739617825428     -1.75075667319880
  H          -5.85918366914259      0.86997630705528     -0.76356013474683
  H          -5.70036646179246      0.63375310560167     -2.51346460564013
  H          -2.93481836536904      5.69245518553174     -4.53158685906741
  H          -2.23360830115667      4.32170464879226     -5.42895036220746
  H          -1.27573841222181      5.80846331186346     -5.17922198207381
  H           1.44211329801634      4.65792575585384     -0.97994897094143
