48
Coordinates from ORCA-job goat_0_331 E -1253.937365481636
  O           0.69637759616251      4.23518863436095     -0.82133217599871
  C           1.37136086748619      3.46761890941505     -1.80839788985881
  H           2.42874455443183      3.73548182453372     -1.74270574002188
  C           1.22591133536848      1.96298762621657     -1.53784089449764
  H           1.29592833705784      1.80336002209491     -0.45642630878377
  O           2.24034573169314      1.21391157355777     -2.21487389557701
  C          -0.12018447197656      1.45127996205730     -2.07339874704827
  H           0.04919872753288      0.97072870997509     -3.04568393140219
  C          -0.73590309381218      0.44126940598112     -1.12544053293053
  O          -1.77298772092265     -0.31294170750129     -1.71364958670097
  Si         -3.37929599534318      0.13061849318969     -1.84536092517606
  C          -4.36439400452174     -1.43925340871139     -1.46814703503513
  C          -5.85457461935062     -1.18433571790963     -1.73787836786950
  C          -3.88034715338372     -2.59128676840677     -2.36032836378579
  C          -4.17256910771487     -1.83015724345615      0.00373142532205
  C          -3.78791834283713      1.47985964996854     -0.61523509464696
  C          -3.70871479737793      0.68909116749057     -3.60094718935171
  O          -1.02527540411752      2.54304413019547     -2.23848201868973
  C          -0.63237620164931      3.39217868804991     -3.32161619228570
  H          -0.79811383760582      2.84877981358324     -4.26395015930607
  O          -1.40692708099298      4.54299668203840     -3.26174691802058
  C          -2.77844673307892      4.33699568596533     -3.60186869098841
  C           0.85478117319622      3.79790612059412     -3.20968673238184
  H           0.91336468307812      4.87505173068690     -3.37422640325261
  O           1.64573436978952      3.17268241048704     -4.21370234962256
  H          -0.23560310938088      3.97809781043830     -0.84956823113078
  H           3.08390299726596      1.37551319796285     -1.77431286790101
  H           0.05283858736827     -0.25531022758528     -0.82474544301937
  H          -1.08098975410897      0.96755137568833     -0.22739741771182
  H          -6.43889833968261     -2.08372242404483     -1.50774359310559
  H          -6.03615032771996     -0.93076695952507     -2.78659844208638
  H          -6.24536935324698     -0.36929973689321     -1.12064700329377
  H          -4.00957777300465     -2.36357456742730     -3.42265261151608
  H          -4.45502717835871     -3.50050936134590     -2.14412250737579
  H          -2.82368812783669     -2.81408918648274     -2.18813405072585
  H          -3.11619962449385     -1.98928036985389      0.24152533562414
  H          -4.70798598114629     -2.76283777024823      0.22046458282707
  H          -4.55890624626515     -1.06124405295519      0.67899322971540
  H          -3.52729579482595      1.18433672198818      0.40478995284760
  H          -4.86141426105392      1.68983071145604     -0.64109446037566
  H          -3.25301675877941      2.40119061593534     -0.85321792758797
  H          -3.65041880323684     -0.15203280933091     -4.29733386348274
  H          -2.96995465015495      1.43305404201811     -3.90409512445230
  H          -4.70252605435777      1.13725878558938     -3.69195180681297
  H          -3.28493428342508      3.72294872967997     -2.85411110704011
  H          -2.85876854905355      3.85666257128259     -4.58293892672817
  H          -3.24147966732224      5.32261364541771     -3.63920158730363
  H           1.99557424170833      2.34313286377908     -3.85456141145355
