48
Coordinates from ORCA-job goat_0_28 E -1253.940583837822
  O          -0.76571263378541      3.44657298420727     -0.53051603411731
  C           0.45810846879542      2.97510926863485     -1.07831067756091
  H           1.15838448014226      2.86401272971319     -0.24694307248422
  C           0.29208051701408      1.59578498156474     -1.72907343388984
  H          -0.30908515463287      0.96283655511009     -1.07042758331248
  O           1.62439149926829      1.07058173760605     -1.83788416774202
  C          -0.37920717733239      1.64005655238711     -3.10169879017173
  H          -0.09737865832904      0.72236477119926     -3.62706962295927
  C          -1.90857201757178      1.61988008916986     -3.04234063509097
  O          -2.29189405275312      0.34167435438636     -2.56009732524224
  Si         -3.73721869501818      0.10836428134535     -1.75134163407576
  C          -3.76390928913399     -1.73321483640409     -1.34726610894399
  C          -5.06107989369223     -2.07014753895315     -0.59698256551565
  C          -3.70066143351284     -2.55447183679761     -2.64295710161678
  C          -2.55915309632500     -2.08680437317920     -0.46316858213840
  C          -3.76752110877458      1.15813590368973     -0.20133217937810
  C          -5.15369164695354      0.60976042179619     -2.86760400113483
  O           0.12245016784460      2.68822615775428     -3.94135327842301
  C           0.23381276616948      3.97360438832028     -3.37410118057610
  H           0.74337628798484      4.56891180802098     -4.13840910059551
  O          -1.01836358814145      4.54392790750151     -3.06903938962976
  C          -1.79134974621585      4.88894268152487     -4.21911470439996
  C           1.05231158194838      3.96828823338153     -2.08215286285071
  H           1.02095543638280      4.97310677891518     -1.65553101687635
  O           2.40941222692511      3.67260905436979     -2.37072040145390
  H          -1.24320699461988      3.91626766628466     -1.22953314383918
  H           1.58659241825429      0.23046372010630     -2.31002872069192
  H          -2.30495400097417      2.41541391058085     -2.40866016725077
  H          -2.29061399537864      1.77002103275683     -4.05714999319840
  H          -5.94681206632923     -1.84314094448476     -1.19818805709147
  H          -5.13970259923171     -1.51762937595573      0.34409065573898
  H          -5.08781102495001     -3.13997343907862     -0.35708495931177
  H          -2.78837295931069     -2.34318869160468     -3.20784353347490
  H          -4.55655456678576     -2.34918467778487     -3.29272147294392
  H          -3.71059384167420     -3.62603173359934     -2.40857993415789
  H          -2.56517151741947     -3.15905320866656     -0.23183801212989
  H          -2.58132904059058     -1.54262230675456      0.48568323864571
  H          -1.61366190846160     -1.85672579999005     -0.96273328333139
  H          -2.91103938221804      0.94340645143997      0.44304734443233
  H          -4.68213018080220      0.96623858229348      0.36756249251029
  H          -3.74800103690505      2.22331604590825     -0.44873315252128
  H          -5.15249051163816      0.03622417916774     -3.79839568467767
  H          -5.07767513743032      1.67175655105379     -3.12160914525201
  H          -6.11519133857743      0.45421920218465     -2.36966299087818
  H          -1.24502243583137      5.61172241195156     -4.83380331542757
  H          -2.71432789763768      5.33928305283819     -3.85617444595575
  H          -2.02548908016807      4.00522104215016     -4.81656140088573
  H           2.48090385837699      2.70846327393837     -2.45349686812767
