48
Coordinates from ORCA-job goat_0_1073 E -1253.935785431926
  O           1.35525383719852      2.67715588598042     -0.04003941236813
  C           1.01259106153641      2.68364797657156     -1.41898859844291
  H           1.76925249083236      3.24549259869501     -1.98874171982399
  C           0.98750683063351      1.24690943052040     -1.92213292876826
  H           0.48328829323744      0.64070197253547     -1.16808643972247
  O           2.30306315309223      0.70436415791194     -2.01729966984161
  C           0.21830356747026      1.14098146001824     -3.25733336937757
  H           0.86562369774946      0.61716267184835     -3.96448038529319
  C          -1.05220769828748      0.30651381868924     -3.14856859923955
  O          -1.82279980156995      0.66370100070760     -2.01854973069157
  Si         -3.48295104558345      0.54854883273450     -1.89401163599965
  C          -3.90518926625933     -1.08853654839046     -1.04274423372002
  C          -5.42784682703905     -1.28073451663861     -1.00842328728973
  C          -3.26412628317670     -2.25265380993816     -1.81137766887830
  C          -3.36200350664153     -1.07755803691440      0.39316673883306
  C          -4.01231221012190      1.99435319202418     -0.83544929398748
  C          -4.28100429619300      0.62345320417395     -3.58508876991029
  O           0.02613962420268      2.42217131751066     -3.87369589211615
  C          -0.62964215777546      3.42933658885315     -3.13247820936245
  H          -0.21040335683658      4.36625647553224     -3.52637044085891
  O          -2.01636172549869      3.43165498776833     -3.32332426126574
  C          -2.39644436736318      3.81645504261050     -4.64017944322134
  C          -0.34587012474357      3.33633711164721     -1.63514531288108
  H          -1.11809654845316      2.73440707292658     -1.15832400503550
  O          -0.40766144894918      4.61597816406949     -1.01283431504908
  H           1.14563731818740      3.55758269135412      0.29874630658957
  H           2.80247787495570      1.23680022861693     -2.64897587544534
  H          -1.62289210323449      0.42179833938637     -4.07537597025726
  H          -0.74403974825909     -0.74278167506684     -3.06611155513408
  H          -5.84930714956578     -1.34059679120244     -2.01618545097977
  H          -5.92834111378828     -0.46234880801806     -0.48134170928926
  H          -5.67916939227941     -2.21284877648381     -0.48732519873400
  H          -2.17301445587290     -2.17830534161149     -1.81250251695221
  H          -3.60238956094166     -2.29005182883431     -2.85149582328861
  H          -3.53112640280412     -3.20753916716569     -1.34171605806393
  H          -3.83641377000685     -0.29843320811027      0.99678527886301
  H          -2.28080186054779     -0.90817222908977      0.41205025684164
  H          -3.55767916386454     -2.04119970516446      0.87985359053698
  H          -5.06948933742467      1.91633956053580     -0.56571180797768
  H          -3.85914074439055      2.92901530822455     -1.37985141073516
  H          -3.42850628593233      2.03645441592848      0.08832918533317
  H          -3.93369629814127      1.49920241442737     -4.13742339250624
  H          -5.36625157087626      0.70332035699001     -3.47219624047224
  H          -4.07053920303112     -0.26745665555867     -4.18253518687103
  H          -3.48293513321821      3.90344616947076     -4.64560405173086
  H          -2.08899799247665      3.06749147293838     -5.37573463276836
  H          -1.95335498159896      4.78420766840030     -4.90324216960972
  H           0.20169918365093      5.21055550858518     -1.46978468303664
