48
Coordinates from ORCA-job goat_0_129 E -1253.939629331230
  O          -1.67287489406205      3.89427363611171     -3.25243330465889
  C          -0.58106095780820      4.16610661149167     -2.38196428628982
  H          -0.66596425813134      5.21656465846010     -2.09002971296924
  C          -0.63418311362704      3.32783323940789     -1.09477027482120
  H          -1.66156851303009      3.32298486520423     -0.72635528922025
  O           0.15680332849568      3.95124008263018     -0.08195707108303
  C          -0.19884021783426      1.87539796535607     -1.29593730457421
  H           0.09596437564696      1.50216317795543     -0.31259057193797
  C          -1.30931770621743      0.94449294067858     -1.78733826315808
  O          -2.25008336770959      0.81189360509818     -0.73347711328828
  Si         -3.87338970628732      0.50201837986298     -0.98882672494723
  C          -4.10748441795032     -1.21328290102575     -1.75542339304935
  C          -3.69837960382031     -1.21777107597470     -3.23587397929829
  C          -3.25639378890797     -2.23748372017299     -0.99151776419414
  C          -5.58931980467879     -1.60641468542288     -1.64973056211235
  C          -4.62158345670089      0.58723804293678      0.72026303525820
  C          -4.60518672463710      1.82600484889815     -2.09195879070374
  O           0.99482304980349      1.75271755104319     -2.08853047168965
  C           1.04863702712806      2.47846814380999     -3.29149674268650
  H           2.07187635835543      2.33937992821589     -3.65503756922850
  O           0.12469482473377      2.01932114810154     -4.25076630110964
  C           0.43714625812900      0.73025514310334     -4.78037939543515
  C           0.76184287442107      3.96348867110666     -3.09061797269093
  H           0.74135225205305      4.44651771687576     -4.07145676041754
  O           1.83455126610632      4.47381419750452     -2.29797482761122
  H          -1.42728788402310      3.14836803949299     -3.81822764348093
  H           1.02402356536087      4.12639403745130     -0.47648613701441
  H          -1.78686386677565      1.31747521188014     -2.69455540694764
  H          -0.86132075268114     -0.02836877638716     -2.01324106231317
  H          -2.64491586431854     -0.95821838171952     -3.37187864007705
  H          -4.29728631986514     -0.51491995120567     -3.82196593725973
  H          -3.84906253808911     -2.21779878824910     -3.66114067281321
  H          -3.41414961397967     -3.24156955594309     -1.40431736930162
  H          -3.51937893279797     -2.27084733117140      0.07027008919761
  H          -2.18954632495838     -2.00822531325837     -1.06662486057354
  H          -5.75095146822979     -2.58674546260779     -2.11452117457251
  H          -6.23771598542542     -0.88755686120105     -2.16095231420842
  H          -5.91586381854381     -1.67448111765918     -0.60819738936992
  H          -4.37225304125209      1.54399180846966      1.18844503149804
  H          -4.24758269677872     -0.21526117881383      1.36180969766115
  H          -5.71099566979463      0.50684639305107      0.67290976035956
  H          -4.11057895383142      1.87543617209843     -3.06499104178537
  H          -4.51661137333149      2.80668343156064     -1.61537706644447
  H          -5.66721445790573      1.62652553146962     -2.26479097840476
  H           0.44906734230631     -0.02724477456838     -3.99391827175399
  H           1.41185199938440      0.75692029656399     -5.27814861623948
  H          -0.33946960565844      0.49096149581168     -5.50557078712514
  H           1.80987517771890      5.43699290367785     -2.35019779711333
