48
Coordinates from ORCA-job goat_0_157 E -1253.936222546763
  O           2.52053681878462      1.61150908922099     -2.36007854149714
  C           1.33453515388940      2.25572693927256     -2.80541048077107
  H           1.50631262808810      2.48441715855765     -3.86181272521952
  C           0.13419587421841      1.32380279452153     -2.68380318482710
  H           0.10556470859032      0.94896142737421     -1.65235348548580
  O           0.24990427043251      0.22253705516703     -3.58109261203343
  C          -1.17598741976401      2.06648713334427     -2.98479728400073
  H          -1.67957282112311      1.52494390350499     -3.78629566289023
  C          -2.11830829009348      2.10880435877746     -1.78154996126511
  O          -2.44600413208100      0.77956026353504     -1.40732046058423
  Si         -3.89196115830973      0.06116736165593     -1.84274999327654
  C          -3.72106425666421     -1.73097322848882     -1.28187677924868
  C          -2.52142415624886     -2.38359586210809     -1.98395528833435
  C          -3.50893914403569     -1.78556122895378      0.23787966978225
  C          -5.00137272799980     -2.49864586812130     -1.64311056845402
  C          -5.29887396913024      0.93914260373852     -0.97342791470858
  C          -4.14703545430622      0.19043187700094     -3.69383165919691
  O          -0.93994738839847      3.36918484383532     -3.52784501723520
  C          -0.15016904896333      4.24617460940251     -2.75115010068523
  H           0.24781018406207      4.96604163300540     -3.47764970288794
  O          -0.89149950096021      4.92418203150394     -1.77401523682563
  C          -1.84175446504635      5.83486295579088     -2.32177578529425
  C           1.01870615549445      3.54096044046907     -2.04913152071731
  H           0.72041384581704      3.29285314359110     -1.02548173554347
  O           2.12702317439848      4.41438307591806     -1.91502145478731
  H           2.44852686419998      1.46521684348298     -1.40789249356611
  H           1.09678008859556     -0.20388807062568     -3.39747347678298
  H          -1.64464022403604      2.59737425195915     -0.92761399121657
  H          -3.00624929957871      2.69247900588514     -2.04981683630346
  H          -2.64159703722911     -2.38675445029636     -3.07139700925381
  H          -2.41786697316386     -3.42581099596009     -1.65780821747068
  H          -1.58831867336628     -1.86390148316285     -1.74948715266175
  H          -4.35658986549016     -1.35531641382390      0.77938976158597
  H          -2.60639889478653     -1.24464181821823      0.53636309673360
  H          -3.39993199309713     -2.82712206930012      0.56424873635007
  H          -4.91672898318145     -3.54270575640723     -1.31814921246956
  H          -5.18099816071731     -2.50089149820515     -2.72245478410986
  H          -5.88179511711528     -2.07020694687208     -1.15435398596833
  H          -6.25854119376986      0.48238618810580     -1.23278821976814
  H          -5.33804969299776      1.99000506582878     -1.27647333989752
  H          -5.18338038611544      0.90209557655075      0.11298839243030
  H          -3.34755849084063     -0.30601278453432     -4.24983392712003
  H          -4.18124248517945      1.23891783360820     -4.00590420705154
  H          -5.09834933564707     -0.27041959536352     -3.97597640107777
  H          -2.62158682253870      5.30526802078445     -2.87549151546773
  H          -1.34733902502400      6.55185870323151     -2.98730077186106
  H          -2.29021825560810      6.36698690964297     -1.48317115436892
  H           2.50881507603704      4.56030497217438     -2.78979580469643
