48
Coordinates from ORCA-job goat_0_1053 E -1253.943210495114
  O           2.40816595167350      2.52411373945368     -2.79193522283850
  C           1.01802147479027      2.55884929577837     -3.08696849423918
  H           0.80133754814502      1.89393042179312     -3.93744240978961
  C           0.19908840892194      2.06979590137296     -1.90195692567550
  H           0.47382521685670      2.65829484860815     -1.01512788330889
  O           0.53817568657340      0.70042316204541     -1.71489670203201
  C          -1.29268438249356      2.26953227132572     -2.17224685543520
  H          -1.59232716847941      1.63777205105104     -3.02002499900127
  C          -2.16190567274315      1.96173682130688     -0.95953049063092
  O          -1.91907472281331      0.63728047040274     -0.50332063453505
  Si         -3.11044172578176     -0.52260145424813     -0.26300080333403
  C          -3.64968921516745     -1.26126528771071     -1.91783597089927
  C          -2.41741164791206     -1.75152103977307     -2.69139873647629
  C          -4.58539173094918     -2.45058633671402     -1.64854478853734
  C          -4.39893005532319     -0.22328202282898     -2.76594838831803
  C          -2.27126686427334     -1.80145088291724      0.80666898985014
  C          -4.55100948194422      0.26404230588605      0.63332666416357
  O          -1.52923999874016      3.64073512127072     -2.46701378222840
  C          -0.87628982145783      4.07079592228410     -3.65407400452359
  H          -1.20400712961480      3.43175937304220     -4.49241365852584
  O          -1.22374028338518      5.39144029918418     -3.88304499822674
  C          -2.56378838017626      5.54963982796020     -4.34995310052044
  C           0.64042372567920      3.97932913680950     -3.48295050972410
  H           0.93596817515713      4.67454063973363     -2.69229475954897
  O           1.31913191236706      4.39743754216230     -4.65643338496497
  H           2.61252466424786      1.62307429415507     -2.51255608796440
  H          -0.12345687030081      0.33529816508598     -1.10637889931284
  H          -1.90780146567759      2.66456505662091     -0.15927116720623
  H          -3.21149739210044      2.11567807233050     -1.22576801880377
  H          -1.72750603486363     -0.93178821066442     -2.90986837994762
  H          -2.72589844792492     -2.19459409143456     -3.64625036249516
  H          -1.86731578281671     -2.51577488567960     -2.13418331207188
  H          -5.47877092095501     -2.14689254132744     -1.09404933544943
  H          -4.08532206851321     -3.23952055513479     -1.07948329236938
  H          -4.91759851266330     -2.88571378124666     -2.59886118452340
  H          -4.72143378020688     -0.67805710449878     -3.71061754917299
  H          -3.76859029877378      0.63443091855890     -3.01582685798632
  H          -5.29172970158459      0.14910612524396     -2.25554180844048
  H          -1.93616453980628     -1.34484912566152      1.74237232428495
  H          -1.40034642452462     -2.23136860718764      0.30450756392173
  H          -2.95869532268234     -2.61520401785961      1.05299931248832
  H          -5.01469553692309      1.06347566167958      0.05003416396028
  H          -4.21594463999559      0.68477289869407      1.58603049082465
  H          -5.31923764785963     -0.48518247561422      0.84590613889109
  H          -3.28529842639616      5.24538953389900     -3.58743190968694
  H          -2.72313879996948      4.95975018174987     -5.25932315404993
  H          -2.69536347100828      6.60764047814349     -4.57448204891277
  H           1.15417160238965      3.74760188286910     -5.35144477667713
