48
Coordinates from ORCA-job goat_0_124 E -1253.940410767195
  O           1.05968138590606      2.47522880928842     -0.72604836359385
  C           1.30326067965814      2.21227836460168     -2.10241788949841
  H           2.25969176729465      1.68417351105514     -2.15776749322281
  C           0.22384850864072      1.29909039353730     -2.70366218446959
  H           0.02059055860778      0.47933382472976     -2.01021965959171
  O           0.69089853305559      0.77853146505395     -3.96049675825095
  C          -1.09007602951658      2.01405118326142     -2.99786674877144
  H          -1.60291947347020      1.41702381551039     -3.75450700476862
  C          -2.03588491734919      2.09489080093401     -1.79540151417918
  O          -2.40598585237450      0.77922775157229     -1.41211811505119
  Si         -3.90820720322668      0.14423299309509     -1.78389511783084
  C          -3.79997107216148     -1.66691178452186     -1.27233645116041
  C          -2.68746076397872     -2.36549784016958     -2.06758204944579
  C          -3.48966425490408     -1.76811821058093      0.22807747827807
  C          -5.14150806371136     -2.35648658431778     -1.56117493301370
  C          -5.22018918694833      1.07055029075997     -0.82186292453246
  C          -4.24779423859534      0.33446873192475     -3.61594555540863
  O          -0.90861447295222      3.29245498841304     -3.62671885978318
  C           0.04774889703589      4.16343231332797     -3.06803329186151
  H           0.10791044936217      4.99675292135667     -3.77530950039192
  O          -0.32227677681240      4.63628893745511     -1.79276213074643
  C          -1.44036794648465      5.52398363171098     -1.80921464974418
  C           1.41888528037109      3.50205133416056     -2.92043428963687
  H           2.08034562417300      4.20089664250054     -2.40408364037278
  O           1.97733856281251      3.25776310418690     -4.20161266418348
  H           0.48553183681767      3.25274442804879     -0.66896996074205
  H           1.43455801467043      0.18937249654618     -3.78271506244087
  H          -1.57665343269521      2.58442205516106     -0.93768255186615
  H          -2.90476080929484      2.69115944467955     -2.09548439684499
  H          -2.61393721071220     -3.41724393516228     -1.76484504811915
  H          -1.71446943351461     -1.89739605087785     -1.89269872751080
  H          -2.88497890662440     -2.34348837507527     -3.14336914322178
  H          -2.53855137640108     -1.28737334851649      0.47389539220745
  H          -3.42114950196126     -2.82137451597960      0.52674449531986
  H          -4.27174683500673     -1.30168920898529      0.83445995011045
  H          -5.96157276338596     -1.89721935820364     -1.00079687949979
  H          -5.09060116363738     -3.41244538369704     -1.26938891720185
  H          -5.39561203251159     -2.31833801802734     -2.62486921748986
  H          -5.21827725225057      2.12985653316153     -1.09680550726065
  H          -5.05058801025850      0.99820803246665      0.25570247876368
  H          -6.21499635832056      0.67154695610820     -1.04070459082713
  H          -3.51025761878031     -0.19644609173434     -4.22322993207070
  H          -4.23175089340007      1.39016412656431     -3.90403858004923
  H          -5.23901980769836     -0.06011656417472     -3.85830100953415
  H          -1.60875393793273      5.83963026144603     -0.78041951526880
  H          -2.33450713566436      5.02552137871841     -2.18992742626949
  H          -1.21580103028811      6.39690427413465     -2.43080812772698
  H           1.56644566441903      2.44648947455256     -4.54020341122528
