48
Coordinates from ORCA-job goat_0_188 E -1253.937097561315
  O           2.73268689554595      2.81521973919954     -2.45875069181202
  C           1.43272264097511      2.39745116875332     -2.86031441586242
  H           1.48208693608622      1.40316661569863     -3.32083754390364
  C           0.56608926876660      2.32604922585811     -1.61847259709140
  H           0.43413208071534      3.34195533883473     -1.22088197628206
  O           1.14318146180541      1.49350167225181     -0.62064687018483
  C          -0.78575986268976      1.71329478360112     -1.98744777960194
  H          -0.66682020452002      0.62795598676825     -1.93761523316301
  C          -1.86367256569235      2.13743461228705     -1.00013685949438
  O          -3.10095794444698      1.50232628757239     -1.26111179593888
  Si         -3.60376188767920      0.04509529064918     -0.61645121830709
  C          -4.09920077946353     -1.05480240642476     -2.07076916531463
  C          -2.86839492844806     -1.35751583426128     -2.93681097075238
  C          -4.68883889336384     -2.37202566803662     -1.54647187407097
  C          -5.15008547006981     -0.33395644104359     -2.92759253039346
  C          -2.23347122077823     -0.73075666582384      0.39832773500119
  C          -5.07364646749245      0.39760629492399      0.48721457822976
  O          -1.15550104478915      1.97049685526534     -3.34862290394226
  C          -0.72218165033558      3.19153029415273     -3.90760678642596
  H          -1.03650187730572      3.13237676181747     -4.95578283343366
  O          -1.30987300816658      4.30705040398580     -3.28909447429985
  C          -2.71708321468245      4.38689261211385     -3.51104047541026
  C           0.80800383257602      3.37096025972271     -3.84380668676710
  H           1.01625050166839      4.38945307190597     -3.50270116987991
  O           1.42015495423633      3.13752986122355     -5.10809793725725
  H           3.32244981544716      2.71880571935531     -3.21523825497551
  H           2.03972144319265      1.81893745053789     -0.47000088052943
  H          -1.50002936922327      1.90928203080406      0.00795715582363
  H          -2.01590559771753      3.21665611333535     -1.06340474261465
  H          -3.15326744627598     -1.99142617449990     -3.78568656629636
  H          -2.09652286748318     -1.88863160948754     -2.37154639985311
  H          -2.42580014057139     -0.44165925551826     -3.33812080031586
  H          -4.97345041857988     -3.01698703948263     -2.38682855338954
  H          -5.58448451576610     -2.20201270575254     -0.94166316915466
  H          -3.96823460952194     -2.92426388716733     -0.93533739911614
  H          -6.05785820636645     -0.11601975274629     -2.35693344909000
  H          -5.43675956949704     -0.96283335767709     -3.77962809256778
  H          -4.76367796466563      0.60974389363835     -3.32347923008115
  H          -1.32326370742334     -0.89703968569458     -0.18272206158238
  H          -2.57005650760538     -1.69834777987695      0.78260850372281
  H          -1.98079193713108     -0.10333485148043      1.25799273601373
  H          -5.88500780321598      0.87359890801862     -0.07026662233752
  H          -4.77743219515701      1.07072991998465      1.29766382047436
  H          -5.46076592411428     -0.52168142786813      0.93608014706555
  H          -3.05771179450044      5.31229041218830     -3.04707194238943
  H          -3.23955284819258      3.53925795480278     -3.06080804645918
  H          -2.93097608136868      4.41558439366853     -4.58551302781528
  H           1.25765069328558      3.90364060992212     -5.67038064817256
