48
Coordinates from ORCA-job goat_0_101 E -1253.937097658783
  O           2.30273115689989      3.27623721449054     -1.42552928609262
  C           1.22808037017662      3.26503567686734     -2.35577698656020
  H           1.60102657427201      3.48467502342151     -3.36434803568602
  C           0.61706466729267      1.87375318825258     -2.34261215701118
  H           0.48297966744763      1.57790701053449     -1.29582000183450
  O           1.46457775110483      0.92995693777249     -2.99558753784006
  C          -0.74870613178252      1.87008549393707     -3.04634506795793
  H          -0.72687440772325      1.07655683874480     -3.79489188914964
  C          -1.90444257844008      1.57347676073769     -2.09082417353783
  O          -1.72399919644098      0.27299769241755     -1.55163453817624
  Si         -2.64435405910574     -1.04881035441259     -2.00340414851469
  C          -4.23862325534746     -1.07954640798830     -0.98587656758879
  C          -5.13268186751886     -2.23264938776067     -1.46501203752943
  C          -3.89780291935028     -1.28375580643599      0.49714188359299
  C          -4.99614373715387      0.24645559997730     -1.14599718919913
  C          -3.02769155930758     -0.96699839509654     -3.83513600628347
  C          -1.57097423642446     -2.52847239634459     -1.62125572673170
  O          -0.97069745250156      3.06700782547909     -3.79816223204877
  C          -0.91627424002079      4.28286111833126     -3.07972300481179
  H          -0.66298544550229      5.03712517098822     -3.83379373099425
  O          -2.13708821504617      4.61077313841785     -2.47132740732311
  C          -3.17615458386264      4.88671249171544     -3.40758431506041
  C           0.15856424628588      4.27755008381340     -1.98912028850538
  H          -0.29214684917792      3.99806453588447     -1.03070755074106
  O           0.77736603296876      5.55401030806856     -1.87766965648663
  H           2.61899611090428      4.18693632026353     -1.37179020125961
  H           2.30718130254951      0.92376436590800     -2.52493561581288
  H          -1.93187460805676      2.28736265644624     -1.26474412320500
  H          -2.84382432920565      1.66684354132725     -2.64345487164389
  H          -6.04049412891155     -2.28370175152508     -0.85139416187056
  H          -4.62601401811345     -3.19967960527681     -1.38639193569186
  H          -5.44327668104495     -2.09727973127402     -2.50509994668364
  H          -3.41312203503357     -2.24882792701242      0.67081439709311
  H          -4.81303614730983     -1.25756084156574      1.10132867945309
  H          -3.23122944659550     -0.49869772937906      0.86761056158290
  H          -5.24097866365730      0.45352992825562     -2.19240522865433
  H          -4.41661722235134      1.08975639498957     -0.75964171311102
  H          -5.93883557705912      0.20923234198063     -0.58617613426958
  H          -3.67020885946941     -0.12013290431990     -4.08998176069202
  H          -3.53997237025952     -1.88177500140813     -4.14726057628166
  H          -2.10483807292172     -0.88546193645140     -4.41647110454450
  H          -0.69348970095163     -2.53637104984762     -2.27440119794076
  H          -2.12031286037861     -3.46134491739701     -1.77718933800948
  H          -1.22507319314104     -2.50620520695116     -0.58442242227148
  H          -2.86530768429923      5.67133198166292     -4.10692243006246
  H          -4.03631184423787      5.23091907806086     -2.83377422989247
  H          -3.44891487561066      3.98887287904637     -3.96844513357298
  H           0.23063517341348      6.11005975265458     -1.31170386058710
