48
Coordinates from ORCA-job goat_0_311 E -1253.937785712470
  O           0.59359650845255      4.45082060318044     -0.88633973277232
  C           0.71575530261372      3.49146115588399     -1.92839136522358
  H           1.74777122889673      3.46981296878011     -2.30113399241597
  C           0.36658861951593      2.13142858094500     -1.34734982938477
  H          -0.54983288784792      2.24821577417191     -0.75840835986506
  O           1.41007055625846      1.64431864366573     -0.50569597640402
  C           0.11948669205122      1.10569851154875     -2.46391784917582
  H           0.73351079105115      0.22955389758307     -2.24761369624467
  C          -1.33529204524300      0.64411992681284     -2.52295483464612
  O          -1.60854976660487     -0.06281394234404     -1.32442706910644
  Si         -3.06754318142112      0.04014881208615     -0.51301171169141
  C          -4.44810679676488     -0.75196696075916     -1.53677809556199
  C          -4.83443492928886      0.13985308389873     -2.72609258233807
  C          -3.97881268356931     -2.11652538106800     -2.06080441538710
  C          -5.68192348370698     -0.94866724672048     -0.64221946101301
  C          -2.77190682207242     -0.90290061677407      1.07119983661258
  C          -3.45943255425546      1.83485386131158     -0.14659644029666
  O           0.58438128060982      1.57131335877742     -3.73378742766701
  C           0.02169537732870      2.78010135965268     -4.20295468854088
  H           0.76957145937773      3.18176080383725     -4.89632797140396
  O          -1.19501752467496      2.58841153180823     -4.87485122529543
  C          -1.05525138602966      1.86512241429717     -6.09543249120976
  C          -0.22386971558895      3.79336200852683     -3.08123446820655
  H          -1.26011495583546      3.71415300227909     -2.73433740344823
  O           0.03650541337076      5.11945441673384     -3.52618130593309
  H           0.72552214418463      5.31991330047598     -1.28557118528666
  H           1.53291121279813      2.28678957518085      0.20401892590062
  H          -2.00810632889454      1.49742055748901     -2.64451417349227
  H          -1.46571590234640     -0.01333717660836     -3.38815571746498
  H          -3.99627881769264      0.29535651067289     -3.41101604777127
  H          -5.18887123525554      1.12109192979480     -2.39749643598982
  H          -5.64337445002502     -0.33187102639957     -3.29756097785756
  H          -4.78459957154656     -2.60061965037130     -2.62629371762332
  H          -3.69644577310624     -2.78888974912950     -1.24479800917105
  H          -3.11698239383415     -2.01413703682214     -2.72655766716092
  H          -6.03674165026568     -0.00060374502965     -0.22534863873861
  H          -5.47359737158532     -1.62662865471688      0.19031115382905
  H          -6.50303225082256     -1.38091848603379     -1.22700327777664
  H          -2.59528538443870     -1.96447098902712      0.87807814346735
  H          -3.63110039303544     -0.81644169026902      1.74199780754238
  H          -1.89638747282916     -0.49827776201051      1.58731384404330
  H          -2.71600729706407      2.25354634222057      0.53812128745019
  H          -4.44136946886953      1.91671227734587      0.32930741785095
  H          -3.47434270013694      2.44904518670358     -1.05076337490847
  H          -0.73187218032957      0.83771176087886     -5.90871406268961
  H          -0.33188010492857      2.35929207730465     -6.75412900877657
  H          -2.03505067528738      1.85624412054910     -6.57237051391223
  H          -0.74240643131128      5.44456175968632     -3.99106321484428
