48
Coordinates from ORCA-job goat_0_113 E -1253.938629598762
  O           2.51736351805681      2.50022276805162     -2.32887433430915
  C           1.26864762294274      2.43361224076366     -3.00685645236886
  H           1.33060083444223      1.72069357107765     -3.83923659766656
  C           0.13531652852734      2.01812156409999     -2.09114067841665
  H          -0.01647958308386      2.79170176385299     -1.32702940351998
  O           0.49581574740469      0.79120740147825     -1.46696570682830
  C          -1.13009772998249      1.84242810338028     -2.93878364212489
  H          -1.08125619012560      0.83974451223126     -3.37387724865951
  C          -2.39577318602207      1.94991894406431     -2.09778939611084
  O          -2.29962717243950      0.99930381470254     -1.04033582162655
  Si         -3.55455921620383     -0.00616598984306     -0.56447618144070
  C          -3.61783076979959     -1.52628780863613     -1.68647464743159
  C          -2.28052867412915     -2.27682008106819     -1.60778496018271
  C          -4.75082533527370     -2.45168824202660     -1.21726168246888
  C          -3.87743493332645     -1.11561122710808     -3.14289385956906
  C          -3.11957898166811     -0.47966814592085      1.18865869876118
  C          -5.16249069576403      0.94864534499998     -0.61997080452174
  O          -1.18489553615622      2.73949145930096     -4.05579003379837
  C          -0.51463007365801      3.97411832744058     -3.91168769293090
  H          -0.59978522731112      4.44458197038179     -4.89667673127189
  O          -1.10497822121137      4.78852071295413     -2.93216663657917
  C          -2.39099316834987      5.27199449599126     -3.31598307072494
  C           0.97281326485771      3.81658676266462     -3.55986124757216
  H           1.21432157368194      4.55186622875952     -2.78533288624543
  O           1.72263820714112      4.08360763770115     -4.74065564564199
  H           2.68834010888036      1.62640938708571     -1.95671997652897
  H          -0.28240584394796      0.50971056744444     -0.96422834152904
  H          -2.47547539486059      2.95202426538013     -1.66883528800023
  H          -3.27032245392599      1.77234867935318     -2.73069978232450
  H          -2.07718547007571     -2.63470784070685     -0.59429819844464
  H          -1.44500271170958     -1.64109904970840     -1.91643088588716
  H          -2.29911397047506     -3.14999852835428     -2.27143844282649
  H          -4.78929950105441     -3.34674505376862     -1.84999716359388
  H          -5.72628096203413     -1.95991261456569     -1.28017671871322
  H          -4.60432936910033     -2.78209867943413     -0.18457243015627
  H          -3.95167908964989     -2.00922979264284     -3.77471329795397
  H          -3.06588863670164     -0.50049064213269     -3.54083817203830
  H          -4.81200251770616     -0.55685362169437     -3.24885974455359
  H          -3.83727938236819     -1.20033211467615      1.59029566045894
  H          -3.13207007177919      0.40593302640473      1.83059674622169
  H          -2.12282395918595     -0.92573665851488      1.24186457795760
  H          -5.44696281003256      1.22466573817486     -1.63846230454989
  H          -5.07546161322820      1.86486684359845     -0.02829032369388
  H          -5.97221724019017      0.34820321694742     -0.19536462066689
  H          -2.74431903472871      5.90877097356096     -2.50548546104051
  H          -3.09731060998364      4.45167149041683     -3.46753296178219
  H          -2.31589930875382      5.85876872302607     -4.23825690194236
  H           2.65706724006216      3.99628555551296     -4.51615930516227
