48
Coordinates from ORCA-job goat_0_271 E -1253.936631818388
  O           1.50512745757903      4.20459909888440     -0.79086640788523
  C           0.99463148215901      3.57066190860652     -1.95648075218087
  H           1.80497266276636      3.40169583276812     -2.67854448923421
  C           0.41692070516953      2.22956513174257     -1.53673837405636
  H          -0.20374404242106      2.39700897836810     -0.64914491522597
  O           1.44818098860687      1.29486901715393     -1.22266594719857
  C          -0.45315419394174      1.63769781152894     -2.65575176256636
  H          -0.09484302343828      0.62482812329209     -2.84641378667470
  C          -1.92785580516142      1.54140090528494     -2.26391800022155
  O          -2.03900978350032      0.67216233928345     -1.14812538410509
  Si         -2.66641968575850     -0.87586978811791     -1.23446674432453
  C          -4.54534624805387     -0.79654178277021     -1.03768846932740
  C          -5.14334754217096      0.15845198755048     -2.08088521701700
  C          -5.14487945021464     -2.19696826085642     -1.23038679983021
  C          -4.89211967127523     -0.28362701578848      0.36734323480096
  C          -2.20069615622147     -1.66591182171098     -2.86765930491800
  C          -1.87456138557904     -1.79065452638553      0.18808679464702
  O          -0.27025082385295      2.32202578512836     -3.89940529772334
  C          -0.54534599689854      3.70794110230061     -3.90519700890904
  H           0.03680856507220      4.09433921037133     -4.75216495461668
  O          -1.90351502494300      3.99199705048085     -4.09986945036632
  C          -2.37656738278461      3.61399897784138     -5.39065325224266
  C          -0.09890954055937      4.39982020197405     -2.61355552980068
  H          -0.94923397300070      4.48083632386812     -1.93163447713896
  O           0.31884831143125      5.73694102693748     -2.85451709359101
  H           1.77993800645959      5.09441417056675     -1.04538401474969
  H           1.96623286554048      1.66895696684264     -0.49934103387981
  H          -2.32935334999464      2.51737159918131     -1.98263505982542
  H          -2.49576734248175      1.18361051559800     -3.12786922207198
  H          -4.90469801829176     -0.15206861984521     -3.10286090799319
  H          -4.78073242999246      1.18116761443267     -1.94337800005094
  H          -6.23615366289061      0.17920671328103     -1.98740644440362
  H          -6.23042457119458     -2.16537683291969     -1.07598351540238
  H          -4.73041915215346     -2.91801018492036     -0.51871381895283
  H          -4.96443065450903     -2.57681697366723     -2.24015252874234
  H          -5.97955702359213     -0.18974031012817      0.47712186318413
  H          -4.45175003585482      0.70050348047331      0.55571484882782
  H          -4.53744807661333     -0.96704910574674      1.14422434779658
  H          -2.51662143742596     -2.71317468737687     -2.87567357778543
  H          -1.11630893633982     -1.64226650197668     -3.00894170935463
  H          -2.66906631857239     -1.16868644588953     -3.72101956072891
  H          -2.02053322797085     -1.25509542256497      1.12990000494970
  H          -0.79907839361513     -1.89388688929236      0.01671705847975
  H          -2.30047028209276     -2.79230405352324      0.29628624911435
  H          -3.40758994143999      3.95921594651816     -5.46312453218444
  H          -2.34609298130412      2.52879780297437     -5.51906788993776
  H          -1.77582496643626      4.08942808995827     -6.17463592162233
  H           1.02828948775831      5.72311551028822     -3.51032324496002
