48
Coordinates from ORCA-job goat_0_34 E -1253.940807276666
  O          -0.03411913671168      2.81440137586598     -0.60374019419364
  C           0.86072814643874      2.46637982212020     -1.65283022224226
  H           1.77193063849636      2.09141614172923     -1.17711045400415
  C           0.29311784894423      1.34273090964686     -2.53388873890811
  H          -0.14387575669556      0.57150694661010     -1.89450739024079
  O           1.35457493564929      0.78447870784004     -3.32758729631447
  C          -0.77540168984289      1.81063087342169     -3.51586638976369
  H          -0.80443766094841      1.06972670823690     -4.31819239447953
  C          -2.18559189462609      1.85085216152811     -2.92429842811155
  O          -2.56067495265435      0.51437891478092     -2.63199867444104
  Si         -3.71196270107799      0.16279411337332     -1.47144657612578
  C          -3.79923389422768     -1.72060382502245     -1.44357919442893
  C          -2.42937703590302     -2.29678122280981     -1.05664556190007
  C          -4.84749939526532     -2.16664358800710     -0.41346293156214
  C          -4.19633932378113     -2.24635418773901     -2.83041344985720
  C          -3.17257251718211      0.85621389810715      0.18226957089828
  C          -5.34185296979192      0.93964719913909     -1.96562211048022
  O          -0.43393323558657      3.03611334960181     -4.18031584847460
  C           0.04467146827593      4.09552980126369     -3.38369423954970
  H           0.35761561445679      4.86028309208542     -4.10176917868868
  O          -0.93789170114111      4.61650021980507     -2.51803782803949
  C          -1.98894053179670      5.31232681573228     -3.18897513111950
  C           1.23185366939461      3.67661230100165     -2.51504882110157
  H           1.49399504732492      4.51617992199131     -1.86774963176855
  O           2.35778062172771      3.40619787765177     -3.33511627872225
  H          -0.64106649463495      3.48917998772869     -0.94073331243762
  H           1.96764425157507      0.33397629549034     -2.73368134053882
  H          -2.23732710492055      2.47769449496917     -2.03233045485932
  H          -2.85630017897220      2.27533532246589     -3.67845817927486
  H          -2.47214766344550     -3.39283803949734     -1.04788976687100
  H          -2.12030138835195     -1.96899364950152     -0.05964126897795
  H          -1.65330362367296     -1.99713837702613     -1.76683306925771
  H          -5.84361767319760     -1.78607818226851     -0.65918237196898
  H          -4.59469310540551     -1.82688857087854      0.59544019939323
  H          -4.90707270479962     -3.26149506174331     -0.38966922630743
  H          -5.18077418176022     -1.87867286816828     -3.13494825534765
  H          -4.24029889452721     -3.34234192962991     -2.81740653664177
  H          -3.47248378336935     -1.94873892875100     -3.59424299920267
  H          -3.88627258439042      0.57174931884154      0.96118955791383
  H          -3.13017375274386      1.94881383038062      0.15421283094418
  H          -2.18511750312059      0.48550452362055      0.46920075313080
  H          -6.11858966016217      0.71536129401982     -1.22871324262743
  H          -5.67927869701678      0.57785431527242     -2.94063996120088
  H          -5.24033620955030      2.02803612268483     -2.02268115969681
  H          -2.65756665932946      5.69378927321270     -2.41838784501714
  H          -2.54084992924869      4.64597377510581     -3.85540224539641
  H          -1.57654926980305      6.14667921260165     -3.76559864827261
  H           2.24174321737209      2.51129951311609     -3.69182606386481
