48
Coordinates from ORCA-job goat_0_356 E -1253.936146958554
  O           2.52432684073519      1.67430356290586     -2.11697914468715
  C           1.36778445001711      2.26840555637625     -2.69077155558495
  H           1.62117929492675      2.45005666631366     -3.73889417002444
  C           0.18313532154204      1.30945655012766     -2.61716286932521
  H           0.09899443436583      0.96243523245825     -1.57913940201660
  O           0.38650019502134      0.18750101808723     -3.47224235738668
  C          -1.12746163168733      2.00221864926086     -3.01678008078741
  H          -1.58736068757302      1.40225516653675     -3.80314550034183
  C          -2.11949317815113      2.09535409735600     -1.85710150716049
  O          -2.44463639291678      0.78234891072352     -1.42767223308833
  Si         -3.88459604424620      0.04359523583360     -1.84933477466926
  C          -3.68821603299413     -1.74597792717980     -1.28914977543739
  C          -2.52076370794591     -2.40117856527701     -2.04142005958937
  C          -3.40856276493546     -1.79497977738170      0.21974586776353
  C          -4.98311710305734     -2.51482022708307     -1.59059243383420
  C          -5.29239584569805      0.90642985461693     -0.96693251545178
  C          -4.15584379836922      0.16992925162344     -3.69807369757540
  O          -0.89405387995008      3.27523308427199     -3.62559287862019
  C          -0.15874536624763      4.21189206117706     -2.86749197077470
  H           0.29036865103658      4.87804057244289     -3.61353162327709
  O          -0.96401006803974      4.95674239617462     -1.99215345259961
  C          -1.87252825137698      5.82445300507311     -2.66626633711263
  C           0.96102286073357      3.57663420132454     -2.03288844931000
  H           0.58363879516573      3.36989124104732     -1.02300721388151
  O           2.07861437843390      4.44813896491039     -1.95812469089978
  H           2.37051924905364      1.56586424042957     -1.16954575170236
  H           1.23243416619052     -0.20699763976739     -3.22408087632169
  H          -1.68865994257823      2.63616397962923     -1.01172596717877
  H          -3.00236391657209      2.65096235548252     -2.19274896800575
  H          -2.69530772417321     -2.41936392031630     -3.12118271716904
  H          -2.39472920661454     -3.43845654483972     -1.70764934201535
  H          -1.57983712857899     -1.87385475421742     -1.86088208692901
  H          -3.29374287428314     -2.83591796814178      0.54614753673125
  H          -4.22716042859111     -1.35493217005629      0.79700654839347
  H          -2.48892718885394     -1.26065491288430      0.47430039156810
  H          -4.88014487756245     -3.56067149893335     -1.27692396082590
  H          -5.21691609450808     -2.51111636786795     -2.65962868403747
  H          -5.83858010948967     -2.09128055893135     -1.05568850498169
  H          -5.17802571494962      0.84944313179581      0.11880938189251
  H          -6.25293310204218      0.45713078569143     -1.23552037444266
  H          -5.32747434302294      1.96288056298005     -1.25072191232983
  H          -4.20223376446866      1.21759005702874     -4.01102935720254
  H          -5.10508639392847     -0.30022622361214     -3.97172484578388
  H          -3.35691587630191     -0.31982208669892     -4.26049013039238
  H          -2.37395277384874      6.41556017803018     -1.90027018203413
  H          -2.61542884503161      5.25441077475014     -3.23043614445520
  H          -1.33241925642838      6.49146743003696     -3.34794191005430
  H           1.83193567779461      5.19604236869214     -1.40121931705080
