48
Coordinates from ORCA-job goat_0_257 E -1253.939562679434
  O          -0.17296597109971      3.06346446152855     -0.64000420985728
  C           0.81095381031606      2.57848214214665     -1.54449935292968
  H           1.68609327764491      2.31027610202695     -0.94782722766188
  C           0.35232166255402      1.31064625284581     -2.28325901478309
  H          -0.13211482068818      0.64917878739558     -1.56273310491222
  O           1.48800850839930      0.60238325116981     -2.78079111392370
  C          -0.64543298468335      1.58954800801759     -3.40883815639887
  H          -0.59514079193019      0.73448003682409     -4.08663435542970
  C          -2.10149125819313      1.67936011546081     -2.94765717400828
  O          -2.49746576736851      0.37721253615100     -2.54319800942415
  Si         -3.67320043554641      0.15037655016611     -1.37603582520708
  C          -3.93287642441270     -1.71632561906143     -1.31333535727971
  C          -4.97436373044292     -2.04924752580883     -0.23480059292113
  C          -4.43536207888347     -2.21978983538301     -2.67401214184503
  C          -2.60773082853284     -2.41322515011426     -0.97254663581865
  C          -3.06910238862046      0.82125014984803      0.26387195181696
  C          -5.22647277713106      1.06445396615810     -1.88337718262262
  O          -0.26941651786901      2.70849846934393     -4.22996067546923
  C           0.11318074260350      3.89031023909440     -3.57385725083700
  H           0.46932998111225      4.54804054158900     -4.37581434276520
  O          -0.94994027776157      4.50793958651341     -2.88638261475961
  C          -1.94550368942921      5.06516477386445     -3.74585804586934
  C           1.22147738732870      3.66006492212626     -2.54411841828982
  H           1.40451709621475      4.59971028680481     -2.01397166971468
  O           2.40702587614065      3.20192484817226     -3.18793814935244
  H          -0.76645345277163      3.65165608904874     -1.12840811836584
  H           2.02913179850385      1.24333695946004     -3.26469820320465
  H          -2.23101344550798      2.39896973145739     -2.13683135476941
  H          -2.71096356454664      2.00855341367641     -3.79534505187523
  H          -5.93850275197881     -1.57520812456446     -0.44310443410649
  H          -4.64644681129845     -1.72766184283693      0.75819798578427
  H          -5.13927391502547     -3.13278292770437     -0.19517877421391
  H          -3.72222180990784     -1.99734355259722     -3.47279910512470
  H          -5.39523368392322     -1.76801586948528     -2.94109320400252
  H          -4.57682723270796     -3.30708576483193     -2.64288212460461
  H          -1.83890778097777     -2.20023535631191     -1.72063213249934
  H          -2.75266130916337     -3.50004244368579     -0.93924312040567
  H          -2.22588601705770     -2.09959196311511      0.00359368597979
  H          -2.14046455413922      0.33622321459257      0.57608090806914
  H          -3.82070571611579      0.65773746628869      1.04186046116556
  H          -2.88426153944150      1.89721959732146      0.19957467878148
  H          -6.02538324567896      0.90836748480693     -1.15259388502412
  H          -5.58585892513953      0.73114590646978     -2.86064883323652
  H          -5.03262337674391      2.14011649713713     -1.94034104986328
  H          -2.40175650660663      4.29479055141833     -4.37102413229484
  H          -1.50063038970511      5.83750444615849     -4.38160206251308
  H          -2.70358783445614      5.51047024306134     -3.10305697208982
  H           2.66403446466872      3.84027834735576     -3.86409649132281
