48
Coordinates from ORCA-job goat_0_158 E -1253.939669471948
  O          -0.72070756355125      3.62947191427035     -0.97350962134876
  C           0.45887866899718      3.38646268299139     -1.73063214257629
  H           1.30229167261341      3.68052540333902     -1.09990614850668
  C           0.64115794581994      1.89926110112310     -2.07467485569695
  H           0.41025357011269      1.30684950123394     -1.18736634687825
  O           2.01086187661443      1.64343955286703     -2.38849487875551
  C          -0.26657651423972      1.42252867905004     -3.20969141196829
  H           0.19592023852999      0.52172077849742     -3.61932320800541
  C          -1.67142029421532      1.01139386668752     -2.76392119099593
  O          -1.54488826269198     -0.18524841875154     -2.01166110367607
  Si         -2.60109151081137     -0.61327457749690     -0.78787166790086
  C          -4.33708402964657     -0.90882205430089     -1.48311423529349
  C          -5.17595178726716     -1.64207796369960     -0.42442014734164
  C          -5.02864581484821      0.41814380948773     -1.82938526082148
  C          -4.24422168503386     -1.77771604928980     -2.74528398637555
  C          -1.87410515162621     -2.18824595347248     -0.09579544106948
  C          -2.63021170072085      0.72852311802683      0.51735366203534
  O          -0.29900362015350      2.33449564102068     -4.32106670562173
  C          -0.50944734923792      3.69439343875047     -4.03229891190029
  H          -0.37709870271275      4.20676379659199     -4.99058012081540
  O          -1.79438761752901      3.95206724228841     -3.51569868624380
  C          -2.84327828455966      3.78399395107155     -4.47046434628592
  C           0.48526565916113      4.23237700965093     -3.00790074835910
  H           0.21739711340510      5.26655093822028     -2.77510076984126
  O           1.76985371751088      4.17005491739514     -3.62974431487641
  H          -1.45420512049018      3.75070226292070     -1.59334279008568
  H           2.27232554297986      2.30683087558377     -3.04431908347899
  H          -2.16260713472421      1.79122236593412     -2.17981422287625
  H          -2.27259855444161      0.82723233244121     -3.65988123508181
  H          -5.24242576093810     -1.07163979465799      0.50764080708759
  H          -4.75935115002221     -2.62559457066526     -0.18957767872446
  H          -6.19756827637434     -1.79236786986967     -0.79437001487456
  H          -5.13835027804577      1.05701124817687     -0.94848776246603
  H          -6.03298169189426      0.22242220897726     -2.22507473081136
  H          -4.48073930467314      0.98236082534697     -2.58909892327151
  H          -5.24878008349382     -1.99162623756703     -3.13075586879454
  H          -3.75661522420054     -2.73603377642405     -2.54133197936329
  H          -3.68147332429120     -1.27590504692874     -3.53763255959745
  H          -0.83078823264184     -2.02456258288749      0.18940918165360
  H          -1.90588282562024     -2.99910500615668     -0.82859635748893
  H          -2.42219209902517     -2.51024799874704      0.79386656035815
  H          -2.94021795067608      1.69346776674633      0.10890953323971
  H          -1.63608764928616      0.84978374994250      0.95749970281585
  H          -3.32717559786638      0.46302457505640      1.31814057321908
  H          -2.87566037553124      2.75843385944047     -4.84410615394761
  H          -2.70112094899113      4.47485684918074     -5.30775556668132
  H          -3.77590980255282      4.01501657509356     -3.95757007675778
  H           2.37447526888156      4.72366506350979     -3.12104876495265
