48
Coordinates from ORCA-job goat_0_1146 E -1253.940696774042
  O           2.52030857101467      4.04263409383547     -1.91856057260718
  C           1.58105610451281      3.08575488583126     -2.40443265185791
  H           2.16935679196221      2.18673975055455     -2.61485680171369
  C           0.53347462694728      2.74612630549545     -1.35328917774176
  H          -0.00516625432218      3.66381782928432     -1.07433036452741
  O           1.13977330091621      2.16197310833583     -0.20891525978141
  C          -0.46520943123983      1.74874597540471     -1.93854027316842
  H           0.05972776357222      0.81044859673863     -2.16783924139214
  C          -1.60197532213008      1.46255886889698     -0.98135537989312
  O          -2.39790643629740      0.40664860508501     -1.49065807963036
  Si         -3.78723402397625     -0.09189100140993     -0.70582038969511
  C          -4.51901253909155     -1.42267949379366     -1.82361344890444
  C          -4.89502353671173     -0.81091767734676     -3.18083435443729
  C          -3.49306711468602     -2.54437051885212     -2.03992455350929
  C          -5.77671399522387     -2.00696453033460     -1.16354974944187
  C          -3.34072925152307     -0.76436435516038      0.98362935202486
  C          -4.94484071400274      1.36659868659083     -0.50619982674445
  O          -1.02670662307432      2.28767233243502     -3.13249931405463
  C          -0.06366407358383      2.48785310312293     -4.15619555879842
  H           0.47686872783375      1.55127828177981     -4.34500764880881
  O          -0.72733879635493      2.78045285851721     -5.34186587169352
  C          -1.38654604827992      4.04874386136946     -5.38878892939832
  C           0.92395726259654      3.55847942506766     -3.69404538862916
  H           0.37636547829041      4.48797905235883     -3.48946090338519
  O           1.88329963209661      3.75753885242579     -4.71916534973731
  H           2.04396065953479      4.85970467720962     -1.71759322856614
  H           1.87846457203237      2.73095158272137      0.04235945190145
  H          -1.17877902984173      1.19586022812166     -0.00791916114540
  H          -2.19621620049343      2.37719362021269     -0.86221827139302
  H          -5.30585693670944     -1.58520575849509     -3.84038793704485
  H          -4.02482782236967     -0.37342527479807     -3.67870904236806
  H          -5.65286240069219     -0.02897353178272     -3.07477687380182
  H          -3.20952338999311     -3.01993745477703     -1.09619983688474
  H          -2.58357998663950     -2.16837567967290     -2.51655592056619
  H          -3.91731204848978     -3.32056236354690     -2.68873495263895
  H          -6.53874574913979     -1.24048624736719     -0.99202846184626
  H          -5.54743733399917     -2.47710558636497     -0.20252139421903
  H          -6.21756116037705     -2.77401274333494     -1.81171477189421
  H          -2.66114231801891     -1.61754125117109      0.90848279757931
  H          -4.23810608145846     -1.08713689566660      1.51954263797955
  H          -2.85325978109326      0.00814193783027      1.58621523155912
  H          -4.52070658867225      2.10783352388961      0.17769165027157
  H          -5.90321656167843      1.04179173596819     -0.09052986126313
  H          -5.13641384536961      1.85659851845448     -1.46469817062065
  H          -2.00585065870634      4.20754792842618     -4.50298682065339
  H          -2.02335125517907      4.02636162332135     -6.27264903288812
  H          -0.66446016028745      4.86392701168544     -5.48798385755525
  H           2.60155997839717      4.27857350290466     -4.33781443641540
