48
Coordinates from ORCA-job goat_0_317 E -1253.945309541669
  O           2.20386445156175      2.74328883045442     -2.08994344133577
  C           1.02833704196886      3.01989162033638     -2.84500520347208
  H           1.28619005964703      3.13205866564741     -3.90688495471179
  C           0.10619089613701      1.82137288309457     -2.69467137114913
  H          -0.07668543980834      1.64454118116992     -1.62826477076000
  O           0.68004635144224      0.66812266863865     -3.29681089367388
  C          -1.23013006538316      2.09705689174336     -3.37927002235953
  H          -1.05853229628411      2.22253656416990     -4.45847272628916
  C          -2.23152573708903      0.97292107014283     -3.19639284568511
  O          -2.45238255630364      0.72189847942962     -1.82122663380448
  Si         -2.58321781698512     -0.79118710141333     -1.12816033709113
  C          -4.38458521376762     -1.36301226899630     -1.19464425874099
  C          -4.49534597306901     -2.78573535633905     -0.62784969778549
  C          -5.25804124067905     -0.41373972682332     -0.36224195822038
  C          -4.88066388848010     -1.35762322196622     -2.64765016632163
  C          -1.46892224777838     -2.00863096258641     -2.01114045959664
  C          -2.01933864214556     -0.55303091879530      0.63756628321420
  O          -1.79863749871239      3.28852749819646     -2.84011169330256
  C          -0.99622562833190      4.42889805837322     -3.09732505673332
  H          -0.83817899207537      4.52501700906936     -4.18457133491192
  O          -1.64055025696812      5.55182965529653     -2.59735121503337
  C          -2.75699175639955      5.96565358991581     -3.38645926350749
  C           0.34028036551874      4.29077141496583     -2.37893028548239
  H           0.14481348452990      4.22986162876059     -1.30121076708378
  O           1.20199239099924      5.37988917255008     -2.67624357883216
  H           2.84877909398925      3.43390901625002     -2.28187187763056
  H           1.56797528329202      0.57079651426783     -2.93122851008420
  H          -3.17106649518997      1.26894929956258     -3.67433857291419
  H          -1.84936102333380      0.08717079645947     -3.71195368646293
  H          -5.54236936661358     -3.11290785404665     -0.63438439159802
  H          -4.13844170141579     -2.84032879926933      0.40541585094366
  H          -3.92020175225930     -3.50218564527041     -1.22185609533329
  H          -5.18224355719329      0.61802729932405     -0.71931139299557
  H          -4.97386298857142     -0.42738902968363      0.69403304668213
  H          -6.31122716022168     -0.71397325628963     -0.42744042495590
  H          -5.91415298204835     -1.72279291119343     -2.69329884132606
  H          -4.27306775852894     -2.00405178783068     -3.28840664147910
  H          -4.86779156217474     -0.35014811932047     -3.07294727365026
  H          -1.82542083435384     -2.25207545194328     -3.01534355437189
  H          -1.41692283632830     -2.93923264755712     -1.43825131549239
  H          -0.45761014721929     -1.60198029808272     -2.09612048797850
  H          -2.18088763928399     -1.46046964065403      1.22651894333667
  H          -2.56247116754306      0.26559186723146      1.11735359910403
  H          -0.95158940767118     -0.31600638301634      0.66361765448420
  H          -3.12375051175204      6.89416458557550     -2.95018508658079
  H          -3.54995716435731      5.21396664921725     -3.36682729796136
  H          -2.44696999656327      6.14372125100488     -4.42177265837308
  H           0.79868188379762      6.17864722022973     -2.31598433269228
