48
Coordinates from ORCA-job goat_0_1114 E -1253.931339829964
  O           1.50699633422660      3.55067768695960     -1.52062227334445
  C           1.35084281761330      2.58740288153653     -2.55412753389658
  H           2.35525557668532      2.33501817523777     -2.89947016174365
  C           0.68421887498779      1.30962683163693     -2.02685967731279
  H           1.11025601011306      1.10359141107087     -1.04137726708676
  O           0.98614089338065      0.17354316348655     -2.82751602819056
  C          -0.84215572266626      1.52125720797504     -1.90784248509191
  H          -1.32180370399837      0.97168411787290     -2.72661449525005
  C          -1.35202804363788      1.02250845894520     -0.57048836379854
  O          -2.74736047251158      1.14036862864906     -0.39737827349123
  Si         -3.98892340688922      0.47667635562657     -1.29610202051782
  C          -3.78211084989634     -1.39602409575887     -1.49767659053655
  C          -2.63727442018161     -1.74935071660163     -2.45878111988317
  C          -3.51545728156108     -2.04101810986508     -0.12986595835426
  C          -5.09185691864680     -1.96149828871931     -2.07289049838461
  C          -5.50284883861433      0.87785071712220     -0.27519497472542
  C          -4.14757354077892      1.31152041748687     -2.96722482692089
  O          -1.17947524319388      2.90497116982250     -2.02730892147985
  C          -0.93272144666782      3.36452756429645     -3.34965783073724
  H          -1.53957486056611      2.77265575348874     -4.04547967659378
  O          -1.40285402006410      4.66857453585750     -3.47282479453892
  C          -0.82467575746060      5.63592744228401     -2.59370616582595
  C           0.55941635072665      3.16728728742322     -3.72800446320343
  H           0.99586809883351      4.12408246978245     -4.02637366879553
  O           0.68332990107106      2.21812886047904     -4.79028035449310
  H           0.63387516433148      3.70475731378747     -1.13636433927765
  H           0.77276561241573      0.40872942355538     -3.74212179139592
  H          -1.02384404520432     -0.01622692430953     -0.45161159016257
  H          -0.87560520880963      1.61151645984228      0.22043894724168
  H          -2.58746527508107     -2.83739403324399     -2.58980662154153
  H          -1.66406201121693     -1.42314802386543     -2.08447708290122
  H          -2.78516427842178     -1.30480734246352     -3.44709707398150
  H          -3.43863246676621     -3.13015126224847     -0.23570004725002
  H          -4.32297013417103     -1.83325905679514      0.57843022492995
  H          -2.58103737302656     -1.68295211407324      0.31154087926234
  H          -5.33124627302818     -1.51979264025987     -3.04530779994346
  H          -5.93858805915319     -1.78612057815142     -1.40348024649989
  H          -4.99805953523570     -3.04490506646549     -2.21512559941697
  H          -6.41717168290054      0.57956443039985     -0.79500527017640
  H          -5.55261822942989      1.95619534558877     -0.09658815341461
  H          -5.47832776929959      0.37311203037773      0.69422009848430
  H          -3.36282366171795      1.02435345360854     -3.66991787583867
  H          -4.11769276348431      2.39832599868589     -2.84693071000479
  H          -5.11066769980583      1.04743588990863     -3.41505104402573
  H           0.26018243914849      5.69508712835666     -2.71458867848268
  H          -1.06489154060256      5.41274878505399     -1.55139972058274
  H          -1.26750038745296      6.59292708719400     -2.86720087198199
  H           0.20574484861015      2.54659376942185     -5.56103720884161
