48
Coordinates from ORCA-job goat_0_1071 E -1253.936904740272
  O           1.62844750161988      3.97039193237369     -0.58930476427630
  C           1.44707623717794      3.11318499946307     -1.71229778626715
  H           2.37420378605139      2.56137379186122     -1.91317655488495
  C           0.35291458338620      2.09155020166305     -1.45530221251749
  H          -0.50922103769373      2.58576407204734     -1.00938631564620
  O           0.88515921234789      1.12229157722699     -0.55242412017011
  C          -0.05172573328789      1.43099516309633     -2.77308622941179
  H           0.83133432800880      0.92403579562424     -3.18629416908373
  C          -1.13236376522262      0.38236999225087     -2.59278179293321
  O          -2.22345498486953      0.92264248620755     -1.87028600271540
  Si         -3.79367079316908      0.36870421309015     -1.99330308555733
  C          -3.93552926631532     -1.38279946795728     -1.28930231015622
  C          -5.41831484692784     -1.70664394908705     -1.04877558188488
  C          -3.35554763718206     -2.41627640007811     -2.26596237353503
  C          -3.17696121428528     -1.46091181487663      0.04310960704228
  C          -4.78494277735571      1.58258924192491     -0.97677677412369
  C          -4.33762266930777      0.40889861035335     -3.78466956077831
  O          -0.50931761866722      2.39064829592733     -3.74414237417203
  C          -0.26097431755642      3.75576257807603     -3.47791084901708
  H          -0.38013088887329      4.25052310746569     -4.44832599355915
  O          -1.15511743375293      4.30523560135279     -2.54835936797744
  C          -2.49491804227982      4.35991475032900     -3.03270580128823
  C           1.15484799244889      3.97519756777622     -2.95376176398254
  H           1.26340262973759      5.02440754060506     -2.67801660367734
  O           2.08926482451163      3.74066319510850     -4.00190050553302
  H           1.78187508048553      3.40255387468321      0.17643372552611
  H           0.15556450936561      0.74741487944198     -0.04671712664252
  H          -1.44147677320187      0.03368888786715     -3.58428508780599
  H          -0.70520611390716     -0.46954308215404     -2.05319923511768
  H          -5.86155487971457     -1.03984095309000     -0.30391741006900
  H          -5.52292228841599     -2.73463603031209     -0.68077711747984
  H          -6.00622533538292     -1.62391180118223     -1.96875215786637
  H          -2.29844695462863     -2.23373410808933     -2.47812754930321
  H          -3.89474035218223     -2.41722218761271     -3.21752203930242
  H          -3.43695367521648     -3.42263591295862     -1.83679172396837
  H          -3.55853041629245     -0.73615212890398      0.76912249611189
  H          -2.10817246983368     -1.27020703930119     -0.09137268472439
  H          -3.28657381585278     -2.46020413142346      0.48228935582786
  H          -5.85552511371163      1.37904045323580     -1.06668115985228
  H          -4.60281309691100      2.60261731389969     -1.32646149239448
  H          -4.51593354675627      1.53032766311065      0.08181719958529
  H          -3.69206607431098     -0.19769978340956     -4.42492751131602
  H          -4.32731839438417      1.43531440225538     -4.16290050062328
  H          -5.35765089562387      0.02369428582994     -3.87814763412043
  H          -3.08861652139400      4.85725749419207     -2.26598092624507
  H          -2.88973888470970      3.35651018569183     -3.20452916445758
  H          -2.54167076781382      4.93705081648746     -3.96356902267025
  H           1.92568871184922      2.86238381991775     -4.36770994698484
