48
Coordinates from ORCA-job goat_0_1084 E -1253.941892472326
  O           2.32096835705063      2.23460310829944     -1.32677583987984
  C           1.30710041791040      2.55778151914897     -2.27380494309016
  H           1.83998115668430      2.94896994465248     -3.14673722413856
  C           0.54051619876589      1.30578380656020     -2.68311998727921
  H           0.06060045966321      0.87719271345969     -1.79372403209462
  O           1.41468326895103      0.35694415405005     -3.27843167533134
  C          -0.54586653893912      1.65718835849489     -3.69491419136443
  H          -0.07002094017614      2.05203781937012     -4.60466488492131
  C          -1.39535465738109      0.46372712922876     -4.08931266945446
  O          -1.94437340951868     -0.16264496742944     -2.94544467584112
  Si         -3.57649501564860     -0.40056313881430     -2.69371777118014
  C          -3.73745886830964     -0.63861828527213     -0.82843187520525
  C          -3.37543221947844      0.67019885019678     -0.11179876647152
  C          -5.18231771354629     -1.02647123790360     -0.48250424714752
  C          -2.78835097549354     -1.75114549776558     -0.36046501746407
  C          -4.55647191003072      1.08066375553117     -3.28699106343046
  C          -4.12932857475630     -1.92130655881075     -3.63638099591631
  O          -1.40730898592184      2.64688710264932     -3.13649750610302
  C          -0.72822200559310      3.85256666483819     -2.84615697797512
  H          -0.24091847842632      4.23667634416591     -3.75228648402350
  O          -1.66143810591908      4.82702393635026     -2.49060651078201
  C          -2.44144670175886      4.54707712415798     -1.32241036727389
  C           0.33988403671244      3.61726192729901     -1.77239324896726
  H          -0.14000935911558      3.25114224619039     -0.85514716381246
  O           1.06148473716529      4.81303189443961     -1.52312643974692
  H           1.89179345639318      1.96672655131606     -0.50364146728335
  H           2.18364419956199      0.28531606420782     -2.69831589317778
  H          -2.17436908956644      0.81000206261986     -4.77678558215540
  H          -0.76268324591217     -0.24958912166987     -4.62492474860088
  H          -4.05926629302121      1.47987948345782     -0.38292616688401
  H          -2.35845119866429      0.99315437381338     -0.35443537277153
  H          -3.43497164966794      0.53372990129651      0.97511374766182
  H          -5.28974331921573     -1.14748869571675      0.60234187563254
  H          -5.46873225848583     -1.97230581971958     -0.95183297728158
  H          -5.89575480395489     -0.26054279074853     -0.80220510111381
  H          -2.88455316305875     -1.89582997257869      0.72278454896925
  H          -1.74537137660110     -1.50295877837868     -0.57544813813273
  H          -3.01565333580465     -2.70628601674848     -0.84372852395951
  H          -4.53548455282486      1.15823984120261     -4.37783410349489
  H          -4.16368665012064      2.01082445558628     -2.87104964309721
  H          -5.60290635817356      0.97875732043443     -2.98341632161024
  H          -3.60810357152242     -2.81875566482089     -3.29205509513874
  H          -3.92034074614009     -1.79516529039118     -4.70363793211221
  H          -5.20514795763413     -2.08416312111649     -3.52284712658931
  H          -1.84169100106616      4.62633175240987     -0.41092938610690
  H          -2.89488208862150      3.55640681750222     -1.37790332658169
  H          -3.22482855397778      5.30370643583398     -1.29671431469875
  H           0.42460938518941      5.49658149912085     -1.28161439257881
