48
Coordinates from ORCA-job goat_0_1039 E -1253.944355275427
  O           2.73275237630945      3.59374664317980     -2.41995949854388
  C           1.39757523744693      3.16855950046826     -2.65269694891078
  H           1.31125206494869      2.74269148276218     -3.66444070680839
  C           0.99175854388668      2.09269104607638     -1.64718731775319
  H           1.18928850362085      2.46148022844652     -0.63623138940249
  O           1.81563567410070      0.94206670838956     -1.80787732859020
  C          -0.49823301391416      1.76858107309280     -1.77437545228378
  H          -0.68330263184345      1.34448384681652     -2.77269203165528
  C          -0.95437798975748      0.79264704386032     -0.70491872190295
  O          -2.33095447864584      0.47672191892332     -0.79404453655386
  Si         -3.03180904797144     -0.38103615459635     -2.04601028003782
  C          -4.50529510863239     -1.26792023252345     -1.26690772161737
  C          -5.29921659675336     -2.00615163295780     -2.35441621905686
  C          -4.00485016081041     -2.28204616294570     -0.22863553865632
  C          -5.42152935780224     -0.24703926424342     -0.57672246727341
  C          -3.60319407234478      0.79763391954149     -3.38539928089354
  C          -1.78908892124695     -1.59556173569198     -2.74601581577777
  O          -1.24678782118520      2.96955447124872     -1.62358827655999
  C          -0.97106196251048      3.89379870957403     -2.66143915585217
  H          -1.15092458277952      3.40894759891240     -3.63542024462080
  O          -1.79542080952880      4.99927301815498     -2.50891134848311
  C          -3.15393109979248      4.74827063066421     -2.87420096884274
  C           0.47520418345558      4.36954173506542     -2.56852541395757
  H           0.60875988244479      4.86627007949045     -1.59891292039897
  O           0.78053498305459      5.25365337191510     -3.63573328674260
  H           3.27505174212114      2.79559546139022     -2.37834682635183
  H           1.64863728585438      0.56804413695430     -2.68330656874386
  H          -0.34031712981067     -0.10993668147578     -0.77507898269962
  H          -0.78470753904216      1.24575708479471      0.27666737349391
  H          -4.68201496304429     -2.74271357267904     -2.87819714389283
  H          -5.70548027877834     -1.31471593523260     -3.09832181633153
  H          -6.14322005178589     -2.54206622542690     -1.90339235531125
  H          -3.41526325730444     -1.79673503763393      0.55471848555414
  H          -3.38381100779493     -3.05629319005839     -0.68885035352099
  H          -4.85579335672032     -2.78036258121858      0.25175497464789
  H          -6.27621850785442     -0.75973782371640     -0.11841283168776
  H          -5.81670657933761      0.48621244599830     -1.28628914766994
  H          -4.89413164593127      0.29618832852502      0.21238186286599
  H          -2.76123778331476      1.34429877223131     -3.81815855093107
  H          -4.31104648229538      1.53022193525802     -2.98832377371858
  H          -4.09736347572878      0.24900063220296     -4.19281810530649
  H          -1.36003335146191     -2.22551209765359     -1.96212164788945
  H          -0.97013253333862     -1.08002288312620     -3.25579951265630
  H          -2.27651310443963     -2.24804882614037     -3.47646162046915
  H          -3.68029998253719      5.69909204709890     -2.79858282608233
  H          -3.61137649213684      4.02047741789298     -2.19965718878340
  H          -3.20966205435799      4.37705002068195     -3.90309195035258
  H           0.16668675529122      5.99592872770953     -3.57289862298671
