48
Coordinates from ORCA-job goat_0_1121 E -1253.932652816316
  O          -0.27056933466276      4.17472210676111     -1.41543611570519
  C           0.77478413311704      3.31238029259934     -1.84142978135161
  H           1.70005181995130      3.53642394574144     -1.29880482999724
  C           0.43643201534637      1.83816364514213     -1.59736650218083
  H           0.05091226580772      1.71751918173686     -0.57967299753417
  O           1.68142014695118      1.14011293941363     -1.73893724432655
  C          -0.60041040098510      1.29528000241011     -2.57581116656165
  H          -0.54899184458179      0.20255935861651     -2.53455190923215
  C          -2.04014901165088      1.67080059995358     -2.22118545147143
  O          -2.36931827591745      1.01929954306777     -0.99910668830293
  Si         -3.85914086075897      0.31644943552869     -0.71695219488483
  C          -3.89191584875146     -1.43805509082909     -1.42432412277214
  C          -3.59154228009600     -1.42189157681320     -2.92989202102398
  C          -2.83642561408992     -2.29750791107204     -0.71395810259438
  C          -5.28245456618080     -2.04971303152689     -1.19678690889953
  C          -4.02409902377567      0.28853090059049      1.14403470374654
  C          -5.20212064366352      1.37217280546019     -1.48403369302961
  O          -0.27333538862171      1.60684941227057     -3.93439817288268
  C          -0.01789070786392      2.94963514194294     -4.24520388596095
  H           0.38653608647445      2.93395537478490     -5.26419352981589
  O          -1.23539680015226      3.66592788394144     -4.23238569054210
  C          -1.23072737108613      4.79889921639644     -5.09181265145504
  C           1.04450681944533      3.56675007281718     -3.32527706094088
  H           1.07145122381250      4.64458244560125     -3.49468428800550
  O           2.32504032872804      3.05997753773982     -3.68711293659783
  H          -0.35577247076044      4.08696770319339     -0.45886883151620
  H           1.50876467672271      0.19199609071588     -1.70231570248379
  H          -2.15430747327660      2.74698284502180     -2.10450835362649
  H          -2.68115216727003      1.34302731348177     -3.04463298861704
  H          -4.30213703189435     -0.79954216555220     -3.48211462428188
  H          -3.65738590439256     -2.43936512789821     -3.33478505503714
  H          -2.58349882176848     -1.05202838998127     -3.13648911459677
  H          -1.83242534407358     -1.87842877292090     -0.83299534607911
  H          -2.82844559638262     -3.31012626261654     -1.13582369493615
  H          -3.04168533309595     -2.38575533003154      0.35681759816279
  H          -5.30533733798642     -3.07933836124756     -1.57430137782524
  H          -6.06125997599895     -1.48746388949059     -1.72043600368123
  H          -5.54407091320307     -2.08074384543358     -0.13465191516035
  H          -3.16488103038558     -0.20231436523360      1.60889144841337
  H          -4.92817053481351     -0.24466320215713      1.45118438201897
  H          -4.08445046119697      1.30991954850786      1.53105029502646
  H          -5.16163076522391      1.36472731744430     -2.57629158371781
  H          -5.10466026422732      2.40817411291156     -1.14557350339232
  H          -6.18843517734712      1.00954076228765     -1.18060850689264
  H          -0.97166276202680      4.50805059311087     -6.11680603678954
  H          -0.52924823279526      5.56768685867220     -4.75098666913317
  H          -2.23968886005722      5.21080762952395     -5.07724252927908
  H           2.39272491465896      2.17064470541674     -3.30707864425282
