48
Coordinates from ORCA-job goat_0_256 E -1253.945967396856
  O           2.14664960419260      1.62574663977672     -1.98953290694187
  C           1.13453410096178      2.40121401760888     -2.62360395480236
  H           1.50736134373568      2.78689047826548     -3.58233303140889
  C          -0.03950444690840      1.47637442849890     -2.89714371971183
  H          -0.35395616788747      1.01218174392611     -1.95536448053412
  O           0.31492791992020      0.47914161325739     -3.84724594995946
  C          -1.21360059331020      2.27107903138270     -3.46486404110598
  H          -0.92193869779668      2.69287065680658     -4.43790370557979
  C          -2.44958965249040      1.41929891097839     -3.67775900903014
  O          -2.84012693600964      0.80316681959762     -2.46369598399536
  Si         -3.56323534027954     -0.69998149841140     -2.41387072060416
  C          -3.87796187610930     -1.01098220403542     -0.58038587911974
  C          -4.79613669674852      0.08292682510121     -0.01656308754609
  C          -4.55112089529701     -2.37968224840938     -0.40217171125033
  C          -2.54522521483278     -0.99569916835254      0.18229684087992
  C          -5.15076712329527     -0.66070401194384     -3.40578901373833
  C          -2.41090141964283     -1.98186774529742     -3.14560616159492
  O          -1.55028523032887      3.32453515036107     -2.56478791255825
  C          -0.49414807952402      4.25893986993011     -2.41267357088809
  H          -0.21800682367691      4.66021783939835     -3.40203876789065
  O          -0.91741771815435      5.27942731398608     -1.57292999672986
  C          -1.83211590188935      6.18457571751188     -2.19287817526065
  C           0.70420702665317      3.57687614472880     -1.76464971388593
  H           0.39878311069229      3.21715796643543     -0.77435353348764
  O           1.81207655145767      4.45991865781356     -1.66231486904069
  H           2.92839060080862      2.18282878752717     -1.89638361895465
  H           1.10188179924271      0.03337389163182     -3.51085048689636
  H          -3.25710392099260      2.06151224337435     -4.04581158119845
  H          -2.22112643425341      0.67932057687022     -4.45179144693763
  H          -5.76893870569061      0.09067557810520     -0.51717334670295
  H          -4.35060989103448      1.07561825818686     -0.12652763210408
  H          -4.97369552041717     -0.09012805447606      1.05204635594679
  H          -4.73815627146599     -2.57018573338357      0.66162380574872
  H          -3.92268412509655     -3.19232702056268     -0.77889257587845
  H          -5.51327831640052     -2.42727794374435     -0.92130002429471
  H          -2.72251751104421     -1.16173873961647      1.25206998453359
  H          -2.03166801123328     -0.03625363392092      0.07210766579070
  H          -1.87055405645470     -1.78256710361920     -0.16789504819306
  H          -5.65388784007252     -1.63146603210755     -3.37154173322015
  H          -4.93693890392670     -0.43293237690803     -4.45484408831511
  H          -5.84159429623076      0.09738768576162     -3.02705065721879
  H          -1.45167933254528     -2.00011793404128     -2.62186175929674
  H          -2.21663234565780     -1.77400858433942     -4.20184365134658
  H          -2.85863642975283     -2.97792240848042     -3.07948907517246
  H          -2.02771578348823      6.97722675835484     -1.47147738267192
  H          -2.76852045353741      5.68156283729584     -2.44676576781623
  H          -1.38955851493488      6.61343213646860     -3.09840987752936
  H           1.57055342074705      5.16294386270824     -1.04762500248706
