48
Coordinates from ORCA-job goat_0_308 E -1253.936914830925
  O           1.66451737400149      1.78374300514165     -0.67853877853417
  C           1.02935703224472      2.37867152654075     -1.80426259125527
  H           1.77753736171517      2.87377918731694     -2.43747847506152
  C           0.26905065023038      1.34805568472218     -2.63043068170406
  H          -0.26311756514162      0.68884043678399     -1.94230374238096
  O           1.17494394713517      0.49346322647274     -3.32582035046570
  C          -0.74900704567867      2.03682572843818     -3.56025722600988
  H          -0.59686950434286      1.65060920000533     -4.57053614380439
  C          -2.19631765216078      1.74077006898824     -3.17297212686322
  O          -2.40403022586459      0.34823097163108     -3.35244850022164
  Si         -3.72078609868256     -0.45503610780939     -2.70174694543431
  C          -3.31804984501153     -1.05102335216436     -0.95167552433081
  C          -4.55527411686707     -1.74461785836483     -0.36095609729767
  C          -2.15297121847354     -2.04992587267184     -1.00249777794135
  C          -2.92746002688265      0.12690902114209     -0.04717069206882
  C          -5.19604187342197      0.69790092610563     -2.69418435482774
  C          -4.00917434114063     -1.90198604045144     -3.84735362526432
  O          -0.49961987292030      3.44223747591653     -3.66745861830098
  C          -0.54303303652580      4.18096583714668     -2.46318944949874
  H           0.06650661860805      5.06976632110524     -2.66356484083999
  O          -1.84390209443335      4.56649880745409     -2.11104526606915
  C          -2.41540961762792      5.50509537050877     -3.01899247191984
  C           0.05626879819995      3.41855172061919     -1.28251056776104
  H          -0.74585245457291      2.91181779173695     -0.73092175769005
  O           0.69236384765496      4.37051984618307     -0.44179964699730
  H           2.31935403467199      1.15675243408445     -1.00778482549912
  H           1.65925090590910      1.02617717912220     -3.96950606256736
  H          -2.39304489788206      2.04060955520616     -2.14084828994830
  H          -2.86175427862651      2.31689166721668     -3.82403757528306
  H          -4.32607909130716     -2.12915259714597      0.64038815232293
  H          -4.87971367185739     -2.59130046648177     -0.97366654308775
  H          -5.39829198857881     -1.05389577885411     -0.26538793592076
  H          -1.25872511685557     -1.60237642962162     -1.44706139098772
  H          -2.40971334690725     -2.94037209698937     -1.58355614759889
  H          -1.89359565682333     -2.37805682930146      0.01161311299992
  H          -2.00225259757759      0.60389819241171     -0.38085146377709
  H          -2.76126942443883     -0.22882817629460      0.97720163749630
  H          -3.70912301303567      0.89168368072818     -0.00916030966952
  H          -5.37410084599434      1.09156257496012     -3.69941973355184
  H          -5.05087731507242      1.54409417742272     -2.01733627339250
  H          -6.09553861366221      0.16231534293892     -2.37759600977842
  H          -3.10182008819345     -2.50150328949977     -3.95925897558134
  H          -4.30523016249106     -1.54298961496691     -4.83733663565589
  H          -4.80294182821911     -2.55272210869357     -3.47016311684645
  H          -2.57040939327364      5.05648304440499     -4.00381087125744
  H          -1.77027736914573      6.38558433156888     -3.11852136326828
  H          -3.37648043809432      5.80404589655109     -2.60126978090794
  H           1.14683515741435      3.87301638873565      0.24963665430371
