48
Coordinates from ORCA-job goat_0_103 E -1253.938250449887
  O           1.83790982680456      2.02144063924666     -1.09465538805430
  C           1.15032345158219      2.33552655230751     -2.29852679017248
  H           1.86099870051958      2.40126944139433     -3.13229756597013
  C           0.16100485564574      1.21530239876927     -2.57131596812249
  H          -0.37071407202107      1.00879179787555     -1.63613539607470
  O           0.82584917683088      0.03076487624540     -3.00672557487400
  C          -0.85405668809522      1.63084677463703     -3.64773588931574
  H          -0.85262523142967      0.85477278126001     -4.41529360874201
  C          -2.27706027306771      1.73093273586514     -3.10191948316435
  O          -2.66576594150183      0.42886272008398     -2.69486794147407
  Si         -3.60194881063146      0.17312496270937     -1.33298862500206
  C          -3.78995460189762     -1.69996511914129     -1.23069303392769
  C          -2.40503933935894     -2.35331570218929     -1.11232612552971
  C          -4.62888757717507     -2.05941714773571      0.00457078336717
  C          -4.49204487518826     -2.22521504815973     -2.49099619448724
  C          -2.73023062469428      0.86267249541622      0.17508837702298
  C          -5.24571416305513      1.04268607886837     -1.54464531876610
  O          -0.45660628657811      2.82040756629533     -4.33472476504328
  C          -0.24739847736951      3.96930337253939     -3.53841561598721
  H           0.44309789124130      4.58791168370146     -4.12323094393918
  O          -1.43030552135987      4.68160503046752     -3.29036096017888
  C          -1.98763802139567      5.27126619179515     -4.46272471906257
  C           0.39072581636307      3.64431912300244     -2.18500198363141
  H          -0.39115309323004      3.54436465659663     -1.42407837070025
  O           1.31136643731186      4.65835058184481     -1.79986619744422
  H           2.38449422498002      2.78618352393580     -0.87390207433795
  H           1.43303326793264     -0.23403192617879     -2.30473015114891
  H          -2.32710984885571      2.44161889633718     -2.27136081282206
  H          -2.93900628493516      2.09361496525967     -3.89452734537177
  H          -1.88220784540117     -2.02911740946703     -0.20772780436066
  H          -1.77292011496997     -2.11348945967106     -1.97200464025122
  H          -2.50817087439461     -3.44429262326562     -1.06388526462372
  H          -4.74721671141038     -3.14756156254540      0.07365147556902
  H          -5.62989716528671     -1.61985421127965     -0.04391673988589
  H          -4.15401101519760     -1.71850654675802      0.92955158219432
  H          -3.92341139604500     -1.98879640736259     -3.39475919061536
  H          -5.49476015782706     -1.80164667757222     -2.60108206220364
  H          -4.59627157166849     -3.31574438788883     -2.43510600480331
  H          -2.54663568199531      1.93581870822903      0.06773884107014
  H          -1.77031817078044      0.36892963814188      0.34726874333473
  H          -3.35107494712247      0.72100743731128      1.06482741642647
  H          -5.77267574964788      0.68885142772646     -2.43476425409290
  H          -5.09307557526511      2.12188700233312     -1.64537437431408
  H          -5.88869661601283      0.87604715366830     -0.67549820747260
  H          -2.32042015709833      4.50533255570349     -5.16808749476084
  H          -1.25322353984019      5.92117674974501     -4.95226508098231
  H          -2.84298374544809      5.86569096819749     -4.14243346756537
  H           0.82025711804009      5.37285274170502     -1.37959578970727
