48
Coordinates from ORCA-job goat_0_1118 E -1253.933582950289
  O           2.20890183212732      2.17413079629287     -1.13682533958687
  C           1.34234821509163      2.37058705877716     -2.24419919464248
  H           1.93522840253423      2.91853700734017     -2.98488005785006
  C           0.89281517615295      1.03571368904098     -2.84131782992018
  H           0.55630253606760      0.40449920060252     -2.01521150918568
  O           1.98577690766591      0.32925806869900     -3.42122110257448
  C          -0.27265164788098      1.21033846945837     -3.84026716496634
  H           0.03648182532583      0.74699402960033     -4.78031732010393
  C          -1.53720011070208      0.48407842102584     -3.40475972252193
  O          -1.87920415531878      0.80038747156451     -2.07140081812559
  Si         -3.40339138350282      0.68421685435518     -1.40727553211651
  C          -3.81408578006644     -1.13396318866519     -1.07159649686919
  C          -2.60250555518116     -1.82210093481688     -0.42735358324777
  C          -5.01333416102897     -1.21940132040308     -0.11564305966215
  C          -4.16733093936700     -1.85466266238574     -2.38086996816657
  C          -3.27816319274551      1.65245084198119      0.18556225751481
  C          -4.68714052672024      1.43534843665221     -2.54323981009908
  O          -0.48826818893145      2.58023821065486     -4.19914793485862
  C          -0.64259908926414      3.53464277291800     -3.17185894331754
  H          -0.21334003599013      4.45528759494777     -3.58774721438590
  O          -1.98361662903243      3.76734527771013     -2.83352735606609
  C          -2.71762286556884      4.40819398604107     -3.87125349768992
  C           0.10941892675723      3.18701859402459     -1.88752539663326
  H          -0.54332009635308      2.59179906939694     -1.24188354344481
  O           0.50533050017014      4.38023606477273     -1.22251465705813
  H           1.70380814388126      1.74882188320185     -0.43235340411025
  H           2.34986812818198      0.86969129826655     -4.13334564091346
  H          -2.34491474803212      0.74421202518641     -4.09747470959970
  H          -1.34227806953508     -0.59211921121239     -3.49451999803612
  H          -2.83974955832944     -2.86807548829031     -0.19649627553521
  H          -2.31048610415034     -1.33407460216006      0.50791568162163
  H          -1.73644184733244     -1.81363912001197     -1.09540753217521
  H          -5.89400993499808     -0.71074237444080     -0.52111890099292
  H          -4.78541714381158     -0.77492385521843      0.85738482279155
  H          -5.28597393229799     -2.26856298358677      0.05286086049087
  H          -4.37933501437307     -2.91255990336872     -2.18166669274621
  H          -3.34756846494309     -1.81392549794481     -3.10414628800019
  H          -5.05409158273197     -1.42195286037957     -2.85275437154824
  H          -2.56764648669530      1.19159966471235      0.87756015041327
  H          -4.24929136115022      1.71275571664386      0.68464094073270
  H          -2.93943992243964      2.67047566507173     -0.02666956698843
  H          -4.53760087093089      2.51374209515251     -2.62766888532188
  H          -5.68835397380601      1.25858341355837     -2.13803581632195
  H          -4.65428425442114      1.00372249825827     -3.54686697800073
  H          -2.20893629406791      5.32320753928892     -4.19701418865906
  H          -3.69430182645446      4.66479426604931     -3.46117605922403
  H          -2.84930780511823      3.74345433377460     -4.72986974808955
  H          -0.29524704068210      4.80692168786350     -0.89535260420886
