48
Coordinates from ORCA-job goat_0_281 E -1253.937839742800
  O           0.91993945256153      4.11989201680438     -0.81612509543578
  C           1.44310143124516      3.38353138224018     -1.91551449971869
  H           2.51014815720977      3.61258317968836     -1.96399494589030
  C           1.28339729467257      1.86840303910997     -1.71427784746629
  H           1.40558114947921      1.66842111399762     -0.64606589647800
  O           2.29818789445757      1.12100535776264     -2.37311184060559
  C          -0.11418748329394      1.41781133952178     -2.17611035251256
  H          -0.04894650652912      1.04088566593327     -3.20468394985879
  C          -0.65463139054214      0.32108005404750     -1.28226454546862
  O          -1.75247167848095     -0.36763433471059     -1.84268281247892
  Si         -3.35557414659299      0.09962812171151     -1.78507186877889
  C          -4.32868055532827     -1.49697489272997     -1.49897138610275
  C          -3.94070827545827     -2.54522324331022     -2.55169557119902
  C          -4.01665796831289     -2.05022672624699     -0.10164270981458
  C          -5.83278800194572     -1.20637009891447     -1.60763980669120
  C          -3.63474002475045      1.30553117008838     -0.38154808651274
  C          -3.83071972473407      0.85288185197395     -3.43133122465543
  O          -1.01511512558391      2.52923676933426     -2.14019438749136
  C          -0.72857571957191      3.46674040333894     -3.17780241831532
  H          -1.03366480838216      3.02685282087592     -4.13908345099504
  O          -1.43845262250314      4.63068636009278     -2.91294078593766
  C          -2.84971421835270      4.49515251407041     -3.08765544057123
  C           0.77041539952991      3.81239409092389     -3.22039230192518
  H           0.86681265481620      4.89114448507798     -3.36059777236503
  O           1.34691980002637      3.10670136102298     -4.32355277258735
  H          -0.01726903441455      3.89396002500032     -0.74223891677356
  H           2.23922076917262      1.34638991160211     -3.31200188506342
  H           0.14880415247316     -0.40535250333499     -1.12632534559945
  H          -0.90919263255852      0.75572745222596     -0.30817508878576
  H          -4.50677626318021     -3.47038121449469     -2.38637853841119
  H          -2.87616335532941     -2.78977956050249     -2.49952402992216
  H          -4.15966048903515     -2.20126724343847     -3.56700364668074
  H          -2.94647390817035     -2.24206102613692      0.02350923838948
  H          -4.54693251971265     -2.99734145448935      0.05757119188846
  H          -4.33011708197220     -1.35827124010680      0.68536762626440
  H          -6.40796922032631     -2.12298973727931     -1.42791100413593
  H          -6.10056343777223     -0.83678624530924     -2.60197367352741
  H          -6.15721718229014     -0.46328419994185     -0.87240537445052
  H          -3.29778573230140      0.89301098452390      0.57336462551891
  H          -4.70224920871853      1.52911013751866     -0.29410472249737
  H          -3.10242684639805      2.24208927933340     -0.55851410561009
  H          -4.82782922328143      1.30073791302438     -3.38679337538362
  H          -3.83354144983351      0.09641580095906     -4.22107638609151
  H          -3.11904604126478      1.63219948855694     -3.70913497522834
  H          -3.27903096254289      3.82196768346913     -2.34244976963124
  H          -3.07351782483682      4.11830606875128     -4.09133833639662
  H          -3.27479926840630      5.49116215928438     -2.96827975535498
  H           2.18949177706401      3.52488371908017     -4.53708198266073
