48
Coordinates from ORCA-job goat_0_1070 E -1253.936853207858
  O           2.52936928281779      3.00872835626756     -1.91840121189652
  C           1.32343054142273      3.01894562392944     -2.67081377487798
  H           1.50935801214085      2.63421145803213     -3.68226157975218
  C           0.29002618621719      2.14081209579298     -1.99816336471986
  H           0.00407853801679      2.59351844431867     -1.03933350247160
  O           0.83361964351695      0.84653833260662     -1.77380842084679
  C          -0.93112602320805      2.03738099593056     -2.92590513835563
  H          -0.70292223211291      1.25433407263027     -3.65514769891854
  C          -2.19246551631830      1.64060534283753     -2.16595774736083
  O          -1.95589814391042      0.40442718906259     -1.49638071001418
  Si         -2.69052379260881     -1.04129813998889     -1.93210255322882
  C          -4.38263377004788     -1.15587788380417     -1.10049757737692
  C          -5.23350246185518      0.07025829591505     -1.46168763501476
  C          -5.09900313689620     -2.42842163286201     -1.57599544967522
  C          -4.20339982746881     -1.21073788214698      0.42335459323990
  C          -2.84567715980037     -1.13249217254735     -3.79470050456201
  C          -1.52390150520981     -2.35453493353092     -1.29915466134669
  O          -1.16674785551622      3.21976762322362     -3.70032256178345
  C          -0.73430970621037      4.43610265314419     -3.13046146612985
  H          -0.92334149431136      5.18295288345659     -3.90952901776310
  O          -1.44676038481518      4.76105452424274     -1.96441894727913
  C          -2.80583055480751      5.10893477427364     -2.22228166987679
  C           0.76540429429598      4.43066661205727     -2.78046697162195
  H           0.88358929371466      4.92175011081512     -1.81001147399147
  O           1.54010333254276      5.10067087627716     -3.77036624949419
  H           3.15207064730296      3.58754675295303     -2.37487863995541
  H           0.09842344360297      0.31314029497267     -1.43828078145198
  H          -2.43357267174583      2.39732872834904     -1.41623402937215
  H          -3.02782152782015      1.57145372960460     -2.86892258866972
  H          -5.37113500523529      0.16763348408161     -2.54299395818865
  H          -4.78252077704708      0.99548475742517     -1.09167984828615
  H          -6.22798994968959     -0.01760811462159     -1.00735910903829
  H          -5.28849864247554     -2.40589270433189     -2.65314913184965
  H          -6.06715544606645     -2.52523733960375     -1.06976764948578
  H          -4.51762321500660     -3.32875660975838     -1.35346440943579
  H          -3.66280195365863     -0.33500015426606      0.79566906917907
  H          -3.65378406370159     -2.10442787440442      0.73247697199841
  H          -5.18265166591590     -1.23411999812062      0.91695833696646
  H          -3.56023510592930     -0.40694518465536     -4.19158825627397
  H          -3.18367212594714     -2.13053625454973     -4.08863015860289
  H          -1.87524883819442     -0.95371333054420     -4.26676146124203
  H          -0.57756611170460     -2.31548170312111     -1.84706624173948
  H          -1.95112577434744     -3.35267661854232     -1.43072667236627
  H          -1.31021903411953     -2.21290374762754     -0.23639106276110
  H          -3.25494543538583      5.36436767691291     -1.26288162105776
  H          -3.35411044910796      4.27546161146948     -2.66891179033382
  H          -2.85558781963399      5.97420542749654     -2.89269132799769
  H           1.42466596223896      6.05095955094864     -3.65576034491661
