48
Coordinates from ORCA-job goat_0_1009 E -1253.934982722300
  O          -0.71651388485315      2.66459425444418     -0.54933961396200
  C           0.52349902773344      2.76874656935529     -1.22586417710571
  H           1.29725707623696      2.96616837262731     -0.47833430786230
  C           0.88819179636887      1.48174099391384     -1.96780611560850
  H           0.82712709722056      0.64036907893714     -1.27363331382525
  O           2.24345243464566      1.53150732349101     -2.41176482715109
  C          -0.08577504222442      1.23366692910922     -3.14771855793643
  H           0.52343017885714      0.95915832184974     -4.01882407962669
  C          -1.06905310108358      0.11054523754456     -2.88367346877610
  O          -1.86220344906746      0.41537071791998     -1.74150013781402
  Si         -3.54171229641813      0.31081519411513     -1.70518211151178
  C          -4.03618402412480     -1.44862858320709     -1.23320153708883
  C          -3.40727800381467     -2.44946548596282     -2.21346367982139
  C          -3.54541181976476     -1.75854686133718      0.18788043073034
  C          -5.56553762519510     -1.57849174119186     -1.28667896531119
  C          -4.04257213211674      1.54441646891397     -0.39600240801352
  C          -4.24628094914862      0.78836752695177     -3.36994315662149
  O          -0.86797942076960      2.38713586824106     -3.46062524163831
  C          -0.08782888983263      3.55823736643041     -3.56798916982903
  H           0.73859832597561      3.38576720720126     -4.27133035978121
  O          -0.86014140587661      4.56764860769614     -4.14638600562809
  C          -2.11532902476769      4.81747685830146     -3.50814385361769
  C           0.51503775048305      3.95209371501507     -2.20205307176884
  H          -0.06163588866641      4.76240706722860     -1.75071836842852
  O           1.87821701233007      4.35889797713468     -2.37031331805107
  H          -1.23812535564679      1.95289927036329     -0.96230468745889
  H           2.45447330416004      2.44694603708090     -2.64995107194112
  H          -1.69473738896767     -0.02987133668513     -3.76922520861198
  H          -0.51051471663407     -0.81304993738789     -2.70494574244965
  H          -3.70980096960596     -2.25378941194381     -3.24673856428305
  H          -3.72470899074542     -3.46890983806875     -1.96261717434374
  H          -2.31483054529911     -2.42404469916077     -2.16862331762718
  H          -2.46013954215816     -1.64440443256056      0.27165460775354
  H          -3.79451193951776     -2.79259235436103      0.45584213169786
  H          -4.01247495836126     -1.10169990257941      0.92742987719176
  H          -5.86730652843824     -2.58990717395169     -0.98869695057633
  H          -5.94989879789141     -1.40123800457003     -2.29550972400346
  H          -6.05665719012443     -0.87340077700814     -0.60869990607767
  H          -5.11135013056433      1.46517935520391     -0.17817859433609
  H          -3.84038597809106      2.56374510372672     -0.73802991833216
  H          -3.49246701671449      1.37996538080908      0.53440559040751
  H          -3.80165260082811      1.72553363219649     -3.71569714754058
  H          -5.32578798529434      0.93955818119654     -3.27580529983010
  H          -4.08057391341929      0.02541837146043     -4.13450221684831
  H          -2.49867848096256      5.74010980600804     -3.94303274556298
  H          -2.00545885793097      4.94914320394606     -2.42814527473536
  H          -2.81776769450053      4.00369216925666     -3.69837384291955
  H           1.90781253540928      5.09329837230620     -2.99549540352356
