48
Coordinates from ORCA-job goat_0_1058 E -1253.938169062422
  O           1.31224241469774      3.29347390945604     -0.14053258727396
  C           1.26216221359867      3.06707440168854     -1.54532897250484
  H           2.30181181440084      2.95260614871225     -1.86694625035840
  C           0.50486198004532      1.77355723160628     -1.87316549999679
  H          -0.25892398011823      1.61699308058743     -1.11177209885638
  O           1.35275378904985      0.63209740598749     -1.80130985123428
  C          -0.18380032875767      1.85111329932270     -3.23750184980606
  H           0.58285877689813      1.95464669630846     -4.01621643644748
  C          -0.99322425527657      0.60641891968447     -3.54698461952838
  O          -1.89614891115331      0.32427759880193     -2.49101046695594
  Si         -3.35845309670936     -0.42861834810148     -2.77481821698623
  C          -4.04267572318118     -0.83457449745714     -1.06480525863903
  C          -5.45850174268254     -1.41117665632589     -1.21129889090286
  C          -3.14123438510831     -1.86907002912827     -0.37600899592663
  C          -4.09951935819286      0.43667256362226     -0.20593573698403
  C          -4.48669605982368      0.73336060766523     -3.71551777096098
  C          -3.06977080240915     -1.97185090328888     -3.79606758595216
  O          -1.07965714618472      2.97058635405103     -3.32948322094568
  C          -0.80969048854690      4.08241384896354     -2.51315521183968
  H          -1.26109875571216      4.93771482690030     -3.02802072826221
  O          -1.36667426142167      3.94925103296034     -1.22514518230673
  C          -2.79205899932377      3.92018785686652     -1.22969766298750
  C           0.68092419707855      4.28023506195828     -2.29584292578845
  H           0.83309926248682      5.17376047289108     -1.68309970298818
  O           1.26180127210899      4.44044833971283     -3.58351934152530
  H           0.40102653728863      3.43258580988741      0.15042446645165
  H           2.06267399935757      0.74097601355393     -2.44643163489860
  H          -1.52358715075647      0.77692681367558     -4.49156151865596
  H          -0.30891709771384     -0.23533619157197     -3.68868878966641
  H          -5.86125770419916     -1.67192294846024     -0.22503018455659
  H          -5.46604758388570     -2.31924683100548     -1.82233099057209
  H          -6.14241396218106     -0.69014735996676     -1.66886759689415
  H          -3.10788473276287     -2.80968563666227     -0.93341253551876
  H          -3.52292268553860     -2.09078449594827      0.62822170919976
  H          -2.11630885620904     -1.50115139629577     -0.27066856787065
  H          -4.73591790552821      1.20338312499974     -0.65775857343242
  H          -3.10503701653470      0.86741051890672     -0.06161628052211
  H          -4.51219738678641      0.20171917450223      0.78298789033856
  H          -5.41660927005501      0.22732278140370     -3.99119112337765
  H          -4.00529632715963      1.07168521730404     -4.63812192257370
  H          -4.73983084631319      1.61544043291167     -3.12145486091918
  H          -3.99979538911887     -2.53467080521780     -3.91884608109432
  H          -2.33229413880133     -2.62787995377375     -3.32585701922152
  H          -2.70487048080308     -1.70849927868508     -4.79357333036722
  H          -3.11164439549661      3.87185310505879     -0.18918401178513
  H          -3.16338112167690      3.04403850879604     -1.76487377749655
  H          -3.18984555243650      4.82962718110555     -1.69413401056067
  H           2.18580164154826      4.68733699203666     -3.46269619004778
