48
Coordinates from ORCA-job goat_0_1139 E -1253.935593370603
  O           2.53379755975078      3.54852566727730     -0.71901328819831
  C           1.66590806284257      3.07792378314033     -1.73957417678481
  H           2.23863645009838      2.51308171186952     -2.48880293953263
  C           0.61300637287547      2.16747548343945     -1.13308230987336
  H          -0.02889405203089      2.75824619234664     -0.47153704595207
  O           1.15892520787706      1.14852004458035     -0.30819618527480
  C          -0.21055442286652      1.54253477474993     -2.27076284494420
  H           0.31817538025666      0.64134872363053     -2.59788466073196
  C          -1.58512274326683      1.12660816416541     -1.77620377319422
  O          -2.24300749027449      0.36590309001964     -2.77451415113823
  Si         -3.81811335817526     -0.17765935625115     -2.64254789618820
  C          -4.00267019016852     -1.38625365695736     -1.19486921467299
  C          -5.28997856136706     -2.20137430487217     -1.40050259749327
  C          -2.80273648537188     -2.34290127515009     -1.16095772632228
  C          -4.10639317636473     -0.64141908385198      0.14450697805989
  C          -4.98360639116363      1.27198113079875     -2.42367797740452
  C          -4.12925760508720     -1.03355756576533     -4.27346271516249
  O          -0.26506054449753      2.36313098897937     -3.44515361458499
  C          -0.25398026976800      3.75859711835948     -3.24336300921741
  H          -0.20496912175304      4.17713684669637     -4.25498626267153
  O          -1.40799772411629      4.21690426410203     -2.58577401064145
  C          -2.58745313847723      4.06137979255125     -3.37292906887918
  C           0.96583788119085      4.23520546531467     -2.43306934557948
  H           0.61318697899613      4.93042613262272     -1.66518572701999
  O           1.93941251104676      4.86694784574035     -3.25921699489620
  H           3.15516822478959      4.15695808222528     -1.13772570810295
  H           1.79503909900791      0.64387872486769     -0.83113174630763
  H          -1.43272352602864      0.52824273577808     -0.87135115924851
  H          -2.16916449047298      2.01137070086604     -1.50641440675428
  H          -5.23913541530128     -2.81653012280786     -2.30302022381980
  H          -6.17140385043373     -1.55660199780803     -1.48023989570474
  H          -5.44725342539103     -2.87223806860572     -0.54710915952335
  H          -2.93277527825221     -3.08380770340762     -0.36237361849071
  H          -1.86612310475072     -1.81070056151764     -0.97319313875596
  H          -2.69526615586243     -2.88773872591558     -2.10422748947002
  H          -4.21019106839982     -1.36232005909915      0.96497336270162
  H          -4.97905930580594      0.01726989389057      0.16986046603301
  H          -3.22188726887679     -0.03324937320449      0.35110611955198
  H          -5.99640538245344      0.91203377722927     -2.21786046601684
  H          -5.01778201694147      1.88024053222124     -3.33166396777242
  H          -4.68182505752169      1.91482202956436     -1.59238098117292
  H          -3.51968358176460     -1.93604351741486     -4.37272788538272
  H          -3.88377131947314     -0.36136413078171     -5.10084129986015
  H          -5.18028513549318     -1.31949153833156     -4.36868149959799
  H          -3.41838542349792      4.44047315313788     -2.77852002073624
  H          -2.76477058805069      3.01161193106174     -3.61669406898957
  H          -2.50394535419815      4.64023700071231     -4.29980030350012
  H           1.63236829498709      5.75681525980343     -3.46707235078059
