48
Coordinates from ORCA-job goat_0_1013 E -1253.943114286068
  O           2.67295903920591      3.99323386370165     -2.13255754448202
  C           1.57265694976303      3.21227337776880     -2.58442918747521
  H           1.99512254792816      2.52102099136724     -3.32366945349433
  C           1.00262764837444      2.38175772976675     -1.43916843195239
  H           0.65842835265599      3.06075231254923     -0.64518784736322
  O           1.99092633585668      1.49437270013151     -0.93449206685401
  C          -0.19044429027249      1.57094908187132     -1.93340108163651
  H           0.14170490551701      0.87397905702425     -2.71608083722001
  C          -0.85592914042541      0.78593737251004     -0.82227731684590
  O          -1.86316765404792     -0.05365048773962     -1.36034832581694
  Si         -3.42944089728362     -0.05681304390011     -0.78008187650221
  C          -4.37736949829569     -1.16540434850707     -1.97644424734026
  C          -4.33327000844393     -0.56064038813073     -3.38729042880079
  C          -3.74811865149196     -2.56548607431549     -2.00509374457183
  C          -5.83885499959997     -1.27596276233923     -1.51734767880646
  C          -3.43653488325822     -0.73856745281051      0.96439345463561
  C          -4.12403892651195      1.68197618595153     -0.75597236673236
  O          -1.15323337883068      2.47338380681144     -2.46698409814713
  C          -0.68817720504719      3.14687748713474     -3.62592746496360
  H          -0.37654651312805      2.39871261545785     -4.37563071533290
  O          -1.72223816309335      3.92737082899247     -4.11790982201362
  C          -2.74271869677841      3.16612108975849     -4.76500822871489
  C           0.49213549397335      4.05032410381120     -3.26451778352570
  H           0.12643932204336      4.81757475123085     -2.57433187148292
  O           0.99378489369353      4.74058598349696     -4.39659491276491
  H           2.33264518669437      4.68547655628320     -1.55099525040515
  H           2.79197863582554      2.01824392421378     -0.80325290851330
  H          -0.10114638451366      0.17474297747052     -0.32058992275941
  H          -1.26331548699620      1.49280877260697     -0.08901720758992
  H          -4.87035582645485     -1.20868290778620     -4.09087125401347
  H          -3.30570835827597     -0.45374473107424     -3.74645732892333
  H          -4.80515752996816      0.42579470600570     -3.41801554023641
  H          -4.29676658811550     -3.20947453123070     -2.70346033284110
  H          -3.77906238694121     -3.04230565462651     -1.02084976983586
  H          -2.70488120866397     -2.52950596389502     -2.33106049354510
  H          -5.91715592349536     -1.71488858382170     -0.51805652681841
  H          -6.40105347453804     -1.91755711075783     -2.20672924247143
  H          -6.33165413643132     -0.29921856750735     -1.49753292464958
  H          -2.81709613941736     -0.11329673028260      1.61541589368595
  H          -3.04232566643979     -1.75777303624469      0.99783334260114
  H          -4.44961397523949     -0.74800020368232      1.37698103095799
  H          -3.54846337174948      2.32599980124738     -0.08505231452904
  H          -5.15694432728241      1.66559865667419     -0.39504392011861
  H          -4.11281672622794      2.13329742578906     -1.75048149578964
  H          -3.24537984107893      2.49907420081867     -4.06044971388256
  H          -2.31666534283368      2.57618103597360     -5.58406842947852
  H          -3.46085098173496      3.88059911662690     -5.16621152411078
  H           1.41291727137605      4.09853206560584     -4.98353028852855
