48
Coordinates from ORCA-job goat_0_134 E -1253.936020515196
  O           2.70405361271936      1.90462074662564     -3.00391910534462
  C           1.31243258049170      2.14699844166138     -3.18326527501246
  H           0.97315097052086      1.70931069073181     -4.12987623192279
  C           0.57981321539190      1.47444239377563     -2.03886428216367
  H           0.84854893480413      1.97905935999868     -1.10070286169279
  O           0.90749416000360      0.09371773149507     -1.95017891181294
  C          -0.92686614230077      1.56673339134193     -2.28795179692939
  H          -1.18646240922606      0.72869531505385     -2.93892555398073
  C          -1.69440160924215      1.44839006796070     -0.97761055320201
  O          -3.09861802534308      1.50347666476918     -1.13160698055561
  Si         -4.11790648345190      0.44994810397548     -1.93020406591007
  C          -3.81095769795170     -1.34932306957819     -1.41895444585560
  C          -2.52207379721427     -1.90908908550907     -2.03902582428528
  C          -3.73259147003423     -1.45367730318511      0.11097294149027
  C          -4.99633248144008     -2.19467286178886     -1.91587895917769
  C          -5.81633185929595      1.01724245296074     -1.39015488764492
  C          -3.97958019062660      0.64381535961990     -3.78928987287429
  O          -1.29257134613910      2.73300636771776     -3.03588391685963
  C          -0.49225479688057      3.88080905988728     -2.85059009223468
  H          -0.90419028820445      4.61144200917704     -3.55589312797101
  O          -0.56047428926463      4.38041933982166     -1.54038982244800
  C          -1.84984141339088      4.89442666205826     -1.20838384850594
  C           0.99251050640156      3.63193702064315     -3.18205549188334
  H           1.59819461200774      4.11738645065261     -2.41112105202347
  O           1.33487749990159      4.13189669948645     -4.47071564222246
  H           3.15816102928893      2.14768881735186     -3.81857375327145
  H           1.87164846845322      0.03782398285590     -1.94048389971293
  H          -1.38794591987416      0.51354797260636     -0.49581522350862
  H          -1.40771090379448      2.26923852113769     -0.31732074039818
  H          -2.40097692986326     -2.96173271948688     -1.75460421775815
  H          -1.63051133636708     -1.37556047978393     -1.70112731774566
  H          -2.54748567093370     -1.86303535474799     -3.13152086588707
  H          -3.61132805427457     -2.50207650631675      0.41034613571424
  H          -4.64232143566910     -1.07619188711896      0.58760525654581
  H          -2.88537162750379     -0.89243164222182      0.51425500086329
  H          -5.11071204767312     -2.13545940540579     -3.00285868496283
  H          -5.93848114792858     -1.87986972839756     -1.45870890082716
  H          -4.83543950064819     -3.24818156601025     -1.65660032532026
  H          -5.92654963775436      2.08825183626175     -1.58548193697275
  H          -5.97523427007359      0.84843786649021     -0.32164581215038
  H          -6.60039508680025      0.49099461431902     -1.94114599645998
  H          -3.01896961480915      0.31185848139760     -4.18803826756418
  H          -4.11810583303986      1.69350712860308     -4.06421994890860
  H          -4.76672728473700      0.06044300981584     -4.27745955734971
  H          -2.60846264451834      4.10842449051635     -1.23090248562890
  H          -2.13125758880039      5.69177306132984     -1.90564363722745
  H          -1.77673875042804      5.30171671793287     -0.20020670925473
  H           1.39912399551307      5.09240077951856     -4.41722845119095
