48
Coordinates from ORCA-job goat_0_131 E -1253.937531495257
  O           0.86649546487622      2.31944603430456     -0.65173249932643
  C           1.27643909400657      2.19969568816142     -2.00559170539780
  H           2.26238546744559      1.72422934627016     -2.06631131076497
  C           0.27411902143100      1.28793116469935     -2.71114995873903
  H           0.07139864429273      0.42112891795735     -2.07614802474857
  O           0.92752629569201      0.87529145159292     -3.92000152437263
  C          -1.04925527753423      1.98129432543104     -3.02650814382658
  H          -1.56052835115346      1.37283567203160     -3.77867994277394
  C          -1.99922404376458      2.07445381492718     -1.82876976369113
  O          -2.36666014130281      0.75960010688112     -1.42923887361383
  Si         -3.87130000810269      0.12520681669766     -1.78333111802565
  C          -3.78127933813726     -1.67098640181662     -1.21668903499146
  C          -2.65249251414654     -2.39611749438852     -1.96358435542992
  C          -3.50773703446846     -1.72920642436172      0.29310184882492
  C          -5.11744062960896     -2.36583173777536     -1.51751690615277
  C          -5.18199643775339      1.08826421290113     -0.85537011376960
  C          -4.20665456139385      0.26005696824086     -3.62162726251952
  O          -0.85848555104812      3.24459832600053     -3.67173182395228
  C           0.01005215168260      4.16525864262272     -3.04085665317663
  H           0.14996510509955      4.95259193592076     -3.79038161972599
  O          -0.52969748089319      4.71324300656640     -1.86938521001066
  C          -1.62668490516879      5.58739399176604     -2.12015329684504
  C           1.37572144317274      3.55167514762090     -2.72422861773334
  H           1.92488592269510      4.25843996465068     -2.09711461105195
  O           2.11526994478794      3.40715390889809     -3.93154248711817
  H           1.48077505836175      2.91182524501482     -0.20352144635841
  H           0.29563899708173      0.38327274118781     -4.45730594604755
  H          -1.52919987657970      2.57609708946458     -0.98635032494609
  H          -2.87081990137969      2.66205242644752     -2.13840042230097
  H          -2.82077310204158     -2.40053015046817     -3.04463583254568
  H          -2.59398344471669     -3.44027184116534     -1.63253598857953
  H          -1.68165966035193     -1.92939352158028     -1.77426888231109
  H          -3.44382495599120     -2.77340050892565      0.62297511061546
  H          -4.30578474131352     -1.24852224311209      0.86658477118101
  H          -2.56421510113547     -1.23867024583791      0.54890358762344
  H          -5.95043757933270     -1.88545014150978     -0.99515966302475
  H          -5.07853172972176     -3.41145244089801     -1.18891270191850
  H          -5.34287303256854     -2.36296344579586     -2.58825215101888
  H          -5.00726953425929      1.06320978685069      0.22346399417914
  H          -6.17598802605233      0.67575430715276     -1.05197090527961
  H          -5.18666603417610      2.13465532502866     -1.17574014238322
  H          -3.47819668692387     -0.30418621374107     -4.20967443845372
  H          -4.17016323286556      1.30523518871860     -3.94415445041812
  H          -5.20466033649940     -0.12381034138348     -3.85298594790290
  H          -1.32242730408666      6.40231169131842     -2.78725488617776
  H          -1.93064854870060      5.99972517919782     -1.15820153130376
  H          -2.46856992498420      5.05179414280364     -2.56689771097330
  H           1.78328641753179      2.60765058543221     -4.36901108272170
