48
Coordinates from ORCA-job goat_0_220 E -1253.935661989832
  O           2.56424434886792      2.39887641191008     -2.26418192287487
  C           1.29118728263439      2.76416820053425     -2.78569328961221
  H           1.48277206179036      3.11423230982035     -3.80495948197578
  C           0.31304051470188      1.59399333090778     -2.82765808322338
  H           0.35533502056867      1.06916289286154     -1.86887385388944
  O           0.70253968419681      0.62387936724074     -3.79361847893286
  C          -1.12743093174832      2.10607846958981     -3.04306995082704
  H          -1.56464686025320      1.52137279195654     -3.85543261859554
  C          -2.01614608884789      1.92490264390093     -1.80970280994332
  O          -2.15641405510090      0.54681638458291     -1.51438780083840
  Si         -3.25326159269404     -0.48501593122862     -2.24504573667594
  C          -3.97398296404402     -1.53336828533467     -0.84976848395231
  C          -4.71913908060012     -0.62714657002962      0.14037575653408
  C          -4.95137483603056     -2.56751438712624     -1.42666421986279
  C          -2.84131144390826     -2.26286723802522     -0.11264720207057
  C          -4.57916319043273      0.51133077909045     -3.11390491333020
  C          -2.35047347304407     -1.55598658688553     -3.48620491345439
  O          -1.14526672421005      3.45191507689447     -3.52970571087576
  C          -0.55836491556769      4.42786765407832     -2.69212183044173
  H          -0.27451833637630      5.24070401527375     -3.37057513851722
  O          -1.44530344031792      4.90780454509604     -1.71866373078386
  C          -2.53557592921069      5.64344824416785     -2.26832468175909
  C           0.68772886973137      3.90695424240304     -1.98054182318584
  H           0.40827166129502      3.53708262488212     -0.98500761248474
  O           1.59931102304957      4.98753694070697     -1.85255528562180
  H           2.42913585633134      1.94149900912968     -1.42401104199857
  H           0.69171639231655      1.04229265002946     -4.66342380612792
  H          -1.57809256095436      2.40603869768515     -0.93334545111197
  H          -2.98420225047068      2.39658457061151     -2.00221992969272
  H          -5.56346328779691     -0.11853691093571     -0.33440547074916
  H          -4.05773281783145      0.13591880496633      0.56128681575494
  H          -5.11516871563148     -1.22323172926454      0.97164463727583
  H          -5.38283211864132     -3.16863318952496     -0.61701173486645
  H          -4.45270211601909     -3.25320420598391     -2.11794367957746
  H          -5.77854209408679     -2.09036055853367     -1.96127457240130
  H          -2.29923841810664     -2.94235245406566     -0.77713998985923
  H          -3.25242048828041     -2.86027559235845      0.71041593328451
  H          -2.12080457709074     -1.55833010242843      0.31274878462278
  H          -4.15358313744001      1.11216890026985     -3.92308483488159
  H          -5.10399719216005      1.18207645615787     -2.42883454394824
  H          -5.31562144613586     -0.16658228170244     -3.55551980515617
  H          -1.94668123554095     -0.94467257119472     -4.29795267497496
  H          -3.02684074054374     -2.29633130744092     -3.92332142244190
  H          -1.51790152527163     -2.08822911045532     -3.01803358112351
  H          -3.10015652099809      6.04730932119328     -1.42828696055699
  H          -3.18450907438147      4.99798887436699     -2.86626991606370
  H          -2.16836528450114      6.46678373524705     -2.89171472243368
  H           2.44777674878610      4.59843106696334     -1.60121821577723
