48
Coordinates from ORCA-job goat_0_32 E -1253.938625418793
  O           2.50892408168675      2.45881197367988     -2.31490205906545
  C           1.25832257311915      2.38584395477702     -2.98874009027177
  H           1.30869003743922      1.64191667535321     -3.79433103444575
  C           0.12077453065361      2.02077045474618     -2.05679344124081
  H          -0.01959961444057      2.82498485526548     -1.32268570174286
  O           0.46627203817252      0.81433030256625     -1.38594863654032
  C          -1.14814136698071      1.83010782006260     -2.89599603471159
  H          -1.11363321441857      0.81157931439116     -3.29409907123488
  C          -2.41065515461120      1.98391863798161     -2.05748354224508
  O          -2.33517404937992      1.05748464512080     -0.97715989580228
  Si         -3.57591899623806      0.01704472418148     -0.54147402163359
  C          -3.59892702497431     -1.48371169760761     -1.69210644020563
  C          -2.22245765833023     -2.16384367743465     -1.67877820496885
  C          -4.66181530531822     -2.47682221356638     -1.19682532843821
  C          -3.93851267526399     -1.06652493724228     -3.13027267714382
  C          -3.15236847051265     -0.48054287417983      1.20767237076955
  C          -5.20143860654772      0.94211041796564     -0.59801162803477
  O          -1.19254334174640      2.68695225924118     -4.04467932330570
  C          -0.50524363583758      3.91658647154715     -3.94610564322423
  H          -0.58663199268133      4.35253378180604     -4.94717406829204
  O          -1.08206591063322      4.77325073978404     -2.99506660374873
  C          -2.36297402490493      5.25925691417634     -3.39260796775780
  C           0.98079771905170      3.75164786576300     -3.59189594941021
  H           1.23459884171808      4.51155293235875     -2.84564469089435
  O           1.73121364966588      3.96442186052669     -4.78327497652869
  H           2.66589469312350      1.59717575501951     -1.90955449773111
  H          -0.31642129700448      0.55906912456653     -0.87626542599086
  H          -2.46908179574993      2.99671001597468     -1.65085025455632
  H          -3.28981969484288      1.81162366420283     -2.68539521225065
  H          -1.95301231261348     -2.51236670533096     -0.67735283879438
  H          -1.43684001747055     -1.48524678919999     -2.02363773184654
  H          -2.22724931366035     -3.03609969646893     -2.34386862336744
  H          -4.68786798261428     -3.35489761649718     -1.85349739369562
  H          -5.66235575635193     -2.03351481878754     -1.19821150873280
  H          -4.44838510944651     -2.82749537299152     -0.18286424460336
  H          -3.98246911625740     -1.95304049859008     -3.77482451784695
  H          -3.18286819867693     -0.39626441741272     -3.54879909154898
  H          -4.90874814124745     -0.56493965548663     -3.19057171742785
  H          -3.14446400472077      0.40074496622034      1.85556076451379
  H          -2.16634126345135     -0.95019941598522      1.25845962270432
  H          -3.88698297972371     -1.18676861615885      1.60397062931287
  H          -5.45976065042197      1.26695372105733     -1.60897506564352
  H          -5.15196554997903      1.82678327102925      0.04381890119903
  H          -6.01158502606628      0.30444214525024     -0.23239844586309
  H          -2.70454923836950      5.93077342586739     -2.60544330544697
  H          -3.08069240305141      4.44336764160748     -3.51074135052784
  H          -2.28338166010111      5.80992942291033     -4.33649469475284
  H           2.66528439001064      3.88217924794037     -4.55552933698471
