48
Coordinates from ORCA-job goat_0_343 E -1253.942213229051
  O           2.22379975924857      2.67939197205230     -2.58967555070190
  C           0.89255095588320      2.48141462848543     -3.05581624845600
  H           0.86970205415416      1.64738193865399     -3.77018022413150
  C          -0.06753396803979      2.16595517493328     -1.92157147492324
  H           0.01218678214839      2.95197332209505     -1.15747684745156
  O           0.31981969678983      0.90714640360660     -1.38533188933241
  C          -1.50270419865623      2.14462166926430     -2.45789845603842
  H          -1.60330526257587      1.30395125162096     -3.15877568763618
  C          -2.54550811950619      2.02653256297514     -1.35387251194492
  O          -2.29923235145318      0.86729309002367     -0.56830847737557
  Si         -3.43795492327087     -0.32497286117644     -0.24502148189036
  C          -3.62977316955018     -1.46877945376120     -1.73843762905967
  C          -2.25246804032454     -1.99637212590740     -2.16567816183454
  C          -4.52572294017619     -2.65422175495340     -1.34491985622589
  C          -4.27600656997822     -0.72948294789410     -2.91891071791927
  C          -2.71862727479393     -1.23569899318134      1.21686719913341
  C          -5.06124933501329      0.48810220870196      0.20414138351380
  O          -1.79463076472673      3.37029432240223     -3.12092830611241
  C          -0.96428024196369      3.60065411512345     -4.25159019944968
  H          -1.03584865289445      2.74899869597905     -4.94022506565696
  O          -1.46335725782083      4.69073402881052     -4.95279361060723
  C          -1.31626156356101      5.96217850959855     -4.31428132717521
  C           0.47931475665546      3.75285232630071     -3.77633289959349
  H           0.54299755078177      4.59012129985265     -3.07100520469199
  O           1.29774722275563      3.99070655002039     -4.91058179840581
  H           2.54393992766852      1.83599808897436     -2.24867038175145
  H          -0.41349475644270      0.61352616584239     -0.82183050313228
  H          -2.48012244918902      2.91081271307384     -0.71133214451676
  H          -3.54090776633021      2.00858816253572     -1.80658129356038
  H          -1.58185121008298     -1.18279672084058     -2.45563264758739
  H          -2.35855582744866     -2.66738084402507     -3.02681843485048
  H          -1.76941040225775     -2.56166862586908     -1.36302542881387
  H          -4.65435415488552     -3.32447351352752     -2.20336456631617
  H          -5.52114675121173     -2.32497993084418     -1.03103110692519
  H          -4.08949460916725     -3.23904764937404     -0.53010539198615
  H          -3.66171135206422      0.10613208348111     -3.26480863394282
  H          -5.26494291652881     -0.33954234337591     -2.66143319320523
  H          -4.39953284322788     -1.41627953386641     -3.76518811623518
  H          -2.58809206670371     -0.54796966041669      2.05733711757647
  H          -1.74427100473893     -1.66901481659515      0.97538964517290
  H          -3.38062213506064     -2.04388975081874      1.53920134634637
  H          -5.47199293049791      1.07964241079531     -0.61772168855961
  H          -4.92562456788649      1.14702352689098      1.06685894772001
  H          -5.80060614972776     -0.27228885075346      0.47242480468340
  H          -1.93966280193998      6.65687833095652     -4.87638224567340
  H          -0.27759790314940      6.30162682909637     -4.35066184500480
  H          -1.65957712887514      5.92819764144094     -3.27771026185847
  H           2.21380765563673      3.90271035359300     -4.61815893361261
