48
Coordinates from ORCA-job goat_0_24 E -1253.937936746525
  O           2.41083699704963      1.77929387536038     -1.92949906761156
  C           1.31718273172317      2.32324431533091     -2.65655219530994
  H           1.59964980494568      2.47079118507098     -3.70677593074292
  C           0.17294931627723      1.32613806905677     -2.58270660280062
  H           0.07965989169383      1.00234057467328     -1.54006679587865
  O           0.42306464516544      0.19004426390133     -3.40904157910725
  C          -1.14766107697971      1.97220045228289     -3.02861360155793
  H          -1.58226879749228      1.32752238672107     -3.79367133517274
  C          -2.15780998033485      2.08807921926867     -1.88646355463372
  O          -2.45523194359225      0.78599769689466     -1.40690465210128
  Si         -3.87190645521768     -0.00603658176039     -1.80829676240075
  C          -3.62958442690534     -1.76875230589985     -1.18456307602305
  C          -3.36400980924206     -1.75774703805234      0.32762603295920
  C          -4.89852247606607     -2.58516386719441     -1.47105856690207
  C          -2.43583603057170     -2.41450815100809     -1.90295581456959
  C          -5.30744442542696      0.84940362199863     -0.96394690583763
  C          -4.13530753235770      0.04703949600978     -3.66179325943448
  O          -0.94072589802651      3.22391547267194     -3.68998723266837
  C          -0.25285149237134      4.21962389817988     -2.96019127102794
  H           0.19509935350032      4.86346197984879     -3.72604088301568
  O          -1.10292536484064      4.97814540177238     -2.14135711163073
  C          -2.02219517582336      5.78088893087850     -2.87829719141441
  C           0.85547102147110      3.64596475753581     -2.07342139602537
  H           0.46903223027306      3.48109895353384     -1.06178733676659
  O           1.97348784137299      4.52437865186963     -2.02508255935597
  H           3.10316423327713      2.45198872634902     -1.91347477723380
  H           1.23529966074371     -0.22401328872935     -3.09210609379868
  H          -1.75381087458748      2.67440386560601     -1.05848051424260
  H          -3.04947973346577      2.60601239088141     -2.25718998646815
  H          -2.46369151699721     -1.18707538942474      0.57226900455570
  H          -3.22080683833016     -2.78289100441537      0.69074549762795
  H          -4.20147487842411     -1.32358369352788      0.88181760295740
  H          -5.12082903031161     -2.62588729268993     -2.54177158957924
  H          -5.77145662108057     -2.16804365157212     -0.95977912045993
  H          -4.76912674077932     -3.61593132596722     -1.11947482980880
  H          -1.51266931370684     -1.85381845435374     -1.73152345392393
  H          -2.59844724892310     -2.47442129487324     -2.98310154798697
  H          -2.28313537052532     -3.43568184377065     -1.53263448786460
  H          -5.19585131873732      0.83739738732635      0.12352395010735
  H          -6.25444879660121      0.36435697526668     -1.21793732195798
  H          -5.36975536343135      1.89294891982927     -1.28820666108092
  H          -5.07334145121443     -0.45185119417140     -3.92297869267068
  H          -3.32337391579250     -0.44608039601560     -4.20221369609502
  H          -4.20116858014875      1.08144113373008     -4.01313369006274
  H          -1.48701059630814      6.43573714109183     -3.57552928464562
  H          -2.56518576675133      6.38729081758318     -2.15369346250230
  H          -2.72860421474275      5.15938329849810     -3.43494524619355
  H           1.79088132861471      5.21353291440434     -1.37658294964241
