48
Coordinates from ORCA-job goat_0_164 E -1253.941725198877
  O           2.66909203674894      3.54092212259927     -1.90482652983274
  C           1.37824669709684      3.17104480454489     -2.37763650123398
  H           1.37621125163987      3.14443887114973     -3.47585499751959
  C           1.09311833430351      1.77088517658636     -1.86413097986929
  H           1.18398555292232      1.76850171189246     -0.76898845600638
  O           1.99920546506726      0.83753579080738     -2.43759619824209
  C          -0.32631984143421      1.34790216510384     -2.24524892943887
  H          -0.39606216907703      1.29297299930144     -3.34001583508267
  C          -0.67493029370979     -0.01328225186790     -1.65300839510438
  O          -1.48866932918353     -0.81177072687914     -2.49154573830366
  Si         -3.12810777535775     -0.74771943594785     -2.79017894837112
  C          -4.14219445031924     -0.76788202306635     -1.18901385343459
  C          -5.57859529169382     -1.19352680852746     -1.53850014151425
  C          -3.54854617993035     -1.78596177216014     -0.20489658561982
  C          -4.19454630782419      0.61824413472414     -0.53164925956535
  C          -3.54369444619889      0.74580187259741     -3.83672970542891
  C          -3.43588643345164     -2.30690537359364     -3.77696834067017
  O          -1.25723103343133      2.30997549563167     -1.74302803653260
  C          -1.06728192496939      3.60431517321620     -2.29665664847123
  H          -1.17076422199973      3.55000003541930     -3.39275626192861
  O          -2.00717835345781      4.47110346590419     -1.75635506682112
  C          -3.32350454186251      4.32629061414058     -2.28871666284071
  C           0.30781477134031      4.13855321803709     -1.91360739238291
  H           0.34358681453745      4.22949947925852     -0.82094672737514
  O           0.56407240994102      5.39054615987432     -2.53286180744493
  H           2.89479469348390      4.39171799039122     -2.29898602193564
  H           2.88952807447334      1.17924970773589     -2.28829680050814
  H           0.25071102354029     -0.57009299678460     -1.49804950162832
  H          -1.13869270950273      0.14771727407617     -0.67488038626282
  H          -6.03130703601431     -0.52690948314777     -2.27984515857121
  H          -6.20499343062887     -1.16174825080630     -0.63864510399270
  H          -5.61438588312708     -2.21233276260101     -1.93343821883166
  H          -4.18268613852747     -1.85956968778880      0.68726660710377
  H          -2.54597463008200     -1.49881869438045      0.12286886829195
  H          -3.48290578319214     -2.78454206908156     -0.64805917229802
  H          -4.77576621522994      0.56833023137515      0.39765980174453
  H          -4.67950924524948      1.34777069022754     -1.18625565713187
  H          -3.20159119389638      1.00136365286969     -0.28558902581691
  H          -3.05645876459230      0.66414890185126     -4.81312831400794
  H          -3.20648568900922      1.66744985521767     -3.36199422206990
  H          -4.62330093200039      0.81733471084328     -4.00040044960031
  H          -2.73524854498860     -2.36000501994964     -4.61561775358414
  H          -4.45100442860316     -2.31735432484103     -4.18340790625938
  H          -3.30379659633848     -3.20310748638192     -3.16439613939211
  H          -3.29783280117217      4.33185403728857     -3.38348557586755
  H          -3.90086176637506      5.17949791686331     -1.93355442447169
  H          -3.78803886354502      3.40233013288610     -1.93807813251984
  H          -0.06818387911850      6.02681077539132     -2.17781931335477
