48
Coordinates from ORCA-job goat_0_208 E -1253.937178702614
  O           0.52084353899416      4.64515381063715     -1.08490575013122
  C           0.66502036013469      3.58117288632083     -2.01822560042935
  H           1.69621414229493      3.54964350734085     -2.39421412452240
  C           0.30890214531408      2.23714788752840     -1.39524168295442
  H          -0.60953963173447      2.36769495552327     -0.81918671133625
  O           1.29003918146323      1.85017034387387     -0.43544442933452
  C           0.07576850627573      1.17584007009867     -2.48839420840227
  H           0.70312759592119      0.31144120681911     -2.26007937697928
  C          -1.37175220270981      0.69020530004176     -2.52860778406026
  O          -1.62052619790366     -0.00147546848031     -1.31582614173356
  Si         -3.08202498388523      0.07011231650147     -0.50499267515770
  C          -4.44085865410891     -0.77059790463468     -1.51890839993808
  C          -4.85629708378902      0.09977313450185     -2.71417217127362
  C          -3.93240155128892     -2.12504337524030     -2.03253392108426
  C          -5.66597100128927     -0.99613853418981     -0.61917512687519
  C          -2.76067034860210     -0.84729453365269      1.08936475026787
  C          -3.52008297195382      1.85788397629128     -0.15866853176006
  O           0.52986764713295      1.62393668708332     -3.76962008363686
  C          -0.05712166058145      2.80984891626634     -4.26505544871863
  H           0.66879294570611      3.19315798986496     -4.99125706056208
  O          -1.28755539070662      2.58195722905633     -4.89729323791369
  C          -1.16857799696882      1.82028286792019     -6.09645408421228
  C          -0.27719434092643      3.85769097435316     -3.17440938663359
  H          -1.31156447281344      3.79323391154198     -2.81292407347005
  O          -0.04823775112683      5.13215127527841     -3.75805330208321
  H           1.14682713779552      4.49326558018648     -0.36697514374796
  H           2.12381151657472      1.70055625861989     -0.89921293741470
  H          -2.05772798050329      1.53230944716036     -2.65497460331751
  H          -1.50134836141860      0.01791777522274     -3.38248588395780
  H          -4.02459989094449      0.27611171463162     -3.40188657685473
  H          -5.24019830340908      1.07200671245662     -2.39200662317579
  H          -5.65138324570774     -0.40073956171355     -3.28063525413114
  H          -3.07521958411416     -2.00305801367259     -2.70097873313981
  H          -4.72466635437483     -2.63766127682913     -2.59196478996645
  H          -3.62857157830641     -2.78152085290956     -1.21129553164382
  H          -6.47577034816942     -1.45622127877239     -1.19848922683147
  H          -6.04682157069435     -0.05554051754290     -0.20834845057229
  H          -5.43576321481427     -1.66159612269273      0.21767982836917
  H          -3.62010832864634     -0.77149999766188      1.76120439751068
  H          -1.89321402566356     -0.41746490222036      1.59870045626597
  H          -2.56147509080024     -1.90707289674651      0.90868455624136
  H          -4.49981634095305      1.92010818970344      0.32467453914177
  H          -3.55913226578489      2.45903005548403     -1.07084393116907
  H          -2.78226554972000      2.30536869354165      0.51390688979719
  H          -0.82365394887819      0.80461858599342     -5.88535062174993
  H          -0.47171999144559      2.30322933616352     -6.79115719449628
  H          -2.16067684268787      1.78055213422353     -6.54549207811298
  H          -0.10687566018187      5.78193150672868     -3.04632452410949
