48
Coordinates from ORCA-job goat_0_13 E -1253.939465198130
  O           2.51118825551135      1.84105736172488     -2.23314362425202
  C           1.37545172154473      2.37462996963146     -2.90322834211964
  H           1.49311379208587      2.26233857125164     -3.98881363351994
  C           0.08572430211475      1.69954375322374     -2.48248509553493
  H          -0.10946578807568      1.91152498158790     -1.42335567421132
  O           0.23773283262283      0.29728692944665     -2.67180607287908
  C          -1.04948617211173      2.24386295824857     -3.35719551589161
  H          -1.02302819082325      1.68525074432666     -4.29775218739004
  C          -2.41208625769033      2.03996419134196     -2.70900935678402
  O          -2.56283710140142      0.64413856454947     -2.46731545710898
  Si         -3.97817131605393      0.02102259237133     -1.81626815542248
  C          -3.57403335129238     -1.77579038878014     -1.41481156040558
  C          -2.50886687223770     -1.83862344897157     -0.31070479068405
  C          -4.85006548438520     -2.47957562330442     -0.92807700867049
  C          -3.05072524662700     -2.49085085634153     -2.66891765006106
  C          -4.42729846263385      1.00193170534812     -0.28771131205332
  C          -5.34572169946103      0.16837319500167     -3.08415735377593
  O          -0.86455315574619      3.61772635119858     -3.72236943702264
  C          -0.11218894806136      4.41268382087187     -2.82959338496532
  H          -0.02248908237397      5.37870271460859     -3.33695597980392
  O          -0.75201079342970      4.57172312335616     -1.59019716159073
  C          -1.92256035719258      5.38313216418234     -1.66960077890951
  C           1.29432729712428      3.85371395373234     -2.56585934144731
  H           1.50831898205222      3.97286067844358     -1.49876080744457
  O           2.21067987198838      4.62194160865876     -3.33934822818917
  H           2.54267124858850      0.89687277321910     -2.43031283960057
  H          -0.63497072821190     -0.08983247118827     -2.51034955439845
  H          -2.46244185769210      2.59384752797171     -1.76735227914278
  H          -3.19595901879132      2.40968357988871     -3.37939356012734
  H          -2.26281324569783     -2.88361149903405     -0.08637335713325
  H          -2.86043786897239     -1.37392498895561      0.61502308943142
  H          -1.58443525632181     -1.33589061490636     -0.61017622999866
  H          -4.62768423573563     -3.52288397834482     -0.67401940721685
  H          -5.62747342173483     -2.48393849468215     -1.69780045023725
  H          -5.26187218004270     -2.00170640405326     -0.03371754089531
  H          -2.82964459133062     -3.53964029733469     -2.43625569919602
  H          -2.13160413117864     -2.03091122858947     -3.04261078495282
  H          -3.78722669103432     -2.47865722971989     -3.47788423036446
  H          -4.70936791160597      2.02506342651492     -0.55325961011328
  H          -3.59154567342837      1.04863984979922      0.41558162372026
  H          -5.27900536539875      0.54313738653358      0.22302424137344
  H          -5.12820364129293     -0.42186244870107     -3.97828648770873
  H          -5.47539878657350      1.21196482502899     -3.38653437559538
  H          -6.29583128958582     -0.17796357111514     -2.66713690632769
  H          -2.32419558945816      5.45783500618122     -0.65945921626450
  H          -2.67402278138240      4.93778237704437     -2.32676270161386
  H          -1.66714987323497      6.38276560742159     -2.03830982888664
  H           3.09549411466942      4.27724125131270     -3.16804598461313
