48
Coordinates from ORCA-job goat_0_294 E -1253.934905024952
  O           2.43922954342132      3.55809619595893     -3.76031567395757
  C           1.08677677866322      3.36399863074354     -3.37698879751090
  H           0.51204899414684      3.40642446745320     -4.30984176603007
  C           0.83637551637761      2.00749760986685     -2.72509838923858
  H           1.33404172738012      1.97710022012346     -1.75034214055615
  O           1.38969539731202      0.92715122400877     -3.46245140077817
  C          -0.67783036759741      1.81125167543176     -2.55995098719821
  H          -1.05914964116585      1.46714028252275     -3.52715931320107
  C          -0.97125021131616      0.75343815743786     -1.50400282949298
  O          -2.35439350789186      0.50223112807627     -1.33486476924799
  Si         -3.32539817883899     -0.25259710450288     -2.46659362910600
  C          -4.65500540594216     -1.13954015353000     -1.46089215656671
  C          -4.00689918310980     -2.23649975077349     -0.60450809769560
  C          -5.36891518915785     -0.13676227401885     -0.54266385296941
  C          -5.68174453955201     -1.77708208247253     -2.40835720363605
  C          -4.09691058205544      1.02202968146364     -3.60162456222543
  C          -2.29835500258928     -1.45696710513021     -3.46823421550006
  O          -1.38115025172680      3.03620895775069     -2.31203409857028
  C          -0.64830064807704      4.04565807667905     -1.65259214627261
  H          -1.34173634236580      4.89115966180907     -1.58778475026702
  O          -0.23514412989487      3.65900915925328     -0.36785457343412
  C          -1.32300073889937      3.52561677316787      0.54626354697087
  C           0.59768819686822      4.47594950550045     -2.44773213668545
  H           1.38685099497941      4.70126349573462     -1.72680709747749
  O           0.36813245518348      5.68645982012556     -3.15706863207989
  H           2.99105565120308      3.48024835315310     -2.97162972209654
  H           1.06250673484019      0.97879862857815     -4.36974407614530
  H          -0.44172146152085     -0.16089895104567     -1.79399065234896
  H          -0.57519989019488      1.07995866426652     -0.54061817148549
  H          -4.76810640771646     -2.73427633077772      0.00878645872617
  H          -3.25024766755629     -1.82498545113918      0.06994830648100
  H          -3.52846906991216     -3.00074476404211     -1.22403841786672
  H          -6.14152472279905     -0.64937772719942      0.04361498066349
  H          -5.85911510533886      0.65708265620031     -1.11426213677528
  H          -4.67217202623427      0.33141900311682      0.15820911794886
  H          -6.44197934396136     -2.31572172207676     -1.82966695062697
  H          -5.21450101301890     -2.49523470773660     -3.08936235446948
  H          -6.19681779609175     -1.02421179092884     -3.01198313601915
  H          -3.33144154970229      1.56241089778107     -4.16476676955003
  H          -4.67908962514178      1.75338428142502     -3.03426867602651
  H          -4.76494374356634      0.53883235485782     -4.32084529145188
  H          -2.94433788260999     -2.02971625673447     -4.14022428908677
  H          -1.76727014277758     -2.16312436060909     -2.82430147886011
  H          -1.55966121776869     -0.93401965215876     -4.08259283196499
  H          -2.01898859363723      2.74638289795772      0.22564267192568
  H          -1.85963208387831      4.47658407574576      0.63761788382623
  H          -0.89378545698253      3.25518750274231      1.51069355732872
  H          -0.29238326978504      5.51636614594448     -3.84056834939877
