48
Coordinates from ORCA-job goat_0_1032 E -1253.936689465969
  O          -0.68545894834606      2.69343172329238     -0.58584443670166
  C           0.52381315185449      2.80886460207384     -1.31789687356203
  H           1.32292879853645      3.02049852670863     -0.60009046279142
  C           0.87051909059011      1.51781741791154     -2.06091544462813
  H           0.86846613070042      0.67472559743377     -1.36371877809912
  O           2.16943655291821      1.65658439014042     -2.65310241790908
  C          -0.12686221131056      1.24694148954575     -3.20543921540268
  H           0.46068050567804      0.94598768662264     -4.08285384489055
  C          -1.10773261647114      0.13316665290820     -2.89650679058691
  O          -1.87574134621208      0.45813160025741     -1.74376436689565
  Si         -3.55464768557748      0.36070084181627     -1.66982692837775
  C          -4.04505702003618     -1.38952299338296     -1.16163591431208
  C          -3.43552451171879     -2.40759542067680     -2.13630386761601
  C          -3.53083883031286     -1.67835390799030      0.25564107446056
  C          -5.57551361595312     -1.51573387879217     -1.18648712685125
  C          -4.02216993157588      1.61480847309554     -0.36787173215920
  C          -4.29247287335106      0.81627651192428     -3.32656361360658
  O          -0.90222456570063      2.39934614608947     -3.52656395958906
  C          -0.10639272984371      3.56160818549140     -3.66502341918311
  H           0.72533847140765      3.35549849208057     -4.35141186451710
  O          -0.86179555687450      4.55524860081304     -4.29171015107252
  C          -2.12340004677726      4.84202215842592     -3.68514185265659
  C           0.47579734993257      3.98921992169377     -2.30379463782905
  H          -0.14994175090140      4.76098584514460     -1.85594309645877
  O           1.75628127437360      4.58434805944662     -2.49231615412754
  H          -1.22528832994816      1.98806954657469     -0.98572961765200
  H           2.82541900511133      1.59639479073848     -1.94764550421667
  H          -1.75185711389526     -0.01908989613747     -3.76674894434963
  H          -0.54797901566790     -0.78915892947781     -2.71528995648571
  H          -3.75349345869385     -2.22669577729883     -3.16765439263256
  H          -3.75246252910256     -3.42190943457169     -1.86492636304618
  H          -2.34240963061847     -2.38533949247156     -2.10907051487769
  H          -3.77729146233160     -2.70757435860457      0.54385326440003
  H          -3.98387801894675     -1.00913868004625      0.99279087747446
  H          -2.44402356152442     -1.56534512018161      0.31919638475568
  H          -5.87457960664578     -2.52062590168166     -0.86466218555199
  H          -5.97697155456082     -1.35604251730261     -2.19158855614825
  H          -6.05313509025439     -0.79688370855002     -0.51327625291311
  H          -3.45354977646893      1.46047353427697      0.55308442880876
  H          -5.08649944359883      1.54362722379593     -0.12668181361167
  H          -3.82242116459008      2.62831560374003     -0.72812026970910
  H          -5.36861017293287      0.97622997392624     -3.21006720369335
  H          -4.14999655686188      0.03927850026126     -4.08162513291082
  H          -3.85067764606698      1.74483936098398     -3.69831099334713
  H          -2.02856012566389      5.03955588816643     -2.61369378068651
  H          -2.82540810645531      4.01916112104492     -3.83502602034517
  H          -2.50072231291172      5.73712226477679     -4.17903202704301
  H           2.34473858760058      3.88230928596421     -2.80253955085493
