48
Coordinates from ORCA-job goat_0_1063 E -1253.937568525476
  O           1.80434251296429      1.66575369287411     -0.80679383446082
  C           1.03424979635356      2.42416893585098     -1.73151097380843
  H           1.57433875051361      3.34014920126261     -2.00583110922602
  C           0.83789358447726      1.57480140556335     -2.97638247211060
  H           0.55606317103696      0.56982781141133     -2.64619965422390
  O           2.03765531659472      1.50374264603835     -3.74837899047972
  C          -0.27342490509949      2.14575362473983     -3.87286555643420
  H           0.15641394687917      2.28449101473040     -4.86720643951171
  C          -1.44773697504337      1.19210022885560     -4.04427333392278
  O          -1.89797663838218      0.67979352907204     -2.80391739807077
  Si         -3.32647291381387     -0.17250498921093     -2.66840844854291
  C          -3.45572285848529     -0.64146384254702     -0.84453648452713
  C          -4.59109225696305     -1.66237965046616     -0.67282912345419
  C          -2.13656612549240     -1.26784949189857     -0.37040794234125
  C          -3.76405056137867      0.59855314501182      0.00674401679166
  C          -4.75901060579922      0.90323006310593     -3.21266541446299
  C          -3.24130625993647     -1.69013111747709     -3.76345148035663
  O          -0.65828068127035      3.47217305223261     -3.48928130044287
  C          -1.03770991847189      3.70842583297607     -2.14869099618824
  H          -0.73600605901388      4.74645159815053     -1.95843930131135
  O          -2.41716043609088      3.58183203414624     -1.93888425525171
  C          -3.18195354789066      4.57277137209560     -2.61582567096935
  C          -0.32044975714073      2.79460702147470     -1.15767329556623
  H          -0.91009506305533      1.88886727378167     -1.00623273440586
  O          -0.10814473774600      3.46409966606421      0.08218424290433
  H           1.80755628016014      2.15855233666638      0.02374265968249
  H           2.70713332812899      1.07513456798940     -3.20127246930986
  H          -2.24927888865595      1.72589410630523     -4.56771273441585
  H          -1.10890343067981      0.36918557504741     -4.68653811787271
  H          -5.54905062559664     -1.26784749178480     -1.02686038728584
  H          -4.70905767432008     -1.91610224936303      0.38762688911251
  H          -4.38601133169908     -2.58943540694705     -1.21572099159011
  H          -1.30872512504516     -0.55710457700908     -0.43892596822954
  H          -1.87235484355268     -2.15130588851742     -0.96015628465644
  H          -2.22584384739204     -1.58219693431469      0.67685481195922
  H          -3.81098995450842      0.32167440463871      1.06722834817330
  H          -4.72673891920090      1.04180014867176     -0.26376773066434
  H          -2.99698159956020      1.36937063244606     -0.10519511734327
  H          -4.70123933215109      1.11714287162873     -4.28406870149939
  H          -4.76477335318152      1.85348075284333     -2.67354335407743
  H          -5.71002815837111      0.39510644971731     -3.02592563774591
  H          -2.44842683442631     -2.37182066561933     -3.44288061939591
  H          -3.04422377307854     -1.40233621442104     -4.80075693844747
  H          -4.18966750265053     -2.23468895967079     -3.74383043728107
  H          -4.21674817604818      4.44925045295320     -2.29625299739254
  H          -3.12087155991725      4.44642832535310     -3.70047849024448
  H          -2.83603051695263      5.57884298869309     -2.34968939869124
  H          -0.89871093904666      3.35629071685501      0.62203161759007
