48
Coordinates from ORCA-job goat_0_309 E -1253.937541015862
  O           1.88002883565255      1.72981079138350     -1.09387778492982
  C           1.05510132886675      2.42201617106367     -2.02330630465154
  H           1.58086803366178      3.30818317272711     -2.40293673807219
  C           0.77278535322482      1.48018535218057     -3.18210720203226
  H           0.50442180187867      0.50825135132430     -2.75596716878590
  O           1.92007243652758      1.33234163282090     -4.02025877628060
  C          -0.38877822365232      1.99381444972366     -4.04904360534141
  H          -0.02071498252245      2.05393834693164     -5.07550680217999
  C          -1.57612838643526      1.04133014687628     -4.07496835720512
  O          -1.94858761566395      0.62727074591808     -2.77367954822543
  Si         -3.36564238988873     -0.20460806644512     -2.48440025727672
  C          -3.38328938213819     -0.52910537292477     -0.62484942583172
  C          -3.63594056804281      0.77554122305717      0.14403606176297
  C          -4.50779058816930     -1.52581579397983     -0.30399264635934
  C          -2.03860376280993     -1.12545318333877     -0.18471471565438
  C          -4.83094166033717      0.82933982393980     -3.02298468004970
  C          -3.34763188006290     -1.80421716235693     -3.45973232505936
  O          -0.74271483072140      3.34879792326085     -3.74334241420167
  C          -1.03445543622671      3.68984599333481     -2.40325625842289
  H          -0.71767300889030      4.73690797237209     -2.31351411066212
  O          -2.39773895248939      3.59124344932637     -2.09618489452119
  C          -3.20215581690765      4.53064396090025     -2.79994001376874
  C          -0.25726564115817      2.84933252406137     -1.39299926641954
  H          -0.83939502209470      1.96398949115931     -1.13164098484744
  O           0.03797938723052      3.61185522670275     -0.22565571620259
  H           1.94210711593401      2.28734177873261     -0.30773508939399
  H           2.61870143876027      0.93707230276814     -3.48465906285461
  H          -2.40713541760708      1.54183702791550     -4.58514459056035
  H          -1.28276237987847      0.16951692936957     -4.67372895673013
  H          -4.61218439515303      1.20358474513406     -0.10135161455371
  H          -2.87503596192688      1.52924458352217     -0.07484713964316
  H          -3.61848344799910      0.58298667885109      1.22391623877377
  H          -4.55986075243547     -1.69517026903675      0.77835095621117
  H          -4.33880394159013     -2.49393413909127     -0.78401591371534
  H          -5.48527182896390     -1.15380640811178     -0.62773055095546
  H          -1.21536147796186     -0.42675880722559     -0.35638057103581
  H          -1.81146659408135     -2.05252565900007     -0.72046706249560
  H          -2.06507313235965     -1.35906589544277      0.88684619579227
  H          -4.83993046136980      0.95720264692011     -4.10954848246658
  H          -4.80631756441332      1.81948490902450     -2.56179482057291
  H          -5.76714664817787      0.33962059941970     -2.73793161598004
  H          -4.29202418577543     -2.34213606390350     -3.33690778559518
  H          -2.53500586006713     -2.46148499034753     -3.13758241526847
  H          -3.21735243154045     -1.59961791581590     -4.52690769320559
  H          -2.83549993774971      5.55188275907970     -2.64081350161693
  H          -4.21376585500388      4.44304778974962     -2.40349954245699
  H          -3.21418843969877      4.31569150887568     -3.87224176066652
  H          -0.70611686977197      3.53312571859356      0.38114871420876
