48
Coordinates from ORCA-job goat_0_297 E -1253.939017827657
  O           0.06557930230483      1.92836825526624     -0.56079664919629
  C           0.85554868532691      2.14640797822987     -1.72354873895705
  H           1.83315431712033      1.69738986492531     -1.52782999510369
  C           0.27300710499282      1.45348739433125     -2.96545630484983
  H          -0.04939835587930      0.44971272531201     -2.68297678813149
  O           1.29564408710329      1.28846222213557     -3.94900680394925
  C          -0.93105564410089      2.18523657613414     -3.56171556030056
  H          -1.00765531135409      1.85748034839366     -4.60079106638170
  C          -2.27057264189738      1.83826162953002     -2.90928873529089
  O          -2.55705057892014      0.48754304556879     -3.23948115372569
  Si         -3.86827425074659     -0.34989347651836     -2.62396400947223
  C          -3.35009551420077     -1.27620696572970     -1.05923731040584
  C          -2.89370373813686     -0.28511354332641      0.02077207979208
  C          -4.53926014194625     -2.09009682902672     -0.52797387621600
  C          -2.18942682792390     -2.22649330253770     -1.38769662020966
  C          -5.25534410237055      0.85642497556846     -2.26824863923236
  C          -4.35625564179642     -1.54472088008811     -3.97531392753251
  O          -0.73125700428122      3.60613716857758     -3.65748040902176
  C          -0.23787711630108      4.26820045119183     -2.51949608066755
  H          -0.04803018236452      5.29302296231546     -2.85439100280115
  O          -1.15016512176684      4.26887969343218     -1.44614011521562
  C          -2.30477667317562      5.07800946587187     -1.67408113835978
  C           1.04987417798716      3.64195315322727     -1.99309390447770
  H           1.32928922298477      4.15358050027218     -1.06801970396072
  O           2.03691376687815      3.85015149078523     -3.00420853322806
  H          -0.62161732970626      2.60962625100702     -0.53350638647537
  H           1.71497147507340      2.15436370487705     -4.06176913816552
  H          -2.25307471241060      1.98049700985028     -1.82801244354538
  H          -3.03296469475736      2.50273732368574     -3.32851428832798
  H          -3.68424800255017      0.42493249541497      0.28202112656301
  H          -2.01637984906391      0.28300356283805     -0.29872537670185
  H          -2.62063562277859     -0.82762261863873      0.93462622886870
  H          -4.24388636354288     -2.63902731801387      0.37466343060469
  H          -4.89017097849165     -2.82296345815293     -1.26067751312645
  H          -5.38370192962159     -1.44704306957227     -0.26166614639131
  H          -1.86790601287657     -2.75569305138340     -0.48211154326711
  H          -1.32572018439262     -1.68143477385919     -1.78063990897328
  H          -2.47957680325166     -2.97952738628074     -2.12634307405490
  H          -5.52103019310107      1.40812032323067     -3.17503438680450
  H          -4.97854769281201      1.58050789096177     -1.49738834870600
  H          -6.14597083207880      0.32171358281024     -1.92591157920033
  H          -4.69110064273184     -0.99430820405640     -4.85940161656605
  H          -5.17265102099651     -2.19613620484115     -3.65127583101503
  H          -3.51240674877097     -2.17607129734925     -4.26657935180426
  H          -2.00613754635398      6.11936920581747     -1.83224242480956
  H          -2.92238834353434      5.00482969928038     -0.77998178075015
  H          -2.86961013593811      4.72419266940891     -2.53906315597308
  H           2.90377234715232      3.69232875912307     -2.61085150448245
