48
Coordinates from ORCA-job goat_0_341 E -1253.937597305930
  O           2.38213103422291      2.30522869300772     -2.69563024283319
  C           1.07421331683895      2.26226158182715     -3.25650974399219
  H           1.11295292311923      1.53389329868929     -4.06867747961414
  C           0.04703717349096      1.77404783647133     -2.22934819087817
  H           0.39822015028870      2.06479406921319     -1.23139555465764
  O          -0.02626374355632      0.35538959269529     -2.32715083581794
  C          -1.33227779967334      2.39847591760676     -2.45002795172271
  H          -1.72994265140686      2.04245417459165     -3.40559978898287
  C          -2.30774384054293      2.05947570480074     -1.32506910752351
  O          -2.54189446500675      0.65693756751278     -1.23704401910569
  Si         -3.95440294639046     -0.03154002668379     -1.83776972495383
  C          -3.80184353984375     -1.87073528130672     -1.45279696427703
  C          -3.84862121967487     -2.09416273802551      0.06551451645726
  C          -4.97742893648923     -2.61003453278477     -2.11117381259867
  C          -2.48305232687193     -2.42864018998473     -2.00638679627585
  C          -5.41932077196822      0.74120105414802     -0.96809215903383
  C          -4.07155866038180      0.29489871750139     -3.67563176773920
  O          -1.29076258116526      3.83233121383867     -2.46366140075299
  C          -0.08037583146363      4.44104266115919     -2.84112605527168
  H          -0.36415618581297      5.42442350514233     -3.23551105837468
  O           0.80248731850880      4.60099287276819     -1.75514632671900
  C           0.30781180497994      5.47433288755173     -0.74272445364704
  C           0.68133742473985      3.61300992195605     -3.86862115993436
  H           1.59532957466051      4.14771280787546     -4.14367330819273
  O          -0.12357512454571      3.35898909092556     -5.01228298226064
  H           2.36627068403831      2.98393351191815     -2.00737266982335
  H          -0.80605258913464      0.08335261643565     -1.81806395617700
  H          -1.88366974626242      2.39730063219176     -0.37461505211262
  H          -3.23828361462104      2.61148107860243     -1.49446584283243
  H          -4.79985962760580     -1.76327688914139      0.49194889318524
  H          -3.04314754925119     -1.55751705269825      0.57578404199380
  H          -3.73573496874889     -3.16156559787532      0.29106039169403
  H          -5.94329137874698     -2.22985344049292     -1.76405923498702
  H          -4.93212435599206     -3.67703665085336     -1.86277145446425
  H          -4.95047303185641     -2.52122532573798     -3.20106025442372
  H          -1.61834051643213     -1.99889779181748     -1.49373050906048
  H          -2.37499576132665     -2.23730078235482     -3.07830933192851
  H          -2.44608292393295     -3.51449838830346     -1.85680504592290
  H          -5.31806661710579      0.67237872074157      0.11809008659974
  H          -6.34295069286750      0.23166588658542     -1.25860501472815
  H          -5.52435604144728      1.79602706481658     -1.23733359920769
  H          -4.08871111636969      1.37110613616141     -3.87309479668172
  H          -4.99394136878747     -0.13207796441805     -4.08011365409864
  H          -3.22563045255003     -0.13790632815009     -4.21636649659858
  H          -0.57532454689104      5.05119130864368     -0.25764024731366
  H           0.05556861991012      6.45083398015690     -1.17118162329482
  H           1.10526319246612      5.59299498382909     -0.00989660684580
  H          -0.35653569254022      4.20468989126340     -5.41371165426896
