48
Coordinates from ORCA-job goat_0_340 E -1253.942884483929
  O           2.11114225764966      2.52452655919440     -1.40524013209807
  C           1.09331393864697      2.63899312221138     -2.39531092184951
  H           1.41938951176911      2.14702523383220     -3.32153417726044
  C          -0.21008048093879      2.00041007676544     -1.94705223941550
  H          -0.49680988115108      2.42158113517832     -0.97318228986416
  O           0.02601088937552      0.60229792939298     -1.83622039843973
  C          -1.31423526721374      2.31628641590471     -2.96161666760382
  H          -1.07714391010298      1.81569757101565     -3.91123016006145
  C          -2.69341809778709      1.88626799948506     -2.48218168834818
  O          -2.68070939381313      0.49156432463672     -2.20606420973815
  Si         -4.08943132085501     -0.33568526448759     -1.80856580677251
  C          -3.50477474734586     -2.03677169301005     -1.24662237856426
  C          -4.73207352881657     -2.93255020438173     -1.01770610992430
  C          -2.61080127245784     -2.66965590361898     -2.32291204661647
  C          -2.71585091054289     -1.91513643165202      0.06522631279772
  C          -4.97301258993757      0.59572399235505     -0.44885230571013
  C          -5.17962164634099     -0.42961254069994     -3.32479284773631
  O          -1.40793754465132      3.72290831562125     -3.15992856508850
  C          -0.21771803758212      4.28910096760407     -3.69278209767746
  H           0.05205637466336      3.77108657283180     -4.62191491455145
  O          -0.47811619299707      5.60306187210120     -4.05933847462599
  C          -0.69413946354345      6.51934945929731     -2.98244113167542
  C           0.90420517826574      4.12067232389040     -2.67024577062103
  H           0.61905265076585      4.61594325669042     -1.73420271040579
  O           2.08447618695453      4.69971002965944     -3.20380958080242
  H           2.34224808283061      1.59154815821056     -1.32720877169032
  H          -0.84759647760701      0.18463824213288     -1.77553866982632
  H          -2.94311779633207      2.45217235535233     -1.57743039271249
  H          -3.43016007793600      2.12587099131879     -3.25629298342773
  H          -5.40595204329852     -2.51364497629550     -0.26378574399536
  H          -4.41297473961323     -3.92052698810351     -0.66487571587840
  H          -5.30334487157828     -3.07750605947767     -1.93928889087372
  H          -3.13841914516669     -2.77701180841897     -3.27540559749735
  H          -2.29389671103192     -3.66998050541048     -2.00381086844721
  H          -1.71040200721125     -2.07520799308990     -2.50097558203832
  H          -1.84146856899341     -1.26686071878101     -0.04509396379196
  H          -2.35995769049229     -2.90332195402741      0.38078533747185
  H          -3.33499936636103     -1.51148236076311      0.87146099115337
  H          -4.31126869130607      0.78585216732460      0.40032569681333
  H          -5.83232120080652      0.02087130471162     -0.09110023236582
  H          -5.34474791658860      1.55678368037487     -0.81642554567766
  H          -6.13199948880565     -0.90997572458282     -3.08249026564086
  H          -4.70249577666459     -0.99918977927885     -4.12671014397752
  H          -5.39928731355061      0.57387117160328     -3.70168776107791
  H           0.24349924312565      6.75209700033942     -2.47056150128668
  H          -1.42012725574225      6.12714162879593     -2.26643076474881
  H          -1.09053723673666      7.42831180603169     -3.43392630006826
  H           2.81338434785359      4.42533524221585     -2.63286101776280
