48
Coordinates from ORCA-job goat_0_1038 E -1253.932529904262
  O           1.35474860144096      2.20687384942003     -0.26767836478158
  C           0.86891042707114      2.64381098805577     -1.53392480039257
  H           1.47105888129980      3.48815573626463     -1.89220496847050
  C           0.91430022105772      1.53218992771950     -2.56535724988707
  H           0.54463085297480      0.61883229736868     -2.09176535250102
  O           2.28735643269162      1.36316634007352     -2.92574825347073
  C           0.02715762267827      1.87353142975667     -3.78018200576536
  H           0.65993086256489      1.82851837694094     -4.66906426352256
  C          -1.09404050577038      0.86629289044188     -3.99472047016739
  O          -1.78356715447199      0.58335578482382     -2.79127456576294
  Si         -3.18372582624210     -0.32461325342703     -2.77342316674817
  C          -3.69028300623655     -0.41501547442714     -0.95793499068250
  C          -4.83877247030272     -1.42425352675099     -0.80851816999467
  C          -2.49915779946940     -0.87201763061812     -0.10371516720485
  C          -4.16285706423656      0.96217494161954     -0.47192289007730
  C          -4.49294968354549      0.51180673664413     -3.81889785854479
  C          -2.82475237737859     -2.02434332383283     -3.47495466595298
  O          -0.41544543509673      3.23973418731649     -3.76732372628059
  C          -1.07689737444541      3.73052188218797     -2.63535916098799
  H          -0.85084473576914      4.80483202099848     -2.60014984878571
  O          -2.46458758993780      3.56328181621818     -2.82939920797643
  C          -3.26058234338928      4.42200528778363     -2.02176238210670
  C          -0.56336111365898      3.10229142136962     -1.33307293361924
  H          -1.18464592325194      2.23978174725628     -1.07484080953589
  O          -0.63941547232829      4.09446121138347     -0.31429620546221
  H           2.29918736164317      2.03497027637142     -0.35811451002450
  H           2.39107074860504      0.48770438203257     -3.31513898987552
  H          -1.77377616596895      1.26022537503205     -4.75866266518754
  H          -0.63530554245585     -0.05095786388589     -4.38656051571393
  H          -5.17124686088112     -1.46090148257748      0.23600910606559
  H          -4.52930720162584     -2.43377749160259     -1.09420893553122
  H          -5.70347193386138     -1.14959668410640     -1.42117035167142
  H          -2.12271635893121     -1.84890861026731     -0.42299879559396
  H          -2.80251704920035     -0.95997685388649      0.94687284245540
  H          -1.67277810783420     -0.15796535918258     -0.15670388806897
  H          -4.44439956864425      0.91009925107728      0.58707306641219
  H          -5.03604714319868      1.30969274711376     -1.03165221041366
  H          -3.37760560211729      1.71542952837710     -0.57264117811469
  H          -4.62885985832166      1.55430778823617     -3.52047521444410
  H          -5.45215262952142     -0.00454451842134     -3.71562461212251
  H          -4.21705028916095      0.49184791133670     -4.87744567578000
  H          -3.73930173126322     -2.62216544545903     -3.52705882630224
  H          -2.09656147715610     -2.56540595798886     -2.86422694272005
  H          -2.42394570787272     -1.94195880030096     -4.49000879945535
  H          -3.19001987883897      4.16351539602003     -0.96149612987233
  H          -4.29148423512664      4.29744420818416     -2.35418342858637
  H          -2.96036948741874      5.46904729688486     -2.15255812781273
  H          -0.14571930709605      3.74907924242571      0.44061626104005
