48
Coordinates from ORCA-job goat_0_266 E -1253.933945236835
  O           2.60210983251844      3.79517872422428     -2.62471569201880
  C           1.40734493687264      3.09767188119782     -2.95210655277985
  H           1.54427194735234      2.53624983278314     -3.88723959415534
  C           1.00861621083350      2.11423105755954     -1.86128469053690
  H           0.78515976355126      2.65840255402000     -0.94001917154525
  O           2.08720355980951      1.24420739582992     -1.53476169925728
  C          -0.20998611333309      1.32108213585573     -2.34190126522961
  H           0.14937007284569      0.53653863641913     -3.01756126694768
  C          -0.95290723791192      0.65535432355047     -1.19577912702674
  O          -1.84700556520818     -0.34076255313647     -1.65783047241703
  Si         -3.44796353728068     -0.12134376226856     -2.08202659537006
  C          -4.33397125436796     -1.66493546579704     -1.43893848749147
  C          -3.69773266392992     -2.92405797204361     -2.04531573639780
  C          -4.21378945373500     -1.72776972947069      0.09015605062431
  C          -5.81846319651764     -1.61407686569393     -1.82818440231948
  C          -4.13717013142116      1.42624091622578     -1.28852799851496
  C          -3.60215697570753     -0.01551458232532     -3.94475886028983
  O          -1.09493754168888      2.11797268792595     -3.14773183374594
  C          -1.07988906293060      3.49734365380825     -2.91440381958228
  H          -1.79694334371601      3.92339850163349     -3.62441011295462
  O          -1.50487682756879      3.74462778584029     -1.58893615179458
  C          -2.11814804977591      5.01827122826365     -1.43032533295930
  C           0.30230002610921      4.12188522960055     -3.16786259316256
  H           0.44834800607541      4.93548335951265     -2.44964558641281
  O           0.30405430888390      4.63557924772480     -4.49655199248434
  H           3.25772415478087      3.13038788514276     -2.37741547655573
  H           2.25937160269528      0.67381482593546     -2.29569315680600
  H          -0.21359461029896      0.16615541165355     -0.55395683345444
  H          -1.47297242834557      1.41584891260633     -0.60817360398437
  H          -3.78363205714623     -2.93473215994117     -3.13600255040516
  H          -4.20105672673669     -3.82141344304918     -1.66410453936288
  H          -2.63731349011514     -3.00125324526611     -1.78872392026368
  H          -3.16738600181050     -1.75429655513053      0.40825295719591
  H          -4.70340744383335     -2.63268624245494      0.47103449273879
  H          -4.69063672142405     -0.86682859483660      0.56818758907355
  H          -6.33806236660903     -2.50185430694355     -1.44696279372111
  H          -5.95141650516092     -1.59412918811491     -2.91392481430385
  H          -6.31751559498987     -0.73428646282571     -1.41050819522769
  H          -5.20569406488674      1.50654072309447     -1.50989923528642
  H          -3.63720687761072      2.31634206103153     -1.67571058178979
  H          -4.01672065782930      1.41341520173888     -0.20171835218301
  H          -3.18163765893960     -0.90215050105424     -4.42770661111680
  H          -3.06714808678978      0.86240178714259     -4.31345658186827
  H          -4.65141886304885      0.06761162608414     -4.24342623914240
  H          -2.99058139773426      5.10965889921178     -2.08756893122611
  H          -1.41986517930602      5.83445754016117     -1.64646697259931
  H          -2.43641077330081      5.08925137038054     -0.39063919765294
  H           1.16157403868215      5.04906623419399     -4.65260346728767
