48
Coordinates from ORCA-job goat_0_366 E -1253.945482117884
  O           2.37398761587677      1.70183416084132     -2.98457483697397
  C           1.07773016621158      2.27776923710868     -3.08755842820326
  H           0.67030641686026      2.10521847391448     -4.09372607353535
  C           0.16163417356449      1.60008636046162     -2.08377265852327
  H           0.62487452393561      1.66042198302613     -1.08869206589681
  O           0.00429378289205      0.24381180706369     -2.47886743140499
  C          -1.19362006396075      2.31807707433248     -2.03629613204395
  H          -1.69779144546669      2.18147508032428     -3.00294392428273
  C          -2.08932326307804      1.81474276943825     -0.90918371074670
  O          -2.34283774362635      0.41855711590944     -1.02921792116777
  Si         -3.83001753668176     -0.15386165680152     -1.57086407702053
  C          -3.69734488123259     -2.03094791574074     -1.46212805748065
  C          -3.60153314025931     -2.46538688957955      0.00746084779160
  C          -4.95402012666624     -2.64998464794453     -2.09410766709885
  C          -2.45701665963927     -2.52824934217867     -2.21810104966684
  C          -5.17819445535802      0.51237599376365     -0.45857997345665
  C          -4.10941722623381      0.43374865588913     -3.32426491558765
  O          -1.00922814551931      3.70453152213814     -1.77209835927350
  C          -0.27557753225479      4.34959845725471     -2.80249527876514
  H          -0.78763913486556      4.19145352018614     -3.76559324033804
  O          -0.18898589096688      5.70211654773876     -2.50989018792099
  C          -1.40557564761181      6.41376442609529     -2.74400459523087
  C           1.13348021798795      3.77773355106188     -2.84513149841084
  H           1.61001348884842      3.97520807110558     -1.87704512655147
  O           1.89304686332401      4.34209017401926     -3.90494479454952
  H           2.94379982343804      2.17850968080609     -3.60085673616523
  H          -0.73565099909487     -0.10254335099843     -1.95644991037374
  H          -1.58811282835397      1.99220211823508      0.04696578218262
  H          -3.01776843852075      2.39483413990434     -0.91741168408333
  H          -3.49764435173636     -3.55544092575896      0.06995001667714
  H          -4.49633887865409     -2.18454091950558      0.57021577363478
  H          -2.73478911752117     -2.01783082727914      0.50301422854883
  H          -5.86888778035348     -2.30806267636457     -1.60015633738855
  H          -4.91649726818117     -3.74203836662017     -2.00360454940403
  H          -5.03258041981701     -2.40723358197445     -3.15780878397509
  H          -2.44682567933377     -2.18813120564862     -3.25807261747844
  H          -2.44104684276872     -3.62478022808800     -2.22654775074674
  H          -1.53328578596472     -2.19290908147307     -1.73879216729771
  H          -6.13869188690153      0.05636192510912     -0.71662914728607
  H          -5.28457637369562      1.59483204800109     -0.57256507888123
  H          -4.96894784658602      0.29657561878510      0.59235315142460
  H          -5.07731333109434      0.08575057281107     -3.69652334111909
  H          -3.32955403531402      0.06967397850857     -3.99855740848725
  H          -4.11138459303317      1.52740578780360     -3.36333222407733
  H          -2.19340726461993      6.07487729568422     -2.06659001917013
  H          -1.73142723879820      6.28000274785611     -3.78101289709568
  H          -1.19446415217420      7.46660228885792     -2.56022366217515
  H           2.04198093299948      5.27227843192102     -3.69859348092431
