48
Coordinates from ORCA-job goat_0_361 E -1253.937539103483
  O           1.95268530745624      0.70567409172243     -1.41776137411038
  C           1.24823412162382      1.74183947936008     -2.09168497971612
  H           1.93305566106582      2.56694404021733     -2.32848010551965
  C           0.70501854391643      1.16422499861974     -3.38842946978460
  H           0.26300132698645      0.19053999990668     -3.15409192621237
  O           1.74370984860831      0.99578727433406     -4.35456709749195
  C          -0.37099877242882      2.07718503057362     -3.99972936605229
  H          -0.06548143410678      2.28970487739601     -5.02647575968236
  C          -1.73666485535238      1.40981953738668     -4.08968928115183
  O          -2.10405651960122      0.79080874724205     -2.87090556895423
  Si         -3.65287522260851      0.23662765963287     -2.59193990798950
  C          -3.60483922580815     -0.52763989976371     -0.86636733486257
  C          -2.40963630037753     -1.48494542868140     -0.75378095613149
  C          -3.48118758072252      0.56577556291999      0.20421324866624
  C          -4.90579988762929     -1.31135193731152     -0.63380955097878
  C          -4.86793334612234      1.65724828736686     -2.68958883229288
  C          -4.08983036330219     -1.03757271910188     -3.89411652004664
  O          -0.40098177795327      3.37223931530309     -3.38679757196274
  C          -0.53534948370577      3.45328356220241     -1.98235447324241
  H           0.00397902893272      4.36938764867739     -1.70928937644935
  O          -1.86825146896175      3.55880031537460     -1.56413568111045
  C          -2.48775871670175      4.77640478784160     -1.96229892602093
  C           0.09872512946663      2.27007923336374     -1.25439650433609
  H          -0.64563927397276      1.48298173791236     -1.12213455083101
  O           0.62132514345532      2.67702909365345      0.00749020176584
  H           2.18295895695288      1.04758329257239     -0.54444936482791
  H           2.37901216129192      0.36841256758205     -3.98858525773568
  H          -2.46967521757413      2.16845170676163     -4.38719583043653
  H          -1.68116048475180      0.65731496038691     -4.88663302293459
  H          -2.45395603405131     -2.27745163658053     -1.50734438722903
  H          -2.40416644833129     -1.96418877423181      0.23304229304131
  H          -1.46094337062569     -0.95540361132612     -0.87654241526160
  H          -3.43906911920884      0.10957075744596      1.20099739683907
  H          -4.33739501511642      1.24622792162250      0.18576715091798
  H          -2.57532888004787      1.16287463262639      0.07139768660841
  H          -5.00901182413346     -2.14149993517565     -1.33839954497462
  H          -5.78859892821154     -0.67150540292121     -0.73347458587404
  H          -4.91394978327092     -1.73105553468099      0.37940924436901
  H          -4.58264061035573      2.46795343392354     -2.01545903302740
  H          -5.87156158029264      1.31725388008466     -2.41619737351579
  H          -4.91856894324718      2.05821193482448     -3.70631541251264
  H          -3.43894902556070     -1.91422782607977     -3.83176967944935
  H          -3.98890654268418     -0.60922442009662     -4.89613329872073
  H          -5.12494511870466     -1.37094720471374     -3.77746709056364
  H          -3.46945223840072      4.80360383910105     -1.48938274320877
  H          -2.60861054346309      4.82184696635047     -3.04838358634106
  H          -1.89847016390720      5.63884508127420     -1.62845715164740
  H          -0.09123112846171      2.63905807510179      0.65484767098394
