48
Coordinates from ORCA-job goat_0_1116 E -1253.936481051867
  O          -1.40192249739313      3.43484744725249     -1.27239132113900
  C          -0.03304289974342      3.34909092998275     -1.63509330773473
  H           0.54798523889297      3.76908113343064     -0.80804088565539
  C           0.41527322750670      1.90289992289226     -1.85655331537336
  H           0.16377022647766      1.29652082209047     -0.98157059178391
  O           1.83354467033607      1.88258715704788     -2.07127218981835
  C          -0.24600357800525      1.30349906892024     -3.11375912474123
  H           0.53819522429326      0.78745623449621     -3.68296444341621
  C          -1.33055897019274      0.29710512436094     -2.79088034108414
  O          -2.35191126449916      0.91207402512234     -2.01458597850338
  Si         -3.19880472144643      0.12101579639307     -0.79484072288558
  C          -4.25853944460574     -1.26203055784952     -1.52834112570258
  C          -5.26440233507918     -1.72666276875043     -0.46282712510877
  C          -5.02244987797362     -0.73332767466759     -2.75063137462670
  C          -3.39431831707531     -2.46009831016285     -1.94858958965657
  C          -1.98157500093913     -0.54453269247596      0.45943839050181
  C          -4.25168882825478      1.46865962775866     -0.04843654857235
  O          -0.84039990674500      2.30698230982880     -3.93459416547024
  C           0.04456629439134      3.38603788306071     -4.17522837845660
  H           1.01082842814619      2.99432670530260     -4.51928547093487
  O          -0.44144043210045      4.14576549215741     -5.24101988276367
  C          -1.79362049746213      4.58980202738795     -5.11469065639371
  C           0.27510050469939      4.19438804267808     -2.88354588182761
  H          -0.38594407090203      5.06063482782358     -2.86034068763816
  O           1.60143139145346      4.71354512603491     -2.86781262775410
  H          -1.87099084191236      2.66355359852291     -1.63668199414486
  H           2.26606830923082      2.02608750167638     -1.22060985283126
  H          -1.76079769342231     -0.07961940908434     -3.72340975363686
  H          -0.87090912667987     -0.54045378547835     -2.25640159776571
  H          -5.94730669120869     -0.92302522245731     -0.17353692002865
  H          -4.76205374814831     -2.08611749072471      0.44101687461744
  H          -5.86882141823412     -2.55278850348636     -0.85619293608638
  H          -4.34000706924009     -0.41599199895994     -3.54429605996318
  H          -5.65895852450773      0.11860841015247     -2.49275053866065
  H          -5.66896966251108     -1.51987597593938     -3.15839499058055
  H          -2.84167611559704     -2.87682521973225     -1.10175549299818
  H          -2.67273727337419     -2.19298464091714     -2.72518895087860
  H          -4.03261181836160     -3.25522956230546     -2.35280708406761
  H          -1.43316147456566      0.27960659905701      0.92513644322276
  H          -1.25659111439226     -1.22880993779619      0.01144772431240
  H          -2.51148444227340     -1.08772202953052      1.24770277474085
  H          -3.62329310456006      2.30162478002586      0.27916250042150
  H          -4.79594304933364      1.09311958092339      0.82223660209898
  H          -4.98080186877466      1.85077099245215     -0.76791503309159
  H          -1.96505423776840      5.27588495839866     -5.94373636642624
  H          -1.96563942291670      5.11918578922995     -4.17325409227702
  H          -2.48844428354021      3.75036678762773     -5.18569213831268
  H           2.19394210831210      3.95354707822956     -2.78407177112458
