48
Coordinates from ORCA-job goat_0_145 E -1253.933951203765
  O           2.63587995881085      3.74115710514903     -2.59864855054127
  C           1.43222463612043      3.06293286021123     -2.93453924918250
  H           1.56070587013608      2.51496211470109     -3.87882807996218
  C           1.02493411132459      2.06548575321663     -1.85958084765864
  H           0.81344266394014      2.59563099401283     -0.92743747613963
  O           2.09347399706816      1.17536917711568     -1.55421225082841
  C          -0.20620654197738      1.29699017364553     -2.34830358627658
  H           0.13958516631559      0.51934636794620     -3.03880520598169
  C          -0.95387398235357      0.62245634737182     -1.21037443189479
  O          -1.86643654383839     -0.35002534660832     -1.68614665321289
  Si         -3.46582366231627     -0.09904724835894     -2.09669429948586
  C          -4.37310414522166     -1.63839169677439     -1.47319802669182
  C          -3.75766490759844     -2.89816004185292     -2.09926884143703
  C          -4.24960023633199     -1.72474989283662      0.05449834083531
  C          -5.85788032700400     -1.55969644879357     -1.85705853024824
  C          -4.12576339836851      1.44617008808863     -1.27406080150266
  C          -3.62894676450055      0.03945100761568     -3.95650083666453
  O          -1.08418569312541      2.11904649769696     -3.13633687953462
  C          -1.04943430079696      3.49389685850193     -2.88035646063669
  H          -1.76517549523370      3.94103888909369     -3.57860365994339
  O          -1.46263283458117      3.72505422471075     -1.54817843995161
  C          -2.06042143572367      5.00276737599513     -1.36543152837810
  C           0.33938283965210      4.10386645631434     -3.13191201694772
  H           0.49909877019697      4.90621247345260     -2.40400621046132
  O           0.34197269273796      4.63452599409237     -4.45392573130812
  H           3.28594479992438      3.06484456314178     -2.36875467343548
  H           2.25767324876444      0.61998672873280     -2.32792635025226
  H          -0.21961859755833      0.10996331228053     -0.58108323111085
  H          -1.45853818898876      1.38100748108041     -0.60702833113378
  H          -3.84408656642417     -2.89064882957370     -3.18997123750103
  H          -4.27507547522133     -3.79308063095791     -1.73142970367077
  H          -2.69846419869941     -2.99594744304573     -1.84459636672236
  H          -4.71350669771523     -0.86442789425250      0.54615612148438
  H          -3.20278417512800     -1.76998235199440      0.36919813935890
  H          -4.75053475246925     -2.62832709660895      0.42369652853302
  H          -6.39014086037965     -2.44341033376331     -1.48391293039872
  H          -5.99368502901681     -1.52567244173617     -2.94206776245158
  H          -6.34197534225884     -0.67700056737845     -1.42799391955435
  H          -3.99940500080668      1.41476396564267     -0.18831750655472
  H          -5.19411971779122      1.54743177350977     -1.48766802336559
  H          -3.61358480523754      2.33385507874493     -1.65064886824214
  H          -3.08848617829453      0.91907475140342     -4.31310307089907
  H          -4.67898885807665      0.13651219456500     -4.24815411513992
  H          -3.21848066741592     -0.84226050887705     -4.45680965768629
  H          -1.35554995630766      5.81456177069672     -1.57667607562250
  H          -2.36797003942401      5.06228350045349     -0.32180389249520
  H          -2.93805906898428      5.11299684255368     -2.01281198242797
  H           1.20371569017823      5.03976605167554     -4.60823283667670
