48
Coordinates from ORCA-job goat_0_1130 E -1253.936943503324
  O          -0.08336462444349      2.18470592517883     -0.70215105579780
  C           0.83501827271399      2.45168624754258     -1.74328491541092
  H           1.79952932105440      2.65438709593897     -1.26810055158142
  C           1.04357726715455      1.25932641191518     -2.69000933981159
  H           1.13044854909243      0.34749106481109     -2.09392038008603
  O           2.28441044496698      1.41088125805974     -3.38114873276892
  C          -0.09430631332445      1.07124386554659     -3.70155239372477
  H           0.34491747400934      0.51550340685305     -4.53456847791196
  C          -1.25412467919036      0.19386971512331     -3.24456541902751
  O          -1.79396598302343      0.54053967523781     -1.97775896672288
  Si         -3.42945411413294      0.50750242574735     -1.58980912916873
  C          -3.89839859421270     -1.24790807751610     -1.06597206560059
  C          -3.11987294917860     -1.63640428834449      0.19885175356903
  C          -5.40546737724017     -1.30485413899445     -0.77446972858615
  C          -3.56487260448629     -2.24466800999748     -2.18537515513086
  C          -3.58155453865350      1.68861948082793     -0.15150868698150
  C          -4.45845452297666      1.05532455549192     -3.05085666607665
  O          -0.50059198471280      2.30636059728543     -4.31452007725291
  C          -0.70824233058703      3.43870526582124     -3.51940296925170
  H          -0.75565832679145      4.27404260957099     -4.22762279866313
  O          -1.94185081733014      3.32403135274582     -2.84474269217981
  C          -2.58748082762417      4.57278492312114     -2.63559723162810
  C           0.44002893680194      3.69842404193363     -2.54409319894279
  H           0.13628998961359      4.48699754664775     -1.85030399393278
  O           1.54178013721204      4.13981118867782     -3.34938632454005
  H          -0.82798445673856      1.67949551943525     -1.08319234075238
  H           2.30571926628337      2.32047819657060     -3.71591661794638
  H          -2.02515436498265      0.22982883329723     -4.01990245733184
  H          -0.87106074977076     -0.83091675768109     -3.19460718927100
  H          -2.03879587020473     -1.57392035417845      0.03968603811238
  H          -3.35659022958540     -2.66839707634879      0.48581653974646
  H          -3.37490330459472     -0.99031155078215      1.04372426289261
  H          -5.99743181444496     -1.07843100387353     -1.66625881612203
  H          -5.69498465314336     -0.60046219515634      0.01159420394917
  H          -5.68424306567150     -2.31059255164337     -0.43706737959148
  H          -4.07059208274938     -1.99219470955877     -3.12227015214662
  H          -3.88655356666718     -3.25284015971023     -1.89654596253940
  H          -2.48986016191520     -2.28604712668824     -2.38027161764406
  H          -3.38015503861228      2.71278935250916     -0.47245308254198
  H          -2.87328970659482      1.43327371051754      0.64151967958306
  H          -4.58939390706078      1.65281319912995      0.27161861507552
  H          -5.48891707708510      1.22887206082600     -2.72668978344946
  H          -4.48116051046925      0.30730054919761     -3.84746026921576
  H          -4.06289898922594      1.98762408474024     -3.45915822209690
  H          -2.70305342860541      5.11409496202909     -3.58185488910984
  H          -2.03737081452993      5.20259435646303     -1.92778878802634
  H          -3.57265244050680      4.35493046222468     -2.22317248372163
  H           2.20081716216445      4.53419405945487     -2.76533009064136
