48
Coordinates from ORCA-job goat_0_136 E -1253.936454004194
  O           1.27618910215251      4.62361690417633     -1.01177439968637
  C           0.90748956135031      3.70736886841723     -2.03560972428536
  H           1.79001132034230      3.43293651540783     -2.62865643069530
  C           0.26872255833603      2.45038477684428     -1.45991620197927
  H          -0.45528749697796      2.75682082983348     -0.70181575834217
  O           1.23235040147778      1.67314478828753     -0.75141486498283
  C          -0.45561441760133      1.65436038240586     -2.56411058793675
  H          -0.06056311822893      0.63661209380127     -2.55459051724094
  C          -1.96325338045682      1.56577982419463     -2.32794537285709
  O          -2.18724871782378      0.88226550351283     -1.10442415579296
  Si         -2.70112899607195     -0.70695952653552     -1.00935875474549
  C          -4.59046532034191     -0.75171161514644     -1.07211679376834
  C          -5.09210888071845     -0.04329227933331     -2.33870411267423
  C          -5.07321107516922     -2.20937732535151     -1.08209364696754
  C          -5.16125764260329     -0.03602861043597      0.16048806624770
  C          -1.96517787850180     -1.70842696411216     -2.41146318218226
  C          -2.06175148592809     -1.31843463858089      0.63561066270649
  O          -0.14176629011539      2.14503506231603     -3.87203764640256
  C          -0.42222483859505      3.50654537046452     -4.12425850283089
  H           0.23255439284484      3.76998505683125     -4.96281125858482
  O          -1.76020327214048      3.72854974591097     -4.47849055203315
  C          -2.11206823044826      3.14807047756486     -5.73197275151269
  C          -0.09721460923624      4.40582701169238     -2.93202512456727
  H          -1.01463231642550      4.59199364445847     -2.35900769223923
  O           0.40709524747719      5.62967660091692     -3.44767264705699
  H           1.93502376326731      4.19173648207163     -0.45511205233540
  H           1.88973886720179      1.35679282114872     -1.38419390030280
  H          -2.40966359247242      2.55969034931607     -2.25380022792585
  H          -2.42322706471348      1.05489559371919     -3.17903363973454
  H          -4.69210264289260     -0.50134433250706     -3.24865948033032
  H          -4.81688812071114      1.01530737422365     -2.34196615171169
  H          -6.18632613660594     -0.10082075725221     -2.39167572440249
  H          -6.16965566986752     -2.24227514835147     -1.07666998615487
  H          -4.72180327060648     -2.75975334890180     -0.20361465247650
  H          -4.73021531308675     -2.74211025851448     -1.97375899700717
  H          -4.87909221403941     -0.54278143942270      1.08784423005090
  H          -6.25698251534519     -0.01700055586193      0.11126293842560
  H          -4.81201301583513      0.99943365903324      0.22090790287478
  H          -2.31037626196176     -1.37257877538107     -3.39275539262666
  H          -2.24619835308889     -2.75979784958451     -2.30005208839812
  H          -0.87311735079382     -1.65128609983546     -2.39290573617040
  H          -0.96809712003995     -1.34456995186098      0.62584543410449
  H          -2.42502922436098     -2.32849430618503      0.84594249625907
  H          -2.38045411966383     -0.66463717351814      1.45170162113591
  H          -2.07026613920784      2.05654346717130     -5.68674616868381
  H          -1.44184163930790      3.50480213813186     -6.52246849413455
  H          -3.13220249917464      3.46274243887152     -5.95073258111534
  H           0.69938501671057      6.15334317594853     -2.69103739892963
