48
Coordinates from ORCA-job goat_0_142 E -1253.938494171486
  O           2.54075085456842      1.73287244724575     -2.37324074928210
  C           1.32748303540090      2.25180875012767     -2.90028899440708
  H           1.20875682433471      1.93419805333695     -3.94641568717579
  C           0.11947930936010      1.76364311863886     -2.12491767700114
  H           0.16797991200538      2.14380881420136     -1.09754916612664
  O           0.15668896512035      0.34045302192344     -2.11220084980243
  C          -1.15021058970726      2.26336423992138     -2.82214991733174
  H          -1.33002609670619      1.60502149985928     -3.67782044014981
  C          -2.36220714192537      2.20292740469024     -1.90029769395528
  O          -2.56442213084208      0.84754538510029     -1.50222045394032
  Si         -3.96283110693852      0.02737532345834     -1.94008322097947
  C          -3.68514364307692     -1.75895576782183     -1.40405186951938
  C          -2.67636974766779     -2.44622917140846     -2.33542364560854
  C          -3.15873365768572     -1.79997158715786      0.03753205441812
  C          -5.02495939183575     -2.50794764934055     -1.47729784723146
  C          -5.41035911324418      0.80603702962378     -1.04706345749717
  C          -4.20577890618743      0.16726616097611     -3.79032482279318
  O          -1.00460614692388      3.58251968867758     -3.36730962439288
  C          -0.01522950169980      4.39493637519266     -2.76895967636564
  H          -0.02955133051519      5.31987904135054     -3.35510577755782
  O          -0.29684886551195      4.66920390695807     -1.42169418308769
  C          -1.40152349759808      5.55651541574378     -1.25491988163493
  C           1.39124313841926      3.77327604162794     -2.85227795699638
  H           1.93835804548790      4.07034507626272     -1.95632149805254
  O           2.12540892017003      4.30430889726602     -3.94846301431572
  H           2.44750969439034      0.77230758113535     -2.34557153373750
  H          -0.67276573541442      0.05465194279936     -1.70222832572796
  H          -2.18588795032145      2.80568584086160     -1.00612209488082
  H          -3.23449515473955      2.61000685291262     -2.42299240838896
  H          -1.71218277622594     -1.92963492932995     -2.34921241521016
  H          -3.04632235706973     -2.49327736920019     -3.36342098869531
  H          -2.49622272553446     -3.47419623861125     -1.99840537169868
  H          -2.18355446437335     -1.31260370249787      0.12092820322591
  H          -3.04503420869255     -2.84045097924515      0.36531328761780
  H          -3.84396039938422     -1.30580531872066      0.73333703583771
  H          -4.87858722199356     -3.56247698674268     -1.21461924555006
  H          -5.45480081561817     -2.47452045217296     -2.48374090595882
  H          -5.75912370001722     -2.09074272229506     -0.78226892112677
  H          -6.35515001234033      0.36918775985648     -1.38277737614567
  H          -5.44806155439968      1.88107814943870     -1.24811061752225
  H          -5.33158478211124      0.66382718947052      0.03436340390617
  H          -4.41896866599192      1.19953094264693     -4.08275710669168
  H          -5.05194515823649     -0.44978875441547     -4.10780736821385
  H          -3.31746231283160     -0.16634248569813     -4.33289653872735
  H          -1.52816124256625      5.70635992554829     -0.18310658000180
  H          -2.31910495275854      5.13462511965025     -1.67323156919542
  H          -1.19234567717160      6.51741613922853     -1.73791791534139
  H           1.70869403660140      4.00354097892680     -4.76573859698576
