48
Coordinates from ORCA-job goat_0_147 E -1253.945904178799
  O           2.63450962043220      3.95693069598765     -2.07095071413770
  C           1.54009913206496      3.22815974506026     -2.61685877796538
  H           1.87301784967525      2.65842211228561     -3.49512828248218
  C           1.08186796625744      2.24191089291287     -1.55361773511046
  H           0.84348105773482      2.79744551807317     -0.63625047806959
  O           2.09340319376121      1.27622313816195     -1.29774780825480
  C          -0.17374486953982      1.51316345787577     -2.02908678989302
  H           0.06995506204338      0.91959826159547     -2.92165689227924
  C          -0.73993091324785      0.59420514156293     -0.96632158498947
  O          -1.80316865270982     -0.16957994417279     -1.50856315783928
  Si         -3.31343763808725     -0.24586526754129     -0.79996949582748
  C          -4.38517788935860     -1.14996327863737     -2.06224816616815
  C          -5.79855278266536     -1.33500695800649     -1.49059025259151
  C          -4.46519072522617     -0.32691158043583     -3.35622872746177
  C          -3.78146382524615     -2.52672959124390     -2.37363925018257
  C          -3.18738494441637     -1.18653820443683      0.81460000260677
  C          -3.96270154248613      1.47598875106687     -0.45349179736035
  O          -1.17553740979703      2.47400463206522     -2.34850451942952
  C          -0.79833407631843      3.29839919879776     -3.43811953151066
  H          -0.55299270298059      2.66471518686832     -4.30642945361345
  O          -1.85067648509987      4.15151727145267     -3.73892148002693
  C          -2.93744336027927      3.50024715653912     -4.39937645292114
  C           0.40447128620007      4.14408370965237     -3.04003437203693
  H           0.11027760818879      4.78053510853318     -2.19636194835455
  O           0.87345134224145      4.92942620141965     -4.12653200478692
  H           3.00731160629218      4.50112197597732     -2.77453263525593
  H           2.90880690288216      1.76104772128995     -1.11883888963217
  H           0.05093812134289     -0.07586385261969     -0.61979037213310
  H          -1.06816305183149      1.20331433795471     -0.11533505035806
  H          -6.43259882303023     -1.85504364988293     -2.21897221144355
  H          -6.27306505992688     -0.37523717478719     -1.26448018428932
  H          -5.78921259967239     -1.93211420805824     -0.57366685209372
  H          -3.47421304404510     -0.16003608372739     -3.78812053427100
  H          -4.92650625640614      0.65000164163324     -3.18439812657215
  H          -5.07267144653322     -0.85564320075165     -4.10108759101162
  H          -4.40563648692980     -3.05312119634278     -3.10629553817353
  H          -3.72129404403163     -3.15328891156486     -1.47867038765973
  H          -2.77531192473677     -2.43788504415518     -2.79257382974762
  H          -2.49483957369538     -0.67718894837865      1.49243475259534
  H          -2.82101328041881     -2.20455962183431      0.65715546121775
  H          -4.15981675155833     -1.24403298134480      1.31231022678572
  H          -4.00543196637718      2.07925806881410     -1.36305064206592
  H          -3.32836588696353      1.99654927388119      0.26960441098321
  H          -4.96957147500523      1.41685054240874     -0.02905515004202
  H          -2.58699416619693      3.00319249692557     -5.31037487377767
  H          -3.65708180360889      4.27563737258567     -4.65993038331177
  H          -3.41135919264874      2.76636152691470     -3.74310519023235
  H           0.18512390195920      5.56887855962592     -4.34504673882434
