48
Coordinates from ORCA-job goat_0_1109 E -1253.944207261685
  O           2.88185435641960      3.53941223273784     -2.47368749384600
  C           1.60034100542166      3.02085964092103     -2.79988074942328
  H           1.60651135760674      2.62426522695865     -3.82549325573361
  C           1.22088538904085      1.88622421647366     -1.85719677972566
  H           1.30183823811587      2.23985899586703     -0.82292780221123
  O           2.15459945945182      0.83491694288541     -2.09715731657685
  C          -0.21676709725353      1.43093691719869     -2.12498515291327
  H          -0.27911637418852      1.02758497525434     -3.14545599050076
  C          -0.67005099879462      0.36759540933924     -1.13992489713527
  O          -1.75738501663586     -0.40648886805120     -1.60705404376099
  Si         -3.35209447349787      0.07352271441900     -1.74157109777107
  C          -4.35468062958601     -1.51005220343337     -1.48591625261157
  C          -3.85312838381347     -2.61226675639858     -2.42975004607947
  C          -4.21263888036679     -1.98902561749887     -0.03447387379555
  C          -5.83439711063956     -1.22639116891205     -1.78448113242482
  C          -3.76928188387735      1.33668431305177     -0.42603017542822
  C          -3.65432494072090      0.74385094446523     -3.46414493111618
  O          -1.09147018677287      2.55207185709303     -1.98800925896326
  C          -0.81927048033889      3.57563533274288     -2.92967675229583
  H          -0.92078450885462      3.16945621813913     -3.94951124142578
  O          -1.70946752828571      4.62243857927683     -2.72738286288911
  C          -3.03131469640697      4.37232484376270     -3.20540963965131
  C           0.58345440840291      4.14003111350186     -2.72293476536797
  H           0.62066330571580      4.59642725123774     -1.72529402653209
  O           0.88080671320740      5.09803192443928     -3.72660013402489
  H           3.48645228057085      2.78629375685552     -2.46269348926957
  H           2.35025513418887      0.39425499967888     -1.26394862585043
  H           0.15751319908775     -0.32331782828016     -0.96449786786626
  H          -0.91299599431081      0.85656485957757     -0.18904220180351
  H          -2.80464018232821     -2.85632853528200     -2.23849930549818
  H          -3.94637756427591     -2.32050085639225     -3.48013025624431
  H          -4.44316831445231     -3.52603545348395     -2.28632252232534
  H          -3.16624008478342     -2.17618947328370      0.22544207766561
  H          -4.76578706184744     -2.92529863807005      0.11029140696044
  H          -4.61074865319779     -1.25586712883735      0.67291095333107
  H          -6.43193782192544     -2.13156964374056     -1.62077721623625
  H          -5.98334202990784     -0.91422414737448     -2.82244006620614
  H          -6.23719001485342     -0.44288314988624     -1.13490013390135
  H          -4.84386711572228      1.54264841932514     -0.43345672791867
  H          -3.23828615021151      2.27410836138366     -0.59909040142975
  H          -3.50379801139425      0.96902588880979      0.56919835186949
  H          -2.89005717028599      1.47569196143726     -3.73108101682383
  H          -4.63124398201196      1.23158112043204     -3.53099685921357
  H          -3.62674004367533     -0.06197504374706     -4.20302022518420
  H          -3.00612436266281      4.05402157575461     -4.25284593340898
  H          -3.57648839589080      5.31207919724851     -3.12233569291022
  H          -3.52723585424432      3.60744800295085     -2.60416105553264
  H           0.20509715078521      5.78514671945261     -3.67050351999892
