48
Coordinates from ORCA-job goat_0_1061 E -1253.944528520136
  O           2.11407079057874      3.55173862955810     -0.95939511281711
  C           1.34209210551559      3.08193744634117     -2.05898744799156
  H           2.00099823749725      2.88174758966943     -2.91573752727421
  C           0.59207860970279      1.80473307454405     -1.72496129381888
  H          -0.01121683779012      1.96198237780046     -0.82618663663343
  O           1.56921714336565      0.79157045824112     -1.50054382436433
  C          -0.33065035954633      1.44851554357649     -2.89182362388520
  H           0.28151404473795      1.26999817086835     -3.78836454159853
  C          -1.16053957597047      0.20429150062133     -2.64286736326754
  O          -1.87311219884411      0.30098619806185     -1.42273894038835
  Si         -3.53948767333133      0.26344884948979     -1.29602960775080
  C          -4.10854542322267     -1.53593250416365     -1.17141192486704
  C          -3.58601319960793     -2.33107465835663     -2.37667414247772
  C          -3.56052407817553     -2.16273162675807      0.11825253573230
  C          -5.64275285507994     -1.59361657244585     -1.15340736591069
  C          -3.91597064917962      1.20174037805275      0.27510837754723
  C          -4.33215570631885      1.10446191751217     -2.76850572520623
  O          -1.21912617543429      2.53918329010405     -3.12074442636208
  C          -0.54779538111678      3.71618742158008     -3.54230584337093
  H           0.02804164803188      3.49720283541153     -4.45711744302530
  O          -1.49982364893118      4.69422286907336     -3.78740911015423
  C          -2.26276233467186      4.45323038936661     -4.96994447528441
  C           0.38302549304312      4.19889568648509     -2.43869297814370
  H          -0.23130719804100      4.45975655018820     -1.56696999460133
  O           1.09182974681816      5.33545276298494     -2.90956932591669
  H           2.76214925405806      2.86804554776763     -0.75080912552471
  H           1.19723391408459      0.13560751663833     -0.90123044540538
  H          -1.83155499650417      0.06202350067828     -3.49587056289120
  H          -0.48992228512359     -0.65938698049619     -2.59875157869857
  H          -3.93936453233969     -3.36832637630486     -2.32472876723601
  H          -2.49266003542036     -2.35542628621648     -2.39814538513083
  H          -3.93450100739649     -1.91008883086544     -3.32480718664189
  H          -2.46784217488785     -2.11217321222542      0.15617095767166
  H          -3.84835381659254     -3.21972977205763      0.17730716316948
  H          -3.95284398093950     -1.66150098141968      1.00788974050436
  H          -6.06062253709387     -1.02205109269074     -0.31862705350078
  H          -5.97932099381950     -2.63207399760589     -1.04544420052072
  H          -6.07176252318766     -1.20051753312703     -2.07980951046158
  H          -3.66000408046140      2.25830788290130      0.15277351109748
  H          -3.34206775089332      0.80642017870844      1.11750493751052
  H          -4.97860568731847      1.13567993943338      0.52586010149991
  H          -4.21032560690569      0.53527544113337     -3.69369195478990
  H          -3.89503481182612      2.09497060174608     -2.91625583852489
  H          -5.40460175443838      1.22370338012684     -2.58742193702538
  H          -1.60051504212217      4.33552049227872     -5.83481807010758
  H          -2.89967826435753      5.32520378226188     -5.11559758940441
  H          -2.88404286616842      3.56053370473209     -4.86184845446525
  H           1.78098705562521      5.52463451679631     -2.26047098929349
