48
Coordinates from ORCA-job goat_0_218 E -1253.938204293791
  O           2.73279732036496      3.99314361725656     -2.68266310584449
  C           1.66121047158614      3.14085719930770     -3.06385684294149
  H           2.02804606012503      2.34505216992601     -3.72646244133315
  C           0.98067368683586      2.51478830763815     -1.85678269308993
  H           0.53808028519728      3.31210226171136     -1.25098873041927
  O           1.91766057142551      1.87502269263820     -0.99661044193216
  C          -0.09773092864647      1.53600111548600     -2.33832115392372
  H           0.36901721123264      0.55366267666198     -2.46573837814356
  C          -1.20946168535200      1.40354493642019     -1.31197617764468
  O          -2.11478108078470      0.38997000056018     -1.71193792626435
  Si         -3.43488908606432     -0.02430515245584     -0.77431425087555
  C          -4.39482064650867     -1.26804666016554     -1.81742798432802
  C          -3.52291173231930     -2.50018468552158     -2.09814252210252
  C          -5.65556539370806     -1.70190922669708     -1.05491028892313
  C          -4.80404205154386     -0.62266184399314     -3.14929263913589
  C          -2.83992890085018     -0.77099068711570      0.83690421158744
  C          -4.45312482408770      1.50329053300781     -0.40279936639025
  O          -0.58255529948573      1.85940376721624     -3.64851634981079
  C          -0.67902650834910      3.22648236901746     -3.98365167075257
  H          -0.95244716896742      3.22267214791795     -5.04425213198840
  O          -1.65879637794839      3.89807422978460     -3.23497697404155
  C          -2.97933723291297      3.43310320427386     -3.51153688265801
  C           0.64565110961314      3.98559027729640     -3.80981291633691
  H           0.44952351718397      4.88324739184720     -3.21367864535906
  O           1.10937359907992      4.35112426277471     -5.10545465147505
  H           3.30908635203679      3.48268587195151     -2.09990756511739
  H           2.27954694662315      1.10663347308984     -1.45728376408615
  H          -0.74128847866353      1.15199636092452     -0.35163233700419
  H          -1.72350748653948      2.36246557524347     -1.19946619334323
  H          -4.07757207172031     -3.22049613581397     -2.71202969139994
  H          -3.23157145384114     -3.00741795439729     -1.17362504361382
  H          -2.61083360124949     -2.23177044005484     -2.63885048082215
  H          -6.31732167823366     -0.85451280493317     -0.85181258882697
  H          -5.40860873510229     -2.17490457107770     -0.09947643830170
  H          -6.22115645293248     -2.42997231670377     -1.64899189625889
  H          -3.93047231735166     -0.30469775781601     -3.72523780365702
  H          -5.44352615432179      0.25157843775328     -2.99491270026170
  H          -5.36539507832869     -1.34199882505364     -3.75820209083797
  H          -2.26418340552294     -0.03693971687249      1.40902168816480
  H          -2.20349819470067     -1.64294002532238      0.66388305529493
  H          -3.68760854331464     -1.08259727749008      1.45424808692392
  H          -5.31210470083191      1.24274173105276      0.22263522835453
  H          -4.82525167287071      1.97392082466399     -1.31614650801329
  H          -3.85753635455151      2.24117641201194      0.14299893184383
  H          -3.21147081689450      3.56000704555182     -4.57514496584007
  H          -3.65901528675047      4.04083161686138     -2.91462352454564
  H          -3.09498693114291      2.38186264001752     -3.23793623056029
  H           1.92349120108968      4.85589293161967     -4.98815621396463
