48
Coordinates from ORCA-job goat_0_1119 E -1253.936450830931
  O           1.89048813573552      0.33831353300086     -2.19602061083859
  C           1.21241112380335      1.50205216855750     -2.65221072793488
  H           1.94098124894261      2.28489175770389     -2.90419658796450
  C           0.43240719517509      1.15171501951664     -3.90773968497308
  H          -0.01904406972316      0.16650480073912     -3.75773325283844
  O           1.37517118077226      1.09029477094159     -4.98016643410332
  C          -0.68289593342064      2.18303584759655     -4.18568124746482
  H          -0.58236731142856      2.48983889888659     -5.22935703895272
  C          -2.08738734560745      1.60771279729507     -4.05167557918642
  O          -2.25268360405702      0.86665565599922     -2.85687754088258
  Si         -3.75498615245966      0.36339000663287     -2.33172022390014
  C          -3.44074218714676     -0.52730137990016     -0.69719617383059
  C          -3.07164211887877      0.47919442235171      0.40169304052760
  C          -4.72073711361496     -1.27119681433662     -0.28536327022409
  C          -2.29925473361681     -1.54092705323681     -0.86279044722963
  C          -4.87937112976404      1.84396183936207     -2.11071744953389
  C          -4.49288057256367     -0.79018604947359     -3.60978910586489
  O          -0.48168139179710      3.40543570760196     -3.46497570243542
  C          -0.35710854975717      3.33524513582468     -2.06019679246761
  H           0.30814786590374      4.16823014815426     -1.79951307077417
  O          -1.58147420146457      3.49363804258359     -1.39606863383760
  C          -2.13921914467655      4.79379448733661     -1.54866043593963
  C           0.27015584407938      2.02812388055813     -1.58476687474528
  H          -0.51493185169892      1.29337894987213     -1.40513710062012
  O           1.03140529433402      2.23923271347265     -0.39740185168003
  H           2.21492066463357      0.54530987222021     -1.30961099656313
  H           0.95175877152564      0.64780634460085     -5.72448299867702
  H          -2.80309307687763      2.43601788311891     -4.10668971657828
  H          -2.25485436337277      0.95455063916765     -4.91779398310045
  H          -3.88312501373576      1.18921098873712      0.58592910976571
  H          -2.17698474840358      1.05276232736496      0.14524458992578
  H          -2.87279082329869     -0.05021641575253      1.34175850630319
  H          -4.57182395966499     -1.76503864581278      0.68246606392389
  H          -4.99200113227370     -2.04112853914668     -1.01324817776720
  H          -5.57130101195387     -0.58964208086403     -0.18193024095832
  H          -2.14885526440600     -2.09151721690100      0.07406234499524
  H          -1.35758084992226     -1.04749367232128     -1.11796954704792
  H          -2.51916391481072     -2.27335537951593     -1.64582524334887
  H          -5.11576582818834      2.30403099911437     -3.07470192430680
  H          -4.41417281396849      2.60056823860712     -1.47447307371768
  H          -5.82291449924000      1.53797149755539     -1.64841390222148
  H          -3.89846903870479     -1.70211113528922     -3.71560717799729
  H          -4.53811571330751     -0.29786671701446     -4.58619334396018
  H          -5.51180382242455     -1.07592598561429     -3.33342131671992
  H          -1.42217126346107      5.56277171280455     -1.23705148533035
  H          -3.02014657224598      4.83935493052119     -0.90823172757634
  H          -2.43588010237484      4.97776045712480     -2.58523011553129
  H           0.43940389940663      2.15373061025450      0.35782715418363
