48
Coordinates from ORCA-job goat_0_1010 E -1253.937073770244
  O           2.62226453968000      3.41039571199625     -3.34693097915378
  C           1.22005838060724      3.18941792962888     -3.31057460781027
  H           0.85057712288970      2.94534064702331     -4.31599050509470
  C           0.86668015631706      2.04072926608287     -2.38153845293604
  H           1.15515119329416      2.30076288747617     -1.35792281055420
  O           1.59722766794638      0.89099462132767     -2.81030938766194
  C          -0.63665430391692      1.76489217702635     -2.47815157184946
  H          -0.78469586549782      1.15198846458730     -3.37163912323096
  C          -1.12769094695121      1.00204063678192     -1.25533879374009
  O          -2.50663159546555      0.68845565449961     -1.30802747265730
  Si         -3.18649292515978     -0.42630888364966     -2.35189598056657
  C          -4.69465715036755     -1.09762035445075     -1.43519259429020
  C          -5.63428529829409      0.05894119829463     -1.06363140137076
  C          -5.44671624548323     -2.09167633666520     -2.33218436658570
  C          -4.24288855831301     -1.81295024154352     -0.15427042542376
  C          -3.69822889394684      0.41900228439270     -3.94300182495865
  C          -1.94250553861708     -1.77701235568949     -2.72121615348877
  O          -1.40262246807701      2.95463889285554     -2.71726051267587
  C          -0.84651110948981      4.15795943636469     -2.23548212438120
  H          -1.55644262796172      4.93080452741103     -2.55118291073735
  O          -0.71326875290103      4.16603717509649     -0.83730336911263
  C          -1.96978706764914      4.19357376473071     -0.16179507284665
  C           0.53529559287634      4.46096053968577     -2.84590485809768
  H           1.15150905076163      4.92641955183429     -2.07072459716979
  O           0.41986658756995      5.32156839461203     -3.97412930821949
  H           3.02728647119870      2.54958656887906     -3.51638602387629
  H           1.92716760452196      0.42655263686385     -2.03454780947043
  H          -0.52489409750155      0.09005856120934     -1.16575460667538
  H          -0.95934281040984      1.60313170411949     -0.35965211922624
  H          -5.99903078370560      0.58408400146943     -1.95147301029652
  H          -5.13637391059354      0.78879025132846     -0.41903195363268
  H          -6.50761190784281     -0.32629496748266     -0.52294208419817
  H          -4.81395115768215     -2.93628356676546     -2.62200657944356
  H          -5.81371429541797     -1.61491554270214     -3.24577709193601
  H          -6.31467970343827     -2.49594837618835     -1.79723332413142
  H          -3.60068081147461     -2.67052387916382     -0.37602965595201
  H          -5.11561031753997     -2.18469297991079      0.39665337225996
  H          -3.69098950361341     -1.13895075471441      0.50727464134519
  H          -4.22260552448034     -0.28165382258979     -4.59960463636979
  H          -2.82669900818419      0.79717599071423     -4.48399557098377
  H          -4.36457151790435      1.26272735324707     -3.74348711909930
  H          -1.57093042579140     -2.24373941092454     -1.80493542814857
  H          -1.08535134346454     -1.38368996240203     -3.27552295626201
  H          -2.40648207682459     -2.55500302861268     -3.33464988564475
  H          -2.56097230893620      3.30156678222148     -0.38384433979218
  H          -2.53679370226281      5.08531652734744     -0.45184304523068
  H          -1.75409494783192      4.23045015675666      0.90575008864800
  H           0.20020513532940      6.20548016759044     -3.65721165726887
