48
Coordinates from ORCA-job goat_0_360 E -1253.937544045420
  O           1.84729412385991      1.05026501778310     -1.35651947971649
  C           1.15386389955166      1.97998271717853     -2.17873852047229
  H           1.86029221928580      2.49627125575621     -2.84124685409567
  C           0.15994198659949      1.19876675170361     -3.02246463252428
  H          -0.34610147684342      0.48435320717231     -2.36492615458052
  O           0.81669027838963      0.48921501699051     -4.07162215845082
  C          -0.88745507820397      2.13420736545300     -3.64473152757165
  H          -0.94139876801655      1.90385959935176     -4.71032012161484
  C          -2.28387377215097      1.93095557082356     -3.06053459254491
  O          -2.70106372480979      0.62003831407960     -3.40855807890003
  Si         -3.98130978469640     -0.15281415119586     -2.65585078572978
  C          -3.36326340894130     -1.11145393499922     -1.14660195105564
  C          -2.34450617990264     -2.17038896162218     -1.59278440044809
  C          -2.69749253799935     -0.16884253118438     -0.13385043548888
  C          -4.55432127973360     -1.80809958378097     -0.47051531481547
  C          -5.26224932541735      1.12166970734425     -2.16610313355330
  C          -4.66200196389234     -1.31608337682451     -3.94956122781121
  O          -0.48150129737515      3.50449015498966     -3.58769935351470
  C          -0.23452872912517      4.03144228204795     -2.29927128487591
  H           0.46794135528872      4.85606003885594     -2.46717046916764
  O          -1.39584337064063      4.51573556783358     -1.67887900107236
  C          -1.94548693626876      5.65878534879462     -2.32976925885070
  C           0.40382581249535      3.00993379020982     -1.35424753379881
  H          -0.37635771328904      2.50964077968327     -0.77031321270000
  O           1.33308474517086      3.63831203761457     -0.47960233275182
  H           2.41511530877465      1.56194733499594     -0.76664509826662
  H           1.44978918313177     -0.11261848578023     -3.66107124737848
  H          -2.28031197792047      2.07168478863527     -1.97658350320708
  H          -2.95760850742613      2.67722619493195     -3.49379003617926
  H          -1.95820465843336     -2.71264385903631     -0.72089650253108
  H          -1.49242919177514     -1.71776619683597     -2.10900593962162
  H          -2.79593287306176     -2.90461046916068     -2.26634007233838
  H          -2.39256311119868     -0.73354395976824      0.75594757464455
  H          -3.37617603890018      0.62433859781377      0.19413640819502
  H          -1.80037650332020      0.30121408943803     -0.54509181446919
  H          -5.06383167015708     -2.49597713929108     -1.15197487026329
  H          -5.29076538990857     -1.08627709984759     -0.10488522353171
  H          -4.20618647021885     -2.39169388889671      0.39049087048403
  H          -4.88817054047602      1.80830935616905     -1.40201473576242
  H          -6.15580417313394      0.63049458083200     -1.77047797571162
  H          -5.56018773301697      1.71146953958541     -3.03828379115891
  H          -5.06854711813760     -0.74485890954231     -4.78927223954282
  H          -5.46457292421989     -1.93590529590224     -3.54031803808532
  H          -3.88207391534540     -1.97875339081730     -4.33415907516797
  H          -2.30096511870794      5.40731141206277     -3.33251485894769
  H          -1.19834556966146      6.45767312042203     -2.39928798617172
  H          -2.78421696010744      5.99693676534513     -1.72170363227821
  H           0.84601687988574      4.02232093058855      0.25777360339609
