48
Coordinates from ORCA-job goat_0_1085 E -1253.944400536916
  O           2.38396091548537      3.17128369306688     -1.86546469106601
  C           1.16191624472857      3.14826833459009     -2.59482879229160
  H           1.32358525782630      3.55733939828666     -3.60217472030931
  C           0.60728690636893      1.74165334451028     -2.73269716046485
  H           0.51357352893459      1.29046296044546     -1.74081168699339
  O           1.52771255803374      1.00373171503573     -3.53281365444476
  C          -0.77467852176746      1.81291051241360     -3.38498577273373
  H          -0.67209693027787      2.25036872084463     -4.38905021284823
  C          -1.43859343812780      0.45987520390215     -3.53762758751078
  O          -1.48161978246728     -0.21748631498456     -2.29290646971500
  Si         -2.71595483244431     -1.25336457130315     -1.84793706300639
  C          -4.15193085443548     -0.27482291789269     -1.10013189636923
  C          -5.25995239979839     -1.24978692638452     -0.67425332240422
  C          -3.65880711269345      0.50301930025677      0.12868818753601
  C          -4.72302552767235      0.71859403918299     -2.12270984332682
  C          -3.27642726296183     -2.22959126740926     -3.34496711771273
  C          -1.94291876906359     -2.38296058892420     -0.57570770805073
  O          -1.61704082933784      2.63669556768103     -2.58205337993554
  C          -1.17774191694803      3.98544754992091     -2.52752709580738
  H          -1.11951043819373      4.38860189289193     -3.55230382167767
  O          -2.08648352819061      4.70735113160807     -1.76941048088147
  C          -3.32586178113351      4.93590630064558     -2.44042703927199
  C           0.18748573030249      4.05295901875765     -1.85742739096441
  H           0.07541224106744      3.69682287434185     -0.82495740545690
  O           0.63425264725978      5.40024081792265     -1.87730798080574
  H           3.02361405281590      2.64475794522155     -2.35993624885357
  H           1.46692705590450      0.07362285032901     -3.28960100075810
  H          -2.43964966563283      0.61488168736101     -3.95152464995928
  H          -0.86517665568056     -0.12965158604767     -4.26113398959241
  H          -6.09249636322661     -0.69546304772053     -0.22392208978491
  H          -4.90455019471231     -1.97256204944559      0.06638641666123
  H          -5.65735053196028     -1.80779174543314     -1.52751060101030
  H          -4.48268363688653      1.08400979548787      0.56145541577624
  H          -2.85982097927530      1.20218955018389     -0.13482982378891
  H          -3.28043039649082     -0.16663715921510      0.90665123004398
  H          -3.98101717700742      1.46656932118991     -2.41204567186378
  H          -5.57850736525282      1.25015841519800     -1.68729704029527
  H          -5.07358544359156      0.21448408022869     -3.02853825193975
  H          -3.74730104379151     -1.59433357434564     -4.09965158597584
  H          -4.00036935063010     -2.99452230339274     -3.04948446687548
  H          -2.42265603732179     -2.73426333801276     -3.80730914549775
  H          -1.15019009859591     -2.97969737025990     -1.03634014540283
  H          -2.68343343039768     -3.06913623237454     -0.15546254586347
  H          -1.50481243921315     -1.81010625997204      0.24601074704804
  H          -3.86463688855729      3.99900975448223     -2.60296908637252
  H          -3.15355849838512      5.43009982455830     -3.40288867129474
  H          -3.91552827901500      5.58802038756568     -1.79682294471917
  H           1.55250126241082      5.39542126500701     -1.57929174316825
