48
Coordinates from ORCA-job goat_0_190 E -1253.945190618889
  O           2.45917320150157      1.96580365702249     -2.12859636086870
  C           1.15165090323303      2.33510626689499     -2.55551853014113
  H           0.95486037461420      1.91713029234953     -3.55218838740622
  C           0.07670111783161      1.83040510203819     -1.60909880736639
  H           0.30226012206160      2.17812831205634     -0.59135281428292
  O           0.10015378016437      0.40932118350345     -1.66483525386720
  C          -1.27839457092234      2.40777906981139     -2.02866509757009
  H          -1.54103820383194      2.02599803773387     -3.02528830366671
  C          -2.39087034290720      2.07089127985956     -1.04480592325609
  O          -2.55938668798856      0.65975327314339     -0.95913656470301
  Si         -3.92751137877744     -0.08883747918206     -1.58892742058596
  C          -3.56677076946512     -1.93640974239502     -1.49504662295961
  C          -4.86616786435744     -2.70641928386405     -1.77821818920546
  C          -2.51379673547063     -2.32817433502575     -2.54180366738565
  C          -3.05493060763510     -2.30156817475499     -0.09442307158197
  C          -5.39823843841948      0.39308454564509     -0.53975643786396
  C          -4.18912049016295      0.48390437213865     -3.35048544439613
  O          -1.19282593888831      3.82797432639634     -2.05008190729800
  C          -0.27359856516956      4.30988502877434     -3.02279428998377
  H          -0.55898174264125      3.91683381981431     -4.01237923325192
  O          -0.31711063957934      5.69384043732842     -3.01374402069153
  C          -1.49798867947501      6.22597094516271     -3.61547562842048
  C           1.13130477971020      3.85186594974491     -2.65805711430419
  H           1.38879046604403      4.28835671902070     -1.68425608059695
  O           2.03010525640038      4.29904432960078     -3.66135751274794
  H           2.52950634507812      1.00628310111613     -2.19528075927993
  H          -0.72486953156137      0.10366908883581     -1.25665857365026
  H          -2.12404707060255      2.45172522390444     -0.05421425906604
  H          -3.31024928149264      2.57282609652096     -1.36413499383135
  H          -4.67044035752416     -3.78526735177724     -1.76891748248326
  H          -5.28174635759835     -2.45395772857349     -2.75905522627870
  H          -5.63046377716083     -2.50039435460884     -1.02348542148642
  H          -2.86992581624617     -2.14139085870904     -3.55874452819753
  H          -2.28550174872766     -3.39768686929681     -2.45977165889622
  H          -1.57780433424355     -1.77844915467780     -2.40752636393417
  H          -3.77355677236415     -2.02667920176287      0.68385136271272
  H          -2.10804579964829     -1.80231406971078      0.12863201104446
  H          -2.88926223624569     -3.38363887486847     -0.02702977377613
  H          -6.32515139891423      0.00403955130803     -0.97064453956089
  H          -5.48628063603942      1.48242159070453     -0.48437975433889
  H          -5.30385050106503      0.00610552894743      0.47853545160040
  H          -4.42295316828485      1.55201286417590     -3.38583971917255
  H          -5.02904396226058     -0.05546791295883     -3.79899263427019
  H          -3.30263192465106      0.30594515808260     -3.96434642382753
  H          -1.37984698302670      7.30887547926302     -3.63364353297826
  H          -2.38706237147924      5.96489080879260     -3.03598534388617
  H          -1.60628030700168      5.85215488507286     -4.63947490562299
  H           2.86906964519130      3.84720906740230     -3.50445024641788
