48
Coordinates from ORCA-job goat_0_1097 E -1253.943911205622
  O           2.07044606461079      2.68648190124180     -0.96656927623660
  C           1.19244638826666      2.75174379482386     -2.08177635193477
  H           1.76287604904887      3.01378739333078     -2.98877143076786
  C           0.51696459020726      1.40678326706861     -2.31932841289234
  H           0.02475971689225      1.08907270667095     -1.39787748966537
  O           1.49066572774650      0.40743769047390     -2.60577690106581
  C          -0.53490644007800      1.52526275557168     -3.41929190661418
  H          -0.04572559758539      1.79172021322695     -4.36975447896284
  C          -1.31052214205624      0.23877834859007     -3.63766191158910
  O          -1.83447233808058     -0.29638023585962     -2.43915531817308
  Si         -3.26545767658311      0.13496635371110     -1.69166393198307
  C          -3.94901806833164     -1.49120900009536     -1.00668328105529
  C          -2.91991069035093     -2.12880582675455     -0.06183565630889
  C          -5.24916558775062     -1.22890484651151     -0.23298713144336
  C          -4.23666145378250     -2.45782986076355     -2.16400325274967
  C          -2.92654395356199      1.33152153766804     -0.29230149058854
  C          -4.44653409405125      0.89021262825686     -2.93177705330485
  O          -1.46524486486633      2.53922852834732     -3.05540190443053
  C          -0.87961047594636      3.82736276855862     -2.94771561728323
  H          -0.41046350228528      4.08823789979538     -3.91288001482454
  O          -1.88307714806085      4.73083767035884     -2.63495105598116
  C          -2.75467213300231      5.00981474174198     -3.73025391337168
  C           0.16676781224657      3.84815183674908     -1.83262469408554
  H          -0.34358030957226      3.66074404930062     -0.88377309530127
  O           0.77387700807451      5.12509613223857     -1.71490484641123
  H           2.62347108520712      1.90532696135144     -1.09661699899889
  H           1.92133877353495      0.63216230398074     -3.44114072092273
  H          -2.10587665128832      0.43436381210437     -4.36461089591725
  H          -0.63290928467349     -0.50356503657940     -4.06644117461429
  H          -1.97809648202952     -2.33737302745009     -0.57750929648628
  H          -3.30537111846713     -3.07819041487629      0.33056129383296
  H          -2.70159906059064     -1.48156446692140      0.79297482009402
  H          -5.65544699165771     -2.17296532443179      0.15054211801668
  H          -6.01503483992412     -0.77369626278941     -0.86855380878637
  H          -5.08431883899613     -0.56806778065244      0.62299230412123
  H          -4.60481734721526     -3.41495020377564     -1.77405363360562
  H          -3.33550284669104     -2.65958815904811     -2.75044417476404
  H          -4.99892619279996     -2.06102803951070     -2.84130340066290
  H          -2.58114681723454      2.28836783244209     -0.68839914256700
  H          -2.15833135314727      0.94080681218551      0.38124230955779
  H          -3.83338574552443      1.50741992624167      0.29402379999054
  H          -4.06283155617704      1.84572687074250     -3.29605161396632
  H          -5.41601259029546      1.07117259720666     -2.45800494086707
  H          -4.60780855078928      0.23233675837371     -3.79016658808569
  H          -3.43712284135252      5.79127663497525     -3.39736603055990
  H          -3.32645703362313      4.12317364649486     -4.01559953536484
  H          -2.18154510707289      5.36764246191151     -4.59270611142564
  H           1.31232450966031      5.27967965028466     -2.50149816099308
