48
Coordinates from ORCA-job goat_0_314 E -1253.945498589794
  O           0.72822131252286      4.00135090732206     -0.64374264095929
  C           0.51664374891390      3.48547004357287     -1.95385037941912
  H           1.48223736526575      3.33831389561281     -2.45657982817693
  C          -0.16691846353296      2.13703489043767     -1.80531589217178
  H          -1.09264071320614      2.27363123595026     -1.23545097863375
  O           0.68175812740792      1.20120165080385     -1.15426626309543
  C          -0.52096487893337      1.57880239441494     -3.17994611230941
  H           0.40455470158603      1.42306712923246     -3.75392117499439
  C          -1.24683079580057      0.24892559088208     -3.11075478675485
  O          -2.40914207172289      0.32501734693351     -2.30898494370091
  Si         -2.70685393862985     -0.53672318626974     -0.91034699650866
  C          -4.50796075173033     -1.09365608514981     -1.04420324073518
  C          -4.91355543152138     -1.87245111305249      0.21518219141356
  C          -5.41908968238851      0.13328761379975     -1.19497106622516
  C          -4.67107089955757     -1.99791098481354     -2.27411793319467
  C          -1.54607190359481     -2.00034921338526     -0.78681828458207
  C          -2.46975953589437      0.57892126138963      0.57430733161007
  O          -1.35503301758558      2.51525866581807     -3.85928884948457
  C          -0.68120227440865      3.73740400320472     -4.11498654472862
  H           0.23519678905998      3.53216921874122     -4.69297211829000
  O          -1.52822322393970      4.57561983068999     -4.82583781369359
  C          -1.67725437884301      4.20363482158293     -6.19687329710553
  C          -0.33209445728457      4.42071338918917     -2.79802843492366
  H          -1.26723923075596      4.64406882739907     -2.26993975838525
  O           0.42254409696032      5.60476471389668     -3.01244701622252
  H           1.24487494309889      4.81151399356897     -0.72623732499345
  H           0.97138372722632      1.60624292013734     -0.32750043433389
  H          -1.53845583038361     -0.03382103800019     -4.12749198703688
  H          -0.54683221331460     -0.50272175220326     -2.73743938445779
  H          -4.29742497561327     -2.76582573554696      0.35490194949373
  H          -5.95762239307287     -2.19912612760256      0.13488106858747
  H          -4.82791782326950     -1.25811332405498      1.11631577493587
  H          -6.46461347090544     -0.18434683935967     -1.29279730667134
  H          -5.16266779951926      0.71742836502457     -2.08347503074331
  H          -5.35365191853629      0.79403109490281     -0.32523241298805
  H          -4.37991280499789     -1.48001950192969     -3.19269496953223
  H          -5.71842813566474     -2.30647642651970     -2.37994194894306
  H          -4.06505204016957     -2.90510707077441     -2.19039492862230
  H          -1.81382337018140     -2.60555643784735      0.08443791650123
  H          -0.51151430657104     -1.67093885525373     -0.65710958307481
  H          -1.59577903145463     -2.64022859301337     -1.67190691909051
  H          -2.78459040356884      0.07125343862870      1.49087488033005
  H          -3.05268556391694      1.49909664298915      0.47814760551105
  H          -1.41616695418052      0.84908889755112      0.68377797926339
  H          -2.29385865102522      4.96988427837710     -6.66548512361255
  H          -2.16941976334336      3.23209529768477     -6.28745465234752
  H          -0.70004214492784      4.16644476307428     -6.69012213515681
  H          -0.14721956809465      6.24021516196414     -3.46174820174660
