48
Coordinates from ORCA-job goat_0_1104 E -1253.932380195138
  O          -0.82352961115020      4.25979395322312     -1.01396352092691
  C           0.17418562739458      3.29267583246595     -1.32292550897142
  H           0.77523728419127      3.17005360677675     -0.41856825079144
  C          -0.45152766394457      1.93901341800060     -1.67747454307297
  H          -1.23106964095457      1.72611712568483     -0.94458048899439
  O           0.49494969402319      0.88135026378799     -1.55850842519088
  C          -1.07277814996367      2.00072697722197     -3.09318553675164
  H          -0.51318309789520      1.31611064751373     -3.74347698845099
  C          -2.54242423768657      1.61391531525106     -3.10514276501635
  O          -2.65643716098491      0.28299031105607     -2.63746242032931
  Si         -3.92033984837120     -0.20143171407204     -1.65487908134857
  C          -3.63930965292600     -2.04598153504651     -1.38728222684960
  C          -4.72723542253173     -2.59123544768690     -0.45007145172375
  C          -3.70828487387399     -2.78718118779670     -2.73000197300017
  C          -2.25986424720710     -2.27538826581345     -0.75254928790809
  C          -3.86150774820804      0.74741176188263     -0.04089950284803
  C          -5.54109197804742      0.15190786707250     -2.52197466422220
  O          -1.00307052250508      3.32232603015222     -3.63635857910681
  C           0.34586227195191      3.73193663026421     -3.81551466279502
  H           0.85958702561444      2.99814147910784     -4.44752088829674
  O           0.36490054008588      4.92361517398042     -4.53361083196190
  C          -0.35516126408155      6.01328008039790     -3.95238038229836
  C           1.08022456880238      3.78755007832943     -2.45639257601126
  H           1.39681407762531      4.81094941556614     -2.24266038804448
  O           2.22761078812295      2.94029746273370     -2.59021073863928
  H          -1.39605098996263      4.33679348181672     -1.78872106369003
  H           1.29167932776515      1.15858788152854     -2.03427547324576
  H          -3.09791539389281      2.31856231744619     -2.47284407405122
  H          -2.93333427244383      1.69106334883541     -4.12464236923569
  H          -4.70027625847845     -2.10281094707732      0.52866766337928
  H          -4.57910643269177     -3.66588303998833     -0.28911403579434
  H          -5.72882148557807     -2.45411984516896     -0.86923549067570
  H          -2.94819654801473     -2.42472866427314     -3.42801476271898
  H          -4.68690275152297     -2.67234034011171     -3.20535323722373
  H          -3.53759988668766     -3.85970292384696     -2.57566366439551
  H          -2.17683652318522     -1.78490881287027      0.22183680445740
  H          -1.45635460979769     -1.89715264823933     -1.39061907828601
  H          -2.09192364814543     -3.34851835790247     -0.59958314118439
  H          -3.91256742094785      1.82572648321353     -0.21886033095585
  H          -2.94397016211325      0.53783889030350      0.51518297120429
  H          -4.71314559188068      0.47478839989793      0.58944512317563
  H          -6.38675309090043     -0.18303420146967     -1.91427403811746
  H          -5.59443944141235     -0.35087742562687     -3.49122054566775
  H          -5.65609211642960      1.22748815748134     -2.68893827099789
  H          -0.00372314409830      6.23845783892089     -2.94142981301935
  H          -1.42713943558233      5.80477142892666     -3.92643976228883
  H          -0.16918932553817      6.87391517177206     -4.59368249021497
  H           2.81393244405921      3.10971852637859     -1.84247523690274
