48
Coordinates from ORCA-job goat_0_35 E -1253.945645345636
  O           2.78413674172449      3.16866016887003     -2.95498889069938
  C           1.37510011150849      2.96759706681879     -2.97755495477598
  H           1.04840844235917      2.73685037493836     -4.00063124113581
  C           1.07942997758481      1.76240858365625     -2.09835197520971
  H           1.49384493935928      1.94422115690774     -1.09738270787907
  O           1.64113399057581      0.58321162144688     -2.65957964969502
  C          -0.43128439814302      1.56736984234798     -1.97761268697500
  H          -0.83393518497059      1.35247519653454     -2.97703793410647
  C          -0.77632433427675      0.43660497984603     -1.02543013827186
  O          -2.17051843384494      0.23068892473364     -0.89454730383532
  Si         -3.16862455875085     -0.32300042911363     -2.11594636535320
  C          -4.56185325278580     -1.23817279686933     -1.22891334942572
  C          -5.24973084740654     -0.29514088256787     -0.23110273153221
  C          -5.59396602693877     -1.73033541167176     -2.25386076815065
  C          -3.98576937055187     -2.44265080079358     -0.47115383856186
  C          -3.84668036086067      1.12632862212762     -3.09042233546005
  C          -2.20496439737731     -1.46293836626400     -3.24731714741316
  O          -1.01829723179909      2.76180550943169     -1.47302250448594
  C          -0.86098397058096      3.84966595050748     -2.36914061735503
  H          -1.27680377620842      3.57281860470691     -3.35226426424473
  O          -1.52187587458755      4.95490585531218     -1.85364776262317
  C          -2.94427938102191      4.86226044335517     -1.95331371214443
  C           0.61797067597308      4.19339371809825     -2.49571371757469
  H           0.98638908862625      4.48896040907892     -1.50561209886853
  O           0.83175286258605      5.22791444559913     -3.44477260026145
  H           2.99744865714554      3.84438810290263     -3.60913405488302
  H           2.56816935604140      0.77458648256936     -2.84946584203325
  H          -0.27741246435524     -0.47297515303104     -1.37190833485909
  H          -0.38660421619291      0.68367203406507     -0.03307094269455
  H          -4.54657285676493      0.07691950489697      0.51934608574628
  H          -6.05261579621451     -0.82599470808233      0.29520838744013
  H          -5.69700439160853      0.56793564344755     -0.73331533416013
  H          -5.14622844501797     -2.40817552141131     -2.98716708495706
  H          -6.05256654860621     -0.89920822038900     -2.79748657296212
  H          -6.39691717842723     -2.27720041813855     -1.74474736435739
  H          -3.52111798984408     -3.16251139559972     -1.15149982533262
  H          -4.78465107638347     -2.96450431575712      0.06989303982801
  H          -3.23283351673288     -2.13305146647567      0.25945336320716
  H          -4.55210119771415      0.77998316299310     -3.85169517364834
  H          -3.04691675445313      1.67205237636584     -3.59794022107418
  H          -4.36983538515868      1.82819171519235     -2.43541711923633
  H          -1.72746174494841     -2.27166887351070     -2.68749872186351
  H          -1.42719479972579     -0.92033571758001     -3.79237224878689
  H          -2.87652576802825     -1.91134524095005     -3.98540611856484
  H          -3.24311150459104      4.68760088884504     -2.99248337248016
  H          -3.34602697949796      5.81565370229003     -1.61186348171085
  H          -3.32838323846969      4.05528985867085     -1.32457357538898
  H           0.41201840935559      6.02737477164928     -3.10538419118968
