48
Coordinates from ORCA-job goat_0_138 E -1253.945161066390
  O           2.37245875199940      1.89215409348374     -3.09781421931636
  C           1.03598338495520      2.38538194332193     -3.10284818077420
  H           0.59298083853351      2.24418615239368     -4.09796981424536
  C           0.15889211436818      1.67205591442985     -2.08856279776202
  H           0.63905220808091      1.72227837486701     -1.10138694620568
  O           0.03650298614292      0.32099023947336     -2.51582245298947
  C          -1.20099730908852      2.37022493146672     -2.00725099103852
  H          -1.71737978431575      2.26127096879981     -2.97102326477876
  C          -2.07819930674000      1.82874808952365     -0.88471630042712
  O          -2.31600553568690      0.43361886780353     -1.04784399314754
  Si         -3.81767339877205     -0.12747810634155     -1.55997020328056
  C          -3.66355466549594     -2.00600523727403     -1.57637015477209
  C          -3.50716161231634     -2.53259854738620     -0.14254317378502
  C          -4.93868272032657     -2.59694552668724     -2.19838993815939
  C          -2.44984318674945     -2.44079405325481     -2.40989676293855
  C          -5.12295462411525      0.44930947744473     -0.35010748102031
  C          -4.18022868467245      0.56643768204525     -3.25877671335357
  O          -1.00705072926586      3.74712535420750     -1.70405980432517
  C          -0.29409764713563      4.44252874834846     -2.71899368007943
  H          -0.82384800661590      4.32240794132225     -3.67808733891911
  O          -0.22351516616152      5.77850408227590     -2.36168993697512
  C          -1.46227955585433      6.47147119956399     -2.51940976524224
  C           1.11501517097482      3.87702814008468     -2.81980358484564
  H           1.61651794443447      4.04110795146322     -1.85703148080157
  O           1.80191959400509      4.54945350598982     -3.86399920260622
  H           2.35527339339756      0.99069763535325     -3.43972451215106
  H          -0.68170154491796     -0.06554860878809     -1.99182167314959
  H          -1.56731098103788      1.98240714911237      0.07043384693249
  H          -3.01301774327472      2.39851161019786     -0.86392797354587
  H          -4.38195251298345     -2.29728894265605      0.47030621729057
  H          -2.62562305892705     -2.10835406541783      0.34744188755865
  H          -3.39211663255741     -3.62322514158670     -0.15417111546842
  H          -5.05939781396146     -2.28881599206640     -3.24102287774237
  H          -5.83695836159992     -2.29642156661858     -1.65012268575993
  H          -4.88877925711337     -3.69206924105420     -2.17864955570914
  H          -2.48043612657463     -2.03133787089912     -3.42416590363691
  H          -2.42730606274236     -3.53405854192567     -2.49304281764849
  H          -1.51092394795958     -2.13048778225020     -1.94354280603358
  H          -4.86485270143696      0.17052308742482      0.67482437760865
  H          -6.08916194505198     -0.00248520892616     -0.59398103680762
  H          -5.24565403808507      1.53531195816486     -0.39022459920389
  H          -5.16533719217111      0.24068082558622     -3.60502070965851
  H          -3.43435471090037      0.24649901409513     -3.99140681634383
  H          -4.18248905141714      1.66044832138633     -3.22950283602887
  H          -1.26475582601852      7.52060816406369     -2.30193716773638
  H          -2.21749751111219      6.09056164521345     -1.82724572680958
  H          -1.82621284482745      6.37284698222200     -3.54790930419098
  H           2.61254541109083      4.05111438200379     -4.02906802997607
