48
Coordinates from ORCA-job goat_0_240 E -1253.937588721547
  O           0.53297352181869      4.38975838096174     -0.66007251380464
  C           0.61149028979723      3.60181573684126     -1.84083491795069
  H           1.61314232298507      3.68347284313647     -2.28186889559507
  C           0.35588674830272      2.15594611785712     -1.44913080657443
  H          -0.51193820367681      2.14246864234784     -0.78114807706539
  O           1.47999425492910      1.59695988823725     -0.77131646653614
  C           0.05353645152767      1.29671449610056     -2.68563650675318
  H           0.70638674355410      0.42287516387234     -2.64409871729460
  C          -1.38811922171679      0.79011849152629     -2.71997797557860
  O          -1.56873582897158     -0.07362437055513     -1.61086614915692
  Si         -2.93732358438806     -0.10124566349108     -0.64994797874604
  C          -4.28604053750455     -1.13117933927787     -1.48426293232519
  C          -4.64541768556357     -0.52566328788258     -2.84903656915962
  C          -3.78292208717351     -2.56716918548336     -1.68892209169221
  C          -5.53945054218909     -1.15332516830130     -0.59703455382190
  C          -2.36644672581290     -0.89150638845898      0.94320076760816
  C          -3.54153047406823      1.64472158568557     -0.33713623996741
  O           0.41139576166187      1.96087493738653     -3.90099283723329
  C          -0.21506481427109      3.20445176187930     -4.14519212187196
  H           0.47631863087585      3.73653735256075     -4.80882879341230
  O          -1.46425151428616      3.07090198494853     -4.76943381149400
  C          -1.37821428483750      2.55351191048100     -6.09513657265380
  C          -0.42055483748105      4.02557858101007     -2.86935770422305
  H          -1.42482518644246      3.84407250644442     -2.47142625764958
  O          -0.24635125103863      5.41403646531942     -3.12571296292256
  H           0.60845754528878      5.31335593844639     -0.93094971761050
  H           1.63803309701030      2.13228729783811      0.01612254125453
  H          -2.09698367086197      1.62187364056854     -2.69663575768445
  H          -1.54277073075315      0.24312088334693     -3.65473622712204
  H          -4.99517392609742      0.50703472779173     -2.75763245114677
  H          -5.44890698426440     -1.10790668092212     -3.31682396554055
  H          -3.79186148405171     -0.53516362107439     -3.53247139437139
  H          -4.54735415117041     -3.16543412656542     -2.19994994535608
  H          -3.56103204057039     -3.05632158193001     -0.73591896183464
  H          -2.87571800634327     -2.59129457579541     -2.30046752222441
  H          -5.33043865223973     -1.57639390937241      0.39031946175658
  H          -6.31826555872068     -1.76908474581962     -1.06351074852496
  H          -5.95175703248753     -0.14998963870213     -0.45472908330681
  H          -1.62395192006621     -0.25413274753192      1.43238898341507
  H          -1.90975572549704     -1.86736373306593      0.75821166704794
  H          -3.20273163639969     -1.03126836165458      1.63392892600981
  H          -2.74220182791169      2.26186999123728      0.08314323232462
  H          -4.36131570402351      1.62207177299152      0.38717570784911
  H          -3.91020088873316      2.13262040507419     -1.24291197648242
  H          -0.71027483584552      3.17136251843623     -6.70621902708871
  H          -2.38442975135647      2.58291303330277     -6.51256588909622
  H          -1.01556606284355      1.52222496504939     -6.09221610385236
  H          -1.07190799809243      5.76509510520451     -3.47723006254060
