48
Coordinates from ORCA-job goat_0_182 E -1253.935559477096
  O           2.26334504949142      4.15237129288414     -2.50878466316863
  C           1.48068048189960      3.12793173217515     -3.11130445960010
  H           2.13808937328732      2.63276297180684     -3.83210397834905
  C           1.03460909499615      2.08500430771379     -2.07381609575482
  H           0.92707731381211      2.58304249784970     -1.10738661508229
  O           2.03155846517031      1.08770512425664     -1.87857676147118
  C          -0.30947309880895      1.45902630886369     -2.45557529571535
  H          -0.19563883068528      0.92366309484375     -3.40609184330844
  C          -0.80193679322213      0.48310968298258     -1.40270377176686
  O          -1.86376248814268     -0.32291032149647     -1.88029314047149
  Si         -3.49251583460113      0.04417791325941     -1.88452071530367
  C          -4.35444404061826     -1.58974636631946     -1.47428501180449
  C          -4.00541699024819     -2.00613374296711     -0.03845284860987
  C          -5.87588533080788     -1.42223075029534     -1.59722254440980
  C          -3.88945899790998     -2.68593043676640     -2.44362489624540
  C          -3.88457572800553      1.34151004128011     -0.59410409217556
  C          -4.00582089190507      0.64010121734006     -3.58317644884763
  O          -1.33326262513691      2.45483590994480     -2.61114549208180
  C          -0.93604648535672      3.74261679604327     -3.00670287126985
  H          -1.80604149026821      4.17346690924709     -3.51441727933522
  O          -0.57000156430426      4.55556011294398     -1.91282853656293
  C          -1.61746874266977      4.75612259728901     -0.96846443534570
  C           0.29183093433540      3.71108174129459     -3.89936696783528
  H           0.54073535184939      4.73496879897390     -4.19359598678504
  O          -0.04080142347717      2.92271979420240     -5.03379624943187
  H           1.67282181078134      4.63384845648017     -1.91366961161590
  H           2.17224169480421      0.63192700890977     -2.71824415854120
  H           0.01920491401202     -0.18219009742263     -1.13023580996606
  H          -1.10177315600247      1.04668385679053     -0.51162171636337
  H          -4.47240052290272     -2.96976072267638      0.20025352766484
  H          -4.36314720145841     -1.27397145613431      0.69161335719437
  H          -2.92493538936430     -2.11603356051454      0.09512933365381
  H          -6.17263399179251     -1.16520396662234     -2.61833372928489
  H          -6.25520982998352     -0.64283865834525     -0.92895987988544
  H          -6.37998329011352     -2.35956850732002     -1.33122435620696
  H          -2.81007750752867     -2.84766801787338     -2.37648087558607
  H          -4.13017749342480     -2.43622524834231     -3.48149408531668
  H          -4.38725687114589     -3.63452061293030     -2.20639649523398
  H          -3.50385366365384      2.31701990553790     -0.90212404316468
  H          -3.45208630777718      1.09245648308263      0.37874917853967
  H          -4.96863874741406      1.42279370034206     -0.46995902070853
  H          -3.82367615193622     -0.12423468326655     -4.34397291185236
  H          -3.43801486677019      1.53435637015054     -3.84970084814697
  H          -5.07123202847380      0.88865718696685     -3.60078346868794
  H          -2.53708196563240      5.06907147245646     -1.47554886406565
  H          -1.28732442061221      5.54535568583947     -0.29348059167779
  H          -1.81074441302212      3.84456719640005     -0.39813837327572
  H           0.67843469073870      3.00323098114141     -5.67088555674044
