48
Coordinates from ORCA-job goat_0_1075 E -1253.932360609714
  O           1.80981994651381      2.59717172971132     -0.93857975992626
  C           1.16873588594417      2.58216986789308     -2.21088455065592
  H           1.78604208083707      3.11613222953699     -2.94425327471597
  C           0.93579903299809      1.16621603566796     -2.70492389846417
  H           0.56766733562123      0.57216789743264     -1.86438391990640
  O           2.20920284840867      0.66774857647963     -3.12292298901066
  C          -0.10431134170720      1.14420973703922     -3.84366474131747
  H           0.36124022061011      0.65540377489229     -4.70228535059533
  C          -1.34355211318011      0.32934256327649     -3.49769864809202
  O          -1.83866413380399      0.64705848163115     -2.21198798220382
  Si         -3.43911503579423      0.58551086088076     -1.74422387657895
  C          -3.80871275175332     -1.14030298707386     -1.05725315909715
  C          -2.96714379373626     -1.38686962170323      0.20285009259763
  C          -5.29847995133717     -1.24859926451856     -0.70169426147907
  C          -3.46301711605299     -2.20702321497760     -2.10606481826147
  C          -3.60671862450412      1.86690156464632     -0.39429346523038
  C          -4.57423434367707      0.96114464776337     -3.18379951947407
  O          -0.39488245908725      2.46085769874006     -4.33860499878912
  C          -0.81531979948848      3.44501867658583     -3.43647655008292
  H          -0.49431231700693      4.40195828992888     -3.86901708433689
  O          -2.22518879212155      3.41857524428572     -3.38136805776041
  C          -2.79931996523425      4.63485392512794     -2.92062803372779
  C          -0.15463091140936      3.30806313319657     -2.05797637989646
  H          -0.81151520251236      2.73653541386395     -1.39556131042595
  O           0.04765850431103      4.62193765423692     -1.54545951780109
  H           2.70279293479935      2.25255990158755     -1.05468659556695
  H           2.16484997457845     -0.29466927533076     -3.14282656605770
  H          -2.09925251100157      0.49724514165994     -4.27152918489218
  H          -1.05365786413867     -0.72802259813491     -3.52848304090149
  H          -3.22273593539371     -0.68449851163060      1.00161967460276
  H          -1.89681835449870     -1.28837330677605     -0.00385687739821
  H          -3.14227472184787     -2.40110439834053      0.58289114431038
  H          -5.93337638021922     -1.12580237607025     -1.58411000756798
  H          -5.59631069550415     -0.49644245713002      0.03554792396353
  H          -5.51318163253160     -2.23546589820190     -0.27317695478232
  H          -2.39584367689284     -2.20417214979491     -2.34475679509203
  H          -4.01897907573529     -2.05932453613679     -3.03703981020237
  H          -3.71385265685664     -3.20497382026760     -1.72527280013645
  H          -4.56815623873732      1.77075853234747      0.11845203538283
  H          -3.54018530219930      2.87364107477146     -0.81203377518436
  H          -2.81318473190717      1.75266392643507      0.34950829330555
  H          -5.59988078760551      1.07592061878127     -2.82051306075946
  H          -4.57179062859945      0.16430923377934     -3.93229193776610
  H          -4.27388500206486      1.89353251755873     -3.66668140500075
  H          -2.44648344446445      5.48366872693647     -3.51914335984119
  H          -2.56465971515317      4.82203751798208     -1.86876956797370
  H          -3.87901912870885      4.53503278112154     -3.03594935411265
  H           0.60666837184490      4.52787644030928     -0.76359192309688
