48
Coordinates from ORCA-job goat_0_1129 E -1253.932907709720
  O           1.71633446695649      1.69017168746986     -0.87080505745707
  C           1.04434005881923      2.29946585643520     -1.96697455751965
  H           1.66854233096642      3.09908684427741     -2.39009824325731
  C           0.82632285262939      1.23596920774106     -3.02751899419960
  H           0.43954629411604      0.34383143743033     -2.52561338167546
  O           2.04418410693381      0.91452488415383     -3.70139266620303
  C          -0.18985615650137      1.71025764089302     -4.07782626160157
  H           0.29428193213289      1.63605132245978     -5.05348723505564
  C          -1.42925663704199      0.82875629882208     -4.13946149353201
  O          -1.95292557942513      0.56973231136447     -2.84990826478393
  Si         -3.40586121167234     -0.22201999231583     -2.63354154874725
  C          -3.62127950067864     -0.34950718910358     -0.76349554352693
  C          -3.89256087330401      1.03859336684260     -0.16702881684256
  C          -4.81096606455642     -1.27155077837133     -0.45696022106800
  C          -2.35018636233353     -0.93390832513451     -0.13072652694375
  C          -4.78803524199729      0.75982731550982     -3.42748885079751
  C          -3.31045941261025     -1.91315780492334     -3.43318046969259
  O          -0.48231595463458      3.11140204316113     -3.96510839424866
  C          -0.92523269303289      3.61631060173217     -2.73650136401109
  H          -0.59355616228790      4.66539435707831     -2.71612562620023
  O          -2.33569827830897      3.59319134280681     -2.73103840486187
  C          -2.91864734826139      4.48476709300660     -1.78836687301722
  C          -0.29336797733743      2.88614782744636     -1.54012535113321
  H          -0.95435429568838      2.08522754329615     -1.20874648728854
  O          -0.13031341153454      3.75266466386684     -0.42000754357783
  H           1.70519968478292      2.32761518087137     -0.14509376042889
  H           2.64304531544375      0.53307526616594     -3.04798201454062
  H          -2.17215351041956      1.31959641964088     -4.77789220487171
  H          -1.13384346515690     -0.11337432164662     -4.61858111887083
  H          -4.81682888856993      1.47256170383597     -0.55942425305593
  H          -3.07777091040963      1.73481501583794     -0.38031011044300
  H          -3.99474431255480      0.96566796268678      0.92276943489389
  H          -4.63690578558051     -2.28909851794194     -0.81843611039954
  H          -5.73665105096341     -0.90475367814190     -0.91193000128363
  H          -4.97331816328505     -1.32602981250534      0.62632894886574
  H          -2.48607310910001     -1.04267999304687      0.95240154823564
  H          -1.48572626377984     -0.28559809860723     -0.29807245754568
  H          -2.11455203044043     -1.92263481744753     -0.53653949846144
  H          -5.75797675973265      0.30897901740497     -3.19672642031876
  H          -4.67833999957790      0.77489547408781     -4.51592944227318
  H          -4.79454408304499      1.79251678148178     -3.06990898753279
  H          -4.26764645463219     -2.43494603901471     -3.34476059864228
  H          -2.53839340039872     -2.53271949925813     -2.96840890278800
  H          -3.07841852263463     -1.82140245143169     -4.49861415535074
  H          -3.99072927934456      4.49335154244694     -1.98668271719404
  H          -2.51810432255004      5.49864389928541     -1.91181204412155
  H          -2.74518953737248      4.15861748064647     -0.75918372557296
  H           0.37881596797450      4.52425192870460     -0.70153323105699
