48
Coordinates from ORCA-job goat_0_215 E -1253.942687416257
  O           2.09851166767225      2.03083753939430     -3.32053425512744
  C           0.74535598244156      2.47561174856915     -3.33692233560724
  H           0.29799185386862      2.26825932126222     -4.31841649113417
  C          -0.09406100751063      1.79037859534836     -2.27246648116855
  H           0.39246668679049      1.92090833766858     -1.29572955373484
  O          -0.16391832888191      0.41186739929694     -2.61461942607769
  C          -1.48138783071186      2.43594795792130     -2.22108029199399
  H          -1.99726723253332      2.24094042304531     -3.17134047960882
  C          -2.32770638960166      1.93346900013411     -1.05661842405288
  O          -2.48876293003730      0.51963559455034     -1.10569895120484
  Si         -3.91165590543183     -0.18786797542198     -1.65975717965113
  C          -3.66637933525279     -2.03611983201125     -1.37915272250617
  C          -3.66284420920816     -2.34088530969456      0.12579938743980
  C          -4.82252130248590     -2.79592470854935     -2.04819980174454
  C          -2.33720521687851     -2.49998980718075     -1.99175175836536
  C          -5.35243581989633      0.48121403782727     -0.67243621215183
  C          -4.14040151866529      0.22238719003076     -3.47023579422449
  O          -1.35597605222979      3.83953506680952     -2.01560060065851
  C          -0.66819820910695      4.49320482519636     -3.07440617335678
  H          -1.16558012143954      4.27211183226491     -4.02743807641947
  O          -0.78864084481654      5.86575686830857     -2.90027090160664
  C          -0.06833631588260      6.41972984043718     -1.79560984343349
  C           0.76922005964861      3.97858215431148     -3.11812070459296
  H           1.25710182259891      4.18271228047200     -2.15733458908362
  O           1.44610327009429      4.64177999609701     -4.17410401129224
  H           2.10802285922665      1.10594498697471     -3.59364587322534
  H          -0.84936041735324      0.02633664794501     -2.04791914624411
  H          -1.82453767990657      2.18841874450260     -0.11924682453470
  H          -3.29304233709908      2.44958615023367     -1.07426683640727
  H          -3.49012522441140     -3.41129932470723      0.29086287849461
  H          -4.61841593026984     -2.08266764195552      0.59097668993766
  H          -2.87285863487384     -1.79058684796207      0.64581730606196
  H          -5.79644020793544     -2.47634206904543     -1.66404225537728
  H          -4.72504478428045     -3.87024727113158     -1.85175266595198
  H          -4.82377420872679     -2.65483171500026     -3.13280011988924
  H          -2.26326149748671     -2.24504023114628     -3.05351520558242
  H          -2.24660990533467     -3.58943163340520     -1.90451039215292
  H          -1.48158158826287     -2.05917964564564     -1.47262403851130
  H          -6.26265776487746     -0.07582103817931     -0.91449261269658
  H          -5.53668418371989      1.53370403916143     -0.90535605434594
  H          -5.17383702611158      0.39250022243216      0.40229688795842
  H          -4.22417163245239      1.30445204541086     -3.60974585299678
  H          -5.05776918720090     -0.23436637137320     -3.85286790868629
  H          -3.30029456298926     -0.13591710043724     -4.07139924324174
  H          -0.43883838214280      7.43698074129545     -1.67270858166552
  H           1.00480787541488      6.45109096929474     -2.00254761975567
  H          -0.25281587747978      5.85616226735980     -0.87812776406185
  H           2.28364752573021      4.17905169929096     -4.30418909576785
