48
Coordinates from ORCA-job goat_0_108 E -1253.938309895413
  O           1.30569682384768      2.55356442355628     -0.23267094042163
  C           1.01531701797751      2.56352742217290     -1.62434707661391
  H           1.94728392544509      2.54368878295566     -2.20362902487528
  C           0.20531174172541      1.31638962075479     -1.93588266441814
  H          -0.57656167579331      1.23071743020268     -1.17386980380847
  O           1.02155069287867      0.14662957211733     -1.90733357749732
  C          -0.45109672871106      1.42038859450349     -3.32116517627836
  H          -0.19419453072493      0.51495161762463     -3.87403379511178
  C          -1.97496400944764      1.49053527923864     -3.24291080206617
  O          -2.42827418250923      0.26085076560476     -2.69989607442560
  Si         -3.69934177881546      0.19073108614393     -1.61605204786807
  C          -3.87127238548294     -1.64000065945337     -1.20030940829083
  C          -4.22432193933753     -2.43373428613207     -2.46625724413569
  C          -2.54914789271843     -2.16689686562065     -0.62334230443623
  C          -4.98719188481916     -1.82086825148240     -0.16063468651501
  C          -3.29475576764585      1.20763402467918     -0.09515712335437
  C          -5.23743521014632      0.88321679812147     -2.42761282630680
  O           0.09701822405913      2.48783206105082     -4.09908161500116
  C           0.01188237455884      3.78267809025884     -3.53911959390704
  H           0.82906759826001      4.34123981584307     -4.01001712143929
  O          -1.21198706268141      4.41277239231700     -3.80983788563497
  C          -1.39599282156342      4.71357614824032     -5.19121931074526
  C           0.20837765791429      3.78620796729981     -2.02052134914545
  H          -0.76721006264470      3.75321493183809     -1.52303896037616
  O           0.92455012035753      4.94246784668705     -1.60326934916090
  H           1.74321990759671      3.38972852443952     -0.02900559768475
  H           1.39443074485548      0.07588160458186     -1.01992697338087
  H          -2.29629981448698      2.34051092403942     -2.63302424678796
  H          -2.37814270234308      1.62974893584016     -4.25079202328857
  H          -5.17693306665135     -2.10759523242723     -2.89397766982750
  H          -4.31495186265664     -3.50039719070398     -2.22714846809005
  H          -3.45363978099204     -2.32728573691337     -3.23501497788469
  H          -2.27469603390615     -1.64534187502591      0.29838598336845
  H          -1.72622882047509     -2.05139602890264     -1.33421357170567
  H          -2.64231694241803     -3.23380029111003     -0.38620454365559
  H          -5.10247833897883     -2.88358174629678      0.08462561542745
  H          -5.95088705704162     -1.46091799940845     -0.53405774903899
  H          -4.76420835326357     -1.28853052351416      0.76891009074278
  H          -2.42720340877495      0.81000882254778      0.43776352659918
  H          -4.14613257037383      1.20912016294614      0.59203005955466
  H          -3.08328629147150      2.24730616837266     -0.36230321888358
  H          -5.09068895252671      1.93832216063348     -2.67917607751697
  H          -6.09644937361477      0.81716314444757     -1.75353851328004
  H          -5.48055940587905      0.34470700930424     -3.34742950330652
  H          -1.47406142657471      3.79968278801513     -5.78604864775970
  H          -0.56416538945649      5.32082909243520     -5.56617174474885
  H          -2.32416114373205      5.27897159132967     -5.27148716013352
  H           0.30536183918294      5.67813108684755     -1.53883482688480
