48
Coordinates from ORCA-job goat_0_1062 E -1253.942800780104
  O           2.98446072099858      3.25547619070919     -2.13375953778501
  C           1.69205626157536      3.01464708097315     -2.67141615772900
  H           1.83547299174840      2.94945564628581     -3.75659203442183
  C           1.11235644853051      1.68431766681513     -2.18174458604150
  H           1.11301296899663      1.67986858573524     -1.08603259428228
  O           1.92863786160705      0.58947632872842     -2.57458050139952
  C          -0.32966856826427      1.50939269806618     -2.67079147363521
  H          -0.33109304827684      1.42930133375219     -3.76865536277878
  C          -0.98789029134020      0.27481023893939     -2.08823848566661
  O          -2.24647331455603      0.05979036899581     -2.70154813856907
  Si         -3.71401893210961      0.09600061333640     -1.90355686777220
  C          -4.12581788815111     -1.65500008438253     -1.31872605269043
  C          -2.97460731624842     -2.19068662783983     -0.45509308944990
  C          -5.41759869779703     -1.63866030187864     -0.48941747802141
  C          -4.31164303999265     -2.57507520628246     -2.53326066977535
  C          -3.65865762641960      1.27781871017714     -0.45296892320270
  C          -4.94491826420012      0.69087885733982     -3.17767633512882
  O          -1.10579392343674      2.63476275024873     -2.27395598933906
  C          -0.65757190150116      3.82476432818477     -2.89131708008503
  H          -0.64921193167281      3.68839025112378     -3.98567074871762
  O          -1.51008312480867      4.86257861270479     -2.53704209786043
  C          -2.78517426174959      4.79106741971809     -3.17781478324264
  C           0.73877832558513      4.17041586231510     -2.39020461184546
  H           0.67196589733188      4.33087400585156     -1.30491155494861
  O           1.23442172279054      5.32947258159430     -3.04088461800563
  H           2.90439010162225      3.31395126204215     -1.17316974251918
  H           2.02022827876777      0.60927464101723     -3.53572707038237
  H          -0.34575304874865     -0.58927364479426     -2.27316707779630
  H          -1.08120589375180      0.40496191867411     -1.00416635738188
  H          -3.21033050113999     -3.20054360475951     -0.09712910036931
  H          -2.79793056076491     -1.56150067023244      0.42273488800625
  H          -2.04146492292502     -2.25011455822052     -1.02292208055321
  H          -5.67563612853159     -2.65676884763593     -0.17261685874731
  H          -6.26320908472820     -1.24673899378724     -1.06349118187729
  H          -5.30955207836609     -1.02821821639581      0.41190616218242
  H          -4.50513111530909     -3.60329122550360     -2.20310435288263
  H          -3.41846472874155     -2.59090174192852     -3.16567178019694
  H          -5.15727632401633     -2.26029268340524     -3.15178584473796
  H          -4.66827833575458      1.40792042089081     -0.05173050257900
  H          -3.28759948442757      2.25308496231513     -0.77667830061440
  H          -3.01985811670169      0.91867125687807      0.35801204316568
  H          -5.96745139837056      0.62344990315217     -2.79489589771400
  H          -4.88442893692130      0.09748322614671     -4.09391914524848
  H          -4.74502140053028      1.73587792083139     -3.43296284432670
  H          -3.33934977612673      3.90893407327454     -2.84710535560182
  H          -2.66385809101093      4.76036993979770     -4.26598915151204
  H          -3.32975139821137      5.69154684417038     -2.89594197286069
  H           0.60382187604908      6.04055990626120     -2.87246870305825
