48
Coordinates from ORCA-job goat_0_1111 E -1253.937106840189
  O           1.78224969027357      3.79560940611000     -1.25072466547103
  C           1.31163285094558      3.27515920357247     -2.48929833618713
  H           2.19999234275631      3.06751282752316     -3.09033756113144
  C           0.55056559398328      1.96629148982901     -2.28815860043060
  H           0.00700413496341      2.01881607119596     -1.34273852580848
  O           1.49632436414315      0.90135030930514     -2.24744165715175
  C          -0.45989806647530      1.75336921195924     -3.41477194145105
  H           0.06979559871609      1.75065067076804     -4.37431161393632
  C          -1.19603164041384      0.43412435400136     -3.29617548103682
  O          -1.65769126732303      0.23635735367012     -1.96829456073567
  Si         -2.69154329489883     -1.01138301424262     -1.54938214661872
  C          -4.46539308092896     -0.35790919978197     -1.51815542714472
  C          -5.44596113762912     -1.53432525763019     -1.40992053437352
  C          -4.65474312766245      0.56874643721581     -0.30861639969682
  C          -4.75031449680302      0.42840311988601     -2.80557351263994
  C          -2.51273998063532     -2.40588464240133     -2.78579698549393
  C          -2.15344121816980     -1.56222313016097      0.15269561963432
  O          -1.44031491157633      2.80420054906416     -3.43211318577603
  C          -1.01359279433350      4.07429235261467     -3.00123371185836
  H          -1.63557065006549      4.79337431334344     -3.54897109131155
  O          -1.19108043255807      4.25643227845540     -1.61496546853700
  C          -2.56041566372576      4.25509687903452     -1.21976835255989
  C           0.47147008104942      4.30828524192555     -3.25756010753206
  H           0.73379783019726      5.30526856629752     -2.89172303670412
  O           0.77216611029605      4.18278015267003     -4.64200341279326
  H           1.00302753804883      4.00554716151909     -0.71938122607298
  H           1.08678464497619      0.16181224556304     -1.78367801863522
  H          -2.02591254129157      0.43971654881266     -4.01068694489718
  H          -0.51210652805224     -0.37181640367060     -3.58117494749954
  H          -5.25076055167449     -2.14412867378900     -0.52163729135868
  H          -5.39147135017213     -2.18711040480343     -2.28583488974939
  H          -6.47485135196167     -1.16126340149924     -1.33566149547224
  H          -3.93234313502135      1.39033030680402     -0.31071054493603
  H          -4.54301610689366      0.02533087471591      0.63391276069839
  H          -5.65990245872748      1.00794240391078     -0.32342945570772
  H          -4.09926981904788      1.30306915619522     -2.89087632863522
  H          -5.78887081283950      0.78179626092914     -2.80896506046556
  H          -4.60796821614095     -0.18849869701778     -3.69875602589676
  H          -2.88925156798227     -2.12803618025592     -3.77410230094276
  H          -3.07157899757191     -3.28222696510358     -2.44539511760911
  H          -1.46256959251201     -2.69514932336382     -2.88833535229195
  H          -2.08397980640616     -0.71132683400963      0.83573455394560
  H          -1.17241381487236     -2.04371377458025      0.10413531272384
  H          -2.86492838841312     -2.27877786583886      0.57387370587962
  H          -3.03067493843835      3.29450014084247     -1.44197073564989
  H          -3.10637749733448      5.05477224859585     -1.73330168494439
  H          -2.58169532042150      4.43159273341586     -0.14471949752435
  H           0.27169377862479      4.85382289840333     -5.12154871821236
