48
Coordinates from ORCA-job goat_0_1011 E -1253.934939987499
  O           1.54231003294833      4.92236879623491     -1.85294561475651
  C           1.26871643774734      3.70647714735226     -2.53853060043993
  H           2.23650308435426      3.32127445494684     -2.87103778015118
  C           0.63252843291983      2.67066396177946     -1.59878741843430
  H           0.03301533957251      3.19911610222324     -0.85396919245619
  O           1.62285598812652      1.96599527444719     -0.85853440393264
  C          -0.27844289277339      1.70963891492770     -2.36775846108770
  H           0.32273496619162      1.15612531994276     -3.09949715648979
  C          -0.95686203001096      0.71859547910436     -1.44460116771311
  O          -1.61819787990736     -0.26896838730136     -2.22235842941517
  Si         -2.75413292725932     -1.31876004840517     -1.58928718045105
  C          -4.48211387932389     -0.58562584522165     -1.81951522902608
  C          -4.79905908385006     -0.48142700273277     -3.31829242523033
  C          -5.51969575587847     -1.49131684370127     -1.14086271625387
  C          -4.54740738318397      0.81649256755799     -1.19826697694453
  C          -2.56750160021388     -2.89811279933420     -2.57055752335135
  C          -2.38471065441261     -1.61741046454147      0.22209944397591
  O          -1.31782113682339      2.41138815692362     -3.07021585204962
  C          -1.04802018184211      3.72944593888609     -3.47352848598216
  H          -1.69225011240739      3.90410732913133     -4.34413198171802
  O          -1.34395120766095      4.67440550299869     -2.46894960874526
  C          -2.72034104287168      4.70560862753670     -2.10092401363877
  C           0.42441925594123      3.94248874695566     -3.79955995206958
  H           0.56816622496385      4.97746873123146     -4.12385270495417
  O           0.86354205817635      3.03096522059738     -4.79798071006639
  H           0.68758376038053      5.29934052302603     -1.60449431645474
  H           2.19627098836870      1.50374100163897     -1.48282373721858
  H          -0.20162139574802      0.25015315725701     -0.80840120841910
  H          -1.66116879934882      1.26215745597527     -0.80439201168350
  H          -4.81861154666139     -1.46513058241306     -3.79613938056650
  H          -4.06130115962352      0.13490657023032     -3.84162348943555
  H          -5.78385496346962     -0.02062655873819     -3.46469747967952
  H          -5.49703885319414     -2.50852710970460     -1.54437148338225
  H          -6.52914701859904     -1.09334372123898     -1.30209436633226
  H          -5.35615512125826     -1.55269363319068     -0.06086974041811
  H          -3.85814111451842      1.50400473736497     -1.69534237901823
  H          -4.30408426596768      0.80267339011401     -0.13126664124647
  H          -5.55956651544003      1.22700434483935     -1.30217301862859
  H          -2.61965288268656     -2.70158898395427     -3.64482136668417
  H          -3.35513823610989     -3.61346818284755     -2.31699214487415
  H          -1.60178501010939     -3.36471134273154     -2.35526738793564
  H          -3.03127921965130     -2.40694704331033      0.61556775679651
  H          -2.54071575785874     -0.71999075286338      0.82680201354226
  H          -1.34630503467425     -1.93822933671385      0.34915118178524
  H          -3.35058936075673      4.84231417150005     -2.98692956538404
  H          -2.84901408095117      5.55331118417416     -1.42848494648752
  H          -3.01039501910409      3.78503151452466     -1.58889239302760
  H           0.34525655445967      3.18219431552181     -5.59744775386549
