48
Coordinates from ORCA-job goat_0_110 E -1253.941959545900
  O           2.63183061085772      3.68317406283910     -2.08380087891278
  C           1.50298349506352      3.02411431553491     -2.64503409064862
  H           1.79300300902321      2.51667735213792     -3.57707340256096
  C           1.05073064467749      1.96745881975534     -1.65035369315409
  H           0.84294070667811      2.45482141759636     -0.68783292699086
  O           2.04227411135188      0.96101606064986     -1.49225039535738
  C          -0.22923076573877      1.30789532499946     -2.15827880743593
  H          -0.01366901455083      0.77911014786269     -3.09769841569592
  C          -0.80706882329058      0.32618313168606     -1.15840184092024
  O          -1.84785888811014     -0.44830737733281     -1.72084957506593
  Si         -3.45980949017384     -0.01716050963781     -1.82957506043401
  C          -4.40713651873467     -1.61383875560308     -1.45975984511320
  C          -3.97575676873012     -2.71421223239752     -2.44021655458046
  C          -4.10520112931207     -2.07091529515292     -0.02578016771667
  C          -5.91660201535340     -1.37323730001365     -1.60627387940411
  C          -3.87373962721741      1.30854875299491     -0.57492520505006
  C          -3.84758781404679      0.57298422178083     -3.56283364139966
  O          -1.21523529645921      2.30974504589938     -2.38775429986347
  C          -0.85197613541392      3.21950189168290     -3.41417764825778
  H          -0.61232206675656      2.66179405209521     -4.33076118655505
  O          -1.95724422481372      3.99838504979827     -3.73544824087421
  C          -2.38467137904730      4.91751844109872     -2.72664432535933
  C           0.37796746432743      4.00567798708708     -2.95185141669716
  H           0.13753341926287      4.55729565376563     -2.04040856979610
  O           0.79016495008880      4.97517462888214     -3.90487498417040
  H           2.93881669530217      4.33476299707441     -2.72591850367740
  H           2.87080659494868      1.40753950564841     -1.27844258615371
  H          -0.01485982256327     -0.35494546212518     -0.84100091343286
  H          -1.15453814222527      0.88151851957543     -0.27954467146528
  H          -2.90465746534401     -2.92188850077875     -2.36371252252969
  H          -4.19385155029500     -2.43942428368936     -3.47662320152502
  H          -4.51451955968647     -3.64499731289495     -2.22289689086821
  H          -4.62601465452740     -3.01240459587895      0.18886764725696
  H          -4.43712478121231     -1.33314160189697      0.71080115045607
  H          -3.03456397469023     -2.23932025522784      0.12348008015962
  H          -6.27242412942209     -0.59623240995985     -0.92267363800127
  H          -6.46813963370354     -2.29347393779548     -1.37716251137684
  H          -6.18159487763013     -1.07431197283887     -2.62466872867368
  H          -3.35741704937385      2.24059844332491     -0.81403353018822
  H          -3.59637984130452      1.00910412865545      0.43945684872540
  H          -4.95055713470780      1.50243381432789     -0.58639317884940
  H          -4.91987522476683      0.75808302159952     -3.67737146621116
  H          -3.55242558234424     -0.17263048010791     -4.30667737934921
  H          -3.31410073235518      1.50191991763066     -3.77397440044241
  H          -2.46960999292278      4.42801108329470     -1.75384515010626
  H          -3.36712522146980      5.27211617574571     -3.03694587607282
  H          -1.70239989147584      5.76894632342518     -2.65535700750624
  H           0.93606751818797      4.53091199488291     -4.75035451815386
