48
Coordinates from ORCA-job goat_0_238 E -1253.935952362717
  O           1.42479804214072      3.04672888849609     -0.37784775333011
  C           1.06284413676191      2.73435236361163     -1.71799527427581
  H           1.88548105160226      2.20312009487105     -2.21380365873850
  C          -0.18271472094425      1.87384669480849     -1.79445049876451
  H          -1.04181807321653      2.43661775734971     -1.40833802462877
  O           0.03212499482907      0.71516507031194     -0.99625361228109
  C          -0.40804179119613      1.48510271877000     -3.25983112733668
  H           0.24381274675430      0.63138787514187     -3.46841781434602
  C          -1.85216856177516      1.08416368303465     -3.53232194822274
  O          -2.18590255913400      0.00603164976810     -2.65738871777982
  Si         -3.71674664343187     -0.07321682425876     -1.96933872025650
  C          -3.78890736029289     -1.75854418024420     -1.12833842283197
  C          -3.80599498180716     -2.87150975187224     -2.18574112858304
  C          -2.56970172156047     -1.94820187755183     -0.21449507097127
  C          -5.07054565257904     -1.83883252416451     -0.28495363481428
  C          -3.88554497359204      1.32582077578767     -0.73837486029270
  C          -5.00363917866001      0.09850986826485     -3.31497849014516
  O           0.00058325203353      2.51068568108091     -4.17671556612282
  C          -0.04853634883416      3.82764752016448     -3.70509805367513
  H           0.35409485734176      4.44425749846414     -4.51592571842448
  O          -1.39920975967304      4.17048029124987     -3.46518780903006
  C          -1.63781158603565      5.57163233880370     -3.54166384085548
  C           0.81522942876762      4.04406517947621     -2.44732354810106
  H           0.27228469541606      4.70949294689040     -1.76754298588584
  O           2.03203668204181      4.65683540721593     -2.86143997758504
  H           1.58067821293012      2.21159449665467      0.07991116336601
  H          -0.69971482777487      0.11458729140045     -1.19567630184898
  H          -2.50090687799568      1.94893289402093     -3.36817710779263
  H          -1.95822993131462      0.76317213669884     -4.57306033326905
  H          -4.69190842962751     -2.80712569728280     -2.82391991701995
  H          -3.81828924147166     -3.85330949661778     -1.69700820791847
  H          -2.92173775895488     -2.82946998818355     -2.82882317795917
  H          -1.63928218796305     -1.97502784764253     -0.78912814327588
  H          -2.65078283971930     -2.89980677950656      0.32455025108328
  H          -2.48945137291835     -1.15133578364332      0.53143298439669
  H          -5.96766024066371     -1.68665971824920     -0.89336784693727
  H          -5.07409748491272     -1.09355407961850      0.51563718636819
  H          -5.14975896589507     -2.82843713956254      0.18065121342481
  H          -4.88827045912574      1.33732158009177     -0.30166721411001
  H          -3.72223687476118      2.29066484805007     -1.22765508235815
  H          -3.15866762212606      1.22880678137121      0.07293050115919
  H          -4.83930403114865     -0.62643245670733     -4.11652005355909
  H          -4.97824360780480      1.10212397657665     -3.74945394370749
  H          -6.00572429796859     -0.06383650562989     -2.90704838959341
  H          -1.08460152644597      6.12052888340859     -2.77180548669723
  H          -2.70569376721713      5.71970208945019     -3.38422986893044
  H          -1.35520602302169      5.95662861992552     -4.52815486771784
  H           2.57091418094456      4.79787274952485     -2.07350109982400
