48
Coordinates from ORCA-job goat_0_363
  O           1.06011666215446      4.00685958243306     -0.78644652446808
  C           0.84331687709845      3.35210444795523     -2.02947023940837
  H           1.74669478950032      3.41326117195148     -2.64970941043188
  C           0.53534770996225      1.89322999521832     -1.73747799732353
  H          -0.20561418687943      1.86641807968662     -0.93068303300799
  O           1.70568185387840      1.18839355816449     -1.32753043456702
  C          -0.04570670395050      1.19770035356683     -2.97821768432132
  H           0.54090542165392      0.29393382147417     -3.15284467550173
  C          -1.49939298783107      0.77251140784184     -2.78515607212411
  O          -1.52592542769535     -0.21467468347538     -1.76736723662714
  Si         -2.74541054555704     -0.31642424291404     -0.62717603629453
  C          -4.37388698272610     -0.82057978604934     -1.44991227829730
  C          -4.12845463689709     -2.01438077192711     -2.38325369951496
  C          -5.37825364845066     -1.22693832832807     -0.36020473608652
  C          -4.96572662718163      0.34210667424885     -2.26069747014818
  C          -2.14998202133852     -1.62897005051873      0.56022408264146
  C          -2.92506279754939      1.32953359036093      0.24978881170678
  O           0.12619973221057      1.97831679916199     -4.16460314117340
  C          -0.43846391758110      3.27404917592859     -4.15250459732796
  H           0.14652569643227      3.83637227982144     -4.88945626824333
  O          -1.79363386040855      3.28168916144545     -4.51555238351900
  C          -2.01727808441544      2.90211412786040     -5.87135930586443
  C          -0.32340746652325      3.95817024261758     -2.78751803799321
  H          -1.24635505504328      3.80028076256373     -2.21843340207870
  O          -0.07808248737861      5.35149577616090     -2.93340639070380
  H           1.14670817088071      4.94966342910935     -0.97593514674541
  H           2.04225493331498      1.62446264731163     -0.53503825054164
  H          -2.12310345892175      1.63168459661306     -2.52415921062020
  H          -1.87498647606834      0.35675379649946     -3.72547922373824
  H          -5.07208666480649     -2.33397721427072     -2.84243999801906
  H          -3.71569922083020     -2.87188898968910     -1.84285246654285
  H          -3.43386451660655     -1.75742071185450     -3.18826803684770
  H          -6.33671990959505     -1.50025640076407     -0.81825882779410
  H          -5.56924337044875     -0.40885328558931      0.34181991626996
  H          -5.02632431076482     -2.08924293272807      0.21312932164974
  H          -5.91775421218781      0.03486106788761     -2.71110618190382
  H          -4.30399479256364      0.65414145083189     -3.07344039141978
  H          -5.16375750126636      1.21480407032658     -1.63172777445620
  H          -2.08686630130063     -2.60832976565887      0.07827998332291
  H          -2.82532456996177     -1.71278229603327      1.41621329717515
  H          -1.15644929881343     -1.36739407612410      0.93608404156729
  H          -3.10617876953139      2.15258701441052     -0.44646673077717
  H          -2.01747420323870      1.55644206881723      0.81702639498963
  H          -3.76315595931972      1.29546482442355      0.95248185091102
  H          -1.76460080704055      1.85085840523199     -6.03240136355742
  H          -1.42310248510764      3.52633645503143     -6.54859001266219
  H          -3.07744527779791      3.05509939516799     -6.07210795513677
  H          -0.91715230350737      5.79299330580040     -3.10564507444490
