48
Coordinates from ORCA-job goat_0_140 E -1253.939207035792
  O           1.71878381126203      2.77948486205275     -0.35585466701598
  C           1.23948267664241      2.66213077932332     -1.68812115823807
  H           1.97974190139959      2.13413687722031     -2.30670343540385
  C          -0.06321312196077      1.88834661885626     -1.75234477325253
  H          -0.84532642642788      2.44641029707765     -1.22265841856814
  O           0.14875261804810      0.63417170428975     -1.11220167174732
  C          -0.44791347316170      1.68664328168387     -3.22169245226073
  H           0.12495206295118      0.82984597727146     -3.58940778256264
  C          -1.93343869761494      1.39034366077440     -3.38096253512341
  O          -2.23559207005262      0.21640354551565     -2.62773436796171
  Si         -3.70016397730015      0.09842849341599     -1.81135845354836
  C          -3.78066638125068     -1.68613060076368     -1.21076377638987
  C          -3.97045276208317     -2.63241743067503     -2.40466012681177
  C          -2.48492366142045     -2.05521294402407     -0.47415057417367
  C          -4.96991699403276     -1.83431547137437     -0.24954461879668
  C          -3.68106863485471      1.31269196750510     -0.38780525148349
  C          -5.09216326953975      0.51220680038492     -2.98912252061493
  O          -0.06837586911446      2.79109588186437     -4.05410315723312
  C           0.01952491710782      4.04937632024463     -3.41521029804059
  H           0.37367576594631      4.72772548492442     -4.19844698220207
  O          -1.22050557327602      4.48405255899247     -2.92118558109950
  C          -2.13095251900379      4.85670257353054     -3.95457797206879
  C           1.03018795659174      4.05980453961500     -2.25114594173756
  H           0.62083851263924      4.69371121025468     -1.46302441409274
  O           2.25840969096737      4.66449143102684     -2.63481562609254
  H           1.76553582828166      1.88549544620129      0.00581077015605
  H          -0.63840598591478      0.10182165427259     -1.29422513071443
  H          -2.51161031422722      2.24749435382032     -3.02346662660153
  H          -2.17018563717655      1.22630536761848     -4.43676281371237
  H          -3.15726432606197     -2.53332824030977     -3.13012723837152
  H          -4.91344102100747     -2.44095355396289     -2.92466391233286
  H          -3.98597883835032     -3.67336625031947     -2.05953380793228
  H          -2.56160507651272     -3.07084913304256     -0.06759312723766
  H          -2.28326026960541     -1.37852563791374      0.36217586178802
  H          -1.62281468179335     -2.03475519221536     -1.14716130798654
  H          -5.91488844163223     -1.55386430092948     -0.72567999141460
  H          -4.84478451668945     -1.21637487621247      0.64423174525035
  H          -5.05933443745237     -2.87750908105727      0.07617841063158
  H          -3.51170353718452      2.33070294425731     -0.75133667353545
  H          -2.88983422377744      1.07169459559429      0.32771934380763
  H          -4.63781302565397      1.30196927094493      0.14216299034593
  H          -6.06073579615884      0.33229326355006     -2.51322390490521
  H          -5.03876093992668     -0.09597541983846     -3.89593668626840
  H          -5.05308540991178      1.56614196844600     -3.27980100680291
  H          -2.35009023233207      4.01509512182575     -4.61691229521997
  H          -1.71774695543211      5.68241665776982     -4.54418066828060
  H          -3.04931272570847      5.18043909586331     -3.46555176831959
  H           2.69527408176640      4.08608352664996     -3.27237560582349
