48
Coordinates from ORCA-job goat_0_336 E -1253.936855097822
  O           2.43497914012327      1.59293261083283     -2.51284359578259
  C           1.27678800247279      2.19153146803431     -3.07478194341025
  H           1.44383218822521      2.40609532905539     -4.14020858386595
  C           0.11031286559629      1.22256760796429     -2.93771813313241
  H           0.15095874287165      0.78551632707502     -1.93784473022395
  O           0.24188288915310      0.11739490604098     -3.82799926613361
  C          -1.23571113867666      1.95646184824099     -3.10977776092299
  H          -1.83317166391505      1.37715821228905     -3.81521685201317
  C          -2.03256471062550      2.05170549193027     -1.80729172628736
  O          -2.32856473381588      0.73868129245703     -1.35753187605021
  Si         -3.83810156999283      0.04938176779019     -1.56625965294411
  C          -3.62098530952947     -1.74792430616057     -1.04013442248344
  C          -3.17933068565062     -1.81373937409624      0.42886345724828
  C          -4.95794649994516     -2.48660843205030     -1.20149140154502
  C          -2.55806387354281     -2.42265887920137     -1.91931176310971
  C          -5.07629522963696      0.95211026746548     -0.49047301970546
  C          -4.36666032073222      0.19318280952737     -3.35765619774033
  O          -1.07486362518199      3.23113337801740     -3.74016631164089
  C          -0.24653758932654      4.15881869293712     -3.06956100502538
  H           0.12897828428920      4.81971262197057     -3.85949303004950
  O          -0.94080971087576      4.91127471181773     -2.11084623238985
  C          -1.90539815341549      5.79355880146713     -2.67969103655822
  C           0.93515766632833      3.49095108124436     -2.36538345355863
  H           0.67092914782404      3.27515628464209     -1.32488998778713
  O           2.08568569029981      4.32803705366772     -2.40402184881894
  H           3.10676079857332      2.28574644323367     -2.46568909117479
  H           0.22612672321329      0.45571729777522     -4.73204057898542
  H          -1.46348496009382      2.55983118171288     -1.02630765997266
  H          -2.93881018227395      2.63906423956988     -1.99309056875719
  H          -3.92311964288944     -1.36639420197873      1.09480199525965
  H          -2.22904852627138     -1.29532831418362      0.58550975412357
  H          -3.04560357320487     -2.85883172033036      0.73406651818312
  H          -5.74287305956800     -2.04353654554453     -0.58091072098045
  H          -4.84646106730710     -3.53441371214090     -0.89737312237378
  H          -5.30236006258411     -2.47817351997383     -2.24006497320085
  H          -2.42806018362389     -3.46823257570199     -1.61421985520741
  H          -1.58869701062062     -1.92425286801155     -1.83115272224201
  H          -2.84479800883149     -2.41863163178602     -2.97509350100368
  H          -6.07228504994546      0.51134319428602     -0.59297086311283
  H          -5.14505167510253      2.00318075944499     -0.78745429819592
  H          -4.79097951100400      0.91427668453669      0.56413834357974
  H          -4.40600935247419      1.24282412380341     -3.66516372017108
  H          -5.36749476587072     -0.22817199959721     -3.49105804902794
  H          -3.68179375576605     -0.33364522403813     -4.02704237041240
  H          -2.71240224308880      5.23574881702071     -3.16219973719282
  H          -1.43359041795558      6.45728830454119     -3.41326728413765
  H          -2.31348746839826      6.38704897127971     -1.86190843698353
  H           2.03685319276703      4.94769072312379     -1.66762868408270
