48
Coordinates from ORCA-job goat_0_304 E -1253.934944652625
  O           2.26992161936437      2.65332570170180     -2.28205842673441
  C           1.05592876007589      2.44071458792152     -2.99285399042508
  H           1.18355445659575      1.62475056069208     -3.71612206068083
  C          -0.09736815619454      2.09392075376502     -2.07265620820189
  H          -0.31824991756995      2.94985356666406     -1.42252527603043
  O           0.28998236950260      0.97577675109345     -1.28267558158162
  C          -1.31322059287289      1.74918177706056     -2.93936873380333
  H          -1.18555691805270      0.71374413632911     -3.26928225000034
  C          -2.62148873076251      1.86337400580631     -2.16676662767324
  O          -2.52500710665604      1.03597280794954     -1.00976367169009
  Si         -3.69751009244761     -0.06603919417204     -0.53783461000632
  C          -3.54554203061040     -1.65325362120166     -1.55487549827842
  C          -2.12124522617862     -2.21292700757255     -1.42752628542479
  C          -4.54733212048775     -2.68817999808319     -1.01936323763884
  C          -3.84855281879349     -1.38687372014251     -3.03639364674820
  C          -3.32055387046713     -0.38095293807559      1.26363961254154
  C          -5.38760692052635      0.71045393283325     -0.73953822505959
  O          -1.37818345673229      2.53017576984803     -4.14176881957099
  C          -0.76650341593367      3.78826599259647     -4.10974684979756
  H          -0.86087580932781      4.18557028595941     -5.12620090965486
  O          -1.47557804028634      4.61122035593271     -3.20474787122365
  C          -1.34099508417681      5.99800209647272     -3.49570274764457
  C           0.72999813785485      3.71835134795575     -3.74831421407746
  H           0.96510439798410      4.56396938382546     -3.09314603713767
  O           1.46934071366316      3.82000470811880     -4.96114705236915
  H           2.44948371548988      1.85082078997782     -1.77674887266789
  H          -0.49915629871566      0.71539801769155     -0.78516800233397
  H          -2.77926593909060      2.89866396956011     -1.85571010655695
  H          -3.45201271791485      1.56666467130817     -2.81402114374378
  H          -2.02548274369095     -3.13375727717621     -2.01577010318794
  H          -1.87289720993991     -2.45532099853097     -0.38999408504629
  H          -1.37634858805520     -1.50206885259824     -1.79667527206249
  H          -4.35530543081841     -2.93433340236286      0.02907548339151
  H          -4.47000771689049     -3.61678484369405     -1.59782643919844
  H          -5.57935397371720     -2.33340564140471     -1.10050841807867
  H          -3.78684781590672     -2.32419963548965     -3.60281392233982
  H          -3.13181348324121     -0.69041436478180     -3.47977245221916
  H          -4.85315361303923     -0.97860241650917     -3.18030763826986
  H          -4.01604568689042     -1.10980281935171      1.68848906282013
  H          -3.41361655060875      0.54885159028617      1.83221830095256
  H          -2.30430187542077     -0.76186769435241      1.39627471054783
  H          -5.44275763556244      1.64252471734857     -0.16924619046702
  H          -6.16038373122680      0.03575817009373     -0.35985149088086
  H          -5.61974237436464      0.93390428517558     -1.78378698872225
  H          -1.95259368054295      6.53442177986082     -2.77091487573829
  H          -1.69778724472771      6.21500078365494     -4.50911193666323
  H          -0.30227198050263      6.33347338610886     -3.40312501737804
  H           2.40703242841399      3.78925374190713     -4.73581538324485
