48
Coordinates from ORCA-job goat_0_207 E -1253.939799437659
  O           0.76943191545893      4.27743174410849     -1.60391263315603
  C           1.36240565944199      3.16819044783235     -2.26711077723694
  H           2.44410307140984      3.25276156000439     -2.12658014335699
  C           0.90320299683114      1.84096032449652     -1.64507778017256
  H           0.96950670119689      1.91997695548231     -0.55588950534723
  O           1.74836683943024      0.77556294708139     -2.11011063472206
  C          -0.52368928985051      1.45432385501165     -2.02552661123887
  H          -0.59729639618652      0.37366416265634     -1.88643006797113
  C          -1.58254907789153      2.08609475122009     -1.12216647010216
  O          -2.86648192327504      1.57521856100582     -1.42694517168990
  Si         -3.60089720924760      0.26894204899805     -0.68917836215679
  C          -4.23885076237209     -0.83391297587576     -2.08334306895835
  C          -3.05431109381025     -1.36707023744313     -2.90173466960341
  C          -5.02502613374123     -2.01455862269802     -1.49542263502231
  C          -5.15924747833269     -0.01955003845959     -3.00436307237997
  C          -2.38210094607619     -0.63923374173194      0.40582412711463
  C          -5.01014542251897      0.91688948425119      0.35799954091956
  O          -0.79071240303642      1.62929157061079     -3.42521412627390
  C          -0.40347310028694      2.84361979604770     -4.02478544257591
  H          -0.57001506649100      2.68425666033637     -5.09537756093798
  O          -1.15766103129076      3.94846258684584     -3.57984249687237
  C          -2.54016548091372      3.87977738996653     -3.93600858320878
  C           1.06756384449242      3.17714267860953     -3.77020317392552
  H           1.26502928624870      4.17382666270362     -4.17047324072788
  O           1.90018388925753      2.26789135930706     -4.47190274924860
  H          -0.06753025684643      4.47739127740516     -2.04912739554755
  H           2.63079541249975      0.91076390116371     -1.74282940897200
  H          -1.30205189491568      1.86847262166853     -0.08579266884047
  H          -1.61985096681469      3.16850075477458     -1.23467341834622
  H          -2.38183252834405     -1.97660360428724     -2.29041403436820
  H          -2.47069802317531     -0.55187198211950     -3.33851105100099
  H          -3.41850332422213     -1.99672257387515     -3.72292311715420
  H          -5.39049362823270     -2.66142883504130     -2.30233993770351
  H          -5.89392474203025     -1.67690824243839     -0.92274030033288
  H          -4.40293616491399     -2.62796806262852     -0.83627552086453
  H          -5.52342811875815     -0.65041308301176     -3.82467437534874
  H          -4.63230054923876      0.83176273711705     -3.44518263418003
  H          -6.03268831384471      0.36270681668833     -2.46762345919735
  H          -1.50495981177793     -0.98895448372050     -0.14396956903895
  H          -2.87241410910947     -1.51192393508339      0.84775482988807
  H          -2.04114813497885     -0.00205847678808      1.22688796814839
  H          -4.62221937877271      1.58118041494397      1.13643331637710
  H          -5.54501998607680      0.09820881825732      0.84813961021298
  H          -5.72720149848860      1.48149922244572     -0.24420399029673
  H          -3.02896673348490      3.03760978794786     -3.44287072133953
  H          -2.64054874293242      3.78358296364904     -5.02235990404407
  H          -2.99545560302707      4.81388585680585     -3.60865633435239
  H           1.93403570903994      1.45190817575893     -3.94812257484622
