48
Coordinates from ORCA-job goat_0_179 E -1253.937213671235
  O          -1.40825963276845      4.02069528580162     -1.88161263292471
  C          -0.00065731302442      3.85393652617021     -1.81237794575306
  H           0.43769763844837      4.58360932445632     -1.12151954259961
  C           0.27409084078239      2.45974546163669     -1.25098926376724
  H          -0.38909470757813      2.28104126129233     -0.39954533399622
  O           1.64144739070443      2.49511191342226     -0.81779739570823
  C           0.06510945493062      1.34502592932725     -2.27300480294456
  H           0.57338934226508      0.45431056953734     -1.88917720949019
  C          -1.39937066821477      0.94392914248583     -2.46339756810199
  O          -1.82093923063896      0.29841711216426     -1.26964751163364
  Si         -3.39541030350696      0.29682448816289     -0.70848816567729
  C          -4.34957196817852     -1.14273993388892     -1.47999095896732
  C          -4.24351476984489     -1.08314996622210     -3.01060601393458
  C          -3.76753635420242     -2.47527102999420     -0.98817634853226
  C          -5.82723100224278     -1.05164060689037     -1.07151295673974
  C          -3.23720529833428      0.07812226394952      1.14095019970979
  C          -4.22649194887218      1.92573812253159     -1.10862458902789
  O           0.72517553446929      1.61735329785054     -3.51285542739799
  C           0.45252042599513      2.86346642656811     -4.12310945514580
  H           1.18256230026076      2.92507083518848     -4.93814349694292
  O          -0.84803568690984      2.94719870569617     -4.63814005667310
  C          -1.05017118250780      2.11127870608897     -5.77448893200014
  C           0.68870046346731      4.03714697458786     -3.17035459012609
  H           0.30962024445417      4.94292902896544     -3.65058124330351
  O           2.08792271453619      4.21858091553616     -2.98656457679021
  H          -1.58783413887969      4.89248127257968     -2.25164807474532
  H           1.90797907218878      1.60123278232145     -0.57310148562324
  H          -2.02097372852160      1.80966018614529     -2.68614793355275
  H          -1.44791976389099      0.24827481198813     -3.30612397621106
  H          -3.21275487631206     -1.22611882889296     -3.34585926960427
  H          -4.59986424145611     -0.12802242787185     -3.40907598348651
  H          -4.85138827494127     -1.87789941514610     -3.46050778493393
  H          -2.70292664890617     -2.56142260695032     -1.22765519951865
  H          -4.28694364774745     -3.31448426504274     -1.46731048747782
  H          -3.88072931699871     -2.58871516743254      0.09382278110493
  H          -6.29459809118571     -0.13868373935324     -1.45192037484887
  H          -5.94982313574930     -1.06607004621734      0.01617760411069
  H          -6.38313605913653     -1.90494165572029     -1.47912488667412
  H          -4.21753058947332     -0.06709130479227      1.60392268816222
  H          -2.77786522402222      0.96496601614366      1.58757729349497
  H          -2.61489465193846     -0.78751834230083      1.38324266652692
  H          -3.58661813555448      2.76204781083037     -0.81482128315841
  H          -5.16773122396954      2.00279174298138     -0.55639341020657
  H          -4.45178393241994      2.02812777548515     -2.17347903070121
  H          -0.34787880272876      2.37508838259723     -6.57371939724425
  H          -2.07085141524721      2.28153451206241     -6.11651509250872
  H          -0.92546614800191      1.05564227110395     -5.51942026416324
  H           2.37461669140357      3.55496948105764     -2.34001328027233
