48
Coordinates from ORCA-job goat_0_352 E -1253.944619725036
  O           2.38093328162709      2.50644194251263     -2.96925407516967
  C           0.97514526056488      2.51183432773756     -3.19991065640315
  H           0.73520961343566      1.84442399026043     -4.03861109773537
  C           0.19409500751002      2.04262465433679     -1.98449545973745
  H           0.49366016387746      2.64037162553432     -1.11222804908673
  O           0.51834036914731      0.67200938777618     -1.78621931355692
  C          -1.30346290149393      2.25166927127418     -2.23143821230031
  H          -1.62136372942918      1.59839906719767     -3.05600508615688
  C          -2.15232245812789      1.98217629922459     -0.99550367781671
  O          -1.91089277045783      0.66824312695467     -0.50934338161947
  Si         -3.10829704869669     -0.47019216655960     -0.20524919111393
  C          -3.68284900332752     -1.26130810535796     -1.82352024893765
  C          -2.46832238854838     -1.79177514362768     -2.59875843126623
  C          -4.62697928369515     -2.42958354299580     -1.49796050335758
  C          -4.43365804630814     -0.24503059232072     -2.69611653279954
  C          -2.26128281263480     -1.71750261633500      0.89507977259215
  C          -4.52618885374737      0.36046503594015      0.68747717469853
  O          -1.54365541680755      3.61547726041229     -2.56021937421069
  C          -0.91009061108700      4.01713420710180     -3.76784883630095
  H          -1.24032956297816      3.35589661429592     -4.58567452704977
  O          -1.26351017036621      5.33082273352987     -4.02713813059261
  C          -2.60979874589657      5.47299602945048     -4.48218754310787
  C           0.59889882204803      3.93050938966046     -3.59451989999675
  H           0.88942743809559      4.62365432404682     -2.79425554997041
  O           1.21939270433888      4.29018747216386     -4.81934206479162
  H           2.66227166993776      1.58821380693991     -2.88254016813108
  H          -0.13767180991435      0.32456465654674     -1.16154263723342
  H          -1.87876297914964      2.70384283824725     -0.21875672593995
  H          -3.20543270025324      2.13692058841636     -1.24701663544770
  H          -1.91698899564000     -2.54194001969720     -2.02390887556629
  H          -1.77393955317813     -0.98735838932329     -2.85668343934399
  H          -2.79679029563787     -2.26429369872139     -3.53255517999530
  H          -4.97820686101845     -2.89483142636890     -2.42692467946315
  H          -5.50848717985367     -2.09595544641844     -0.94168891596794
  H          -4.12691668330754     -3.20307755967278     -0.90804324837027
  H          -4.77397934782560     -0.72820289078351     -3.62018877010579
  H          -3.79816925326752      0.59691374003747     -2.98377184216008
  H          -5.31539564897654      0.15400946690923     -2.18662197499391
  H          -2.94912536076028     -2.51780812469977      1.18097716183456
  H          -1.90825974894652     -1.23064178071605      1.80869139431992
  H          -1.40102619790743     -2.17010517745304      0.39443567298767
  H          -4.99714617863129      1.13964521609300      0.08312696941191
  H          -4.17105457426978      0.81467164076827      1.61721873158667
  H          -5.29349359369484     -0.37640741918173      0.94244434007626
  H          -2.74530626991106      6.52331629181505     -4.73800060154558
  H          -3.32085893058283      5.19207306870814     -3.70120864565014
  H          -2.77960493302129      4.85475157589214     -5.37045573408478
  H           2.15007656876736      4.04433445044848     -4.74159330042932
