48
Coordinates from ORCA-job goat_0_187 E -1253.938796658698
  O           0.95575720450834      4.69239314994608     -0.91588084274645
  C           0.92554501845024      3.62697245334906     -1.85552136085413
  H           1.89755605761553      3.11266437117600     -1.86846909834523
  C          -0.14054469403799      2.60369003818332     -1.51458933687961
  H          -1.13101251202838      3.07033452259332     -1.58495420078327
  O           0.09207773636772      2.16785802522044     -0.17866938078720
  C          -0.02926062043184      1.42849331445921     -2.49148190330354
  H           0.77245905875946      0.78052455376394     -2.12406927844074
  C          -1.32261438235101      0.62652775343409     -2.56001648031722
  O          -1.64502277705544      0.18913823817833     -1.24226246608888
  Si         -3.22886200535919      0.11848489103281     -0.68468632842366
  C          -4.19423388963179     -1.21801917073881     -1.60918045730073
  C          -4.52326575581946     -0.77491879690479     -3.04242301308269
  C          -3.36553740019339     -2.50961995605939     -1.65566577558079
  C          -5.50829746599055     -1.48322441298122     -0.85723966657268
  C          -3.03603293800519     -0.29814312861592      1.12470496279638
  C          -4.02389714495029      1.80007872583968     -0.88969210499789
  O           0.37182640587362      1.83156281800276     -3.80820605588918
  C           0.04115964891083      3.15582966220351     -4.17853217769217
  H           0.47600314405945      3.27605273975998     -5.17621754613158
  O          -1.34578790075182      3.36654142956638     -4.22499945484394
  C          -1.97267573812876      2.70583474362269     -5.32340445567008
  C           0.65586609231988      4.20848629385801     -3.23555072550069
  H          -0.06281243964494      5.02321756045147     -3.13451266697798
  O           1.82358925292911      4.79049502270845     -3.80043513983926
  H           1.05167961443316      4.29369936857723     -0.04185599039155
  H          -0.49607828918212      1.41228856891243     -0.03653685046048
  H          -2.11553715243258      1.25807708468756     -2.96761547398733
  H          -1.18973861024431     -0.23736844087389     -3.21873691389892
  H          -5.12125822341220      0.14075585540500     -3.05609722460377
  H          -5.10137330827560     -1.55738142977347     -3.54912364861651
  H          -3.62112875323172     -0.59856396076720     -3.63439977209390
  H          -3.93328492389514     -3.30291228696405     -2.15703235849699
  H          -3.11385867981794     -2.86573146800235     -0.65198613776748
  H          -2.43162313934602     -2.36601398071252     -2.20670746224049
  H          -6.12141931624903     -0.57959000173031     -0.77968628963801
  H          -5.32688559077714     -1.85674565948661      0.15451134747417
  H          -6.09768130690929     -2.23855967277425     -1.39092438784588
  H          -2.37517191465773      0.42823462137656      1.60750373584360
  H          -2.60947763403762     -1.29500676084288      1.26414349496970
  H          -4.00254021912809     -0.26548828592625      1.63484229026414
  H          -4.04867487102925      2.12685486230576     -1.93214830212855
  H          -3.47297270828671      2.54715357384849     -0.31030331760762
  H          -5.05395340915950      1.77700381267021     -0.52119996997516
  H          -3.03705807852627      2.93123143245455     -5.26264396330665
  H          -1.82819078184906      1.62328699545212     -5.27388921003196
  H          -1.57050417371970      3.08097180163775     -6.27086348369478
  H           2.51257951432007      4.11512912847678     -3.83514515751218
