48
Coordinates from ORCA-job goat_0_109 E -1253.935586328927
  O           2.12096545843881      4.35802967997100     -1.98086130789288
  C           1.57871574790446      3.13045870365148     -2.45916510992977
  H           2.43464324507296      2.50638112166000     -2.72918937109734
  C           0.80207432249595      2.40662559583154     -1.34926902730936
  H           0.33570945639093      3.15834632207649     -0.70248662741971
  O           1.66122968440982      1.57059485809597     -0.57908751226336
  C          -0.29517318546786      1.52800916863966     -1.94221366755515
  H           0.16220852157844      0.77724806153414     -2.59588941543174
  C          -1.10616673534763      0.81787059200907     -0.87422914624751
  O          -1.91834131245332     -0.20576531082310     -1.42015566725346
  Si         -3.44410573352631     -0.04966239578475     -2.07858483412244
  C          -4.36286771172603     -1.61097051756252     -1.53085745696567
  C          -5.74743592591035     -1.66204194957614     -2.19259073623886
  C          -3.56515975092399     -2.85832986541181     -1.93772188864554
  C          -4.53142525090109     -1.59747824840200     -0.00505378740781
  C          -4.29471601329916      1.48376782913506     -1.42491104002269
  C          -3.33184899246827      0.01108473535473     -3.94621328456562
  O          -1.21908580522761      2.31225671306432     -2.71306374946314
  C          -0.73103628097952      3.47113443144506     -3.34044443238859
  H          -1.37798236640321      3.62560613841147     -4.21111006829976
  O          -0.78200465608919      4.60411476911885     -2.50112908167401
  C          -2.09496304541195      4.92923952697601     -2.05478210920478
  C           0.73031843548609      3.33566199099220     -3.72903990587257
  H           1.05362954457521      4.26036072499531     -4.21632620517832
  O           0.81755229687319      2.23321943363735     -4.62106228523905
  H           1.36943168156465      4.93316968904049     -1.78289421911305
  H           2.31721995887350      2.13800922620660     -0.15738436469624
  H          -0.42093744647633      0.35041514100017     -0.16533923724193
  H          -1.70978216983775      1.55847121736617     -0.33682935573120
  H          -5.67217777323245     -1.71035855439067     -3.28285058107417
  H          -6.35466046947919     -0.78884753240434     -1.93431851769813
  H          -6.29173714560785     -2.55373551513135     -1.85777144679772
  H          -3.43582699692221     -2.91935884516776     -3.02262683067774
  H          -4.09265189602270     -3.76478773258593     -1.61524117443746
  H          -2.57306206196895     -2.86662412580252     -1.47794905550922
  H          -5.13643617427858     -0.74816304204588      0.32617755354528
  H          -3.56440174310059     -1.54222549506022      0.50391308845696
  H          -5.03372187063193     -2.51401077414640      0.32862056669100
  H          -4.24365101242833      1.54366358588741     -0.33433527502568
  H          -5.35021167711215      1.47200026246603     -1.71299336440871
  H          -3.83832609282367      2.38353815709004     -1.84163886360926
  H          -2.85643428319007     -0.89090123829862     -4.34215958314193
  H          -2.74108203921196      0.87576423475205     -4.25621105563828
  H          -4.32728944531638      0.09315170813133     -4.39273794152856
  H          -2.44952004114814      4.20421399847197     -1.31820990221805
  H          -2.79216086386113      4.95806433990396     -2.89968248144826
  H          -2.03762793395248      5.91627944081904     -1.59646377016260
  H           1.71814354907451      2.19908974485895     -4.96348647084568
