48
Coordinates from ORCA-job goat_0_272 E -1253.941014976236
  O           2.24260244076318      2.31438228885326     -4.00172991646325
  C           0.92579729091582      2.65724737372359     -3.58213320183529
  H           0.23739548213862      2.60435499787851     -4.43649191794877
  C           0.50047092534572      1.61761909328461     -2.55542594969496
  H           1.23182996961041      1.61548618561732     -1.73515428010673
  O           0.43208298127514      0.33302842275649     -3.15677004808406
  C          -0.86392891752464      1.98382319406915     -1.97139743344168
  H          -1.61512433037150      1.97420758615306     -2.77272317185992
  C          -1.32492856592680      1.07894031596719     -0.82846793819004
  O          -1.88145693546555     -0.14292598240599     -1.26679829807200
  Si         -3.40507338239146     -0.30406198340872     -1.93791531484457
  C          -4.11077406240333     -1.89899058248751     -1.21401586109111
  C          -4.22694401063166     -1.76277189611886      0.31059165620825
  C          -5.50102090073801     -2.16896629310816     -1.80739923780980
  C          -3.18066382650904     -3.07448339123700     -1.54749563612496
  C          -4.45511467199293      1.18066438816758     -1.48975121948232
  C          -3.25007106630615     -0.43217319977064     -3.79973609904132
  O          -0.77545502512891      3.29416057985812     -1.41290394338779
  C          -0.51622808137558      4.28366616225861     -2.39732941306367
  H          -1.29030957248502      4.22352731420470     -3.18013328492428
  O          -0.52879733867551      5.53107848546275     -1.79193185809458
  C          -1.84090729761447      5.98680477893639     -1.45694398052897
  C           0.86461427828104      4.05670006259487     -2.99741198345078
  H           1.60683051973228      4.15370479959128     -2.19560680438807
  O           1.13113155535591      4.97393151139847     -4.04824449997614
  H           2.47093286113533      2.87674676194432     -4.75096454031931
  H           1.26311175638684      0.20761910764201     -3.63249845020925
  H          -0.47344765529376      0.84663842996805     -0.18178627084311
  H          -2.05017463224664      1.64793563336301     -0.23740782213469
  H          -4.60906037546057     -2.69507754599404      0.74427894028980
  H          -4.91433740962774     -0.95970718150468      0.59263147314325
  H          -3.25589504343572     -1.55362657897508      0.76880022471348
  H          -5.46001188348049     -2.29463371222600     -2.89333646756839
  H          -6.20059676307277     -1.35693327208966     -1.58676546861542
  H          -5.91814857748205     -3.09027188505418     -1.38275866400950
  H          -3.08884826606022     -3.22253361390471     -2.62760128152046
  H          -3.57825996861872     -4.00193260563541     -1.11715971965326
  H          -2.17725851374943     -2.92005334854659     -1.14044680297991
  H          -4.04098981963297      2.10099975521142     -1.91210636760277
  H          -4.53838593374350      1.30937094117695     -0.40736915852769
  H          -5.46360153947191      1.05425582928551     -1.89453858866524
  H          -2.56780139184657     -1.23810752517106     -4.08338118581414
  H          -2.86595109357344      0.50021828124865     -4.22286408125875
  H          -4.22417178807404     -0.63287427157177     -4.25550792837539
  H          -2.47877735707118      5.99884465150333     -2.34726879564208
  H          -1.73293827352872      6.99969891745704     -1.07070603048628
  H          -2.29245636838406      5.34948413904052     -0.69259931844631
  H           1.16894057845519      5.85756488059345     -3.66317405977773
