48
Coordinates from ORCA-job goat_0_117 E -1253.946049589829
  O           2.39619095134624      1.81515212599891     -1.51751070005042
  C           1.36521387538374      2.37563321809559     -2.32426224775529
  H           1.80441438736677      2.84584921328402     -3.21473110640940
  C           0.46877867740101      1.23294575655162     -2.77056005078195
  H           0.09299404367438      0.70902025887008     -1.88410772755674
  O           1.17647978016137      0.33387224266593     -3.61482000004323
  C          -0.72263523552391      1.78147657693830     -3.55242346967073
  H          -0.35447644097949      2.27603134175685     -4.46344036176422
  C          -1.70199434113084      0.70153878069692     -3.97112649915718
  O          -2.13062721195824     -0.05876915724232     -2.85545661041580
  Si         -3.73444565364392     -0.19134651535290     -2.41105245999003
  C          -3.69271524458109     -1.15160156732151     -0.78775968883730
  C          -2.90738314807290     -0.35513180916359      0.26434984594205
  C          -5.12870844915786     -1.37288277786115     -0.29045500119971
  C          -3.01469494099483     -2.51230617797532     -1.00196619971767
  C          -4.50820057998606      1.49975163830902     -2.19668141351538
  C          -4.66443321918111     -1.11533564717251     -3.74906565361780
  O          -1.42061107729630      2.72128340499087     -2.74046954030814
  C          -0.62777015694140      3.85091690326272     -2.41803724057616
  H          -0.28180135479983      4.33124994043280     -3.34852961451154
  O          -1.39434543814414      4.73381041095840     -1.66942471874112
  C          -2.38146617338526      5.42339112568641     -2.43763727036699
  C           0.56282842118063      3.42141076929377     -1.56970859495060
  H           0.17934628305474      2.98742174899670     -0.63796119517075
  O           1.42900842810752      4.51422187868384     -1.30010311176185
  H           3.02731611810328      2.51606195633292     -1.31651529051358
  H           1.98048336063359      0.07887510574036     -3.14567853644371
  H          -2.54305362712316      1.18255023231635     -4.48333468901290
  H          -1.20464127953366      0.04092316017595     -4.68652779974067
  H          -3.37734964997300      0.61055901339919      0.47260077457579
  H          -1.87951815562852     -0.16767510217582     -0.05960217984196
  H          -2.86665009609919     -0.91556280847160      1.20652699003221
  H          -5.11711713258835     -1.92659534547203      0.65629520803641
  H          -5.71950786733284     -1.95277145031692     -1.00610845363060
  H          -5.64640703455308     -0.42518993845174     -0.11347805818850
  H          -2.98733531956695     -3.07092461191287     -0.05816525027143
  H          -1.98544762512160     -2.39577342556571     -1.35270037248401
  H          -3.55437906632785     -3.12232074700106     -1.73249508117853
  H          -4.00071789542321      2.08081403210883     -1.42369261428390
  H          -5.56204376416082      1.39633706683927     -1.92045025133328
  H          -4.46158509616374      2.06735098297204     -3.13048485562364
  H          -4.24867936576448     -2.11361078758193     -3.90999206506656
  H          -4.60694974658769     -0.56699388397359     -4.69483700513321
  H          -5.72174350053087     -1.22079206965234     -3.48897219494902
  H          -2.84675849457577      6.14982164087627     -1.77218455474699
  H          -3.14016025206969      4.73113048671618     -2.81125945186769
  H          -1.91382665827967      5.94414687653602     -3.28020817793262
  H           0.94495596676832      5.14461593317884     -0.75364545947385
