48
Coordinates from ORCA-job goat_0_20 E -1253.939226389575
  O           2.09379539841963      3.47080902934803     -1.50261868149055
  C           1.21463100380739      3.13380433491143     -2.56885458441479
  H           1.79283587432093      2.81591200289147     -3.44585785342229
  C           0.24569211451846      2.03055865603103     -2.19392574032202
  H          -0.41991767412354      2.38818281214742     -1.39746130244119
  O           0.99911483998619      0.91760726341286     -1.72505875425012
  C          -0.56416573638047      1.65172967659466     -3.43977681056512
  H           0.03269585830877      0.92634436328947     -4.00079993487218
  C          -1.89605208731503      1.01167240355668     -3.07080525408385
  O          -1.62127728317447     -0.12606491611673     -2.25766795417936
  Si         -2.58685994926306     -0.55393084695954     -0.95173575867279
  C          -4.29797306800815     -1.09748398311993     -1.54382257949485
  C          -5.02165146997186     -1.79263968676458     -0.37950535324184
  C          -5.13535391503751      0.10620386037857     -2.00070710428918
  C          -4.14921118682281     -2.08367436950196     -2.71086912754469
  C          -1.65166774306072     -1.96222024186438     -0.15980025083558
  C          -2.70532398407917      0.89870092454259      0.22253702545506
  O          -0.76112084653140      2.75363081939774     -4.33528662882831
  C          -0.82130999494268      4.03877990677573     -3.75183251773240
  H          -0.87894528345153      4.72049705048024     -4.60652043965557
  O          -1.94646240884178      4.19829220022736     -2.92705303502726
  C          -3.17178382466128      4.22208409771781     -3.65743071592405
  C           0.42439401854003      4.38157257268933     -2.91994702412527
  H           0.08916705928909      4.84659530043786     -1.98696483867045
  O           1.20449908279713      5.30325912027053     -3.67440765624178
  H           2.59998675140619      2.67863893863753     -1.28541610866784
  H           0.37217268212545      0.18593586810412     -1.63714893751755
  H          -2.51021917877924      1.73921344611630     -2.53453235585055
  H          -2.42727838576123      0.70422910120267     -3.97698881438936
  H          -6.02968348868607     -2.09115486211199     -0.69167920092187
  H          -5.12613967696977     -1.13118151522275      0.48652445741508
  H          -4.49301588194874     -2.69349119556575     -0.05542179084208
  H          -6.12963837370792     -0.23212442634763     -2.31724636005478
  H          -4.68011191595248      0.62459527607446     -2.84895412328763
  H          -5.27347082202635      0.83262553756343     -1.19476870219540
  H          -5.13663214497550     -2.43341354863906     -3.03607665253827
  H          -3.56360659543394     -2.96312168702927     -2.42596575711048
  H          -3.65945841831043     -1.61638178235086     -3.57011100645975
  H          -1.60870132483874     -2.83578530894428     -0.81572804899011
  H          -2.12507874220888     -2.26233861147537      0.77897472738699
  H          -0.62661409615915     -1.65105189499703      0.06375305778762
  H          -1.71283826847585      1.15169316078062      0.60750921074267
  H          -3.34473768060435      0.64578573359105      1.07376684974339
  H          -3.12255416888910      1.78793783934900     -0.25654252770314
  H          -3.96897039310969      4.37920369512445     -2.93138223439524
  H          -3.34189227631868      3.27957633563181     -4.18432984647102
  H          -3.16612254478516      5.04453130319457     -4.38124551943356
  H           1.98468615008761      5.51843624654035     -3.14866744137638
