48
Coordinates from ORCA-job goat_0_205 E -1253.936890948798
  O           2.43345752702091      1.63114550561710     -1.79029764353158
  C           1.37960391710532      2.19877656801849     -2.55369745956853
  H           1.71711930573030      2.37899545062933     -3.58465956275900
  C           0.21041630443247      1.22384531136815     -2.57604756048277
  H           0.08879225612990      0.81955177869902     -1.56909008088964
  O           0.49070041511100      0.09211291853480     -3.39580243644328
  C          -1.09264462186141      1.93892350764499     -2.98900018167534
  H          -1.56478702588703      1.33159417430728     -3.76275299446657
  C          -2.09053718105313      2.06572678303014     -1.83622855464955
  O          -2.44330825660273      0.76322908277340     -1.39659063821309
  Si         -3.89446445315764      0.04682541995130     -1.81834921500485
  C          -3.72812792884639     -1.74322085132091     -1.25046200180746
  C          -2.55525885043695     -2.41315479004378     -1.98094710712790
  C          -3.47509411591760     -1.79081969811832      0.26320557373465
  C          -5.02630451898770     -2.49826982026234     -1.57229170997047
  C          -5.28920534144703      0.93787509356292     -0.94325719323697
  C          -4.15966067163623      0.16870721895001     -3.66852365892359
  O          -0.83793740221147      3.19479573963648     -3.62591361033538
  C          -0.13243654077724      4.15142604714943     -2.86207192565733
  H           0.36284205717485      4.79018705837043     -3.60263249610327
  O          -0.97614172184579      4.92804934583913     -2.05387004845542
  C          -1.84035105916647      5.78047712227390     -2.80151638972618
  C           0.92292768983677      3.51821124884011     -1.95453498434326
  H           0.49589395127355      3.33547791969314     -0.96313118521673
  O           2.06160412129798      4.36458163132479     -1.83691969512283
  H           3.07948897492172      2.33564965721214     -1.64958741287007
  H           0.63356831405894      0.40248707199718     -4.29867660897311
  H          -1.66036454839769      2.60702344533479     -0.99122162874947
  H          -2.95992218702903      2.63382746258350     -2.18590980685655
  H          -2.70909725896004     -2.42834150675980     -3.06394004370014
  H          -2.44953342276205     -3.45225476979326     -1.64575636210179
  H          -1.61121277152047     -1.89845442377789     -1.78157360119016
  H          -4.30070493688407     -1.34385564525673      0.82488945335222
  H          -2.55639308295226     -1.26212277338817      0.53264881908457
  H          -3.37305965575906     -2.83180892598493      0.59363332826589
  H          -4.94228438628585     -3.54300567043951     -1.24936549557540
  H          -5.23845516472811     -2.49915143216668     -2.64578645611211
  H          -5.88709306246974     -2.06075198435608     -1.05747377049464
  H          -5.31447854243656      1.98971953000971     -1.24489765610567
  H          -5.16830115014316      0.89820397364205      0.14254241304192
  H          -6.25625850197060      0.49465249047440     -1.19808107654833
  H          -4.17756476193005      1.21509675944606     -3.98861614199198
  H          -5.12107228180693     -0.27724038138275     -3.94010705084639
  H          -3.37385030148926     -0.34636677043053     -4.22680769184527
  H          -2.55141034675715      5.19821494118374     -3.39360636527501
  H          -1.25891052187662      6.42877177417167     -3.46711545997613
  H          -2.38328900172445      6.39201839324028     -2.08122726074689
  H           1.90093074362453      4.99521901797171     -1.12643136380918
