48
Coordinates from ORCA-job goat_0_1091 E -1253.934778925737
  O           0.90702971717201      3.09725281327990     -0.22774332291938
  C           1.14415218469353      2.57928637364437     -1.53597135423535
  H           2.10578625888069      2.06094974203206     -1.48868157077070
  C           0.04879431761906      1.56851597051775     -1.89709771558080
  H          -0.05122003104749      0.85899826325175     -1.07060830357555
  O           0.36214515648466      0.87128995615477     -3.10273654296592
  C          -1.29169308464755      2.29037637534028     -2.12016603866025
  H          -1.70861585748160      1.92963795965462     -3.06722265039931
  C          -2.29921778438528      2.04083296680675     -1.00654065258337
  O          -2.57160707695797      0.65448258302923     -0.91496676756232
  Si         -3.94596593348763     -0.03263158722321     -1.57653733611656
  C          -3.65508735413435     -1.89055512037291     -1.44680158813219
  C          -4.85935957516033     -2.63559525290566     -2.04122475063972
  C          -2.38675212910409     -2.27080592327130     -2.22484015345481
  C          -3.48624056043337     -2.29261546849369      0.02529905201047
  C          -5.43902615072425      0.51891719364331     -0.59144719448674
  C          -4.15086214600740      0.51836258102660     -3.35448369702624
  O          -1.11148870407298      3.70656182668323     -2.19999113184307
  C          -0.10844943238142      4.02982568220528     -3.15870738629552
  H          -0.27293111561367      3.42159050331512     -4.06102766596198
  O          -0.18692417173205      5.38153675711883     -3.45650693439355
  C          -1.30995065220807      5.71277979501173     -4.27512825665062
  C           1.25929187123310      3.72355309475220     -2.56061632847656
  H           1.59758905783313      4.61316178163638     -2.01789123033949
  O           2.14248653214603      3.43137293125274     -3.63479351054593
  H           0.14245784125715      3.68470060316509     -0.28685250321840
  H           1.19097069825169      0.39664696694441     -2.96814152389354
  H          -1.89101242941788      2.37831369545413     -0.04934145464565
  H          -3.20327444997906      2.62597349161801     -1.21119386533220
  H          -5.78576351621936     -2.39656591432172     -1.50994740576792
  H          -4.70417974635447     -3.71872667725506     -1.96671532321561
  H          -5.00350189275445     -2.39336220345302     -3.09848625571615
  H          -1.50528804560828     -1.75708994507830     -1.83081071134902
  H          -2.47489597414962     -2.02320983716071     -3.28685010985749
  H          -2.20984916513485     -3.35068889970551     -2.14866100609888
  H          -4.38102449265732     -2.06341057635556      0.61156702812588
  H          -2.63807581869141     -1.77921627419002      0.48716495863748
  H          -3.30692704454342     -3.37215082554892      0.10111462186646
  H          -5.55105812782086      1.60629488634968     -0.64571059699440
  H          -5.35008747855545      0.23777858334501      0.46116025509759
  H          -6.35292385758260      0.06968832604039     -0.99134971427241
  H          -5.06383329859906      0.08945279651428     -3.77826590112957
  H          -3.30650753387298      0.20892728993630     -3.97560719958747
  H          -4.23819949919559      1.60770938648702     -3.41382738943790
  H          -1.28295899954206      5.14099975256695     -5.20913858223584
  H          -1.23451304945775      6.77687150667632     -4.49648034299473
  H          -2.24878194047459      5.51327313758848     -3.75240310196413
  H           3.04517448461970      3.49328893229225     -3.30264084441022
