48
Coordinates from ORCA-job goat_0_1120 E -1253.940735631677
  O           2.14986173793874      3.33682853675193     -1.65710783640151
  C           1.06875749408494      3.21848101324674     -2.57122416330059
  H           1.40164171860440      3.50592794091162     -3.58099666507085
  C           0.56041229811905      1.78586946397745     -2.62589332243300
  H           0.29701090896366      1.46642120068023     -1.61352562767070
  O           1.62401756798063      0.98619088259009     -3.13849384573758
  C          -0.68163585869653      1.70310768505076     -3.51166262802793
  H          -0.41071795653423      1.99886983234049     -4.53613156383841
  C          -1.27764255284599      0.31072896487407     -3.57626931851352
  O          -1.46901039867665     -0.21402319851024     -2.27343563126436
  Si         -2.72328757435063     -1.23383253686303     -1.84690321488190
  C          -4.21568096881149     -0.21500784697113     -1.28924468179057
  C          -5.35321668940338     -1.15901901549528     -0.87307534979314
  C          -3.81437706246887      0.65827305264462     -0.09146130854137
  C          -4.70409902909102      0.69053515416952     -2.42930600028398
  C          -3.15941422432689     -2.33134998340136     -3.29999792873861
  C          -2.04474894380086     -2.25136313155411     -0.43381712190082
  O          -1.67222793114730      2.59344117004097     -3.00329713600215
  C          -1.25885557342638      3.95000336210197     -3.05729842874986
  H          -0.97805761779115      4.20443636976713     -4.08949654286188
  O          -2.35163792310705      4.75764110130776     -2.76411544217056
  C          -2.81974937771568      4.70386236542852     -1.41400351346003
  C          -0.04692020039299      4.15951145882711     -2.13860643166916
  H          -0.32296021164503      3.91855191287116     -1.10944342660473
  O           0.36099055025064      5.51778560469560     -2.13184929689430
  H           2.78699246472245      2.65258293862098     -1.89946888937213
  H           1.53731418494011      0.09551075753554     -2.78168039039199
  H          -2.21714952922617      0.36780555822807     -4.13479476250602
  H          -0.59234705340606     -0.33447037639131     -4.13624492054603
  H          -6.21575052757621     -0.57642603326715     -0.52669320272847
  H          -5.05325337689951     -1.82310814629101     -0.05676583606559
  H          -5.68820741503383     -1.78059313157897     -1.70899280751413
  H          -3.51597377286990      0.05146972119012      0.76850323904118
  H          -4.66002536768587      1.28400280618823      0.21991267887781
  H          -2.98206336383352      1.32233767687684     -0.34232666730564
  H          -3.93706957796151      1.40808467618068     -2.73014590890434
  H          -5.58311713465718      1.26003883405315     -2.10196634614513
  H          -4.99636396962723      0.11112238085042     -3.31051101373104
  H          -2.26976689985587     -2.86226049321903     -3.65227992445876
  H          -3.57231030136746     -1.76354057979651     -4.13774502863547
  H          -3.90105194722146     -3.07767116166343     -3.00085951553765
  H          -1.66796895263097     -1.61084340245365      0.36817437921004
  H          -1.22015321284046     -2.87855567283107     -0.78519636060039
  H          -2.81363882497318     -2.90588876999249     -0.01391342472773
  H          -2.14328275749151      5.23771856453359     -0.74089559627181
  H          -2.94110283105428      3.67219038302417     -1.07672704192255
  H          -3.79060307301068      5.19868613990661     -1.40985485785476
  H           0.65627105785092      5.75251597081384     -3.02072137530776
