48
Coordinates from ORCA-job goat_0_291 E -1253.938189163892
  O          -0.46451389855089      2.82553703895363     -0.45445899865139
  C           0.69106057517291      2.59754616200746     -1.24770614910528
  H           1.55077549801903      2.36512691392079     -0.60632844449191
  C           0.41660104807484      1.37880755585486     -2.13236681435288
  H          -0.04509140786947      0.59171433482223     -1.53094843163346
  O           1.65595736186858      0.91691301738063     -2.69278322639348
  C          -0.50057353738923      1.68470996531397     -3.30960266360051
  H          -0.37940205464761      0.86529264526160     -4.02255631785395
  C          -1.98304619947381      1.73279502981660     -2.94105977744243
  O          -2.36471533280678      0.42252611562205     -2.54271670941880
  Si         -3.80550173398342      0.14530391016510     -1.74414843081752
  C          -3.82367970160318     -1.71215042329181     -1.41604374286876
  C          -3.75247259487343     -2.47909537164678     -2.74411677716648
  C          -2.62008088677615     -2.09640523277548     -0.54340516996621
  C          -5.12114895891474     -2.08663293892642     -0.68431307610576
  C          -3.84608238117229      1.12831750257128     -0.15043797602867
  C          -5.22867135653762      0.68131358979818     -2.83656951452003
  O          -0.08365702999648      2.84835726956029     -4.03299048879921
  C           0.12889867310502      4.03037341551616     -3.28680129105982
  H           0.61307288073374      4.70880563372937     -3.99853097289592
  O          -1.05920397384045      4.60414529251745     -2.81432742956208
  C          -1.86995972698382      5.14028423940340     -3.85640706070461
  C           1.07812882197392      3.80731369008044     -2.10746593127345
  H           1.07078479384201      4.71083901224626     -1.49253119589271
  O           2.40482226521498      3.64991804014331     -2.59745754887987
  H          -0.31292991874705      3.61288901781400      0.08104535684208
  H           2.18388461316372      0.53579798535894     -1.98065601897000
  H          -2.16680132398223      2.45590528142220     -2.14706389689828
  H          -2.54210880524169      2.03724968703035     -3.83234498573580
  H          -2.83856236109727     -2.24188612215263     -3.29595424795825
  H          -4.60622700307370     -2.24976617603055     -3.38867476226092
  H          -3.75976685593358     -3.55956928107968     -2.55446691632971
  H          -2.64753738658259     -1.59157275223595      0.42683139546075
  H          -1.67410755667140     -1.84206572183320     -1.03012167593069
  H          -2.62206581912389     -3.17726404020733     -0.35600004352975
  H          -6.00640534095681     -1.84016716331494     -1.27846242035182
  H          -5.20589571282035     -1.57365177241132      0.27839675017696
  H          -5.14257972553119     -3.16556300631081     -0.48845739100579
  H          -3.83105490352702      2.20281536357935     -0.35462018769105
  H          -2.99071873700418      0.89127392668618      0.48757689517468
  H          -4.76154180556059      0.90899101216537      0.40707078450003
  H          -5.16632957408764      1.75483788361877     -3.04051297078822
  H          -6.18841100567883      0.49015331959255     -2.34775946566121
  H          -5.21968960002814      0.15220728782830     -3.79335483468046
  H          -2.72883229982761      5.61225035854009     -3.37957118734116
  H          -2.21753024216670      4.35584186030378     -4.53377249272915
  H          -1.31183245931838      5.89022066396618     -4.42900415499364
  H           2.47257268121151      2.74199597962575     -2.93189938981319
