48
Coordinates from ORCA-job goat_0_196 E -1253.942085455735
  O           2.50156926716200      3.95660878515451     -2.22799456569089
  C           1.43216819788034      3.15043794685366     -2.70787828138535
  H           1.73635087196134      2.64226954805961     -3.63524009892357
  C           1.01995741907039      2.09199029759244     -1.69138908294089
  H           0.81701721271003      2.57753366523319     -0.73209988558724
  O           2.09071886876296      1.18549452879410     -1.45118108785330
  C          -0.24700062336591      1.38292856184412     -2.17621055868300
  H          -0.02133612112600      0.82962919615053     -3.10100848666030
  C          -0.79761812463868      0.41738487419996     -1.14619320143431
  O          -1.81005301864956     -0.41008198025895     -1.68434731535123
  Si         -3.43450156973769     -0.03443106100835     -1.81385634354155
  C          -4.33103364873046     -1.65022320746936     -1.40356241374537
  C          -3.86717485484196     -2.75965167695647     -2.35864624247199
  C          -4.01255959150596     -2.06347943033437      0.04015252779815
  C          -5.84757381887311     -1.46036500126636     -1.55153008950135
  C          -3.89656492982319      1.31215511766878     -0.59886576754524
  C          -3.83071097835667      0.49514947000185     -3.56459039527254
  O          -1.25942492490573      2.35021435266485     -2.43675548893478
  C          -0.91716084645693      3.24504866306220     -3.48313716251696
  H          -0.64736151009866      2.67765151057950     -4.38322930974979
  O          -2.04583270952628      3.97802976952078     -3.83035383273638
  C          -2.50970046111385      4.90975823014881     -2.84991442402244
  C           0.27622592173491      4.08346555833945     -3.02885655196964
  H           0.00840231116112      4.62859169254632     -2.11560637122148
  O           0.61278865436966      4.98554678450379     -4.07098162684863
  H           3.25696318508096      3.37706616751418     -2.07130087088506
  H           2.27168942239087      0.70385050387198     -2.26922668880336
  H           0.01540020742219     -0.22586005905460     -0.80273083170091
  H          -1.16679876173224      0.99073335292035     -0.28804728607507
  H          -4.09757704314273     -2.51740104880805     -3.40047030830102
  H          -4.37438888310009     -3.70198958933177     -2.11658715040114
  H          -2.78958142979185     -2.93035524061984     -2.28154156896695
  H          -4.36395699277977     -1.31816853935965      0.75992912394700
  H          -2.93719122592146     -2.19736842451362      0.19000023760614
  H          -4.50562314204854     -3.01413753359088      0.27850949638684
  H          -6.22583755166291     -0.67815859966372     -0.88617107284127
  H          -6.36941818375822     -2.39140528026748     -1.29788323245608
  H          -6.12446837175690     -1.19532629847061     -2.57615673223763
  H          -3.40343697371505      2.25139282663158     -0.85821411761545
  H          -3.62114038846536      1.04746657467310      0.42564542390381
  H          -4.97799836001790      1.47653169708724     -0.62547222872733
  H          -4.90847322487792      0.63419553679784     -3.69207286313752
  H          -3.49952195388884     -0.25671602997854     -4.28665195679958
  H          -3.33241003944354      1.43888041346759     -3.79529392918473
  H          -2.59676852238766      4.44186916897724     -1.86666555445551
  H          -3.49590971614966      5.23239128396025     -3.18242072945426
  H          -1.84926395864806      5.77919216704634     -2.79029908493337
  H           1.45395091533272      5.39424075508627     -3.83145201807701
