48
Coordinates from ORCA-job goat_0_313 E -1253.936842798009
  O           2.87141818019500      3.80806120809848     -2.75116119366341
  C           1.71512709718416      3.04473825490277     -3.06915924743099
  H           2.06180394586061      2.25100754315788     -3.73833076960207
  C           1.03554067329067      2.42769957671221     -1.85369916312014
  H           0.60152416558676      3.23264169942879     -1.24903308246211
  O           1.93158179706311      1.75665172733951     -0.98104387553223
  C          -0.06666109740451      1.47092144688812     -2.33868259221910
  H           0.38560612742513      0.48075333105329     -2.45338334747734
  C          -1.18276911393228      1.36880922379746     -1.31360476641175
  O          -2.10723247725770      0.36945768590293     -1.70656195069973
  Si         -3.42732905713948     -0.02043817508220     -0.75897061394568
  C          -4.44336336355753     -1.20796696474633     -1.81446983198171
  C          -3.61019086104983     -2.45264416516478     -2.15208450754919
  C          -5.69724300330527     -1.63337473963314     -1.03639218923482
  C          -4.86541355336796     -0.51246706180721     -3.11673457060717
  C          -2.83634970122034     -0.82132758994506      0.82719497156886
  C          -4.38695216229060      1.53270062538607     -0.34107152643621
  O          -0.54274298299277      1.78736998881737     -3.65324497787632
  C          -0.63325128318046      3.15242531764716     -3.99550243179374
  H          -0.88728735212045      3.14527543990276     -5.06101811958841
  O          -1.62558302415001      3.82961352134266     -3.26844162778774
  C          -2.94129825800434      3.36071872283526     -3.56060441962996
  C           0.69066993969066      3.90488692465331     -3.79656633589669
  H           0.48933295198240      4.78848268884942     -3.17796397154568
  O           1.16582042578393      4.30504136073596     -5.07595423300745
  H           2.62951962532678      4.46076405092112     -2.08126130620467
  H           2.39642983180473      1.07792001273698     -1.48685936742551
  H          -0.72116377295557      1.11657240358772     -0.35038083889925
  H          -1.67930756850331      2.33801538935887     -1.21063402036107
  H          -4.19781801443468     -3.14076666289744     -2.77221974802149
  H          -3.30964643348754     -2.99384552287195     -1.25003538303121
  H          -2.70500974845329     -2.19151102987328     -2.70761076935250
  H          -6.29523224565803     -2.32757638450908     -1.63922343703732
  H          -6.33190980845645     -0.77635728868443     -0.79144337584430
  H          -5.44104676653456     -2.14266083574979     -0.10229883544118
  H          -5.48103850496094      0.37073666841164     -2.92173503058599
  H          -5.45593890901346     -1.19964162425213     -3.73510132639972
  H          -3.99708477967643     -0.19625610023698     -3.70150296088392
  H          -2.21072627333735     -0.12611487537777      1.39542224489423
  H          -2.24904857622877     -1.72145095947046      0.62680101381863
  H          -3.68438097887488     -1.09922915926338      1.45986523827732
  H          -3.76863996617646      2.22676775408613      0.23588266709918
  H          -5.26183139946562      1.28370643184275      0.26679322169967
  H          -4.73116582189255      2.04949887732766     -1.24034608621688
  H          -3.06322074398051      2.31518623073910     -3.26867462320691
  H          -3.15372297495227      3.46734064648466     -4.63059053330393
  H          -3.63109464422529      3.98083758245358     -2.98847253152098
  H           2.02615046104751      4.72160680416359     -4.93773983812033
