48
Coordinates from ORCA-job goat_0_1027 E -1253.939825257240
  O           2.57415865373934      3.58784078108216     -2.14034416973513
  C           1.35183660521528      3.14882660864750     -2.72213748260911
  H           1.55614913029433      3.06657633962251     -3.79613066010720
  C           0.98044982760735      1.76454765641110     -2.19891581102640
  H           0.85678030384258      1.82367572299543     -1.10727225754974
  O           1.99025116218168      0.82168801219421     -2.52983618264937
  C          -0.33962705952890      1.30860711542884     -2.81328655612235
  H          -0.21398807850914      1.20077212673856     -3.90021103322315
  C          -0.81175173332577     -0.00716402087137     -2.23107436433665
  O          -1.95321597810394     -0.46377642271580     -2.93746764070047
  Si         -3.21393894191283     -1.29347061443817     -2.21964931788198
  C          -4.44905205788762     -0.08547565172045     -1.44625160510412
  C          -3.78599839825145      0.73472520345069     -0.33007096596898
  C          -4.97901400465870      0.87349055375961     -2.52225497182963
  C          -5.62218313815548     -0.88085558686252     -0.85322280514634
  C          -4.00394335956819     -2.24696315958981     -3.61938979860720
  C          -2.52706505590629     -2.46706465119746     -0.93086692953528
  O          -1.33934634150661      2.28471664820878     -2.54061035541681
  C          -1.06456408155981      3.54110427848687     -3.13693750045188
  H          -0.90724290353912      3.40904072564939     -4.21698692564443
  O          -2.19561172309708      4.34187853295561     -3.02524171666224
  C          -2.53749223690097      4.75137828001188     -1.69855239976704
  C           0.20490101647211      4.13348212915951     -2.50949784561195
  H           0.04732033578104      4.26502174245239     -1.43515065285268
  O           0.48967936598063      5.42162496849439     -3.02650678321608
  H           2.41408450423111      3.77552523604116     -1.20619209673544
  H           2.83491227681826      1.22321543837609     -2.28764034634981
  H          -0.00453564189192     -0.73980309725072     -2.31887478389085
  H          -1.02397393796654      0.13996117536942     -1.16631560227823
  H          -3.37918508995528      0.09491314080664      0.45900144427105
  H          -4.52612691453502      1.39980782984933      0.13268368028936
  H          -2.97704158877846      1.35889693874134     -0.71678414704186
  H          -4.16984135419217      1.45283168158211     -2.97561664023188
  H          -5.68936795843681      1.58147423826541     -2.07734502972713
  H          -5.50186630437625      0.33759024399699     -3.31998557271651
  H          -5.29027811461918     -1.56665550158409     -0.06774688756651
  H          -6.14321732608519     -1.46731996170171     -1.61588144815511
  H          -6.35202231826727     -0.19434775797381     -0.40675212895558
  H          -4.87518788947573     -2.80765721365028     -3.26976029439544
  H          -3.28725047899382     -2.95963200155981     -4.03790575831756
  H          -4.32834113236851     -1.57888245997026     -4.42170183078526
  H          -3.32307127427914     -3.09838305263246     -0.52571782197966
  H          -2.05979098306786     -1.93741512235431     -0.09658923886815
  H          -1.77547417090751     -3.12116691129750     -1.38333569013773
  H          -3.54210797030768      5.16890596335704     -1.76004036140524
  H          -1.85183523447773      5.52151412146499     -1.33447706805694
  H          -2.54268357118793      3.90320494226495     -1.01008613656093
  H           0.66454116441843      5.34177481150602     -3.97291950864820
