48
Coordinates from ORCA-job goat_0_152 E -1253.936816159612
  O           2.71154860908329      2.86644960791190     -1.43480490682777
  C           1.57141928523495      2.32608337061733     -2.09182842001319
  H           1.72418848570842      1.25710503223441     -2.29280227621765
  C           0.38485131901707      2.48705444117154     -1.16186904862819
  H           0.17728821406982      3.55959085221079     -1.04141555667527
  O           0.62680053522428      1.90208937729463      0.11154160192125
  C          -0.82476580719875      1.76978751715543     -1.76352638854204
  H          -0.77221045392270      0.72799176816378     -1.43747628076972
  C          -2.12562636007308      2.37837876313390     -1.25897889918796
  O          -3.25765744981231      1.66715364445093     -1.72151984280791
  Si         -3.99172301614536      0.38408719739375     -0.94271454139927
  C          -4.09499056843680     -1.02520177620163     -2.19698435734733
  C          -4.83082201385343     -0.54230423371687     -3.45562418397303
  C          -2.68097440032777     -1.47884934934731     -2.58634378460548
  C          -4.85824168070391     -2.20893029452217     -1.58567178370474
  C          -3.00980216245988     -0.11364458876966      0.57245989081370
  C          -5.69966762537888      0.94393625506615     -0.42175297364589
  O          -0.76742371864944      1.69692252061482     -3.19430016706268
  C          -0.16465172888285      2.78025439911994     -3.86942035143429
  H          -0.14789051660307      2.46566871192101     -4.91915962031969
  O          -0.89257360135415      3.97346368281631     -3.73733335774141
  C          -2.16835974790986      3.91818207002624     -4.37483546772747
  C           1.27696066182308      3.05355168221918     -3.39558949522856
  H           1.37746635656670      4.12610931954088     -3.22079178644159
  O           2.23983777640135      2.73605936675695     -4.39378676270757
  H           3.48468815693427      2.68892146376917     -1.98306938036408
  H           1.44446191737033      2.29026854824874      0.44756526922051
  H          -2.08064499593324      2.39555595423459     -0.16414452374439
  H          -2.20805609389533      3.41041130410551     -1.60550441254091
  H          -5.85543344016944     -0.23110845789419     -3.23104798573569
  H          -4.88388320553491     -1.35197515638266     -4.19394641218277
  H          -4.31403334206234      0.30200370457992     -3.92127856406694
  H          -2.10847790143020     -0.66370277957335     -3.03730209589630
  H          -2.73682631660447     -2.29360098009529     -3.31893700690157
  H          -2.12196023275491     -1.84896146015155     -1.72148314620194
  H          -4.91733210727874     -3.03144624562149     -2.30897995471355
  H          -5.88148651299428     -1.93386956371716     -1.31316071508979
  H          -4.36091793677749     -2.59203619109650     -0.68928518920911
  H          -2.98397507233745      0.69838783212080      1.30479726725534
  H          -1.98061348071450     -0.39142447757204      0.33288200414605
  H          -3.48964840996721     -0.97395560009388      1.04871480955714
  H          -6.28919969780662      1.27423834710549     -1.28145581136652
  H          -5.61969165324121      1.78185846963568      0.27762764737035
  H          -6.24512532564877      0.13789108376261      0.07738071092608
  H          -2.05141615359576      3.67946629163026     -5.43803216895291
  H          -2.61553740805207      4.90650842035823     -4.27077370411912
  H          -2.81543513412000      3.17315848144445     -3.90549045566011
  H           2.20539395519801      1.78500167394044     -4.55839742145551
