48
Coordinates from ORCA-job goat_0_236 E -1253.935420731516
  O           2.35659170229159      4.08042073974330     -2.38188330450890
  C           1.56762539242874      3.05561136092077     -2.97353502206267
  H           2.23125729849687      2.51658294603911     -3.65508120888737
  C           1.05771239664064      2.06639340351446     -1.91398990713701
  H           0.90046991448953      2.60760705035131     -0.97818172241637
  O           2.03491732208074      1.07481134957820     -1.61972483719767
  C          -0.26900248446211      1.43669618584748     -2.34513246851324
  H          -0.11292973371280      0.87863160054274     -3.27646508391942
  C          -0.82142343079881      0.48794732046763     -1.29751783496942
  O          -1.85810709649189     -0.32757766090857     -1.81326199057046
  Si         -3.47974023730105      0.05032520867706     -1.93459412813042
  C          -4.37945564110798     -1.57157873141688     -1.55887685718437
  C          -4.13469489353414     -1.96743450492665     -0.09603311995371
  C          -5.88715609692401     -1.39521957602024     -1.79071992632756
  C          -3.85643449543980     -2.68576914679636     -2.47675645127026
  C          -3.94712359900289      1.37152863610522     -0.69431074969395
  C          -3.87538820716311      0.62055869892076     -3.67344128434727
  O          -1.27398515354523      2.43784008346751     -2.57162880762674
  C          -0.84374005385169      3.70729202529274     -2.99002351842312
  H          -1.68613601765538      4.12958525624110     -3.55190021726007
  O          -0.52387346685397      4.55624893370231     -1.90933887912614
  C          -1.61704400502388      4.80951253772384     -1.03172602263411
  C           0.42789239223294      3.63643036380270     -3.82506690428739
  H           0.70652494147641      4.64928186742089     -4.13054727428338
  O           0.24816402200156      2.79615670600560     -4.95726636226521
  H           1.76307249599620      4.59692822636657     -1.82040934364281
  H           2.22253151595145      0.58360050104640     -2.42952327934552
  H          -0.01850964817676     -0.17204902408029     -0.96484792308415
  H          -1.16800199326018      1.07323472280694     -0.43794546783819
  H          -4.53793159892588     -1.22201499133171      0.59588027788402
  H          -3.06701250868752     -2.08132871508676      0.11464874631444
  H          -4.62359197019644     -2.92465531885606      0.12397850543021
  H          -6.41643076847027     -2.32553083528508     -1.55023424486132
  H          -6.10868553162984     -1.14834144586313     -2.83315987214989
  H          -6.30606447413376     -0.60483297236059     -1.16006715848121
  H          -4.37657002132076     -3.62728792701798     -2.26026568363134
  H          -2.78555612705937     -2.85308516995356     -2.33218249707881
  H          -4.02282888568493     -2.45087112983461     -3.53250683216465
  H          -3.58398285784204      1.13314390436158      0.30910798568485
  H          -5.03621739128389      1.46467032008839     -0.64548019755181
  H          -3.53638657795022      2.33886182493002     -0.98972606300897
  H          -3.28317141811314      1.50487720602544     -3.91896974330896
  H          -4.93498234449084      0.87795915680358     -3.76423500352404
  H          -3.65234866413794     -0.15921473820072     -4.40722696240848
  H          -1.30556479283861      5.61012103548881     -0.36124746475870
  H          -1.86550051632669      3.92005102121738     -0.44781952886104
  H          -2.49856436508585      5.12931088986468     -1.59869307535179
  H          -0.44479232560294      3.17715080457473     -5.50992129126523
