48
Coordinates from ORCA-job goat_0_1107 E -1253.939480524692
  O           2.55373456386346      2.53599921398042     -2.97731737097605
  C           1.14184946903852      2.73438834644938     -2.92635297634376
  H           0.77226378330291      2.41541808883867     -3.90645718967295
  C           0.49482171635952      1.86120325278850     -1.85903636437844
  H           0.91419802959812      2.12534013378476     -0.87678303223270
  O           0.72285723315133      0.48845987236138     -2.13859875232266
  C          -1.00657902617074      2.13917605487072     -1.81831913386470
  H          -1.45012635441953      1.87328204351631     -2.78741828366721
  C          -1.75545942776212      1.41291270012697     -0.70077173044524
  O          -2.07425977276875      0.07433907443119     -1.02153000664817
  Si         -3.29605172993900     -0.37740733507768     -2.07115155858634
  C          -4.09746952561054     -1.89928836380924     -1.29193679470853
  C          -5.22026860995817     -2.41834795701608     -2.20186949853472
  C          -3.04435213779240     -3.00164903817595     -1.10703424635543
  C          -4.68497252813925     -1.52669723332353      0.07649124977926
  C          -4.51939627748676      1.02861547191975     -2.25872079440698
  C          -2.55596177380386     -0.79883883625691     -3.73935541171367
  O          -1.18979204040665      3.53178308857607     -1.57182537366417
  C          -0.71262499285506      4.35023852365900     -2.63151782651041
  H          -1.19003593784315      4.03248586180370     -3.57333343384384
  O          -1.02811198045502      5.66695730873135     -2.34107218611690
  C          -2.41760571309752      5.96036740941145     -2.49482403016764
  C           0.79846040951650      4.20615808316229     -2.73359471628697
  H           1.23464983599933      4.56659450328144     -1.79132347241606
  O           1.25979546662470      4.98111114076262     -3.82840195885095
  H           2.92916400953461      2.80544287826495     -2.12776508620400
  H           1.66483894737652      0.39804703070927     -2.33246079588446
  H          -1.14233714188356      1.40423450924904      0.20540282834339
  H          -2.66133532413991      1.99009299897033     -0.48824378778484
  H          -4.84091709931908     -2.71590435878527     -3.18391913427254
  H          -5.99952267827379     -1.66525775042548     -2.35423219580063
  H          -5.69366767562163     -3.29809039958074     -1.74903882438130
  H          -2.22407908893965     -2.66862356304030     -0.46454956845684
  H          -2.61834764381356     -3.31743559972537     -2.06401027416326
  H          -3.50048403169439     -3.88270637685838     -0.63894229357518
  H          -5.46547058713594     -0.76512470210370     -0.01297660111577
  H          -3.91418497606967     -1.14365584690878      0.75155704116967
  H          -5.13456900822649     -2.41008198194426      0.54630789803211
  H          -4.04610846294648      1.90588756084122     -2.70994293186067
  H          -4.94825283609176      1.32812599660184     -1.29880842050801
  H          -5.33875438315078      0.71942444407229     -2.91444438502505
  H          -2.12342989345471      0.08919647451579     -4.20878792188659
  H          -3.32173545301462     -1.19524593798112     -4.41271858391820
  H          -1.76584555492848     -1.54842725598118     -3.64241810844483
  H          -2.53251828256548      7.03059842331260     -2.32638134628906
  H          -3.01877981517065      5.40874842313252     -1.76768636812424
  H          -2.75015775762099      5.71090100359672     -3.50834846028419
  H           2.17476205820478      4.71983262127178     -3.99338778663005
