48
Coordinates from ORCA-job goat_0_1099 E -1253.931262463059
  O           0.72862992747177      3.87468861167835     -0.29916155701145
  C           1.17001924816933      3.44102993078127     -1.58209179072395
  H           2.21405857759973      3.75151037016473     -1.66661325135389
  C           1.11837258096217      1.91121797207038     -1.70751562717626
  H           1.18084560365593      1.51066321412113     -0.68906287055866
  O           2.23714164593964      1.46638011900928     -2.47133422066371
  C          -0.20401185847160      1.47184240072688     -2.34973107307673
  H          -0.09085455494933      1.48145121646884     -3.43882948842897
  C          -0.59601795522766      0.07834688492226     -1.89775598378510
  O          -1.47065823619505     -0.58308826531848     -2.78734689425632
  Si         -3.13499270705502     -0.58742547792107     -2.89533530527171
  C          -3.96844293038795     -0.78054325066241     -1.20334801844464
  C          -5.42529703906255     -1.21492167305606     -1.44265566475771
  C          -3.26063331973665     -1.86678501316440     -0.38069284141485
  C          -3.98267108058520      0.53956323639006     -0.41919334054070
  C          -3.74580305112820      0.94836177388181     -3.77010014828947
  C          -3.48049827495877     -2.08087948089111     -3.96866272559716
  O          -1.22869888393941      2.39085355261995     -1.95492547866964
  C          -1.11155810482679      3.64912794401203     -2.61555132714359
  H          -1.51162933076430      3.54946273424353     -3.63550981551254
  O          -1.83945800368582      4.58471639323473     -1.88564984809273
  C          -3.25186799006591      4.38463448757788     -1.93572841298207
  C           0.34713438533878      4.12822237507810     -2.67396085872475
  H           0.35105373895398      5.20773938574723     -2.49849737621484
  O           0.84255706189427      3.82584528586634     -3.97307405179578
  H          -0.20095629321998      3.62644490667435     -0.20917634794297
  H           2.38875776912564      0.53566475681289     -2.27344436426336
  H           0.31353673110811     -0.52841706336810     -1.83790104113616
  H          -1.01196823494295      0.14413089011944     -0.88728248530366
  H          -5.48168046029122     -2.19266318750263     -1.92850034316922
  H          -5.96802414260262     -0.49570652587353     -2.06446459479069
  H          -5.95240670318194     -1.28744129022947     -0.48357394258350
  H          -3.79815683300315     -2.03392514520095      0.56092471984605
  H          -2.23385656123689     -1.58791721762551     -0.13060420201246
  H          -3.22769420519222     -2.82050157579494     -0.91642704640648
  H          -4.54126009236834      1.31212367248317     -0.95483393160209
  H          -2.97858509649719      0.92678106113325     -0.23136302633472
  H          -4.47115325357347      0.38989647538923      0.55176062093821
  H          -3.29722068981582      1.01428455741575     -4.76611100054245
  H          -3.48703464502023      1.85136748614661     -3.21801886938842
  H          -4.83308580659909      0.91450946093323     -3.89002296901934
  H          -4.53307217084367     -2.11635243427682     -4.26272958279739
  H          -3.23756921405475     -3.01343006647813     -3.45178413596966
  H          -2.87714138441534     -2.02923485286130     -4.88003105713727
  H          -3.59232670928350      4.33044614501164     -2.97549837886210
  H          -3.70628804441411      5.24691756245866     -1.44860044032080
  H          -3.54149907616439      3.47320263764502     -1.40806210055022
  H           1.75979566754202      4.12038501940677     -4.01977751016390
