48
Coordinates from ORCA-job goat_0_1098 E -1253.934338197387
  O           0.15788810128233      2.81072629436725     -0.68582203241957
  C           0.70001499658793      2.54497067285562     -1.97593742983921
  H           1.66547781383424      2.03345164877763     -1.88299368007254
  C          -0.28032733290527      1.60072434662804     -2.67264253082473
  H          -0.51902187764046      0.77946864884487     -1.99138659935655
  O           0.30546042571528      1.08584082113459     -3.86948678999344
  C          -1.58244042179863      2.31500006229555     -3.06567604705065
  H          -1.88496186163437      1.92454133955563     -4.04589447334647
  C          -2.71058310475384      2.06859856928608     -2.07585180063867
  O          -3.06509112587230      0.69716581093439     -2.13166240063070
  Si         -3.53370003058632     -0.14557539875399     -0.76616884810642
  C          -3.94758781671612     -1.87596020269222     -1.39040431906384
  C          -2.72157732277858     -2.48363622224900     -2.08728660379119
  C          -4.34673285865439     -2.76161396942400     -0.20074852124112
  C          -5.11478960458198     -1.80848907412501     -2.38551818865488
  C          -2.12664907313364     -0.17527880728965      0.46944747198260
  C          -5.01519377761984      0.70178070375473      0.00283384110319
  O          -1.42505151379526      3.73130166072075     -3.14891083130649
  C          -0.19744979222837      4.08267747137330     -3.76415314875763
  H          -0.05447719920868      3.47776782276781     -4.67125651862464
  O          -0.21770819515393      5.43622671260898     -4.08149789731668
  C          -1.03798720880567      5.73847440233597     -5.21070821838379
  C           0.93526982684092      3.83916180492241     -2.77512683848137
  H           0.93557339591423      4.67637240249554     -2.06707069713459
  O           2.19120831228048      3.75107732735786     -3.43819769438812
  H           0.80295500566997      3.32756758196045     -0.18992610767559
  H           1.09412315246214      0.58674732527113     -3.62622337398170
  H          -2.38623194927350      2.36622064641999     -1.07363931115187
  H          -3.56760504127836      2.68881107338529     -2.35810859085478
  H          -2.40553198520601     -1.87984165031218     -2.94263382847034
  H          -2.95920267787924     -3.48943883450939     -2.45493947976869
  H          -1.87158236127104     -2.57263699007570     -1.40419113098621
  H          -4.59673431319315     -3.77026620845891     -0.55139436586159
  H          -5.22309008317808     -2.36613754362913      0.32191728563142
  H          -3.53337761965232     -2.85520435028186      0.52504159306877
  H          -5.34813032940766     -2.81303320441273     -2.75928751122112
  H          -4.87315897525319     -1.17882200629332     -3.24659825196473
  H          -6.02028635985163     -1.41012372790653     -1.91834312246625
  H          -1.24381982129566     -0.67398148201983      0.06076659434813
  H          -2.43023279009523     -0.70538760107464      1.37705905968091
  H          -1.84044810716727      0.84035796574933      0.75719278049347
  H          -5.37114714545152      0.14474687171392      0.87442068037566
  H          -5.84008518497979      0.78814613864944     -0.70949361841011
  H          -4.74680211252539      1.70881689040728      0.33706116564606
  H          -0.71041363683768      5.16563794633284     -6.08508460534371
  H          -0.92264260569168      6.80375397269754     -5.40838480847435
  H          -2.08784613121348      5.51694998043670     -5.00232683392027
  H           2.34955831798227      4.59492235746692     -3.87861342235560
