48
Coordinates from ORCA-job goat_0_175 E -1253.938248610412
  O           2.38880872502675      2.52586366006381     -1.50545628438687
  C           1.27985040765651      2.97075552775768     -2.27468946028316
  H           1.59869514469118      3.17150503989435     -3.30792050002613
  C           0.17313795819089      1.93569668406805     -2.32114467703186
  H          -0.22839570168467      1.78360049924878     -1.31195547050278
  O           0.73614795540809      0.71992231715994     -2.80252031040944
  C          -0.92630401327110      2.43196689809097     -3.26639790443642
  H          -0.59302254513106      2.22143642108241     -4.28732620979810
  C          -2.24555401263471      1.71250026924352     -3.02044571219370
  O          -2.01326346118387      0.31978785300865     -3.20068751695482
  Si         -3.18875587885468     -0.85625691353035     -2.97562450585226
  C          -3.70783661444160     -0.94792756236504     -1.15695405834382
  C          -4.35760465271588     -2.31990147371050     -0.91047739170269
  C          -2.47124427429816     -0.80667400399593     -0.25808944242295
  C          -4.72902894106973      0.14383655334720     -0.80354099851441
  C          -4.65589478930685     -0.47363781790950     -4.07007046912963
  C          -2.33149546531262     -2.42519082729441     -3.51290850525371
  O          -1.12008620217811      3.85170360188180     -3.20263401341193
  C          -0.73587494076417      4.47564102233915     -1.99351744063428
  H          -0.91140820431848      5.54217530533838     -2.16883155136886
  O          -1.49610136792026      4.03159988761288     -0.90015342127513
  C          -2.84532295398696      4.49400129521015     -0.93614597415445
  C           0.75363098745305      4.26241692007616     -1.66374062539000
  H           0.84697346034126      4.19792983320664     -0.57862132743800
  O           1.53417708138745      5.38517281959390     -2.05418951780522
  H           2.64456892895411      1.66324355854718     -1.85582178179938
  H          -0.00944188800771      0.11484243545063     -2.93180181605666
  H          -2.58202148548950      1.91740815420976     -2.00157622262819
  H          -3.00252393975387      2.07591557646890     -3.72344365049582
  H          -4.71975596920006     -2.38011050630787      0.12293174486297
  H          -3.64776469973068     -3.13724402459151     -1.06344366810659
  H          -5.21457527175373     -2.48789507023227     -1.57126970963668
  H          -2.00853724875806      0.17893671247987     -0.35991892727507
  H          -1.71206896608100     -1.55919595160322     -0.49396978373919
  H          -2.75375006089590     -0.93742723601184      0.79367524905226
  H          -5.64215611538484      0.04561652848949     -1.39716543736206
  H          -4.33350769131617      1.15075411362419     -0.96096151998820
  H          -5.00933511930900      0.06155916584223      0.25382781555356
  H          -4.36485364995592     -0.50627643797984     -5.12403769132841
  H          -5.06936116440370      0.51604971764677     -3.85844234195389
  H          -5.45028325083013     -1.20964721538615     -3.91311540674444
  H          -1.51451107566228     -2.68419242771498     -2.83344415742598
  H          -1.91598925106170     -2.29916288686109     -4.51684179295205
  H          -3.03255510431045     -3.26369608616081     -3.53771163174908
  H          -3.34023427407282      4.09506937774820     -0.05107232618632
  H          -3.36464328423677      4.14162758391247     -1.83123264765931
  H          -2.87212632061897      5.58894836442947     -0.91040260181202
  H           1.53902920079715      5.42953274458149     -3.01856840584836
