48
Coordinates from ORCA-job goat_0_192 E -1253.934508920837
  O           2.81360356002476      3.07037869421139     -3.08874983709161
  C           1.41984899185894      2.80029014064085     -3.21063532815005
  H           1.22586046935734      2.25332457529463     -4.14095928922458
  C           1.01561348370138      1.91539215727624     -2.04681902068622
  H           1.11980530759024      2.47187703850279     -1.10753144583606
  O           1.80998566250376      0.73714675173695     -2.00106889088539
  C          -0.42900841267968      1.46480642027312     -2.25983212067680
  H          -0.39985225758526      0.68364164456763     -3.02545951432445
  C          -1.03860748790561      0.86598869285536     -0.99811108933965
  O          -2.00434725105180     -0.13552182980299     -1.26480453924752
  Si         -3.46527983719675     -0.01348802440623     -2.05879128592316
  C          -4.39833481551111     -1.56880321685967     -1.52142027346400
  C          -3.55249392684068     -2.81673973141542     -1.81211194117413
  C          -4.69385050539611     -1.49683560423049     -0.01647479947053
  C          -5.72345747612087     -1.67063033913349     -2.29114508859951
  C          -4.39219437153335      1.52913040718914     -1.54306218882948
  C          -3.21292205034783     -0.00923766158865     -3.91483589545044
  O          -1.25903583238327      2.50696115205875     -2.80073935975863
  C          -0.80892209455125      3.83229855991613     -2.60851186648339
  H          -1.54691746077564      4.44864544371112     -3.13350489508692
  O          -0.74744040247074      4.19859241799142     -1.25435282501653
  C          -2.02116015044746      4.44807010839302     -0.66604940580278
  C           0.58465780204497      4.07305616717955     -3.21530511293252
  H           1.08873693896367      4.82570008948881     -2.60266434402378
  O           0.49380108031374      4.50993843016131     -4.56781047029115
  H           3.14324457059299      3.35224968811759     -3.94917682770783
  H           2.73031216992380      1.02545649019652     -2.05446547177215
  H          -0.24136318113382      0.38658232587318     -0.42375733187462
  H          -1.46623438401410      1.66547599200407     -0.38621234893483
  H          -4.09542577356482     -3.71916253776617     -1.50446515686910
  H          -2.60429387145938     -2.79323163189145     -1.26833684972837
  H          -3.32827040013049     -2.91283348719361     -2.87891750666522
  H          -5.21130258434116     -2.40712555224085      0.31098310986279
  H          -5.33554674930302     -0.64462897382204      0.22691642171770
  H          -3.77418942321588     -1.40553426440424      0.56890266526190
  H          -5.55915745678631     -1.76191747401823     -3.36875355636847
  H          -6.36238631949592     -0.79896408339257     -2.11920341723088
  H          -6.27963616760569     -2.55766303636202     -1.96391869792682
  H          -4.34980759182139      1.68328305593121     -0.46137891136779
  H          -5.44452271005243      1.44431713645566     -1.83077084431040
  H          -3.97827386355440      2.41076096986534     -2.03661066558697
  H          -4.17927852070920      0.02491430056109     -4.42724025047827
  H          -2.68444768669808     -0.90708406271347     -4.24719640394601
  H          -2.63661364385947      0.86614760432646     -4.22276001782256
  H          -2.62088602670849      3.53806670273270     -0.60517880658815
  H          -2.56750009481217      5.20163473235789     -1.24406651203449
  H          -1.83563397933742      4.82564083974192      0.33935290680385
  H           0.18095472452573      5.42221278162951     -4.57084469866366
