48
Coordinates from ORCA-job goat_0_1046 E -1253.932683793890
  O          -0.06228065830541      1.96815112918486     -0.34160993965794
  C           0.57033059176859      2.31293982751705     -1.57155479201205
  H           1.65819516386988      2.24245595790791     -1.46781718351465
  C           0.15347071508190      1.28595043052774     -2.62759375772041
  H          -0.15082175740918      0.37205422711536     -2.11062028428050
  O           1.30762408587275      1.04380732680427     -3.43543011046258
  C          -1.01522832799515      1.75380205147674     -3.48598659926389
  H          -1.12550009515305      1.04738768491904     -4.31667306425041
  C          -2.33859572842701      1.77060325135191     -2.72267584677470
  O          -2.66674819371108      0.43861891000949     -2.36796197240419
  Si         -3.96469923356888      0.08713585681029     -1.37396477237490
  C          -3.85625682596107     -1.77393327831946     -1.09059845585125
  C          -3.91176125148362     -2.51185910836144     -2.43581350986513
  C          -2.53741183162627     -2.11209392941185     -0.38049338798875
  C          -5.03514282117369     -2.22553812323983     -0.21582141902641
  C          -3.80801290754198      1.04629124847738      0.22646023613000
  C          -5.55289159041233      0.57767598209872     -2.23493316758418
  O          -0.79955432217509      3.04109124693886     -4.07508961881928
  C           0.21837195723157      3.85877953717727     -3.51448016563595
  H           1.19136885550161      3.58297727728159     -3.94285552138665
  O          -0.07513671881853      5.18629534167835     -3.82099114827875
  C           0.18918609443702      5.52943615034776     -5.18104548307484
  C           0.23781295954637      3.73990911441580     -1.99770678793483
  H          -0.76351624473488      4.00172475544153     -1.63633718157942
  O           1.20810865009332      4.60660824412218     -1.42724102882670
  H           0.24408379348833      2.58779788389753      0.33128549966234
  H           1.06382471294395      0.40767931222126     -4.11829598879572
  H          -2.25971574622315      2.40225731343568     -1.83278442089536
  H          -3.10260751251055      2.19987625890779     -3.38047306425243
  H          -3.84628360023833     -3.59464980093022     -2.27243151732858
  H          -3.08324198601037     -2.22055288700114     -3.08739101220086
  H          -4.84697840531254     -2.31301955085099     -2.96777633826874
  H          -2.45997024744561     -3.19559950864023     -0.22787341726354
  H          -2.47401078121953     -1.63316227268671      0.60104279797918
  H          -1.67201518034914     -1.79320750155087     -0.96871227560720
  H          -4.97904727181868     -3.30676809085996     -0.04067610519119
  H          -5.99698447791366     -2.01688522781359     -0.69400676416768
  H          -5.02814082831126     -1.73119981959631      0.76039046029248
  H          -2.85254722641071      0.85171905368592      0.72026584009838
  H          -4.61252020043525      0.76775745401259      0.91365046288929
  H          -3.88570823367584      2.12223459854934      0.04443544531888
  H          -5.67844828310219      0.04392221084408     -3.18080662432853
  H          -5.55342777419212      1.65141507960837     -2.44684246412235
  H          -6.41891039093125      0.36279019820679     -1.60209632521047
  H          -0.48134688029369      4.99334120524402     -5.85788935096862
  H           1.22876580775233      5.29956797932064     -5.43846333355344
  H           0.01895682421286      6.60160598383551     -5.27506040887644
  H           0.98319332309069      5.50538901588916     -1.69850613277028
