48
Coordinates from ORCA-job goat_0_273 E -1253.937784439654
  O           1.85991169659528      2.08240263405132     -1.11825440459648
  C           1.13777516732017      2.40284710189127     -2.30041796108799
  H           1.82510591069552      2.47383530618640     -3.15422362797724
  C           0.14462825725271      1.28117234694275     -2.55083625660423
  H          -0.37108242507190      1.07999453970851     -1.60542209624610
  O           0.80063301338347      0.09380502566019     -2.99188377737249
  C          -0.88684110752998      1.69428305300442     -3.61247408635924
  H          -0.87832938491824      0.93074372016717     -4.39237584580028
  C          -2.30549926798662      1.75928898919503     -3.05132294475850
  O          -2.66745196680930      0.44122962634025     -2.67105447682299
  Si         -3.58889610351683      0.14010738850176     -1.30874721624476
  C          -3.78407940223477     -1.73460882827631     -1.26881849710291
  C          -2.40143476432157     -2.39958094023961     -1.20159922926728
  C          -4.60054520458521     -2.13303440837911     -0.03030036868717
  C          -4.51462120284694     -2.21134326542849     -2.53229443909724
  C          -2.69674377717095      0.77455518129856      0.21158990074306
  C          -5.23215698681295      1.02173026271230     -1.47167013926243
  O          -0.51656321040440      2.90113519076672     -4.28561926506152
  C          -0.32153481586122      4.04280133943823     -3.47619807485158
  H           0.32124319767543      4.69426628055184     -4.08255477252677
  O          -1.51723420585236      4.70900709693665     -3.17649373073213
  C          -2.13600909841337      5.29498235931592     -4.31964369907704
  C           0.37759010279170      3.71240228437455     -2.15358218041391
  H          -0.37100312745535      3.60637158794000     -1.36378988011831
  O           1.22398564505944      4.77297381104670     -1.72963700354254
  H           2.40405553531643      2.84893957308114     -0.89791072232479
  H           1.41516147886453     -0.17134698210440     -2.29645048284517
  H          -2.35742614452662      2.44926815326683     -2.20349493729320
  H          -2.98229898942629      2.12877686573653     -3.82806309380213
  H          -1.78600964482852     -2.13546543593289     -2.06624396823129
  H          -2.51103484599244     -3.49093844186786     -1.18718208579759
  H          -1.85685803018755     -2.10933659154127     -0.29823321608903
  H          -5.59926783469604     -1.68582007626636     -0.04280885219753
  H          -4.10498914477510     -1.82871008978590      0.89656382677492
  H          -4.72511427389235     -3.22220452583695      0.00174636500146
  H          -5.51765558186990     -1.78065296117937     -2.60538695021530
  H          -4.62206978856001     -3.30283717582284     -2.51405061235445
  H          -3.96433294394597     -1.94382941107918     -3.43880326562001
  H          -1.73906715998347      0.26841672967111      0.35861877343644
  H          -3.30966647218992      0.61113719338122      1.10310747421345
  H          -2.50566373631316      1.84911916585988      0.13429575822781
  H          -5.76637445017560      0.70801071138996     -2.37245827326514
  H          -5.07779087308302      2.10399295000919     -1.52650907327585
  H          -5.86955103184989      0.81911856183204     -0.60602929956611
  H          -2.99970841302797      5.85358482068391     -3.95993924863347
  H          -2.46640741233210      4.52825073923174     -5.02521424637379
  H          -1.44281222303604      5.97816821003047     -4.82374350525142
  H           1.86186504153061      4.95557033353578     -2.43203629165029
