48
Coordinates from ORCA-job goat_0_1048 E -1253.942810502195
  O           1.39100732526505      4.08816683364954     -0.68684196257433
  C           0.90475063456283      3.45018354560235     -1.86061910997500
  H           1.70926419016016      2.85703801646197     -2.32229490024820
  C          -0.23454546742516      2.49743266452812     -1.52837295987298
  H          -1.00053352579495      3.04498389820745     -0.96108163470825
  O           0.32825787389024      1.46051215951073     -0.73123382744790
  C          -0.87236822107897      1.95730693352310     -2.80927491413496
  H          -0.14161354957374      1.32889308689707     -3.33806350001412
  C          -2.14840418546435      1.16760548374865     -2.54717444393383
  O          -1.87976423838560      0.09914555817186     -1.64811063378715
  Si         -3.03233837714695     -0.52288104834243     -0.59018768553362
  C          -4.40141913494241     -1.40287257570510     -1.54989154668776
  C          -5.34302349667122     -0.39169250217856     -2.22026793221124
  C          -3.77822212671840     -2.30783004981917     -2.62206571822004
  C          -5.21319150802650     -2.26228089317009     -0.56736372028844
  C          -2.04824077187884     -1.71133709708337      0.45949712912972
  C          -3.71339170425984      0.87311643949114      0.45106316433660
  O          -1.27584097824477      3.04752985423889     -3.62855916806978
  C          -0.18593210981082      3.85215149895374     -4.05814645682229
  H           0.54241252972636      3.21337549720271     -4.58714103449565
  O          -0.67957436701080      4.83251272552593     -4.90211782913811
  C          -1.05177624577742      4.33666255647765     -6.18832533432395
  C           0.47572694731045      4.52115076172569     -2.85349041842238
  H          -0.25668715420815      5.18719792764670     -2.38902665362436
  O           1.56520181849866      5.33804002053881     -3.24996762385259
  H           1.65341761784460      3.39003200614555     -0.07437368953581
  H          -0.32088864973728      0.74033803961698     -0.72614027441401
  H          -2.89481274350498      1.85453905343989     -2.13328594701813
  H          -2.52789757121449      0.77478791925133     -3.49521003899211
  H          -5.83408071742861      0.25098857010175     -1.48421587026424
  H          -6.12676159950946     -0.92370610637696     -2.77327927803715
  H          -4.81717010517198      0.25063318394617     -2.93188016025701
  H          -3.21605473241216     -1.72777343352124     -3.35948569290115
  H          -4.56513902822747     -2.85577595167502     -3.15450588204720
  H          -3.09873304595342     -3.04535289706185     -2.18392844024007
  H          -6.03720369987484     -2.75604505053902     -1.09633227252561
  H          -5.64950426498526     -1.65857773273951      0.23498959613758
  H          -4.59773249340831     -3.04114321459183     -0.10854548452848
  H          -2.66337119399849     -2.11313712750437      1.26914815827330
  H          -1.19367002505247     -1.19617442608570      0.90869127780408
  H          -1.67106197384718     -2.54983045192242     -0.13195372728350
  H          -4.43992902597973      0.48577421191100      1.17175544357426
  H          -4.21363931119041      1.63538371588352     -0.15102323092586
  H          -2.90418614174698      1.35324964649162      1.00971333751223
  H          -0.20283865096667      3.83308622614425     -6.66375765200074
  H          -1.34360718142480      5.20012361217087     -6.78528237441686
  H          -1.89254572957100      3.64227415334000     -6.11490880343633
  H           2.27548611036697      4.76477475777137     -3.56498027955634
