48
Coordinates from ORCA-job goat_0_1100 E -1253.939808842973
  O           2.36099241319703      2.57365491670611     -3.37785135420899
  C           0.95652159440370      2.36985732411439     -3.28065893289768
  H           0.60864789481016      1.75919761677965     -4.12733404359956
  C           0.57425205164998      1.66259677408022     -1.98600763062190
  H           1.00438331372903      2.20807976226819     -1.14083618580459
  O           1.14411251574322      0.35888590266324     -1.93783484058121
  C          -0.95098516474350      1.64342068759209     -1.84561303504567
  H          -1.36988907328055      1.04717994626258     -2.66892096494338
  C          -1.38026248882487      1.06360748973931     -0.51054068851034
  O          -2.78114258527999      1.04161246553451     -0.32374005520701
  Si         -3.96665167617336      0.31310429109661     -1.24542335891788
  C          -3.59174695519466     -1.52103089977564     -1.54301862848631
  C          -3.24070502943755     -2.20330896985132     -0.21312712929790
  C          -4.85398699563852     -2.17845677142097     -2.12675112813144
  C          -2.43673815654293     -1.71964796619274     -2.53549118587555
  C          -5.49970927423884      0.51719231096936     -0.19412354599513
  C          -4.22714479866155      1.21320231855908     -2.86958096014275
  O          -1.45061923324347      2.97330146320995     -1.92713473860244
  C          -1.20854226639548      3.57148496034050     -3.19165589499676
  H          -1.60409102064616      2.92644835978967     -3.98675070300251
  O          -1.93680412983965      4.75181658041123     -3.27330394210844
  C          -1.49304663244283      5.81659929083786     -2.42786295635345
  C           0.29930940378878      3.73729776698769     -3.37053527626925
  H           0.69320359188480      4.36222434035316     -2.56006295834529
  O           0.53490140648639      4.34378576168800     -4.63130720693827
  H           2.78445061632127      1.70678895242649     -3.36842495267937
  H           0.77321621792073     -0.16570653031393     -2.65953496344079
  H          -0.95700793086404      0.06022537215700     -0.41314076635314
  H          -0.95858655825649      1.68489038717337      0.28600894914928
  H          -2.33482547060584     -1.78163671185759      0.23160536507991
  H          -3.06590958957731     -3.27423199982447     -0.37459387296560
  H          -4.04991050784630     -2.10659280139109      0.51681022537425
  H          -4.66368835449934     -3.24089029374518     -2.32141912488155
  H          -5.15087555086253     -1.71653111676262     -3.07354392871858
  H          -5.70073715402214     -2.11296644606147     -1.43792172423619
  H          -2.29292710503423     -2.79009536497386     -2.72768581815822
  H          -1.49115749820582     -1.32931851618295     -2.15124366222576
  H          -2.63821840480557     -1.23567520510001     -3.49552350555307
  H          -6.39034494332462      0.17650380611248     -0.72891329130736
  H          -5.63891005442091      1.57373176510787      0.05415700409283
  H          -5.42481644652411     -0.04432849511504      0.74087831282360
  H          -3.40205927175589      1.08834285972528     -3.57359567289722
  H          -4.35657139250347      2.28338950185568     -2.68476799700761
  H          -5.13738955499547      0.84068244650011     -3.34993589169165
  H          -2.28196059993276      6.56786156192139     -2.44788400471371
  H          -0.56709780404273      6.25870175682956     -2.80579072403530
  H          -1.34822641912279      5.47425104756020     -1.40059891726333
  H           1.48712507185138      4.31307830121622     -4.78732369350743
