48
Coordinates from ORCA-job goat_0_347 E -1253.936782642043
  O           1.51314475377191      3.35442578088145     -0.74362374013792
  C           1.29539334277221      2.48047897892633     -1.84221352498207
  H           2.16692033676003      1.82550542729003     -1.90192029453603
  C           0.04965369039675      1.61326719129907     -1.62544564715130
  H          -0.00404445439772      1.35330921917795     -0.56368024891137
  O           0.20828452178481      0.42967475959435     -2.41266085425203
  C          -1.20998129342971      2.38970940812352     -2.05181972688671
  H          -1.46693342316826      2.09355761571083     -3.07775913242544
  C          -2.39252932861461      2.10240316157200     -1.14504733134287
  O          -2.57905893237378      0.69469291484660     -1.08089333719539
  Si         -3.87547244566834     -0.05084457499145     -1.84138584667478
  C          -3.66484067411448     -1.88303721462545     -1.44988584667272
  C          -4.66738441389801     -2.69147782885696     -2.28717390283649
  C          -2.23788939835140     -2.33447387766501     -1.79254253224171
  C          -3.92856858280286     -2.13424306761238      0.04162925211047
  C          -5.47629812567331      0.63286888050729     -1.15777203310616
  C          -3.78101933066736      0.28840102564938     -3.67934754069715
  O          -0.95264076904409      3.79031718800939     -2.01516091510243
  C          -0.08840084116008      4.16901638177157     -3.09269205739422
  H          -0.65172228863926      4.07036155830889     -4.03265701831103
  O           0.30531598973258      5.48186468239934     -2.88074708731704
  C          -0.75963672721635      6.42408765586562     -3.02488900700877
  C           1.16750989280015      3.26886159684467     -3.14732548492692
  H           2.03493270256650      3.92039165553413     -3.26500071332535
  O           1.13514139677857      2.39888090524244     -4.27336023694175
  H           0.72635071045693      3.91068929150521     -0.66293277445934
  H          -0.59616768559283     -0.09431991040683     -2.30615951134391
  H          -2.17916244689531      2.47544705814131     -0.13829801806920
  H          -3.28160671120824      2.62024775396176     -1.52033000758278
  H          -4.58685446535981     -3.75697477602188     -2.04105840149247
  H          -4.47804587800067     -2.58256663114471     -3.35897018913583
  H          -5.69984031210197     -2.38412451800364     -2.09278268811920
  H          -1.49990620109643     -1.83992179282591     -1.15425498349845
  H          -1.98427222312603     -2.13040884057256     -2.83818906492763
  H          -2.13756145612036     -3.41497373298408     -1.63454716265098
  H          -4.95676832143430     -1.88241100149328      0.31653272457943
  H          -3.25530756946170     -1.54716591978089      0.67356866600314
  H          -3.77077939727072     -3.19362976162292      0.27777335336588
  H          -6.32798377423040      0.07629909669192     -1.56038004649037
  H          -5.60344983599338      1.68292231468211     -1.43635213765582
  H          -5.50531428173162      0.56075347463795     -0.06749800639934
  H          -3.79642362208019      1.36612311853116     -3.86964830544812
  H          -4.63701982081809     -0.15352977541149     -4.19730999826127
  H          -2.86603242940324     -0.12089218382153     -4.11677913572446
  H          -1.49233520097341      6.31712138588822     -2.22166974644159
  H          -1.25565237081145      6.29084846119725     -3.99256858321624
  H          -0.30889800212894      7.41486528474965     -2.97867926204893
  H           0.73098569723887      1.56018218029944     -4.00394191271443
