48
Coordinates from ORCA-job goat_0_206 E -1253.936066034070
  O           2.70382223379504      2.26988189005870     -2.98247186822145
  C           1.29128975611159      2.36250448149165     -3.10872223004964
  H           0.97063135137695      1.95392889948544     -4.07705145415708
  C           0.57190166812018      1.61860880314418     -1.99465413891366
  H           0.81241654032516      2.09122467686037     -1.03716025602850
  O           1.03519202621403      0.27774253250560     -1.87460515799479
  C          -0.93706291625177      1.66445798828163     -2.26341001811365
  H          -1.17088999489743      0.83194884943307     -2.93361234380274
  C          -1.72179313579578      1.50072718696339     -0.96868650035379
  O          -3.12370848600218      1.49130722991741     -1.14913790842598
  Si         -4.07723862678849      0.39821745931278     -1.97565801642829
  C          -3.68801368317918     -1.38956115030100     -1.48123312665868
  C          -3.64435334308744     -1.51205306036600      0.04885126759039
  C          -4.81344260594475     -2.28840886658729     -2.02175464343857
  C          -2.35552309945916     -1.87286614345307     -2.07288492558516
  C          -5.80998021038949      0.87293288812233     -1.45715935426577
  C          -3.91747972722679      0.62377714285404     -3.82970976531839
  O          -1.32725116055955      2.82726102254302     -3.00479153378602
  C          -0.58637034585220      4.00757976781065     -2.78087682206697
  H          -0.99462141972895      4.72151779149092     -3.50405977703763
  O          -0.73808864129982      4.49946127869300     -1.47519241670056
  C          -2.06598295496661      4.94498039390054     -1.20073696519100
  C           0.91746136267281      3.83195147136674     -3.04184016211317
  H           1.46238657729743      4.28254501406813     -2.20574330397432
  O           1.22813064103479      4.51262427907304     -4.25344761536171
  H           2.92174455798636      1.33277011425524     -2.89963589741406
  H           0.75893365070201     -0.21283207627381     -2.65995762469903
  H          -1.38109322666845      0.57774844880105     -0.48697427660101
  H          -1.48530152825414      2.32972844514634     -0.29879739833822
  H          -2.83958959066803     -0.91192302410694      0.48220480930299
  H          -3.47423726817573     -2.55659776015652      0.33774436260428
  H          -4.58538862042510     -1.19141648186649      0.50572621285376
  H          -4.60585073531990     -3.33536363303023     -1.76940250399948
  H          -4.89936825817600     -2.22159305664919     -3.11091078320388
  H          -5.78340709898443     -2.02793771993167     -1.58926610144873
  H          -2.19159672074339     -2.92423190351953     -1.80605084776611
  H          -1.50174843668235     -1.30520679979604     -1.69499641949018
  H          -2.34962612692669     -1.80409153673350     -3.16450007629504
  H          -6.55741464361768      0.31481609019100     -2.02738382036139
  H          -5.97106512304826      1.93930469563203     -1.64223209839187
  H          -5.97742298009361      0.68328827446049     -0.39351959602601
  H          -2.93785187487911      0.33664267459377     -4.21704213851440
  H          -4.09389773634317      1.67071909274347     -4.09315375621213
  H          -4.67171097887833      0.01596878535381     -4.33942664137229
  H          -2.05300741097364      5.37268308131219     -0.19849351436630
  H          -2.77787779383265      4.11685416947092     -1.23568555445701
  H          -2.36531054575286      5.71321423784297     -1.92269711744187
  H           2.17848668423665      4.42774405559108     -4.39765018196464
