48
Coordinates from ORCA-job goat_0_1105 E -1253.931215363422
  O           2.30174789404166      3.09264476741567     -2.13721974848106
  C           1.21763201246110      2.60958253261186     -2.92408390262462
  H           1.67614115713997      2.19279947429316     -3.82657899370195
  C           0.41247775137516      1.52716797060156     -2.21752795130492
  H           0.19876937172064      1.86232403562393     -1.19866214218057
  O           1.16476049583631      0.32956289100234     -2.05713452143174
  C          -0.92576166027791      1.29421263847498     -2.95017903556786
  H          -1.02113849324262      0.22110355000154     -3.12441854909500
  C          -2.13032287051856      1.73151523909823     -2.11825993801070
  O          -2.14545957358846      0.94410166157891     -0.93717888859754
  Si         -3.49544549071040      0.13289810403921     -0.37539733707868
  C          -3.76535670944416     -1.46339381817029     -1.35618872666029
  C          -2.50415950229334     -2.33595608578375     -1.28188584130536
  C          -4.94820459408447     -2.23047861409119     -0.74437958521494
  C          -4.08029882560475     -1.15929871127850     -2.82808671977301
  C          -3.09433711785463     -0.23886555862368      1.41093544138152
  C          -4.98843502671721      1.25672107947156     -0.49725484980722
  O          -0.92904737577514      1.86737950400150     -4.26317030633880
  C          -0.73344531263071      3.25126960687902     -4.34979419248011
  H          -0.34111190354663      3.44097204509344     -5.35679754607858
  O          -1.99416233336704      3.87475427475950     -4.21497426806776
  C          -1.98803764647956      5.24799923882501     -4.59275571018665
  C           0.29928423998122      3.75563540091613     -3.32975549145390
  H          -0.22224406344846      4.13407899138456     -2.43961035651459
  O           1.04567938753329      4.80255421043316     -3.93483270065472
  H           1.96133004053566      3.33043266901922     -1.26482312645609
  H           1.41194378317362      0.00841386122804     -2.93329287659535
  H          -2.05943063581877      2.78674277865765     -1.84219395110987
  H          -3.03712298364690      1.60326564568756     -2.71574544511575
  H          -1.63259994691885     -1.81954687273115     -1.69490867261028
  H          -2.65101766806059     -3.25861262445189     -1.85670747358352
  H          -2.27051102697235     -2.62075252204577     -0.25178447364069
  H          -5.87447176223368     -1.64958184990384     -0.78897292570495
  H          -4.76407745608492     -2.49429870173511      0.30119907635175
  H          -5.11529782907525     -3.16293041870896     -1.29730827182367
  H          -4.96397853205549     -0.52295284454328     -2.93243316756227
  H          -4.27888019216552     -2.09400701128774     -3.36696157674912
  H          -3.24509052460873     -0.66484883924642     -3.33129826782359
  H          -2.94860584629197      0.69414305681393      1.96316032424101
  H          -2.17991970530118     -0.83196184288700      1.49694826949119
  H          -3.90637565542066     -0.79278603546069      1.88976588416939
  H          -5.86523039714088      0.77553650342669     -0.05427092995575
  H          -5.23189928904292      1.51222115518041     -1.53169968419492
  H          -4.80155232726155      2.18628474397071      0.04886862367836
  H          -1.57026459020779      5.37256021128557     -5.59878260671837
  H          -1.41130734638629      5.85720186049848     -3.89052356012297
  H          -3.02661559232269      5.57819176381836     -4.58838240663257
  H           1.82928167280263      4.92858088485735     -3.38251090030275
