48
Coordinates from ORCA-job goat_0_1136 E -1253.938127299142
  O           1.77113537261118      3.15960680930238     -0.50269460382823
  C           1.34132236070918      3.04540260486636     -1.85561879692708
  H           2.20924870240207      2.92639933784210     -2.51546000739715
  C           0.44357415247632      1.83702554642667     -2.05625980554369
  H          -0.27314374336226      1.77794889720397     -1.23716594972081
  O           1.28080517524686      0.68215917264573     -2.06047134410608
  C          -0.30654363797301      1.97910588249689     -3.37980075546893
  H           0.42630185206035      2.09999030377438     -4.18852160164227
  C          -1.15585449861287      0.76492133613907     -3.69887850375963
  O          -1.94206096759023      0.41042858810013     -2.57326403611380
  Si         -3.38248471945225     -0.41924461328546     -2.73274658768635
  C          -3.87267950980282     -0.87563308904343     -0.97009668392095
  C          -5.25665694406052     -1.54093143439951     -0.98508314821305
  C          -2.84477033376716     -1.85296956816147     -0.38211659081138
  C          -3.92506095501519      0.38674567745143     -0.09769232539610
  C          -4.65400805772367      0.68854267979204     -3.54601325719991
  C          -3.10648296426240     -1.93234187298560     -3.80045998475498
  O          -1.16888194714680      3.12752667239729     -3.37117731041928
  C          -0.86210840889021      4.15627618903812     -2.45956828531006
  H          -1.30523014320866      5.06020842994133     -2.89767300131887
  O          -1.41619898126265      3.93414531107394     -1.18750162415829
  C          -2.84118193863443      3.93550107847427     -1.19374732289899
  C           0.64208063742769      4.34652304815147     -2.26817722032640
  H           0.79333633164796      5.08833335162458     -1.47892136013325
  O           1.23332339518295      4.77778767880237     -3.49060909065440
  H           2.19096193830957      2.32237808564404     -0.26872933668745
  H           0.74332831258806     -0.07623430188873     -1.80502474172284
  H          -1.78081848328718      1.00385042971238     -4.56729629911544
  H          -0.49936912059705     -0.06695199974979     -3.97491517189390
  H          -5.26499447533673     -2.44629548289523     -1.60009787265856
  H          -6.02577868582116     -0.86418559466022     -1.36908347797935
  H          -5.54539876498664     -1.82919296516460      0.03295322874426
  H          -1.84062575069391     -1.41860298075180     -0.36912131362577
  H          -2.80282729628775     -2.78584740073859     -0.95182030986888
  H          -3.11419057652609     -2.10534532853900      0.65083293142471
  H          -2.95066159811267      0.88026543000699     -0.04841781560736
  H          -4.22135672668117      0.12247568799688      0.92496002395945
  H          -4.65119053960699      1.11207522336216     -0.47659240480466
  H          -4.28524728367339      1.05416376429560     -4.50918155734319
  H          -4.89012959258377      1.55434328641475     -2.92184735326376
  H          -5.58031631710795      0.13699255279642     -3.73191799637750
  H          -4.01154712200703     -2.54508045346314     -3.84661251242337
  H          -2.29348863182296     -2.55146968097358     -3.41170596622508
  H          -2.85105615821126     -1.63713769943995     -4.82283662756427
  H          -3.22175751289374      4.87631111875061     -1.60891143557518
  H          -3.16296369356750      3.83889281208450     -0.15705576787517
  H          -3.23316162228455      3.09739293899198     -1.77426284721552
  H           0.84263947219325      5.62632454053911     -3.73144617859063
