48
Coordinates from ORCA-job goat_0_293 E -1253.934509371408
  O           2.76654647806797      3.56295298247227     -2.48761005940379
  C           1.50223021481681      2.99085692170074     -2.78967276848418
  H           1.61932222274641      2.21676346931507     -3.56397900338151
  C           0.88112628311508      2.32336469974184     -1.57125235231812
  H           0.71725436402847      3.06270263229539     -0.78485185637020
  O           1.77360398931376      1.36542682549913     -1.01101064386785
  C          -0.43175896295771      1.65490574949144     -1.98950013259353
  H          -0.16666351165441      0.74299133757524     -2.53760401963888
  C          -1.28038014264432      1.24920296773400     -0.79155127093738
  O          -2.08499572122027      0.10993381897605     -1.03789644332634
  Si         -3.34274995300565     -0.07872180038992     -2.11711173317940
  C          -4.27913472285302     -1.58420846222126     -1.45790362201276
  C          -5.38521335805119     -1.97945567825460     -2.44743039263323
  C          -3.31768449519644     -2.76829815344726     -1.28239114227603
  C          -4.91296369755630     -1.24278205948164     -0.10185280802802
  C          -4.44885974856496      1.43118278938090     -2.14303199662802
  C          -2.68785843223522     -0.41657729937431     -3.83909092446160
  O          -1.18671810217990      2.45187539138974     -2.91976873416402
  C          -0.87634087743733      3.83170873419578     -2.95077816359145
  H          -1.52820999948904      4.24289469174666     -3.72823030618929
  O          -1.11273644093138      4.47221987754076     -1.72509884038910
  C          -2.49221866772517      4.71445868230445     -1.45918554271012
  C           0.58890459161112      4.08387848601937     -3.33724526277357
  H           0.88688889192539      5.03807269690332     -2.90116994264017
  O           0.73158932834136      4.23837023055030     -4.74384557716320
  H           3.28388186896282      2.87946954929946     -2.04217472220967
  H           1.88534990962815      0.64417221434100     -1.64499058790242
  H          -0.61050948747750      0.98830958640678      0.03205222716317
  H          -1.89363158121199      2.09866310410951     -0.47719346305374
  H          -6.09533048752169     -1.16337834795879     -2.61317160984414
  H          -5.94956519621342     -2.83476579787184     -2.05623544670884
  H          -4.97295187853139     -2.27060701636322     -3.41789819506657
  H          -3.86314977036425     -3.64299054856735     -0.90669696575167
  H          -2.52294680912344     -2.53582423575556     -0.56863283556347
  H          -2.84938293298726     -3.05199114371673     -2.22991997943116
  H          -5.44123940593554     -2.11684374266622      0.29878439949190
  H          -5.63828003725136     -0.42825252120479     -0.18964222218174
  H          -4.15654836642331     -0.94461843348813      0.63011241959949
  H          -5.40770866837188      1.18017740980452     -2.60667482589426
  H          -3.99348785843335      2.23494438689221     -2.72512619559218
  H          -4.64920089459379      1.80222369794644     -1.13414308873320
  H          -3.51675907318353     -0.57183948354377     -4.53640453757709
  H          -2.05773207146267     -1.31021526725893     -3.85680187883564
  H          -2.09896915511529      0.43053188939376     -4.19811002970940
  H          -3.04731035089497      3.78205883494618     -1.33988484691642
  H          -2.93960682553262      5.29984699056525     -2.26991425848198
  H          -2.53898958643994      5.28354575371651     -0.53098797913438
  H           0.51891912821469      3.39624358931006     -5.16513183850463
