48
Coordinates from ORCA-job goat_0_1096 E -1253.935190339072
  O           1.98322699247974      1.13242326956007     -1.64073416648002
  C           1.17676466038845      2.00051081771716     -2.42399860412998
  H           1.79805682173765      2.52114844482292     -3.16640998824356
  C           0.08421369161598      1.21335817713182     -3.14396040297257
  H          -0.35516197428032      0.52164167267772     -2.42286468274133
  O           0.65690280515396      0.37409666623693     -4.14489400886990
  C          -1.01951625536612      2.14055410823822     -3.68580584027422
  H          -1.16641124672330      1.90883522503098     -4.74306964464415
  C          -2.35816074526403      1.92998637703960     -2.98225940014764
  O          -2.79256784018143      0.61530997236456     -3.29175298404002
  Si         -4.01689442019813     -0.15845138937079     -2.45255505181953
  C          -3.28837039886601     -1.12672587418129     -0.99979592501985
  C          -2.55764152342882     -0.18840054206669     -0.02847438260169
  C          -4.42419952665255     -1.83647415760804     -0.24681157665031
  C          -2.29793204616156     -2.17548360053996     -1.52631024720043
  C          -5.25404403775102      1.11671249162285     -1.86210507135030
  C          -4.79601434978678     -1.31276646453777     -3.69800531297685
  O          -0.61606140845424      3.51201457181847     -3.66493659861445
  C          -0.23876304615506      4.03305695767827     -2.40792249624166
  H           0.43114815531687      4.86745575050628     -2.64606010210457
  O          -1.33144090209226      4.50148019121615     -1.66241715612352
  C          -1.95572396144079      5.64656549461670     -2.23808944341776
  C           0.51499111147956      3.02713150364393     -1.52740866009426
  H          -0.19631052222265      2.51854974722994     -0.86564382005023
  O           1.49819325619820      3.69791065343623     -0.75285425816019
  H           2.29306903479246      0.43382725527304     -2.23089022574603
  H           1.05018818825236      0.93733023674117     -4.82355927111392
  H          -2.25611874874190      2.07063149700918     -1.90282620219958
  H          -3.07395806785772      2.67095265830687     -3.35273336834632
  H          -3.21641555918465      0.59695531345011      0.35419132983203
  H          -1.69469711046707      0.29191423762190     -0.49748380711684
  H          -2.18672957760651     -0.75868937977598      0.83216136864306
  H          -4.01271970670070     -2.42167820273198      0.58464162697692
  H          -4.97441462380570     -2.52479793491148     -0.89532820029273
  H          -5.13917625562225     -1.12268779500140      0.17329397784573
  H          -2.79067685070147     -2.90383552884630     -2.17691386069737
  H          -1.85163538121337     -2.72607143183755     -0.68903738589742
  H          -1.48440933130202     -1.71241222663130     -2.09297238810271
  H          -6.11248854653708      0.62581305156149     -1.39482976214364
  H          -5.62199881104398      1.70556748034725     -2.70775535978067
  H          -4.81911439797708      1.80403318784507     -1.13167357558431
  H          -5.57079737876737     -1.92903743987115     -3.23364620985187
  H          -4.05047944371853     -1.97894413435334     -4.14040786044721
  H          -5.25848191639044     -0.73560308922073     -4.50402763056975
  H          -2.41974984317063      5.40108347650793     -3.19698877432848
  H          -1.22472820616906      6.45013359192400     -2.38344303244505
  H          -2.72304187706060      5.97504620579987     -1.53746057622116
  H           1.03812112164851      4.23260890650905     -0.09502098744340
