48
Coordinates from ORCA-job goat_0_1142 E -1253.943282798555
  O           2.29332579814769      3.26491170216657     -1.09906614800273
  C           1.41913899565620      2.96200480818102     -2.17705004818521
  H           2.00401781265804      2.80256912040019     -3.09694461120329
  C           0.63137362935979      1.69153521042685     -1.89816292480274
  H           0.10473982560189      1.79935922030300     -0.94538221948687
  O           1.57887468387206      0.62785672813748     -1.82566473358924
  C          -0.39396851073769      1.46383367371536     -3.00680423557057
  H           0.13179072793145      1.34713882457640     -3.96620307623648
  C          -1.24682460033472      0.22835849154352     -2.79210636232779
  O          -1.84934254662871      0.24069784168133     -1.51094459219632
  Si         -3.49768907495880      0.26177642296642     -1.23609292325696
  C          -4.12434641197981     -1.51995833186207     -1.14283102195420
  C          -5.65203541779198     -1.52496313783943     -0.99067103534118
  C          -3.73921707895179     -2.27131762482585     -2.42540146101499
  C          -3.49013348538809     -2.22798962617032      0.06256758509270
  C          -3.69851450251847      1.13600162448300      0.40288296911672
  C          -4.38104468921780      1.20129682448300     -2.59282979890383
  O          -1.25389429679771      2.59849111458267     -3.05878539179183
  C          -0.57037965761066      3.78247776167686     -3.43937050986930
  H          -0.09466514007528      3.61965711146731     -4.42259578091007
  O          -1.49622213993552      4.81143973275005     -3.51265829154323
  C          -2.36880708059255      4.70622721700846     -4.63751268031606
  C           0.48945491089426      4.14753849335756     -2.39845950693464
  H          -0.02288940949568      4.38846000679904     -1.46284097477502
  O           1.20292092342028      5.31466575784482     -2.77471742313578
  H           2.79916473372821      2.46091550616330     -0.92427105506414
  H           1.22976579433444     -0.05317682473757     -1.24069561447063
  H          -1.99240764311092      0.18149793782424     -3.59206842224768
  H          -0.60796421373287     -0.65587416373476     -2.87933372686191
  H          -6.01862877254610     -2.55500095480533     -0.90110371859621
  H          -6.14469178922344     -1.07146678057214     -1.85579361161493
  H          -5.97191949069216     -0.98108765242119     -0.09623259832425
  H          -4.11787844281929     -3.30019238713118     -2.38699988189043
  H          -2.65356800860267     -2.32294556215178     -2.54957239933357
  H          -4.16022869210584     -1.79699644112594     -3.31724612731401
  H          -2.39720856254286     -2.21712716276064      0.00502960163340
  H          -3.81258749517916     -3.27602330311164      0.09789364606679
  H          -3.78365399243188     -1.75821403768635      1.00583244245685
  H          -4.73775623136332      1.10025074574907      0.74227497479488
  H          -3.40797018363753      2.18630100100574      0.30605345263310
  H          -3.07253998040994      0.67827550366800      1.17355874265690
  H          -5.42729964830261      1.35312030201445     -2.31110374820894
  H          -4.36567691494079      0.67120673208904     -3.54867330485521
  H          -3.91720480952809      2.18016249141347     -2.73676524853032
  H          -2.97686040848665      5.61035281947453     -4.64903765413137
  H          -3.01763415049369      3.83071939681592     -4.55243539974810
  H          -1.79001511640844      4.64296133677641     -5.56572182609246
  H           1.74693075396942      5.10285252939117     -3.54379332581879
