48
Coordinates from ORCA-job goat_0_189 E -1253.934506369388
  O           2.83845121727911      2.99088943326171     -3.12182767246093
  C           1.44054807444906      2.74051781184084     -3.23862041838411
  H           1.23676589222655      2.18814831642245     -4.16359062615867
  C           1.02513978972981      1.87280707541229     -2.06579419143657
  H           1.14011877425584      2.43658647067153     -1.13211185161656
  O           1.80091916561839      0.68278960294273     -2.01040324789065
  C          -0.42685855540228      1.44263078567885     -2.27096300473742
  H          -0.41170572323590      0.65332487401298     -3.02859445414355
  C          -1.04272744258358      0.86620403818298     -1.00175602746188
  O          -2.01916587655561     -0.12839939290997     -1.25594544323169
  Si         -3.48310233493262      0.00531124175168     -2.04299479220555
  C          -4.43339083584358     -1.53182989127343     -1.48438333459913
  C          -4.71642602024263     -1.44187148211274      0.02200224736596
  C          -5.76562411851828     -1.62233943737337     -2.24313959612704
  C          -3.60722982436469     -2.79408788332468     -1.76973189007926
  C          -4.38523668870578      1.56591039753256     -1.53854251724393
  C          -3.24072502370812     -0.01131945722339     -3.90009862262015
  O          -1.24179391307337      2.49196581196771     -2.82094509437501
  C          -0.77112435844248      3.81204451945055     -2.64145098947432
  H          -1.50059708378049      4.43475868827255     -3.17081857285106
  O          -0.70187071018949      4.18946012012788     -1.29072065918555
  C          -1.97046416225104      4.46628591638570     -0.70355125995805
  C           0.62478477153707      4.02583125912989     -3.25295945310227
  H           1.14175499989835      4.77579681840032     -2.64777765570504
  O           0.53780212018131      4.45238222754167     -4.60899754012296
  H           3.17193634931983      3.25386205660606     -3.98671311374750
  H           2.72577293804444      0.95638696480401     -2.06246133101438
  H          -0.25110242991453      0.38546146948479     -0.42082975819685
  H          -1.46215085148962      1.67762567523027     -0.40001239496288
  H          -5.24590767637226     -2.34072389827906      0.36154838873970
  H          -5.34250789808085     -0.57730766280554      0.26252650035932
  H          -3.79102855737238     -1.36002976731464      0.59963959335199
  H          -6.33051448800781     -2.49981441197165     -1.90526529216555
  H          -5.61097278723992     -1.72342885208716     -3.32132624396024
  H          -6.39211113396229     -0.74141194419859     -2.07260210160521
  H          -3.39314103448497     -2.90346997685170     -2.83733920737161
  H          -4.16003527079537     -3.68587399424054     -1.44896771284609
  H          -2.65435984378985     -2.77872592840895     -1.23389395737993
  H          -3.95963601888854      2.43634664640922     -2.04197582200153
  H          -4.33583649009097      1.72946989671262     -0.45851771381382
  H          -5.43977126822846      1.49465673142290     -1.82156431919110
  H          -2.65301544732374      0.85270645935864     -4.21853315634887
  H          -4.20894016261533      0.03285811551390     -4.40815319825092
  H          -2.72698299776896     -0.91971503317917     -4.22679162931966
  H          -1.77739820837159      4.85096391371454      0.29773059424694
  H          -2.58538439478241      3.56720294044681     -0.63251845845236
  H          -2.50479594962755      5.22291335792603     -1.28869727341067
  H           0.23747148849711      5.36882937693767     -4.61941572485303
