48
Coordinates from ORCA-job goat_0_106 E -1253.939113175023
  O           1.04819753029073      2.29998876351305     -0.60892932120250
  C           1.30391726127944      2.10844784584747     -1.99479320865897
  H           2.25138340798185      1.56979792249358     -2.07243345409789
  C           0.22529684216250      1.24669065146972     -2.66880956950097
  H           0.00031486517689      0.40333350798757     -2.01429542549218
  O           0.73334861429139      0.68979837165533     -3.88186547558063
  C          -1.07910471957956      2.00190051859023     -2.92788078544851
  H          -1.59361868170400      1.45900639345330     -3.72305311845991
  C          -2.03853267944675      2.03421914129770     -1.73373815118971
  O          -2.42726993444785      0.70474474583166     -1.42297517837427
  Si         -3.92992638977424      0.10210010144679     -1.84223908784506
  C          -3.83535990835225     -1.73676968336967     -1.43759231744697
  C          -2.72599363330391     -2.39457994870794     -2.27093973891869
  C          -3.52829597809495     -1.92832901947102      0.05465745886410
  C          -5.18100353842395     -2.39920422819587     -1.76788285219300
  C          -5.24414241485073      0.97834813794912     -0.83750856237294
  C          -4.25589158281626      0.40104785642968     -3.66220995428561
  O          -0.87065292048198      3.31347012288248     -3.48157519828321
  C           0.08970009749964      4.13317434298461     -2.86520090771048
  H           0.17205209413402      5.00487643963256     -3.52582149874216
  O          -0.28463388979898      4.54926382875588     -1.57265851692867
  C          -1.38959260447143      5.45401515582680     -1.55601961247870
  C           1.44949534438318      3.44607035306678     -2.72062036541370
  H           2.11199208010929      4.10399031101129     -2.14991259085562
  O           1.99931460998135      3.16343031957679     -4.00444555539276
  H           0.47949533676216      3.07722085304287     -0.51271163233029
  H           1.12389777886816      1.41941470999969     -4.38492866620707
  H          -1.58425797357423      2.47251684521555     -0.84601843526091
  H          -2.89840528658760      2.65532225111062     -2.00957889420511
  H          -1.75092314758931     -1.94203687758898     -2.06894866716261
  H          -2.92264131048818     -2.30972949834920     -3.34373860718413
  H          -2.65813573595234     -3.46229907254325     -2.02893327671963
  H          -2.57327092638246     -1.47147901983401      0.32879347460958
  H          -3.46964659494473     -2.99784651066192      0.29122304216822
  H          -4.30685516873671     -1.49125703264501      0.68689636626006
  H          -5.43372883294109     -2.29687220865555     -2.82764759508667
  H          -5.99850605514267     -1.96822652650928     -1.18189989973320
  H          -5.13731391489705     -3.47086413439883     -1.53891184150580
  H          -5.22692519932803      2.05297112006707     -1.04419219585772
  H          -5.08766795945292      0.83562458260344      0.23502978397893
  H          -6.24081169811483      0.60618458489881     -1.09192826573530
  H          -3.51669761904129     -0.09722267416804     -4.29452491948446
  H          -4.23402976911999      1.47143957048643     -3.88923530364617
  H          -5.24716793192797      0.02528675743645     -3.93291776699429
  H          -1.14679580071502      6.35090973319922     -2.13513539234355
  H          -1.56009079965155      5.72419223117081     -0.51481250647452
  H          -2.28800637555893      4.98712368464380     -1.96525548608932
  H           2.05532111277331      3.98337467952136     -4.50973032698697
