48
Coordinates from ORCA-job goat_0_300 E -1253.934523419895
  O           2.28433704535014      4.24806342422008     -1.98995033595278
  C           1.64618387194655      3.08784042551722     -2.51683098603174
  H           2.44734409955138      2.43001243260475     -2.86016506491081
  C           0.87124133243868      2.35529221661925     -1.41291648514294
  H           0.44710152774391      3.09831402134180     -0.72973359920256
  O           1.72137947513438      1.46750462767717     -0.69202279004405
  C          -0.26180232631107      1.51484829586206     -1.99539542186432
  H           0.17664446993093      0.71700492044268     -2.60834603564435
  C          -1.11056145669691      0.86902346786107     -0.91446521494989
  O          -1.92477479714452     -0.16702690293425     -1.42968102350728
  Si         -3.43708308261824     -0.02790637078450     -2.12354750636916
  C          -4.37800128494702     -1.55856714830731     -1.53032555068127
  C          -5.75133722127936     -1.62505094292486     -2.21378001720470
  C          -3.58362811352330     -2.82708994765419     -1.87340491700323
  C          -4.57225956405309     -1.48194134726127     -0.00937990515123
  C          -4.28794168004054      1.53794917580669     -1.55383017116772
  C          -3.28463637436409     -0.04246126767216     -3.98913753831788
  O          -1.14708426215487      2.29378849418834     -2.82441507659838
  C          -0.67929284259664      3.53422965705404     -3.30989343038875
  H          -1.34512745436663      3.77264318440328     -4.14661521706287
  O          -0.71613168488830      4.55984108811590     -2.35212362172267
  C          -2.02203113450838      4.84022614125976     -1.85424875732050
  C           0.77120371621975      3.41544054407225     -3.74365394424137
  H           1.10837231851553      4.36518601596463     -4.16189763727135
  O           0.89643929002089      2.44076176870047     -4.77100225206352
  H           1.58499957789261      4.84788391287331     -1.69841101285603
  H           2.40138831495231      2.00185368424074     -0.26501051557044
  H          -0.44954485512179      0.42797834282592     -0.16628436224074
  H          -1.71318609265711      1.64661418725040     -0.43116430791758
  H          -5.65775534933830     -1.71446271687062     -3.30004430618645
  H          -6.35635543362808     -0.73884213500944     -1.99850944923060
  H          -6.30759133894263     -2.49999715239767     -1.85546139593165
  H          -4.12481520872444     -3.71588427827273     -1.52562882933930
  H          -2.60027360690680     -2.82497027429580     -1.39514553108592
  H          -3.43505245481216     -2.93132698015864     -2.95250567359751
  H          -5.08974018994121     -2.37935216551947      0.35182308833569
  H          -5.17407881722183     -0.61414927679495      0.27677858158353
  H          -3.61341486678558     -1.41574275268851      0.51348471861406
  H          -4.23857807956456      1.65583173051783     -0.46789502265360
  H          -5.34300329903093      1.50990340275561     -1.84226218844213
  H          -3.83286911294650      2.41499456090658     -2.01765660934828
  H          -2.80990971905712     -0.96315416197075     -4.34013373802716
  H          -2.68025480221965      0.80480554664487     -4.32082983803214
  H          -4.26984082732677      0.03118897991110     -4.45921301742991
  H          -2.73171165528728      4.95678486072359     -2.68065240962553
  H          -1.95341112771045      5.77453969334525     -1.29780701522924
  H          -2.36634401307143      4.04358852069385     -1.19058802402298
  H           0.27061909009089      1.72656849711879     -4.59797064194981
