48
Coordinates from ORCA-job goat_0_349 E -1253.936825300808
  O           1.25123425690185      1.77922305877777     -1.69219592938007
  C           0.99401710306955      2.21539165704089     -3.01971402514518
  H           1.77370964465280      1.84634542337534     -3.69772897052364
  C          -0.35716896724552      1.71464773923556     -3.54545728267681
  H          -0.44448813148509      0.64654238821703     -3.33625521938370
  O          -0.41063553925162      1.85341840651628     -4.96491953453793
  C          -1.53884838790409      2.42766062822207     -2.89412101036803
  H          -2.40604833142463      2.23283282560040     -3.53006482714935
  C          -1.87797816082303      1.94154884111368     -1.48133618625750
  O          -2.15105078672499      0.54846575762068     -1.47897574101391
  Si         -3.52427941252269     -0.16508321298226     -2.10900214902529
  C          -3.83809624374893     -1.67486851874559     -1.01880661348948
  C          -4.12852575940411     -1.22041732495293      0.41848671152565
  C          -5.04277450933597     -2.46246163963322     -1.55416933980577
  C          -2.59893826895463     -2.58209041593594     -1.02173787694546
  C          -4.95268945608624      1.04406673789729     -2.04496704898055
  C          -3.20955676175060     -0.68471497208902     -3.88192116344552
  O          -1.39646360949520      3.85456421723262     -2.94722519174147
  C          -0.19577148539227      4.40786508403227     -2.45124942442455
  H          -0.22580887569094      5.44998323570959     -2.78968064353462
  O          -0.10057999028686      4.36468087016316     -1.05509447702031
  C          -1.05309666911532      5.20472396845454     -0.40867605209927
  C           1.04828736307741      3.74425739643258     -3.04071361503966
  H           1.91923214496727      4.08983421169551     -2.47782318104570
  O           1.10895689166168      4.19733548370327     -4.39795719057178
  H           1.27991770493594      0.81527852714290     -1.69839752999634
  H          -0.12405223260675      2.75595368218532     -5.16895465033886
  H          -1.04868549028859      2.11691380728035     -0.80095260454327
  H          -2.74516723559519      2.50952591489098     -1.12763757278939
  H          -5.02980942328969     -0.60245870235317      0.47162336479952
  H          -3.29691875738236     -0.64237045416982      0.83181096846425
  H          -4.28479201617064     -2.09301584229212      1.06454848931641
  H          -4.86610456254442     -2.83236368968918     -2.56834044300111
  H          -5.95171744965193     -1.85312386365388     -1.56961394347289
  H          -5.23709167829281     -3.33121615010566     -0.91340976778758
  H          -1.71709068449964     -2.05714918941205     -0.64365845408144
  H          -2.36978805579803     -2.94912290826112     -2.02672612440417
  H          -2.77111250166410     -3.45527274465548     -0.38041405401951
  H          -5.12546907174193      1.41285028372168     -1.03043218247862
  H          -5.86845485467622      0.55386703864975     -2.38865407022479
  H          -4.77289514580574      1.90449225850481     -2.69598809722794
  H          -2.33025157721021     -1.33123597483021     -3.95222828195206
  H          -3.04264224889255      0.18419046492366     -4.52430680886418
  H          -4.06794735977979     -1.23426941374615     -4.27959296582124
  H          -0.83926788933458      5.16157749010995      0.65901416016437
  H          -2.07455815923159      4.85963520244229     -0.58836051023788
  H          -0.95357911165642      6.23828428559008     -0.76021803814448
  H           1.97266974348963      3.95785813102541     -4.75565490127869
