48
Coordinates from ORCA-job goat_0_224 E -1253.936114152107
  O           1.79005014373371      3.78476660935867     -1.28885546649221
  C           1.09874596527904      3.27082298930324     -2.41907793937589
  H           1.81409764946518      2.84501612263075     -3.13629646331579
  C           0.09832585991263      2.19328794337000     -2.02231498478486
  H          -0.68402546472934      2.64283509005027     -1.40470519731826
  O           0.71881401097882      1.21586985278121     -1.19434456846149
  C          -0.49963081542132      1.58535812386834     -3.29754165990946
  H           0.17900323390949      0.79653232161803     -3.64131974667376
  C          -1.87917945142902      0.96131407404923     -3.10619094119838
  O          -1.75659875468328     -0.23524681503914     -2.35841748839833
  Si         -2.58679080525617     -0.55332928452130     -0.94461446260274
  C          -4.34003964944652     -1.13069077856929     -1.36199546923291
  C          -4.27044757380185     -2.40525832404738     -2.21508566182900
  C          -5.10951965270504     -1.42849491812994     -0.06680242132764
  C          -5.08202384711106     -0.04080927500757     -2.14955354171641
  C          -1.60502463775337     -1.91348352412015     -0.12257212525608
  C          -2.63817553286683      0.96648844788601      0.14822367897395
  O          -0.53424238225200      2.53427319365876     -4.37627302540044
  C          -0.73068287840886      3.88780552711901     -4.02264503779222
  H          -0.67904380678176      4.42699362304344     -4.97404380059650
  O          -1.97301913959892      4.10265062736277     -3.40598614274752
  C          -3.07247993460028      3.96948085460873     -4.30571927205154
  C           0.36084284448715      4.41846067807207     -3.08239159917420
  H          -0.12235351439693      5.01342701810332     -2.30057770256064
  O           1.23295998502515      5.23739370159674     -3.85538616527704
  H           2.10796085550271      3.02173264156513     -0.78848066790495
  H           1.26580445692693      0.64699626431583     -1.75064955305857
  H          -2.54591479014287      1.67849212895601     -2.61914250284093
  H          -2.29129793203768      0.72956139251664     -4.09356615632516
  H          -5.28100353437171     -2.72879503651515     -2.49386544890393
  H          -3.79656117101882     -3.22820248412282     -1.67199724454666
  H          -3.70604908724016     -2.23952970341330     -3.13782575650129
  H          -6.11673762727848     -1.79292650322484     -0.30365101717669
  H          -5.21861602455430     -0.53379329579763      0.55311756088274
  H          -4.61212874201288     -2.19699853131812      0.53286317202643
  H          -5.13781132901935      0.89881284284250     -1.59147716311407
  H          -6.10927759644265     -0.36377319992893     -2.35942177574158
  H          -4.59902479548250      0.16316918968726     -3.10938572680938
  H          -1.47765560213574     -2.76934658637722     -0.79078754414985
  H          -2.10228722675784     -2.26226100693134      0.78694929885186
  H          -0.61313303260586     -1.54301011377702      0.15199668958626
  H          -3.14203736584926      0.72622494239652      1.08920041450953
  H          -3.17290083530604      1.80080515136500     -0.31284379461162
  H          -1.62241431598445      1.29465761632377      0.38300598150646
  H          -3.12452481539910      2.96283261539477     -4.72770193019232
  H          -2.98701589608394      4.69884820804419     -5.11872276117287
  H          -3.97666069041441      4.16737815719810     -3.73076613016023
  H           1.90755524616004      5.58624143175485     -3.26021073963386
