48
Coordinates from ORCA-job goat_0_270 E -1253.935325993043
  O           1.43354089941231      4.12922140004252     -1.30198985488866
  C           1.00724293798563      3.29222423705747     -2.37073612591850
  H           1.87346140717751      2.79321242441484     -2.82406018444501
  C           0.02351064556678      2.23318127543542     -1.91496121890510
  H          -0.89840173831667      2.71510911258391     -1.56570034971535
  O           0.62251942988493      1.50794539662475     -0.84640067781374
  C          -0.26918440839558      1.30674834571678     -3.10003332173534
  H           0.54599818741214      0.57834386170970     -3.14528315462875
  C          -1.58923440506902      0.56435081299577     -2.93191550206078
  O          -1.53614018098817     -0.14182121593821     -1.69434551946977
  Si         -2.86067816739339     -0.29332454284226     -0.67395649228991
  C          -4.17578854516889     -1.40026515887928     -1.46056058668450
  C          -3.51012116839121     -2.65759971778549     -2.03740486500030
  C          -5.18620528366429     -1.81020396551581     -0.37743436994480
  C          -4.92168825677162     -0.66159442349423     -2.58155052261416
  C          -2.14112769122330     -1.07021002765625      0.86356387970761
  C          -3.54102640947718      1.40807591742984     -0.29433401683995
  O          -0.24045139648037      1.99015251294576     -4.36128635027243
  C          -0.56771225516985      3.35100836119388     -4.34416594688524
  H          -0.42530623527846      3.69906177961333     -5.37295455987822
  O          -1.92663224937253      3.48317631308527     -3.97625201654623
  C          -2.51590159944264      4.68752506311778     -4.45375280813349
  C           0.34664255656460      4.17477399948760     -3.41619488036688
  H          -0.26978605397593      4.91222126038865     -2.89103894238592
  O           1.30665576534979      4.83518737592868     -4.23464169584028
  H           1.83233868760993      3.55894785906015     -0.63322973010650
  H           0.05136913417033      0.74233861575706     -0.68983236818504
  H          -2.41130088776858      1.28353283697943     -2.94627933260448
  H          -1.72673055228195     -0.14061577778916     -3.75769041807903
  H          -4.27045423569998     -3.32612021699540     -2.45930745108258
  H          -2.96600922636030     -3.21662534308924     -1.26988893019113
  H          -2.80486634807377     -2.40629576379211     -2.83479019797377
  H          -5.97923379467276     -2.42514471565689     -0.81984774411948
  H          -5.66244361372621     -0.93922432502781      0.08435499836220
  H          -4.71335982742492     -2.39666920473836      0.41533014873397
  H          -5.42585568483196      0.23434047467833     -2.20846829724534
  H          -5.68636002606333     -1.31800772371775     -3.01469395275682
  H          -4.25110352413891     -0.35982253305662     -3.39090292885260
  H          -1.30251544731869     -0.47026664990782      1.22979161358445
  H          -1.77876420577019     -2.08314488345104      0.66881782226045
  H          -2.89055402490403     -1.12202673181208      1.65799222346870
  H          -4.40922800328086      1.32773228435236      0.36678088859411
  H          -3.85415842895973      1.94132921278178     -1.19534311969153
  H          -2.78188455189182      2.01063898227491      0.21342509086714
  H          -2.04151545115278      5.57325685435645     -4.01724873559177
  H          -3.56436147620056      4.66519768239484     -4.15822115201632
  H          -2.44356888007204      4.74478341052228     -5.54591665463078
  H           1.87420458403853      5.35794525821636     -3.65529168918778
