48
Coordinates from ORCA-job goat_0_1005 E -1253.934366964591
  O          -0.97127588343830      3.30808646949402     -0.76579230442863
  C           0.30012975664279      2.91073991582852     -1.25932554267564
  H           1.03302556360125      2.88139484458282     -0.44542557859224
  C           0.25589183882140      1.51836351956300     -1.89741596134427
  H          -0.28276860750075      0.83253637581679     -1.23509849428061
  O           1.62812944766171      1.11640499950906     -2.01306742185246
  C          -0.42550023156881      1.50760825783636     -3.26239332369149
  H          -0.13690027468561      0.57947509083702     -3.76585647708285
  C          -1.95305464662577      1.48988812866504     -3.18570589344933
  O          -2.33162174335539      0.22249157520879     -2.66304357652986
  Si         -3.73726302014316      0.02632050469768     -1.78198622619096
  C          -3.78033614614033     -1.81006302947547     -1.35363032034314
  C          -3.77668350783031     -2.64725162139116     -2.64067648335761
  C          -2.55039549517686     -2.17374374140754     -0.50915484919438
  C          -5.05459189571041     -2.11733613602321     -0.55323019544978
  C          -3.67438598104997      1.08927442971034     -0.24059984578579
  C          -5.20148931632745      0.54220158276980     -2.82807839009270
  O           0.07223535063550      2.53729453197763     -4.12279526634994
  C           0.07222927311615      3.84774239477777     -3.62572205957262
  H           0.64827187370082      4.42930875940377     -4.35513402488580
  O          -1.25642414688867      4.32567202547838     -3.58447868362410
  C          -1.35104919182792      5.73810252985347     -3.71852113780917
  C           0.78202491198441      3.95316741728969     -2.26931498544030
  H           0.60418436466212      4.94800626493548     -1.85723227734407
  O           2.18703988689357      3.83380083214666     -2.46778371813727
  H          -1.20626379848710      2.71640856999378     -0.04165836913059
  H           1.66588617537044      0.28725229927776     -2.50429908806445
  H          -2.32425448772482      2.30672187999223     -2.56657685123467
  H          -2.34847455605952      1.61368544275659     -4.19893707775130
  H          -4.65068587389893     -2.43399049749782     -3.26327049114325
  H          -3.79729676434464     -3.71576003418300     -2.39339114976969
  H          -2.88085771736941     -2.45808645438125     -3.23864297837432
  H          -2.56302606833992     -3.24387770409146     -0.26842773245462
  H          -2.53199013262869     -1.62173428122927      0.43522432049118
  H          -1.61982454085724     -1.96111675136163     -1.04336185109664
  H          -5.08804505522476     -3.18314895801116     -0.29674277049108
  H          -5.95770626071666     -1.88588292622101     -1.12612651490956
  H          -5.09242440120264     -1.55058863595960      0.38196331328719
  H          -2.79329972662637      0.86000903956264      0.36526861881143
  H          -4.56324965516755      0.91780073233176      0.37377839259788
  H          -3.64962584815987      2.15153564477729     -0.49898334426181
  H          -5.26486385773691     -0.04748548969456     -3.74652833179353
  H          -5.11541151529804      1.59741469353767     -3.10576479494878
  H          -6.13721319920203      0.41819961896150     -2.27518286791256
  H          -0.85377158964030      6.07529260114432     -4.63567851113558
  H          -0.91187769733103      6.26035893569436     -2.86185527206824
  H          -2.41232691042315      5.98020960670148     -3.77279564631575
  H           2.37501130161975      2.88987674581461     -2.58439796482591
