48
Coordinates from ORCA-job goat_0_1115 E -1253.936695451581
  O           2.66905560725607      3.43971226810573     -3.10761948021146
  C           1.25933771885346      3.24296432479962     -3.10265082632351
  H           1.00200856143694      2.95040036543160     -4.12606234640208
  C           0.86635230510045      2.11086008282531     -2.16516176887334
  H           1.03643036963759      2.43096309723817     -1.12724621986114
  O           1.62152240030797      0.93692213422912     -2.43364553183251
  C          -0.60731341866127      1.76803972389535     -2.38474070382518
  H          -0.64733399012833      1.09138021649814     -3.24275466616794
  C          -1.19227838383286      1.06820520955319     -1.16505170242112
  O          -2.55142264826563      0.70994506833641     -1.32901075242644
  Si         -3.10062954961177     -0.49858069802122     -2.34435107200952
  C          -4.66689958230564     -1.15631784089398     -1.51995376312920
  C          -5.30743175698839     -2.23222448130266     -2.40888581821367
  C          -4.31334884253739     -1.76972349861557     -0.15772222584858
  C          -5.66614335903052     -0.00858827441195     -1.31425242749828
  C          -3.48973892152209      0.21497003522794     -4.03214564336790
  C          -1.79188859998895     -1.82867521634920     -2.50455614252981
  O          -1.38035292848316      2.90794172662391     -2.78451991552399
  C          -0.95108512192061      4.16155180837249     -2.29892652780371
  H          -1.64006875459289      4.88040229501158     -2.75597267298384
  O          -1.01769883228453      4.25043566901017     -0.89986402075902
  C          -2.35732087890300      4.23360511476378     -0.40676479705600
  C           0.49023963980867      4.50460191169579     -2.72980326205043
  H           0.98082611306300      4.98278630501401     -1.87821695541081
  O           0.51149365881766      5.46716235649676     -3.77429979559392
  H           2.92578297645000      3.83045957658351     -2.26220478431317
  H           2.54448101279891      1.21483556808855     -2.50448829729436
  H          -0.57660996415598      0.18372273837070     -0.96303814049982
  H          -1.12638919711429      1.72760517108347     -0.29769974963562
  H          -6.21058370132324     -2.62731964143290     -1.92798161387388
  H          -4.62866611757224     -3.07353934776241     -2.57951453370604
  H          -5.60008418419306     -1.83050179907590     -3.38336340112948
  H          -5.22154885713145     -2.13282385606837      0.33888709115014
  H          -3.84129791891858     -1.03570295042291      0.50171286684319
  H          -3.63105036879033     -2.61840826937492     -0.26325684832402
  H          -6.57308220026487     -0.38351974690468     -0.82400982722414
  H          -5.96531438290935      0.44120459826119     -2.26573732958779
  H          -5.24625176465159      0.78039385565570     -0.68377786337432
  H          -2.58665087044395      0.60259591112643     -4.51124275522772
  H          -4.21066871684746      1.03362570574100     -3.95653803277359
  H          -3.91354278730908     -0.55309296282500     -4.68595020191793
  H          -0.90308130009375     -1.44978232306631     -3.01754910608534
  H          -2.18242416359871     -2.66603054824555     -3.09038702602414
  H          -1.48468589643922     -2.21153235231373     -1.52762341711362
  H          -2.29673516444844      4.35756134087973      0.67420377700289
  H          -2.85462426400151      3.28864682227604     -0.63888761077639
  H          -2.93009272202706      5.06179859186984     -0.83894765350532
  H           0.13463974776066      5.06364421402167     -4.56627650448568
