48
Coordinates from ORCA-job goat_0_102 E -1253.936557528458
  O           2.17340588748806      2.46261807970635     -0.71975453695202
  C           1.26135319105993      2.64099535650483     -1.79813000247958
  H           1.87688227810177      2.65091626790296     -2.70333226205608
  C           0.23270773579029      1.51970623364926     -1.89158796137683
  H          -0.17650614092274      1.34081216080062     -0.89309189760077
  O           0.83239749842097      0.28408828227443     -2.26607851811288
  C          -0.92219161939949      1.92615960266632     -2.83282657554173
  H          -1.05875012110308      1.11401512001837     -3.54857355170550
  C          -2.24791070243607      2.11238707242139     -2.09304730856832
  O          -2.60708183132620      0.87746632450761     -1.49239048637278
  Si         -3.76420383899774     -0.12754773022705     -2.16167608017985
  C          -3.64617062988372     -1.72586307102567     -1.16897351632483
  C          -4.69104197693380     -2.72337387352798     -1.69052123492333
  C          -2.24346427677097     -2.33148653043940     -1.32390342828671
  C          -3.91297842922404     -1.44151951337470      0.31613871463096
  C          -5.44363482178322      0.68296892234283     -1.99491921752122
  C          -3.40176183858994     -0.40758551417518     -3.97802395246476
  O          -0.58322799581178      3.05819226945801     -3.63993661769657
  C          -0.25482798635203      4.24709594764487     -2.95025712190374
  H           0.36791887098862      4.81214526386638     -3.65335892152276
  O          -1.38504127873475      5.00077599730322     -2.60383611146193
  C          -2.07012250922726      5.53553032697736     -3.73377054180025
  C           0.54057609101953      3.97703043864765     -1.67577620888579
  H          -0.15026143438703      3.93417225246927     -0.82285618164426
  O           1.45735680268655      5.04617502329877     -1.49930395740848
  H           1.66398714907442      2.28717025369694      0.08220545928879
  H           1.22161307659325      0.39176877063991     -3.14284076240716
  H          -2.16237918154779      2.86388069333809     -1.30558909226490
  H          -3.00408206360456      2.46091225254702     -2.80536564308295
  H          -4.63233604568897     -3.65948875438897     -1.12216080076309
  H          -4.52827457508752     -2.96564966826255     -2.74517459334247
  H          -5.70879219730881     -2.33533893828155     -1.58557551429762
  H          -2.02269189350990     -2.57803100771184     -2.36664411488521
  H          -2.16867520975158     -3.25736968119281     -0.74051820411594
  H          -1.46881418628731     -1.64672223456885     -0.96764642905266
  H          -4.91519013302055     -1.03283314956310      0.47581973803741
  H          -3.18829011711052     -0.73174747358339      0.72503183318187
  H          -3.83690874712160     -2.37021197359872      0.89489909333338
  H          -5.69627379131203      0.86623050395895     -0.94721956931280
  H          -6.22433670692514      0.05368468397425     -2.43208076312115
  H          -5.45530478161383      1.64267251939227     -2.52099748186021
  H          -3.40335918337953      0.54134853401230     -4.52327335321348
  H          -4.17292517598306     -1.04515793496066     -4.42054729331425
  H          -2.43210331692595     -0.88831465175110     -4.13033829501821
  H          -1.38869713549073      6.13504935940345     -4.34823278167273
  H          -2.86692407930259      6.17142667595318     -3.34873113552702
  H          -2.50355342456939      4.73946060751236     -4.34506492501748
  H           2.08872079620226      4.75396590374455     -0.82801789341234
