48
Coordinates from ORCA-job goat_0_354 E -1253.945365321130
  O           2.21855051738798      2.65347748071310     -1.30667300904539
  C           1.19943026154242      2.72097622716379     -2.30326610512533
  H           1.72193737495861      2.98056635044631     -3.22986404648452
  C           0.50640426860721      1.38091469113857     -2.49116037602922
  H           0.04339936307256      1.07687960989822     -1.54391042127273
  O           1.42421207085240      0.39060676394917     -2.93467576949529
  C          -0.59132835046963      1.52315133368342     -3.54127390916192
  H          -0.13348469353044      1.79030204878697     -4.50520257717737
  C          -1.39260073064268      0.24928089561315     -3.74047911477199
  O          -1.86418831001530     -0.30131839985974     -2.52678911369053
  Si         -3.24946444493474      0.13731640799317     -1.70113074885273
  C          -3.91948503986887     -1.49111252132898     -1.00789043429262
  C          -2.84820977735323     -2.16374398778581     -0.13726803129633
  C          -5.16867038863969     -1.22484344391036     -0.15583984814971
  C          -4.28948384172029     -2.42910390172347     -2.16547563262903
  C          -2.82279704010408      1.30721873895405     -0.30337083413247
  C          -4.48234799672799      0.93048292200230     -2.86409157045634
  O          -1.49299058497357      2.54702670977491     -3.13238993637503
  C          -0.89085144109334      3.83010896805864     -3.05223512528362
  H          -0.45541182130537      4.08732126318138     -4.03225519618761
  O          -1.86872187506400      4.74568390512664     -2.69529448992867
  C          -2.78458070837184      5.03522472670349     -3.75171188029835
  C           0.19414654077312      3.82012889372564     -1.98432314934217
  H          -0.28584392576916      3.60985162694298     -1.01819668854275
  O           0.82613888301877      5.09027110185968     -1.96384894319323
  H           1.80292307440410      2.41835752813315     -0.46584823761441
  H           2.18848586158805      0.42831356232115     -2.34598849766057
  H          -2.22003700104627      0.46637364650882     -4.42427950944664
  H          -0.74572350557955     -0.49296414306837     -4.21415496941856
  H          -2.56896424577811     -1.53754959852520      0.71552803127970
  H          -1.94195819457754     -2.37685649626376     -0.71131657454541
  H          -3.22641467316633     -3.11451294407311      0.25874478033144
  H          -5.96296552873948     -0.74892047725995     -0.73913705515569
  H          -4.94602353308314     -0.58104977776210      0.70004995754598
  H          -5.56573601605550     -2.16995990316834      0.23463638687805
  H          -4.65125691989582     -3.38794817586505     -1.77382866310827
  H          -3.42698858001753     -2.63320227058584     -2.80664702772306
  H          -5.08231331684226     -2.00567838630645     -2.78928051756165
  H          -2.47593702116022      2.26186396982830     -0.70358109388569
  H          -2.03380663894170      0.89211901207090      0.33030189040865
  H          -3.69882922786718      1.49425600525383      0.32481538501948
  H          -5.42348150761494      1.11269131505046     -2.33668540261342
  H          -4.69628172848445      0.29209999872004     -3.72561212495118
  H          -4.10599934013075      1.88875608122366     -3.22871681289555
  H          -3.38160121045945      4.15639884064552     -4.00779411342275
  H          -2.24529226729906      5.38199084713721     -4.63993956150343
  H          -3.43938722455491      5.82769710159168     -3.39069940503864
  H           1.63166043567295      4.99363585328619     -1.43979991370261
