48
Coordinates from ORCA-job goat_0_21 E -1253.938883379597
  O           2.42122530389068      2.26221834669734     -1.38106617758426
  C           1.36497543474733      2.49329267488463     -2.30552754841266
  H           1.59664493069445      2.01705270423811     -3.26706155703929
  C           0.03539033439369      1.96233664881469     -1.80861562700266
  H          -0.27061671762742      2.52422459762430     -0.91685584292392
  O           0.20141971310415      0.58867324455012     -1.47620178159658
  C          -0.99813487231430      2.12949682640346     -2.92847491457915
  H          -0.86589405401989      1.28822269697126     -3.61598227701183
  C          -2.42414580837374      2.09406802338650     -2.39441673467428
  O          -2.61507091353600      0.84272632711729     -1.73739307905328
  Si         -3.91433730843192     -0.14991976507534     -2.11163651492882
  C          -3.58940285424700     -1.75344708386171     -1.17467206237306
  C          -4.85085490001485     -2.62863705321225     -1.23167981767937
  C          -2.42086831362507     -2.51181338871850     -1.82061987226889
  C          -3.25143184274976     -1.44755064179427      0.29133639975327
  C          -5.49093130685667      0.68531320289507     -1.55053437648268
  C          -3.96573953067089     -0.42739899862174     -3.96203575247657
  O          -0.77974435398471      3.30768367699090     -3.71616860188526
  C          -0.12264141867904      4.38157752094863     -3.07691070667823
  H           0.01339739148711      5.12609485914438     -3.86810775114094
  O          -0.88410978722845      4.92006192582223     -2.02749072318126
  C          -2.04533627067848      5.61188253731845     -2.48329300506797
  C           1.25246402513261      3.99461444387303     -2.51207753234429
  H           1.36434900570876      4.48254355230157     -1.53839815452581
  O           2.23757896083318      4.47782325807619     -3.41996469867933
  H           2.46662106973408      1.30989025836237     -1.23134680329037
  H          -0.68332288218435      0.25550374355517     -1.26721762164871
  H          -2.57973471687096      2.90180858569830     -1.67470589919882
  H          -3.12434989931715      2.22964749478010     -3.22551204565062
  H          -4.66574079298356     -3.58389768179060     -0.72603948088831
  H          -5.14497701450225     -2.85135906295115     -2.26238190801372
  H          -5.69818472027531     -2.14783224309720     -0.73441966229626
  H          -1.50647838238753     -1.91136422088181     -1.84261588969481
  H          -2.65281598919718     -2.80692393446938     -2.84787400914517
  H          -2.20535524954322     -3.42461303356260     -1.25207214547868
  H          -4.05570239312885     -0.89339857587689      0.78513917364576
  H          -2.33413890215424     -0.85881625355663      0.37721660385291
  H          -3.10384124802826     -2.38300248431066      0.84467946813507
  H          -5.56735186808892      1.68413670144408     -1.99155745020726
  H          -5.52109849295899      0.78972530318508     -0.46246747688125
  H          -6.36780354327021      0.11230535835904     -1.86526609193449
  H          -2.99132638805084     -0.74673183637530     -4.34119348420965
  H          -4.25891116051242      0.48335919732996     -4.49179423871349
  H          -4.69772715845757     -1.20337573743726     -4.20607182207082
  H          -2.54748824856666      6.00319944520848     -1.59899687304143
  H          -2.72368012805435      4.94364976141401     -3.02001299166638
  H          -1.75955937406535      6.44077379197197     -3.14038907017888
  H           3.10261263591055      4.24875528622654     -3.05910157158707
