48
Coordinates from ORCA-job goat_0_362 E -1253.944513025262
  O           2.41267161593527      3.60484479001628     -3.63299396164281
  C           1.05543969955420      3.30795085790116     -3.32115782315964
  H           0.55591891150771      3.18418879470748     -4.28763789550855
  C           0.96196697244705      1.98837940470225     -2.55901668966337
  H           1.55211177807420      2.07118264429488     -1.63438976743380
  O           1.45045041709586      0.92125481609608     -3.36058864424129
  C          -0.48749416340444      1.69340631076841     -2.18312845260665
  H          -1.08017347173396      1.57480259589505     -3.09999149749786
  C          -0.61703981585527      0.44473349145445     -1.33280502937258
  O          -1.97848182940314      0.14726361983475     -1.07252509724356
  Si         -2.81103170667428     -1.02406235839483     -1.92587213243796
  C          -4.61700438749101     -0.76670235764989     -1.44814661870020
  C          -4.78419747494352     -0.92585770151963      0.06974191346504
  C          -5.06476719949532      0.64304247377867     -1.86138602356833
  C          -5.48746084224544     -1.80823522567857     -2.16654516704863
  C          -2.54030373252868     -0.80080973608843     -3.76630573234969
  C          -2.18259022381630     -2.71460973911762     -1.42285322861125
  O          -0.99362930588825      2.78843414155828     -1.42380473217820
  C          -1.04673347886325      3.97827916546286     -2.18902688534307
  H          -1.63813181759853      3.79784854677085     -3.10207337031962
  O          -1.62806417294358      4.97947465727895     -1.42331484912684
  C          -3.04027471609364      4.82460793127246     -1.26829409406842
  C           0.36394931241243      4.42698478432703     -2.55847771482017
  H           0.90718023362063      4.62997573052577     -1.62483939484462
  O           0.32635734414344      5.58200256792906     -3.38066229801397
  H           2.87552690417073      3.80509532039137     -2.80866113996516
  H           2.29901352476864      1.20914912896218     -3.72133271978785
  H          -0.10809602794395     -0.38077336286990     -1.84057509174095
  H          -0.11227932384606      0.61527006825386     -0.37636506998131
  H          -4.49601089782806     -1.92650243918383      0.40534005853124
  H          -5.83336153225587     -0.77073279102543      0.35001176638946
  H          -4.17981383335248     -0.19773911358741      0.61801989969368
  H          -6.11010333108788      0.80487687694935     -1.57099342071728
  H          -4.99523546380572      0.78762335798046     -2.94356551909106
  H          -4.45857177652377      1.41438455640115     -1.37761149094255
  H          -6.54140136880956     -1.66544729993566     -1.89870817536238
  H          -5.21009204909117     -2.82923655403041     -1.88706086719807
  H          -5.40765279787027     -1.72179880686140     -3.25448866599815
  H          -1.47726843440498     -0.87897988825051     -4.01446121015079
  H          -2.90175013687231      0.16897151878427     -4.11762717002623
  H          -3.06812185185098     -1.58365278650169     -4.31932608058111
  H          -2.71018431736046     -3.50255144297828     -1.96841854227242
  H          -2.31680629319966     -2.88916245538152     -0.35205330500505
  H          -1.11633446845668     -2.80712224003707     -1.65203933181175
  H          -3.39458555114339      5.69881542541913     -0.72333153790515
  H          -3.27369678082556      3.91957725134230     -0.70194698093654
  H          -3.52812282042365      4.77901077654265     -2.24787094990046
  H          -0.14588931779912      6.26512469349028     -2.88868926890349
