48
Coordinates from ORCA-job goat_0_247 E -1253.934628705095
  O           1.95471345019336      3.56850504437843     -1.37232679578606
  C           1.07091273454957      3.26895283239447     -2.44639684404864
  H           1.64660994274982      2.97709912220243     -3.33437231480086
  C           0.10855292903078      2.14829582425815     -2.10614259594448
  H          -0.55816398152646      2.47056162413257     -1.29622455537658
  O           0.87139956500157      1.02378267429541     -1.68424362705817
  C          -0.69894500838872      1.81256899062378     -3.36486419560153
  H          -0.07328364028502      1.16167274876428     -3.98292120168660
  C          -1.99456853625018      1.08304294402910     -3.03472550579926
  O          -1.64730324264783     -0.07683681606402     -2.28620721039092
  Si         -2.67704850340349     -1.37201101225117     -2.01833684235916
  C          -4.16953695803715     -0.83189373113658     -0.98810759568476
  C          -5.19261295074054     -0.07540891594227     -1.84832228717327
  C          -4.84439322910500     -2.08591777155716     -0.40891009306647
  C          -3.70299275499774      0.06861131742262      0.16451445793222
  C          -3.22142621221578     -2.07792300319306     -3.66284159107563
  C          -1.61137137026783     -2.58863558972523     -1.08576231839383
  O          -0.97218075259689      2.96521856691639     -4.17443663491153
  C          -1.02117455762167      4.19874298427303     -3.51593049562110
  H          -1.16875444277838      4.94546440450423     -4.30368956529106
  O          -2.13196717123912      4.19859831387491     -2.64088636452652
  C          -2.61540594019661      5.50727133541315     -2.35949825502784
  C           0.28344878464076      4.52914090815694     -2.76548585706737
  H           0.02276338852655      5.01021129837920     -1.81669981131528
  O           1.02943864820513      5.42874963472971     -3.57950550858461
  H           2.43325605162582      2.75720188166956     -1.16191776839486
  H           0.23847032449391      0.29803717539088     -1.57965504795796
  H          -2.64169759978320      1.73773039286053     -2.44626267387596
  H          -2.51141568632967      0.81682417400058     -3.96285576315664
  H          -5.57995415765222     -0.70276752252276     -2.65600656567587
  H          -4.76871622385007      0.82692962543669     -2.29727282361145
  H          -6.04420209754029      0.23297744915143     -1.22935126485417
  H          -5.15613804964812     -2.77966367253445     -1.19657606050112
  H          -5.74075997803556     -1.80103739262174      0.15523776005242
  H          -4.17942382963589     -2.62448579016546      0.27189071589067
  H          -3.24997908142467      0.99329381798730     -0.20398358011204
  H          -2.96767413412981     -0.43604933116766      0.79891337231177
  H          -4.55614912273408      0.34204177703356      0.79743072693513
  H          -3.91880989970272     -2.90680875499787     -3.50763352037193
  H          -2.35871511905474     -2.45900766673048     -4.21707530261355
  H          -3.72365490610838     -1.32975795749726     -4.28157862879518
  H          -1.34329894847077     -2.20670795620902     -0.09679170464898
  H          -0.68875416504157     -2.78081184384264     -1.64116214489671
  H          -2.13253397974593     -3.54069939767338     -0.95390052750392
  H          -3.48836824025618      5.39092678831726     -1.71801830836360
  H          -2.90563752200815      6.01801650120380     -3.28490094048605
  H          -1.86731700071140      6.11296781974203     -1.83655888045286
  H           1.84259317514475      5.64556615428962     -3.10749746025779
