48
Coordinates from ORCA-job goat_0_202 E -1253.943349751881
  O           2.00377756135146      2.71867406788012     -1.08123812616237
  C           1.22778807304864      2.70221677522622     -2.27513612300422
  H           1.88645770543530      2.80606686320324     -3.14825214052636
  C           0.53558027165066      1.35166746925549     -2.34452641619140
  H          -0.05896067890090      1.21093220495773     -1.43488208411852
  O           1.48392400843596      0.30167911547528     -2.48356631128035
  C          -0.39897500525632      1.30641753592720     -3.55016457855825
  H           0.19763412521073      1.40714009714813     -4.46874718432618
  C          -1.17954977165381      0.00745752720363     -3.64911445837147
  O          -1.79206289808724     -0.37449894027722     -2.43449811539614
  Si         -3.26445850335813      0.14534416483461     -1.84219171821820
  C          -4.05102507999647     -1.39327744484962     -1.07203371494648
  C          -3.09666558461452     -2.00621533262979     -0.03687054113574
  C          -5.36742842263708     -1.01163728400845     -0.37964094299197
  C          -4.33571235916996     -2.43024266793552     -2.16750854417237
  C          -2.98064526746707      1.44797042121061     -0.52814568247988
  C          -4.32854224345971      0.81606226763193     -3.22805073115305
  O          -1.32832208300157      2.38684715442916     -3.47140957082599
  C          -0.68536292150793      3.64822101795941     -3.53370034925342
  H          -0.06155464855734      3.70337340753153     -4.43592330731986
  O          -1.64195242917073      4.64927183591887     -3.69259330060630
  C          -2.62855955402719      4.75123283422440     -2.66161483196115
  C           0.20564665510531      3.82597558193469     -2.30200326068280
  H          -0.39966309216345      3.77188170142696     -1.39060265744819
  O           0.92320298950368      5.05110273199488     -2.36128261962088
  H           2.52910486834866      3.52738430532783     -1.08229600720035
  H           2.13265381048001      0.41174991687877     -1.77739119750103
  H          -1.91880762591906      0.11249135710848     -4.45027475960326
  H          -0.48326129166171     -0.78533581329383     -3.93238729066239
  H          -2.88340701381485     -1.30939351256744      0.77915020567741
  H          -2.14522165935454     -2.29606283119549     -0.49155634926860
  H          -3.54599414892848     -2.90507589438078      0.40351443582951
  H          -6.08220651237012     -0.56990694902571     -1.08089011752607
  H          -5.20382796370797     -0.29616886052229      0.43175401967468
  H          -5.83670061552594     -1.90335541765113      0.05392881759880
  H          -4.76032741495366     -3.34004566781235     -1.72530962954309
  H          -3.42174218422192     -2.71229761928691     -2.69891560672442
  H          -5.05243935441275     -2.05411127925835     -2.90350911551754
  H          -2.41418177833655      2.28473020417752     -0.94050368622969
  H          -2.41925781338336      1.03903197175710      0.31660811773547
  H          -3.93297831537700      1.83126670447101     -0.14960340718386
  H          -4.44968124746094      0.08438760433433     -4.03157513374103
  H          -3.89152710616047      1.72274731480086     -3.65146242255938
  H          -5.32309658203329      1.06269356877804     -2.84433810635270
  H          -3.30043152368735      5.55131751669875     -2.97048323742611
  H          -2.18357082928290      5.01455142812189     -1.69779178472993
  H          -3.19163842104180      3.82194092266163     -2.56268359575010
  H           0.29179987609397      5.77637792420451     -2.28813683824483
