48
Coordinates from ORCA-job goat_0_133 E -1253.944185062814
  O           2.72342203562467      1.91394777044240     -2.88500353730160
  C           1.30827534766430      2.04464518918650     -2.95916142414059
  H           0.92990006256888      1.51241590699856     -3.84270814055597
  C           0.72861212564284      1.38340940084696     -1.71907252982390
  H           1.17392078893967      1.84734878627076     -0.82844601332984
  O           0.98685161103768     -0.01457236261768     -1.72999297736679
  C          -0.78475556344660      1.59493972266735     -1.68374185284633
  H          -1.22206656257624      1.10133433669965     -2.56119307436567
  C          -1.39383455658398      1.03695599679019     -0.41083486423129
  O          -2.79852148149642      1.18699361183588     -0.34453982289480
  Si         -3.97295456020614      0.53465826357636     -1.33688269512646
  C          -3.74080429601531     -1.33129063435316     -1.57252953040118
  C          -2.55480453780908     -1.65225798805762     -2.49406467115059
  C          -3.52860463049233     -2.00909671146617     -0.21097317024415
  C          -5.02151411769211     -1.89161594218995     -2.21481573258325
  C          -5.55630180172130      0.89782453349163     -0.41075698740342
  C          -4.02959171391612      1.41393922592121     -2.99159734613134
  O          -1.06466124379263      2.99023492410349     -1.72866819627726
  C          -0.64027458442461      3.58170095979002     -2.94637222148178
  H          -1.11527333921084      3.05433552594089     -3.79006619560524
  O          -0.99919869688209      4.92176990050817     -2.94280737068519
  C          -2.39758027950510      5.13800035087569     -3.13832318270216
  C           0.87774565609911      3.49813848412237     -3.05181513887048
  H           1.30950388040922      4.06432525107079     -2.21746499595655
  O           1.34164802761439      3.99939710620597     -4.29709566629589
  H           3.09321837271167      2.24474173623021     -3.71206819449041
  H           1.93298943448893     -0.12621283226958     -1.88610859352143
  H          -1.10560069789332     -0.01269926944547     -0.31603945156500
  H          -0.97017379510547      1.58027395515572      0.43974048746334
  H          -1.60102714946031     -1.32614826404288     -2.07280808736102
  H          -2.66724973273864     -1.18453258939900     -3.47639944858863
  H          -2.48971765703043     -2.73634292643611     -2.64931427765289
  H          -4.36539551829593     -1.82031809811290      0.46812096545517
  H          -2.61459851647300     -1.66141162261702      0.27828114654938
  H          -3.44486074064722     -3.09518057918640     -0.34039943805024
  H          -5.89530932322873     -1.74181880209618     -1.57466678245549
  H          -4.91152641782005     -2.96989085413822     -2.38220856651308
  H          -5.22744985688531     -1.42603836882457     -3.18373940509858
  H          -5.61203273215760      1.96541506986895     -0.17780557729304
  H          -5.60882402349142      0.34106538734033      0.52863818162052
  H          -6.43076569319679      0.63780914595342     -1.01326326397258
  H          -3.15608596586612      1.21960156430844     -3.61693643510100
  H          -4.10112331858250      2.49353318547337     -2.83286609942645
  H          -4.91761678060154      1.09617670545720     -3.54688150983650
  H          -2.54061033650381      6.21491635644355     -3.22051063276860
  H          -2.97429978999382      4.75482039113836     -2.29288312030393
  H          -2.73380491541265      4.65081545799740     -4.05976616181932
  H           1.16055758435460      4.94652364254150     -4.31903839749794
