48
Coordinates from ORCA-job goat_0_1076 E -1253.943111880424
  O           2.21262163538937      1.78845516796007     -2.39248211691457
  C           1.06851971385059      2.57895902248908     -2.69856020456837
  H           1.32632335357964      3.11220686554922     -3.62162237149050
  C          -0.13546207865052      1.68965831328225     -2.98409907006208
  H          -0.34673129835008      1.07868927648568     -2.09726326767844
  O           0.11616086548753      0.85830313561559     -4.10931857853819
  C          -1.36151005916827      2.54509551211343     -3.28048208191320
  H          -1.17586583838013      3.13854999480121     -4.18788362295113
  C          -2.61516444848572      1.72430194231898     -3.50990277620006
  O          -2.86224352717761      0.87796902404400     -2.40138247020480
  Si         -3.59961386439527     -0.61126458309644     -2.55979749547601
  C          -3.65954256971442     -1.29482817726454     -0.80296370950472
  C          -2.23309311161339     -1.41154712796133     -0.24613480898552
  C          -4.47754140020246     -0.35563311421047      0.09490407246889
  C          -4.31573969493185     -2.68322286304116     -0.81602174040478
  C          -5.30870759384564     -0.38382622245884     -3.28947448436162
  C          -2.58638841042806     -1.70512186086512     -3.69282083157237
  O          -1.59073838198438      3.41156527556674     -2.17329923902201
  C          -0.53634560227255      4.34183380696963     -1.97768114739004
  H          -0.39170505232431      4.92125119421968     -2.90664243402231
  O          -0.88552280848881      5.17993697191703     -0.93104697872970
  C          -1.89924239028172      6.12382709690303     -1.27670839612566
  C           0.75341893893539      3.60471489689595     -1.61253259118174
  H           0.58634982351937      3.09459800166364     -0.65819866549937
  O           1.82961717393916      4.50237694616136     -1.39890531098941
  H           2.06773894771910      1.36829454419799     -1.53465528556349
  H           0.96971428010983      0.43312635072833     -3.95681683600105
  H          -3.45905361886571      2.40815895590997     -3.65285269280483
  H          -2.47943330785496      1.15087998449525     -4.43284929901433
  H          -1.73059246921432     -0.44024723666220     -0.22657646361067
  H          -1.62200128086242     -2.09660133458783     -0.84134584729971
  H          -2.26105005779071     -1.79744348262388      0.78033732930269
  H          -4.04329612126739      0.64759600985629      0.12609014564821
  H          -4.50174533454869     -0.74392767275222      1.12059304515412
  H          -5.51183063483021     -0.26667467408484     -0.25040652210030
  H          -4.35784251715257     -3.08796308335069      0.20249764888535
  H          -3.75232733439394     -3.39169581837189     -1.43072009442165
  H          -5.34012613070326     -2.64305946358070     -1.19891327597621
  H          -5.81949397073885     -1.34587443776925     -3.39110973844157
  H          -5.23848542419151      0.06302049867505     -4.28628401860498
  H          -5.92667286034083      0.26887708700568     -2.66704369434637
  H          -3.04214183486767     -2.69654750949211     -3.77162535947290
  H          -1.56489283089717     -1.82448214072885     -3.32271782821986
  H          -2.53504505454217     -1.28229225783427     -4.70040984508091
  H          -2.03072605031572      6.77411595479414     -0.41238360865382
  H          -2.84369760794793      5.62289529919999     -1.50388361111110
  H          -1.58617571331863      6.72152474850866     -2.13991066181884
  H           2.07515355281011      4.89405118240879     -2.24654316513015
