48
Coordinates from ORCA-job goat_0_287 E -1253.936927093937
  O           2.82370317635932      2.67246065143559     -2.36117393127150
  C           1.47444978836565      2.37513697032451     -2.71096547963507
  H           1.51560822095721      1.43515952867311     -3.26773922119006
  C           0.59817342599283      2.19250516026371     -1.48296875549034
  H           0.48233328516412      3.16508281854330     -0.98192298656687
  O           1.15592144311775      1.25173048746972     -0.57455458855977
  C          -0.76423560871012      1.65103573548637     -1.92075036506125
  H          -0.67804272868028      0.56216331643691     -1.95292511915594
  C          -1.85116284925449      2.03090684789870     -0.92525717340672
  O          -3.10325725404825      1.46814519232162     -1.26587980337100
  Si         -3.67338937832345     -0.02343941422536     -0.77508420480157
  C          -4.14568577204540     -0.97345671735980     -2.33895616523955
  C          -4.81135837798139     -2.30317446272832     -1.95582492458255
  C          -5.12663093531791     -0.13693783549707     -3.17352619069314
  C          -2.89114908999960     -1.25690380486414     -3.17703178292614
  C          -2.36811010588684     -0.93153544098492      0.21519089371168
  C          -5.17476631170181      0.27829649097466      0.30073863387628
  O          -1.09389664061199      2.01971771415948     -3.26689725296479
  C          -0.64987289803374      3.28000007848529     -3.71822906112629
  H          -0.92400818151890      3.29709642073425     -4.77849253326670
  O          -1.26536723745972      4.34535700344873     -3.04271360754085
  C          -2.66689521581996      4.42818043823020     -3.29995658256204
  C           0.87167020096887      3.45931730663972     -3.58990539290417
  H           1.05598071997784      4.43256651611395     -3.11832185732418
  O           1.42339614724900      3.44030192268483     -4.90115859071373
  H           2.84488027652892      3.54445101399736     -1.94448478640998
  H           2.07281586603401      1.51680943003980     -0.42581454761833
  H          -1.52050975253517      1.70474037046486      0.06750279121074
  H          -1.96304523176235      3.11666435890078     -0.89968051533977
  H          -4.14284589302493     -2.93544657328142     -1.36325495598242
  H          -5.08063813193489     -2.86229213335592     -2.86026319010782
  H          -5.72737069211089     -2.14580873825615     -1.37886132134104
  H          -5.40041497075145     -0.67933187030020     -4.08696899101132
  H          -4.68394607993966      0.81812039378168     -3.47090954350933
  H          -6.04931823649481      0.07321890791949     -2.62416626563400
  H          -2.16685206372169     -1.86673508500883     -2.62852894945914
  H          -2.39499357458185     -0.33152488991640     -3.48215746675700
  H          -3.16427579951691     -1.80494736786345     -4.08735629533400
  H          -2.74966005145207     -1.91737295350511      0.49778535714212
  H          -2.13135896647359     -0.39149278768839      1.13650021401307
  H          -1.44091136029057     -1.07684574201449     -0.34420508443504
  H          -5.60786523373215     -0.66433626721189      0.64749503580156
  H          -5.94797502304828      0.83048359723441     -0.24052449408458
  H          -4.89139799052525      0.86433875222005      1.18043572869294
  H          -2.85067085947949      4.51481914295121     -4.37687490718273
  H          -3.02650635134402      5.32498916267531     -2.79599099757771
  H          -3.19435217674082      3.55376585577358     -2.91112708676142
  H           2.38163447413927      3.51660049777823     -4.81209368554807
