48
Coordinates from ORCA-job goat_0_298 E -1253.936868705148
  O           1.63112806543434      4.30456395347421     -1.09028419415631
  C           1.00819793816214      3.58871590478667     -2.15411726975783
  H           1.79526485635966      3.42003825276138     -2.89352416902329
  C           0.45732308716502      2.24893533527496     -1.68662430976751
  H          -0.13696303902912      2.42065619022777     -0.77967434903011
  O           1.50783848341941      1.33049002850597     -1.39483143568538
  C          -0.44876600411403      1.63082913972513     -2.76305084069644
  H          -0.09086591284477      0.61652474186732     -2.94728157228244
  C          -1.90845464029636      1.53365537659219     -2.31899440468621
  O          -1.97457392999285      0.69348026845294     -1.17728641081273
  Si         -2.61043793934030     -0.85337273492315     -1.19880136008845
  C          -4.48662664989439     -0.76196666164732     -0.98002223366958
  C          -5.10437219184402      0.13026610364455     -2.06640648483739
  C          -5.08666947150229     -2.17176304489957     -1.08231583319864
  C          -4.81264953903343     -0.16981169368142      0.39859110392075
  C          -2.16653243935637     -1.70441010543233     -2.80719224967230
  C          -1.80256343280287     -1.71577575003360      0.24735279175702
  O          -0.31128593732509      2.29508790952670     -4.02273945780774
  C          -0.60161977717580      3.67798892868457     -4.04398494027039
  H          -0.05384519205884      4.06073525792431     -4.91278120187870
  O          -1.97060568293621      3.94188009036679     -4.19085992906470
  C          -2.48692473103328      3.53436778386219     -5.45562905032942
  C          -0.11384277192701      4.39744764139064     -2.78681139575015
  H          -0.94499056448313      4.48008868573104     -2.07331850662470
  O           0.32207308511080      5.69245042402365     -3.17186650593206
  H           0.99349458263765      4.39368548089139     -0.36888215999189
  H           2.07385209673500      1.74025377271539     -0.72869390431176
  H          -2.30888731702253      2.51347753530206     -2.05074909088468
  H          -2.50084656459682      1.14812231684536     -3.15396183890869
  H          -4.74504459035124      1.16069014012853     -1.99331450597158
  H          -6.19569612094674      0.15201009544202     -1.95688367729660
  H          -4.88054666352163     -0.23718756134593     -3.07266920913381
  H          -6.17035763236226     -2.13105526203477     -0.91735853119669
  H          -4.66335734620423     -2.84879208856332     -0.33372381811692
  H          -4.91797771678826     -2.61157813546915     -2.06961592768179
  H          -4.44282850842025     -0.80574322691895      1.20806876666636
  H          -5.89860335006127     -0.07337855941747      0.52036121443833
  H          -4.37345259216770      0.82500911956255      0.52232867829190
  H          -2.63717698832639     -1.23218730857656     -3.67341826931387
  H          -2.49203261539700     -2.74835093013460     -2.77687085491253
  H          -1.08310085563187     -1.69559330438656     -2.95753518984373
  H          -1.94017677855739     -1.14731567639058      1.17098399381480
  H          -0.72859753084347     -1.82300647821309      0.06899353541860
  H          -2.22476097089981     -2.71379621669365      0.39548961561084
  H          -2.45238695076443      2.44700536787039     -5.56341907891425
  H          -1.91912246926293      3.99811718261071     -6.27045544444701
  H          -3.52275533024623      3.87026507513767     -5.49741209443636
  H           0.79895654433854      6.06082663543300     -2.41665799953381
