48
Coordinates from ORCA-job goat_0_264 E -1253.937780226169
  O           1.86988616678209      2.04391619595428     -1.12223536438304
  C           1.14813975454116      2.37696070245065     -2.30115568524225
  H           1.83436751475990      2.44686025979899     -3.15593011094663
  C           0.14517353236160      1.26491571969896     -2.55567394972355
  H          -0.36995597402332      1.06217891203831     -1.61021074026129
  O           0.79056928065210      0.07491781993021     -3.00524723853515
  C          -0.88537928802498      1.69247749461581     -3.61243107903306
  H          -0.88516604837232      0.93309524585645     -4.39644271443471
  C          -2.30214960348565      1.76648671857779     -3.04768514632886
  O          -2.67289498012819      0.44984845718542     -2.67102253202910
  Si         -3.60961989781045      0.15128075879318     -1.31870695995454
  C          -3.79155555729855     -1.72459995632930     -1.26887590611202
  C          -2.40585967516987     -2.37758262930086     -1.15907081316785
  C          -4.63775568733802     -2.12023172531281     -0.04964522558919
  C          -4.48362085142212     -2.21756393636521     -2.54765610214996
  C          -2.74124820757985      0.80211807676648      0.20857547242916
  C          -5.25726805990736      1.01933638566650     -1.50813867084126
  O          -0.50660029908400      2.89973830666558     -4.28006042918034
  C          -0.29972674403028      4.03538716406614     -3.46513045188065
  H           0.34754519917008      4.68417436686215     -4.06956978986033
  O          -1.48876607835748      4.71069853021150     -3.15945492139718
  C          -2.10447811963884      5.30839112480215     -4.29816801896367
  C           0.39918407063369      3.69202010216916     -2.14570162939949
  H          -0.34876084054557      3.58803069338982     -1.35505721491315
  O           1.25518540455894      4.74327257388609     -1.71769518218520
  H           2.42206329054489      2.80400220347581     -0.89960486514349
  H           1.40396912171139     -0.19953558928199     -2.31240924076870
  H          -2.34683302806182      2.45351037221723     -2.19710280376593
  H          -2.97781732441839      2.14392683899055     -3.82162103496743
  H          -1.76841048038115     -2.11274374087107     -2.00744983549456
  H          -2.50647396676454     -3.46973772053860     -1.14172778030702
  H          -1.88988464212036     -2.07758379353822     -0.24226462534274
  H          -5.64015642455070     -1.68341244936929     -0.09346837656339
  H          -4.17095317300453     -1.80277936606255      0.88772340478854
  H          -4.75225193416892     -3.21028913633069     -0.01097677422980
  H          -3.90880018118722     -1.95645385964676     -3.44064448971066
  H          -5.48629186256532     -1.79294802023209     -2.65409976243023
  H          -4.58616976281175     -3.30936643736669     -2.52137867826484
  H          -3.35817627284070      0.62731068495485      1.09515898075235
  H          -2.56918729327416      1.87993951029188      0.13321175962087
  H          -1.77586745640564      0.31324804099092      0.36320583581933
  H          -5.89955057881984      0.82676941605912     -0.64384035562875
  H          -5.78301183792789      0.68756146416316     -2.40742310705047
  H          -5.10925450033571      2.10151550131935     -1.57967854846671
  H          -1.40602694458040      5.98777916647242     -4.80016078070544
  H          -2.96219271374183      5.87307500821263     -3.93367029935983
  H          -2.44351428097197      4.54845164019707     -5.00699357522245
  H           1.89337723543420      4.92421290381554     -2.42024464347487
