48
Coordinates from ORCA-job goat_0_316 E -1253.945453530428
  O          -0.46838213393999      4.91074578285034     -1.01923297174469
  C           0.04715994265294      3.89846514794269     -1.87742607683849
  H           1.13276087415909      3.80754116145316     -1.73652426353279
  C          -0.60920082550027      2.58836299702539     -1.47754629485899
  H          -1.69623937952987      2.70387811217057     -1.55150975085551
  O          -0.23927297384473      2.21109232882100     -0.15835469899906
  C          -0.17532757012101      1.47813287345628     -2.42921103905405
  H           0.91450356799835      1.34702675722959     -2.35648125921234
  C          -0.81948830202227      0.14187911092127     -2.11426183100810
  O          -2.23032763655729      0.23239316646814     -2.07556987210589
  Si         -3.20318093773629     -0.06469129644323     -0.75095242095424
  C          -4.64086180892164     -1.09878965247787     -1.41127643585093
  C          -5.35286297982706     -0.33271754099641     -2.53600487005225
  C          -4.10145174544465     -2.42449007763724     -1.96660590932748
  C          -5.64304315374874     -1.39091885719843     -0.28552430895839
  C          -2.24700392322374     -0.98783877460727      0.56701321402063
  C          -3.82413343562088      1.55965313294312     -0.05737316432752
  O          -0.52561186472650      1.84855280112812     -3.76135414150736
  C           0.17578748369591      3.00481464389596     -4.19092090274425
  H           1.25999687370039      2.82385807390906     -4.10368437841099
  O          -0.16849775530511      3.27466575377507     -5.50764679620115
  C           0.43189661821459      2.38138863918023     -6.44685475386885
  C          -0.22944355594951      4.20247909523193     -3.33976910406585
  H          -1.30363349049918      4.37438695078001     -3.48097114338957
  O           0.51729761800840      5.35982806690636     -3.68622383559112
  H           0.01925072431730      5.72383553930610     -1.19600721050073
  H          -0.42918800498727      2.96320894012772      0.41601646431574
  H          -0.53352807592711     -0.56745878727418     -2.89768290107844
  H          -0.41201982483059     -0.21788780501236     -1.16621932124160
  H          -6.17802963149439     -0.93430035730463     -2.93698267007256
  H          -4.67073210771767     -0.10728128185020     -3.36076099299781
  H          -5.77433603009593      0.61111456639232     -2.17707714677810
  H          -3.61560770547844     -3.01999180623238     -1.18781726332208
  H          -3.37503667053857     -2.25690588617755     -2.76735401198138
  H          -4.92312508309376     -3.02313526928188     -2.37888265655809
  H          -6.47233442793910     -1.99729795419054     -0.67013077861768
  H          -6.06925166649628     -0.47131860461665      0.12608729368774
  H          -5.18032578566122     -1.94667953206007      0.53580091579839
  H          -2.92015969710178     -1.25353501409852      1.38757611737809
  H          -1.44913911572659     -0.36381755934488      0.97871612482163
  H          -1.80131727363158     -1.90912622475623      0.18256406990694
  H          -4.28674694321830      2.17380393486903     -0.83492323521632
  H          -3.00010206252603      2.12626522008627      0.38404528929594
  H          -4.56876013242415      1.38322193484869      0.72455761465688
  H           1.52167409227656      2.38965116005348     -6.33739908857840
  H           0.16168997029718      2.74012041255963     -7.43946321281726
  H           0.05890177192603      1.36306165005015     -6.31180582650653
  H           0.27461417416073      5.60733432717884     -4.58644056415480
