48
Coordinates from ORCA-job goat_0_230 E -1253.936094109898
  O           2.23829191210263      3.08036365459443     -1.72242070426320
  C           1.18835948005820      3.05600512661145     -2.67991834766676
  H           1.60032450189672      2.89875487867109     -3.68637325709038
  C           0.18378131700389      1.95195705581828     -2.37880412170760
  H          -0.31124366770794      2.17048166506118     -1.42867877543502
  O           0.85144730195393      0.71084652380026     -2.17775778669478
  C          -0.83895893265526      1.89016225457818     -3.52077399233103
  H          -0.42819844691196      1.24289802388501     -4.30340452618646
  C          -2.19641504901908      1.32512195322917     -3.11213172118002
  O          -2.07126955337119     -0.06101580343008     -2.84984407069355
  Si         -2.52532580563277     -0.79541439201007     -1.41981269896510
  C          -4.39700156065135     -1.07606363013457     -1.42461956256247
  C          -4.82134109394465     -1.76820522378851     -0.12110409861896
  C          -5.13275865231984      0.26680749071322     -1.54334641447961
  C          -4.77901274347953     -1.96354778709144     -2.61767061231232
  C          -1.59921546180844     -2.41769525775867     -1.41355600421967
  C          -2.02106344243943      0.25078126935853      0.04951634232509
  O          -1.00889421388010      3.16777909081880     -4.15651669425934
  C          -0.88542539592577      4.30967514238822     -3.33394023847698
  H          -0.99224277234894      5.15251193285732     -4.02448694187636
  O          -1.87637595838142      4.36416212637879     -2.34155815787176
  C          -3.17714320650516      4.62687786620189     -2.86583793156538
  C           0.48191696540338      4.39747582326016     -2.64036002729960
  H           0.31668544631421      4.66704539136128     -1.59210194832977
  O           1.23189764582568      5.41501223957417     -3.29686602026697
  H           2.55234303411955      2.17072627614029     -1.63443667235941
  H           1.14663971353617      0.37936611145469     -3.03537115626771
  H          -2.57741098036288      1.87038918714771     -2.24428574257569
  H          -2.89512696771341      1.47418611885521     -3.94167060313219
  H          -5.90136963360884     -1.96007244507357     -0.13273580675727
  H          -4.60494459785175     -1.14909337639497      0.75448243336932
  H          -4.31619212602081     -2.72987328822467      0.01164661256051
  H          -6.21726601587647      0.10422350373300     -1.51116438766469
  H          -4.90391488931396      0.77089572538899     -2.48659773694927
  H          -4.87529508148062      0.94574426337939     -0.72469719033285
  H          -5.86623650517912     -2.10706413501695     -2.64848876362863
  H          -4.31575422129075     -2.95229699716614     -2.55003553584537
  H          -4.47446531901715     -1.51196901999494     -3.56676503765728
  H          -1.87410469161543     -3.02385969651092     -0.54568436746710
  H          -0.52214011886805     -2.23168823367279     -1.37162743983485
  H          -1.81106949042865     -2.99835514414418     -2.31531885107904
  H          -0.93666418444326      0.38759949586537      0.05986788366633
  H          -2.30659076770104     -0.25362757041559      0.97741760715191
  H          -2.49336782005103      1.23647472333658      0.04687772162131
  H          -3.18517261376217      5.58535384394880     -3.39648879158761
  H          -3.85657196842381      4.67433694666958     -2.01531204017509
  H          -3.50234379925438      3.83558491902203     -3.54564752568098
  H           2.08403043103213      5.48282137672504     -2.84944629734588
