48
Coordinates from ORCA-job goat_0_243 E -1253.936965600115
  O           1.71342976662315      2.40018720511716     -0.81126000629165
  C           1.05289989769498      2.55502482450129     -2.06306308074367
  H           1.85066364335209      2.68626989585246     -2.80090599333953
  C           0.20713027128542      1.34168726028012     -2.43511007998611
  H          -0.37342478446347      1.04542916281835     -1.55774183213719
  O           1.01488587030303      0.20844782805429     -2.73563116940745
  C          -0.77007606022690      1.69421794038745     -3.57685421179703
  H          -0.68820650020434      0.91058295942561     -4.33285287494107
  C          -2.22815424409425      1.72602729825450     -3.11960385185110
  O          -2.57707839013540      0.40865323503091     -2.72336013768069
  Si         -3.52253211001880      0.12527946787005     -1.37278917910749
  C          -3.71697663429751     -1.74835256720304     -1.30675053164441
  C          -2.33395895913311     -2.41279638045671     -1.24286605973831
  C          -4.52219380603456     -2.12959247270603     -0.05552556132971
  C          -4.45907606229154     -2.24156952073593     -2.55708180918536
  C          -2.65799234833157      0.78372057713669      0.15383218402106
  C          -5.16313413578522      1.00302671441415     -1.57566904488485
  O          -0.38444149944542      2.89334953246819     -4.25461818440551
  C          -0.34080519076161      4.06710110154629     -3.46808816610607
  H           0.35926054310548      4.72719991300122     -3.99299822008189
  O          -1.59202026890385      4.68980736583258     -3.35897373055000
  C          -2.06482044916562      5.21838580316232     -4.59573422153164
  C           0.17845837326205      3.80161910249770     -2.05711747381752
  H          -0.67308269531039      3.63870313173002     -1.38258162125010
  O           0.90895017794664      4.94519894091982     -1.64076096940280
  H           1.05880146446739      2.12591369689789     -0.15576778960764
  H           1.56181006758649      0.42210420200842     -3.50196400958511
  H          -2.36833107999433      2.43908185351765     -2.30206927690179
  H          -2.85772095873749      2.04728054022473     -3.95499051448485
  H          -1.77877156852205     -2.10627470803114     -0.35136431508528
  H          -1.72844264229397     -2.16521509700265     -2.11920218911071
  H          -2.44389593204057     -3.50357704180395     -1.20685341877237
  H          -4.01624581785382     -1.81572220809165      0.86244377618052
  H          -4.64960544060560     -3.21786786438495     -0.00912819554193
  H          -5.51970278803884     -1.67947883682401     -0.06300251988345
  H          -4.56227455390885     -3.33313871834652     -2.52589088623781
  H          -3.91975240544840     -1.98219300587266     -3.47260586418702
  H          -5.46438882270361     -1.81536653935419     -2.62378926161497
  H          -2.43852883140094      1.85078804711492      0.05054960450713
  H          -1.71787048478665      0.25933185748477      0.34446611465983
  H          -3.29987149472406      0.66161564251494      1.03136423194763
  H          -5.81768308710225      0.80177713618134     -0.72255642064018
  H          -5.67725136996259      0.68319513786875     -2.48586023625360
  H          -5.01146218606486      2.08548765113058     -1.63202251156487
  H          -2.26787084920733      4.41944946475718     -5.31388658094623
  H          -1.33191515088022      5.91266724782837     -5.02258145874718
  H          -2.98866940144757      5.75382724459905     -4.37814816152629
  H           1.39976892870127      4.68128597838319     -0.85088428941312
