48
Coordinates from ORCA-job goat_0_123 E -1253.944577364860
  O           2.75884424100993      2.59015176870257     -3.32857010507309
  C           1.35386749459614      2.80631019982544     -3.25095593782413
  H           0.92420366250903      2.83106082092183     -4.26165372704055
  C           0.75804814960555      1.62157509188909     -2.50730363279302
  H           1.25818624713334      1.52846467169671     -1.53355892686004
  O           0.91810806722112      0.42629007324241     -3.26082983471244
  C          -0.73514315260910      1.84800016346753     -2.27587014957111
  H          -1.24624133519491      1.89137722813232     -3.24758808118483
  C          -1.34806198053996      0.74557838631510     -1.43543409688728
  O          -2.75529791503066      0.89842107084393     -1.35071037691928
  Si         -3.83588545797248     -0.11179046890536     -2.13089824707282
  C          -4.16413506068894     -1.63534095304266     -1.05966782307045
  C          -4.85137489777408     -1.20799678010833      0.24508978555910
  C          -5.07584108278788     -2.61057012357651     -1.81858748896566
  C          -2.84198407172349     -2.33872531757037     -0.72126588594449
  C          -5.38424574435953      0.91316449325663     -2.33472181199693
  C          -3.14880130427662     -0.61082818960778     -3.80115755918409
  O          -0.91900822236437      3.07786120148479     -1.57970747086964
  C          -0.48857733794343      4.19353120278940     -2.34134214037470
  H          -1.01325754287277      4.19656036351269     -3.31115287493416
  O          -0.76567321919952      5.35384467009517     -1.63267888315164
  C          -2.15347177354063      5.69325272507150     -1.62144959716864
  C           1.01806629189236      4.11316016205734     -2.55344795455949
  H           1.50389068249589      4.14184771238929     -1.57034266560069
  O           1.48459935787997      5.16972900420820     -3.37979261835030
  H           3.13120718222158      3.26855396186461     -3.90399898944577
  H           1.85027208707273      0.36936474067143     -3.50537421306706
  H          -1.06592574225927     -0.21703632081516     -1.86883326046576
  H          -0.92895360073279      0.79742580400638     -0.42501940449559
  H          -5.00720625611606     -2.07998587749297      0.89216096484547
  H          -5.82915474349374     -0.75556677255444      0.05628172877948
  H          -4.24537970062359     -0.48489274596225      0.79984999797149
  H          -4.60136024682384     -2.97742158153208     -2.73345414881575
  H          -6.02771540797767     -2.14590311079820     -2.09432711269201
  H          -5.30185121144697     -3.48053257144219     -1.18978652590762
  H          -3.03803360048112     -3.23995469222647     -0.12732414376106
  H          -2.18289380670152     -1.69340247494831     -0.13353318269561
  H          -2.30147036987504     -2.64695509720510     -1.62160625665828
  H          -6.20269694740299      0.31159892412066     -2.74032240431929
  H          -5.19916897162858      1.74372259458543     -3.02214386994426
  H          -5.70920053862286      1.32843973092883     -1.37702309876282
  H          -2.86900373259914      0.27482494519916     -4.37893727669503
  H          -3.91004223035107     -1.15523316930315     -4.36759569561457
  H          -2.27014869657431     -1.25538659263252     -3.71574116706996
  H          -2.23916202869326      6.65010715702232     -1.10768431773521
  H          -2.73600484464500      4.93758551748965     -1.08868237442223
  H          -2.52989266017208      5.79086839781246     -2.64540122889307
  H           1.34080197246181      5.99743005612096     -2.90575591558482
