48
Coordinates from ORCA-job goat_0_279 E -1253.942795093945
  O           2.23467893570186      2.32358762865525     -1.82662322602132
  C           0.98724783376964      2.48683750388007     -2.49454183147474
  H           0.98603756666221      1.90557978985999     -3.42644419223163
  C          -0.18279668331206      2.03046082740716     -1.64072185947041
  H          -0.14618577211674      2.55682586354680     -0.67659163664769
  O          -0.04570731038226      0.62847550569261     -1.44666409810035
  C          -1.49675822312464      2.39141702198854     -2.34087066750313
  H          -1.57399261975015      1.81823727602111     -3.27575083604978
  C          -2.71672482651747      2.11496416861116     -1.47217276463889
  O          -2.79146542571267      0.72801922421553     -1.15929398669309
  Si         -4.00713272545727     -0.23876103977680     -1.80485717780865
  C          -3.53161545773209     -2.00464082471318     -1.34851875647329
  C          -4.72945708019481     -2.92458982432074     -1.63281487625915
  C          -2.33290306578579     -2.46895838129448     -2.18828091787916
  C          -3.17258796123564     -2.08461450067275      0.14204518586071
  C          -5.63378376644787      0.26988174074667     -1.03548986601498
  C          -4.07468338516441      0.01215307776475     -3.65760692792114
  O          -1.52615846018387      3.78707009404708     -2.61928252310492
  C          -0.49464912496244      4.19316433080243     -3.51003674350720
  H          -0.55049263974385      3.59950751322594     -4.43149527607607
  O          -0.73446904358912      5.50560543708585     -3.89547586800534
  C          -0.54807349673434      6.49669039952165     -2.88099582729838
  C           0.85655752128158      3.96126830784466     -2.83627339650796
  H           0.90134994093629      4.53890689136136     -1.90514645499557
  O           1.87690992299240      4.37488354857945     -3.73097433752841
  H           2.39785329547687      1.37769188059756     -1.73393663142462
  H          -0.89958487592796      0.31108943138895     -1.11338891865941
  H          -2.63108879436538      2.68040714791251     -0.53912969681980
  H          -3.61197338359213      2.46312321755447     -1.99765546087012
  H          -4.46020557921361     -3.96516647016661     -1.41587596263774
  H          -5.03990596104497     -2.87491779588095     -2.68157089604583
  H          -5.59236935815012     -2.66758433485421     -1.01193675372712
  H          -1.45995499386845     -1.82515668922118     -2.04722550740362
  H          -2.57141390213830     -2.48292575631658     -3.25543920859453
  H          -2.04516408497891     -3.48656136982065     -1.89751877958298
  H          -2.94223649602533     -3.12139278321735      0.41587818108655
  H          -3.99897501673840     -1.74946472472714      0.77654577429945
  H          -2.29709724238201     -1.47286284014944      0.37635010258470
  H          -5.80600692434016      1.34063209347451     -1.18186897591887
  H          -5.64644305119958      0.06559110314593      0.03866100392055
  H          -6.46572382218748     -0.26909782792214     -1.49765734664986
  H          -4.80365702747939     -0.67117823418091     -4.10384357267156
  H          -3.10280660981842     -0.17501693135295     -4.12115021850199
  H          -4.38181268597503      1.03289235832023     -3.90360528342370
  H          -0.98250765635672      7.41594226705263     -3.27267088080238
  H           0.51460985891299      6.65834006810049     -2.68089127793889
  H          -1.06163400660370      6.22078485558721     -1.95710782432089
  H           2.71278366479985      4.05543975459561     -3.36793300354648
