48
Coordinates from ORCA-job goat_0_299 E -1253.935742353889
  O           2.68434283485457      2.94316610472486     -3.02696811147130
  C           1.29826524479782      2.64468959942407     -3.12595185333789
  H           1.22533153477607      1.82483234071449     -3.84764130550987
  C           0.66382475931953      2.21863526976618     -1.80847244998289
  H           0.63569121852216      3.08176737318034     -1.13321200975959
  O           1.40646449821073      1.22919158346177     -1.11138504494035
  C          -0.75967611259811      1.71498609065452     -2.09525431453377
  H          -0.68077223481477      0.65004935692296     -2.33331965651896
  C          -1.65113855704386      1.87517765771689     -0.87252794584577
  O          -2.92733855586311      1.29583731141796     -1.06980208534591
  Si         -3.34520853956664     -0.27931120561461     -0.70112079642155
  C          -4.14818954110059     -1.00050084381623     -2.25165489649493
  C          -4.66832317509190     -2.41485972196049     -1.95714260625097
  C          -5.32078907518930     -0.11019002002685     -2.68855790082292
  C          -3.11763873473547     -1.06449912690904     -3.38783984790298
  C          -1.83198170117723     -1.25975932763368     -0.19252274581478
  C          -4.55834344806537     -0.22685471678501      0.72281153883193
  O          -1.33196806278617      2.29062716948682     -3.27713244931842
  C          -0.98926546061958      3.62654348696953     -3.57120855149216
  H          -1.43454940040254      3.80805544692241     -4.55534554739311
  O          -1.50420074555741      4.53686253168891     -2.63411727924913
  C          -2.92990174830773      4.59503340481290     -2.64511987809278
  C           0.52828125688777      3.84781775507190     -3.65412291649777
  H           0.77799524326560      4.71263617403634     -3.02702102369204
  O           0.85818379298925      4.11944471728663     -5.01083694607325
  H           2.80258892290235      3.60850809369650     -2.33650957689088
  H           1.53502115422383      0.47486743051795     -1.70079460079022
  H          -1.13148566050182      1.42295993103538     -0.02057154370056
  H          -1.78918663936807      2.93621831156757     -0.65539365296417
  H          -5.13114299400148     -2.83959994224160     -2.85631937023351
  H          -5.42415044661113     -2.41120688450231     -1.16619450641047
  H          -3.86175937782398     -3.08814565268343     -1.65087092644449
  H          -6.09576111869360     -0.05418041305186     -1.91817977199769
  H          -5.78369857139637     -0.51719612553587     -3.59605792162482
  H          -4.98889049070086      0.90823423916345     -2.91030988455866
  H          -3.58263504573719     -1.47363952650168     -4.29333256352989
  H          -2.27101987807232     -1.70850566305717     -3.13114659346761
  H          -2.72781386596973     -0.07258778316977     -3.63284205444530
  H          -1.06128730215519     -1.27206046232451     -0.96676319517835
  H          -2.12388085979918     -2.29462859564924      0.01020634609834
  H          -1.39145217580975     -0.85469965739924      0.72301412386767
  H          -4.88264317265044     -1.23338707843733      1.00233572643467
  H          -5.44552170729802      0.35982951848128      0.46904378519851
  H          -4.08634466521724      0.23153598172015      1.59731827220810
  H          -3.36848204977415      3.64526864499914     -2.32921113941049
  H          -3.29202728081999      4.84658635491572     -3.64844976198242
  H          -3.21844154267493      5.38007001657118     -1.94652406482651
  H           1.81874947724591      4.20896085037206     -5.05483050141938
