48
Coordinates from ORCA-job goat_0_15 E -1253.940515333298
  O          -0.07057192845357      2.96397332949116     -0.64852042530271
  C           0.84128382356683      2.57418020130889     -1.66685716166256
  H           1.75536192217292      2.24415965900989     -1.16740768695026
  C           0.30638371118486      1.38875705573189     -2.48068854113954
  H          -0.11885599231307      0.65115865620305     -1.79456811618609
  O           1.45658578283928      0.84092156284877     -3.14368088655185
  C          -0.76619056866184      1.77672563760601     -3.49901363139263
  H          -0.78708318310835      0.99087989919012     -4.26014698705463
  C          -2.18157448066721      1.81812683579229     -2.91799026875468
  O          -2.53743361764456      0.48509398327848     -2.58557912644854
  Si         -3.65985650025493      0.15169471303602     -1.39143564322371
  C          -3.74956305928051     -1.73099400641111     -1.33594012925751
  C          -2.37601032609152     -2.30336962642519     -0.95656884240356
  C          -4.78654726874607     -2.16104610721989     -0.28781404248776
  C          -4.16347463292429     -2.27603637361707     -2.71034557381303
  C          -3.07676151653932      0.86503966401244      0.23868828914678
  C          -5.30037283123841      0.92493092396805     -1.85493751332119
  O          -0.44192353612831      2.96380699377476     -4.23476650458811
  C           0.00447774937371      4.07946728034781     -3.49802302793938
  H           0.30695843280155      4.80788142059537     -4.25705145641230
  O          -0.99998260369614      4.62491128820627     -2.67380627001787
  C          -2.05101363142213      5.27065806075394     -3.39319466741090
  C           1.19190969324407      3.74108346387748     -2.59536549934792
  H           1.42407748827591      4.62259617885916     -1.99399389966427
  O           2.33474276907092      3.45528238810310     -3.38590630085696
  H          -0.68523367209401      3.60812958544259     -1.02841796263025
  H           1.16850119887621      0.12337948775151     -3.72012151414540
  H          -2.24756930135990      2.47208242041122     -2.04664033588428
  H          -2.85508148870932      2.20687329113606     -3.68849189889342
  H          -2.41856648183895     -3.39927648262107     -0.93611627471353
  H          -2.05723257012724     -1.96528346694720      0.03386398487103
  H          -1.60671917117707     -2.01120755109166     -1.67728048182853
  H          -4.52412759482363     -1.80439920916263      0.71279099466296
  H          -4.84445241350670     -3.25541480587244     -0.24525702361343
  H          -5.78555756618037     -1.78574548446713     -0.52973160153349
  H          -4.21255836710223     -3.37145939700432     -2.67983459385661
  H          -3.44621378610939     -1.99383060914586     -3.48604816702999
  H          -5.14926539565391     -1.90835112751785     -3.01054700261896
  H          -3.04671112432275      1.95768174823012      0.20060689320844
  H          -2.07688075976919      0.50667086584196      0.49674816550701
  H          -3.76230756032556      0.57933849017030      1.04207695648299
  H          -6.05517553049557      0.72138506381626     -1.08976385841719
  H          -5.66888327057206      0.54235004432938     -2.81057573725355
  H          -5.19634959562879      2.01123051593139     -1.94015452512052
  H          -2.74645209371384      5.66304044090891     -2.65241365757262
  H          -2.57148628941144      4.56779318737183     -4.04740392972713
  H          -1.64478720597127      6.09367317851366     -3.99006601235205
  H           2.25637434465784      2.53403673165332     -3.68015850449902
