48
Coordinates from ORCA-job goat_0_130 E -1253.938272279123
  O           1.63060125431627      2.12624699294495     -0.70817232216785
  C           1.07166089203386      2.44357822720751     -1.97621128099655
  H           1.86983892400805      2.56778680475553     -2.71926816500494
  C           0.17781898684158      1.28706027124036     -2.39110916966876
  H          -0.43419715254803      1.01441749997407     -1.52501115783639
  O           0.94670811017917      0.15644370413535     -2.79921497742008
  C          -0.74376790078765      1.69505473417640     -3.55076540205719
  H          -0.64360083122494      0.93786919551051     -4.33059636517351
  C          -2.21547635091183      1.73895627432863     -3.14306004111723
  O          -2.59829821302544      0.41921664001299     -2.79095128296919
  Si         -3.61035089906376      0.10967475062769     -1.49638848459782
  C          -3.72914591735890     -1.77042830503625     -1.42418117784708
  C          -2.32847325204609     -2.37032865608747     -1.23155752450572
  C          -4.62293944760315     -2.17739918929774     -0.24331569395745
  C          -4.33588559419810     -2.30753943088025     -2.72822246178529
  C          -2.87095602311145      0.81393033528150      0.07482995848329
  C          -5.27062418957757      0.91605059191105     -1.80795509269275
  O          -0.32151706929792      2.91289561432623     -4.17034069984740
  C          -0.24515456874247      4.04954200047545     -3.33318648971537
  H           0.48689076916639      4.70368245809909     -3.82075464102328
  O          -1.47240154901661      4.71793140030472     -3.21167595047110
  C          -1.90631650532564      5.32176847133755     -4.42815589295145
  C           0.24139900236511      3.71265639618325     -1.92110847541839
  H          -0.61976926992251      3.55420356132840     -1.26275396358925
  O           1.05988887012041      4.75438750499556     -1.40280236550295
  H           2.10909072708757      2.90910491005787     -0.40728848994496
  H           1.49160822151404     -0.10930362144744     -2.04825690563070
  H          -2.37063277669966      2.43566518752289     -2.31386886386155
  H          -2.81001126271574      2.09074949723055     -3.99190632261754
  H          -1.87084684927638     -2.03364700619749     -0.29664862926052
  H          -1.65872300415824     -2.09885008217498     -2.05242183981416
  H          -2.39123101030617     -3.46485396862456     -1.19582898348336
  H          -4.21391292668860     -1.83269557018607      0.71122671244251
  H          -4.70478517789888     -3.26997226286546     -0.19428621575552
  H          -5.63527954140279     -1.77384763175764     -0.34323574669391
  H          -4.39730142030679     -3.40207629607653     -2.69024049563985
  H          -3.72753421611697     -2.03594849953618     -3.59553431090690
  H          -5.34760119391168     -1.92418001422957     -2.89059979969304
  H          -3.55043027021320      0.64322551225345      0.91535414908450
  H          -2.71641493576192      1.89355369285281     -0.01078242090111
  H          -1.91049711545679      0.35042489070531      0.31416828222194
  H          -5.15458296845248      2.00145577915691     -1.88949318075487
  H          -5.96185873231621      0.71500322602980     -0.98431272090947
  H          -5.72381938112271      0.55183086097957     -2.73375925187861
  H          -2.81185267598335      5.88271968727530     -4.19811589258426
  H          -2.12937697080581      4.56539614130200     -5.18530338454841
  H          -1.14043133150652      6.00514744413918     -4.81244888162482
  H           0.48832273723059      5.43602027573524     -1.03233768741143
