48
Coordinates from ORCA-job goat_0_302 E -1253.939613137470
  O          -0.71141806297668      3.40054150349397     -0.53576704346102
  C           0.50015308091260      2.87195223083201     -1.05972548371550
  H           1.18960912532240      2.76510218005428     -0.21892410819144
  C           0.30995986643607      1.47757677388228     -1.67794218224658
  H          -0.32693937139011      0.89100414307158     -1.01352702089622
  O           1.56475612617770      0.79848640532910     -1.73690646410124
  C          -0.35273244979419      1.50755744485995     -3.05635378445545
  H          -0.08153116476589      0.57139581507060     -3.54946053503593
  C          -1.88182240904828      1.53739918413947     -3.01765095547356
  O          -2.31338580528266      0.28473563300398     -2.50799833145559
  Si         -3.77756306565552      0.12151620777321     -1.71832110679017
  C          -3.91967666362335     -1.72256186590265     -1.35090921119822
  C          -3.90835804078560     -2.51795672827392     -2.66413690593502
  C          -2.73902641490238     -2.17026810676571     -0.47691821565632
  C          -5.23472559846306     -1.99318019576150     -0.60512206901178
  C          -3.76199552089724      1.14259868491239     -0.14876126043959
  C          -5.15054346802053      0.72664711919802     -2.83824471150895
  O           0.18308288604168      2.52501184785028     -3.91936335235895
  C           0.32848807877440      3.81565982372453     -3.38455597753423
  H           0.86264338734005      4.37720274179076     -4.16061912930899
  O          -0.90289071853506      4.44026461658812     -3.10594957377753
  C          -1.65556762019737      4.77885409588001     -4.27176744861176
  C           1.12494354423270      3.82629589281745     -2.07792722482943
  H           1.12286435215375      4.84483131682078     -1.67778178779626
  O           2.45642021514655      3.37319648333015     -2.30588724076796
  H          -1.17501067051383      3.85626686936628     -1.25286182998801
  H           2.19425593749746      1.40694967391850     -2.15101952966877
  H          -2.26178474883309      2.36122683472231     -2.40980755177600
  H          -2.24809949889180      1.67250489302606     -4.04052206269462
  H          -2.98583447888286     -2.34927152349261     -3.22679576424107
  H          -4.75138224992861     -2.24759825815614     -3.30693753823081
  H          -3.98209488576511     -3.59189642270448     -2.45314243914883
  H          -1.78117492143532     -1.99019035870071     -0.97326857475977
  H          -2.81287076750198     -3.24467306611622     -0.26825494160443
  H          -2.72629661706138     -1.64609935442864      0.48331110980347
  H          -6.10511496723179     -1.69430122285383     -1.19727035301586
  H          -5.27552623262809     -1.46006576393352      0.34948720075116
  H          -5.33064868161238     -3.06461790932823     -0.39136653287437
  H          -2.94238225081014      0.84795783920771      0.51186742398991
  H          -4.70331942971178      1.01753320756389      0.39465123397204
  H          -3.64835052880027      2.20623711411015     -0.37702917702062
  H          -6.12638386199419      0.60104704546098     -2.36017456819398
  H          -5.16097194880913      0.18313276119098     -3.78687207390762
  H          -5.02090422559882      1.79122140476070     -3.05702308253238
  H          -1.91511600092523      3.88698647550252     -4.84589655512823
  H          -1.08083816369612      5.46578211918153     -4.90143634393682
  H          -2.56498722723726      5.26974894208191     -3.92798579739523
  H           2.85792213217186      3.91083545190161     -2.99898112784131
