48
Coordinates from ORCA-job goat_0_1131 E -1253.942046153054
  O           2.83145670062995      3.47293664769489     -3.10639362360091
  C           1.48267069151513      3.02230623675013     -3.18371466406523
  H           1.31320630846344      2.79469726351687     -4.24151242543066
  C           1.23102781498941      1.75509147700724     -2.37994979588927
  H           1.52112211270678      1.92178323709443     -1.33489873023747
  O           2.00633471794805      0.70780867356877     -2.95310808800441
  C          -0.26288388320904      1.40479216162400     -2.44011501192106
  H          -0.51904197836995      1.15776645108543     -3.48006625558531
  C          -0.59799058522119      0.22068846149757     -1.54911012627266
  O          -1.78546252564412     -0.44868674405626     -1.92543299335188
  Si         -3.35429301234468      0.06434351740029     -1.67334444655644
  C          -4.35471085392980     -1.52479350731779     -1.44497932101278
  C          -3.95006873182609     -2.21235601073532     -0.13363863442198
  C          -5.85054638419514     -1.17934926458564     -1.39723560573166
  C          -4.09692538928421     -2.48569250547961     -2.61442742838690
  C          -3.45573719954405      1.13039571827476     -0.13850137194986
  C          -3.95251131538107      0.97800777427675     -3.19511429520121
  O          -1.04276041995434      2.51438634738830     -1.99584454743165
  C          -0.90502390051629      3.66678055113063     -2.81475729676274
  H          -1.19982360639002      3.41780832300207     -3.84750398439886
  O          -1.71070327670524      4.67128047400511     -2.30016115807165
  C          -3.10324718689142      4.49157991045063     -2.55340639022602
  C           0.53787810619086      4.14404655223637     -2.77002983714113
  H           0.75569113575415      4.43546420844856     -1.73247237052455
  O           0.67901658161332      5.25601035515880     -3.64003271374685
  H           3.04382860302335      3.62715966330150     -2.17642661326918
  H           2.36806847248990      0.16559646376810     -2.24531036784535
  H           0.21092280021094     -0.50957379023675     -1.61608412058822
  H          -0.65419504392886      0.57292936820168     -0.51231500002318
  H          -4.50312493315361     -3.15216391934793     -0.01352689163617
  H          -4.16913311373559     -1.58519014940897      0.73531668368339
  H          -2.88189305135056     -2.44968388003590     -0.11862323703136
  H          -6.44316307452244     -2.09000922785241     -1.24633185444226
  H          -6.18700535980979     -0.71574991330932     -2.32940286854660
  H          -6.08335380109809     -0.49398383266620     -0.57618473291268
  H          -4.68542691682341     -3.40227138062462     -2.48324176374068
  H          -3.04267709984183     -2.76965193236956     -2.67380801044337
  H          -4.38308471208354     -2.04441077825477     -3.57381584976067
  H          -2.92557621162087      2.07396682428317     -0.27751149613920
  H          -3.02406808750487      0.61753466218087      0.72560618304377
  H          -4.50205223985044      1.35400551763429      0.09070525991098
  H          -3.21708087016233      1.72179177908557     -3.50716838186479
  H          -4.89833816348932      1.49311601122340     -3.00358165910662
  H          -4.10665772425230      0.28407611903842     -4.02621642151329
  H          -3.59874205827777      5.40943327541809     -2.23777490412431
  H          -3.50260046170904      3.64807752948498     -1.98645350491090
  H          -3.28150567257454      4.32870157123934     -3.62173065064641
  H           1.62801479966059      5.40178370981005     -3.74821868216935
