48
Coordinates from ORCA-job goat_0_277 E -1253.936294765278
  O           2.36665491979053      1.37763436317803     -2.30882206467315
  C           1.33655290691599      2.28126909513299     -2.69085124443666
  H           1.74889648170975      3.06773949597662     -3.33690180033596
  C           0.20575218346667      1.56766849261032     -3.42185824971236
  H          -0.02229064040573      0.64774803279769     -2.87852967777130
  O           0.63582422944824      1.13551351870470     -4.71112239162838
  C          -1.05596510970221      2.45318032030775     -3.46836660279048
  H          -1.38314618126031      2.52238275921629     -4.50802098494782
  C          -2.21080846502818      1.86112798227344     -2.66440748455393
  O          -2.59482130254342      0.65755232166667     -3.30822185591577
  Si         -3.90569098999679     -0.26060667157583     -2.82058732818646
  C          -3.62023479315128     -0.98285854424772     -1.09250627745695
  C          -2.16886044793687     -1.46803943945559     -0.96932314886624
  C          -3.91296924064889      0.04996424563277      0.00611609846995
  C          -4.56928608644738     -2.17756101544434     -0.90190379397129
  C          -5.45029620724551      0.79642665248772     -2.84540208656361
  C          -4.00423826848220     -1.61285140778497     -4.10488169068405
  O          -0.77151057838563      3.80297448745269     -3.08706196315817
  C          -0.22713771497955      3.99106211772237     -1.79685358626425
  H           0.27844948939769      4.96200305266447     -1.85158838697530
  O          -1.20651864517960      4.02071866656771     -0.79405741520949
  C          -2.06837001670873      5.15243359893975     -0.88477335547153
  C           0.79295656870486      2.91533641737313     -1.42457387202595
  H           0.30121785785847      2.14174965778928     -0.82127156025525
  O           1.81303321417543      3.54546772936300     -0.66257186043883
  H           2.74786789400319      1.00994446677443     -3.11485740553062
  H           0.84374702270762      1.91854486348247     -5.23667790511547
  H          -1.90154064125997      1.66494182257066     -1.63476425010540
  H          -3.03568332048811      2.58107317699533     -2.64307646660499
  H          -1.92028316143852     -2.19795503990593     -1.74627060138107
  H          -2.01409402063026     -1.95170018054071      0.00302381431787
  H          -1.45777809076643     -0.64076779726629     -1.04828736609631
  H          -4.95554493573844      0.37894919980204     -0.02161911865734
  H          -3.27985403677734      0.93734176595900     -0.07641253840547
  H          -3.73105616464464     -0.39453306936396      0.99245082503337
  H          -4.35128718460882     -2.98430495600055     -1.60692391070432
  H          -5.61739535999735     -1.88848364513467     -1.03277362885880
  H          -4.46197461236968     -2.58170293426179      0.11206699922254
  H          -6.31137053631321      0.21836412235691     -2.49632304971609
  H          -5.66147420405745      1.14076046933537     -3.86207792995559
  H          -5.35160405796260      1.67319431470365     -2.19997159840443
  H          -4.02651380015968     -1.17541544880409     -5.10717937981274
  H          -4.91204189665438     -2.20781496348316     -3.97352279919104
  H          -3.14405549365876     -2.28537832843390     -4.04350334874075
  H          -2.67186592712873      5.11643000330532     -1.79563238888914
  H          -1.48645213230827      6.08116451785994     -0.87113443908746
  H          -2.72354082765395      5.12113717262757     -0.01455506801995
  H           2.49443232454082      2.88075453807328     -0.50148586147361
