48
Coordinates from ORCA-job goat_0_115 E -1253.937297191042
  O           2.59305850378652      3.45639279584546     -3.45028535222149
  C           1.19744716951001      3.27749771539799     -3.25026495064514
  H           0.66417375802781      3.36371378068437     -4.20706519377346
  C           0.88166788203154      1.92695104570143     -2.62692492793565
  H           1.33697119830097      1.87864431588145     -1.63270826616069
  O           1.47408713540381      0.85901956945969     -3.35941400133006
  C          -0.64042450486655      1.76251799773881     -2.53924347371658
  H          -0.97516196250095      1.34070665855091     -3.49247661383997
  C          -1.02044395341039      0.80821815500717     -1.41494713686073
  O          -2.41361969157822      0.57637768655686     -1.32731210481426
  Si         -3.30768109220112     -0.28262745760228     -2.44798811398303
  C          -4.72485717679974     -1.04836113476097     -1.46264776699379
  C          -4.16147947218338     -2.02945299731484     -0.42483554207639
  C          -5.51024364327137      0.05576239582265     -0.73968507625912
  C          -5.66888149080462     -1.80145512296123     -2.41125666427827
  C          -3.96863459758071      0.87669187199258     -3.76304001508965
  C          -2.22694417974698     -1.59090121669728     -3.24095196322781
  O          -1.32531274846981      3.01887462859589     -2.45760854886403
  C          -0.67455872998908      4.05885521591360     -1.75929121337577
  H          -1.32491947762378      4.92771175488397     -1.90655204985543
  O          -0.53514974361111      3.78438056139765     -0.39004596688590
  C          -1.78660998690534      3.72270967463380      0.29356745469580
  C           0.72190886214306      4.37525305549193     -2.31658358378307
  H           1.41988114354425      4.43097907752854     -1.47458802734869
  O           0.64941046967051      5.63516090125636     -2.97616653102465
  H           2.90993329538327      2.69385566570098     -3.95069711076383
  H           1.04998983955184      0.81268259870709     -4.22662220211505
  H          -0.47729298184741     -0.12994618319419     -1.58013179249430
  H          -0.69334380984050      1.22190540387398     -0.45939633402617
  H          -4.97789649361388     -2.46038966052519      0.16760436150265
  H          -3.47388163619732     -1.53155210917339      0.26492091938873
  H          -3.62464133891741     -2.85575833146011     -0.90027275953361
  H          -5.94539468917070      0.77014328249094     -1.44501522782014
  H          -4.87399890064401      0.61070023547238     -0.04446298852036
  H          -6.33313699350786     -0.38498982816136     -0.16350468015480
  H          -6.12009162505859     -1.13168435018425     -3.14907098205473
  H          -6.48362294120087     -2.26269540153799     -1.83996628815953
  H          -5.15062530299532     -2.59997954117053     -2.95125014102564
  H          -3.15479976495312      1.31891584748504     -4.34382783412990
  H          -4.54618938141799      1.69074119902033     -3.31647181121712
  H          -4.62046931242359      0.33706373049994     -4.45652904102206
  H          -1.42828704072884     -1.13681893946135     -3.83488460720538
  H          -2.82632030686998     -2.21405607743279     -3.91133315742195
  H          -1.76677958394616     -2.24186443077919     -2.49273889346599
  H          -2.33755995246742      4.66075076110326      0.16107890315450
  H          -1.56082921355713      3.57935545915170      1.35000508349475
  H          -2.39506277284733      2.88990576052980     -0.06697077690932
  H           1.53444723639545      5.84267398004246     -3.29999700985205
