48
Coordinates from ORCA-job goat_0_1072 E -1253.936743086027
  O           2.52388649235039      2.32824087558662     -2.09162858078888
  C           1.32922926252721      2.28310313993922     -2.86048935968951
  H           1.40940984337109      1.50583526216209     -3.63196346803984
  C           0.15270247550405      1.96113210352828     -1.96442235857081
  H          -0.01217797969943      2.79906335009693     -1.27372934955935
  O           0.42240136704570      0.77706312839249     -1.22556035098967
  C          -1.08449225277781      1.74972047439629     -2.85254654210156
  H          -1.04073446255117      0.71435344295141     -3.20351496037285
  C          -2.38108600844464      1.94675021944153     -2.07573832425471
  O          -2.37237944240885      1.05966243120166     -0.96027974123258
  Si         -3.65306622044806      0.06025769852139     -0.54274316400781
  C          -3.64071487966040     -1.49273235759962     -1.62161163803155
  C          -2.28056675306496     -2.19437751335921     -1.49814241398860
  C          -4.74918090407252     -2.44289369695843     -1.14225086411238
  C          -3.89001710937659     -1.13814771446436     -3.09460451568590
  C          -3.33217803908398     -0.35880616426142      1.24837843442800
  C          -5.25611863347227      1.00663516197672     -0.73212587434088
  O          -1.08588287503885      2.55270913042097     -4.03894078379175
  C          -0.39830185550494      3.78274235951020     -3.96481482233396
  H          -0.43972678550709      4.17790792938763     -4.98577019933125
  O          -1.00655969075431      4.68118839520603     -3.07273418665918
  C          -2.26815892409688      5.15747448812002     -3.53758128350342
  C           1.07268324905665      3.62075410327583     -3.53882165790142
  H           1.30319802982372      4.41629694607311     -2.82418724078553
  O           1.95627080107817      3.68923878280444     -4.65423059110924
  H           3.23985234027188      2.55743673171582     -2.69670473015334
  H          -0.40867659985373      0.55814287243454     -0.77808280135532
  H          -2.44508656736060      2.97430896397571     -1.70911813154201
  H          -3.23125879550753      1.76209839499257     -2.73908999016391
  H          -1.46399294041624     -1.54741058145176     -1.83181323821994
  H          -2.26624441007115     -3.09855350038854     -2.11905784029858
  H          -2.07305123844557     -2.49705988715965     -0.46749455581761
  H          -4.75677193177140     -3.34977606947820     -1.75904859523927
  H          -5.73889486662663     -1.98232686295969     -1.21949942637746
  H          -4.59896830052796     -2.75020289353912     -0.10316719506429
  H          -4.84764771480953     -0.62832383721312     -3.23490083142143
  H          -3.90962262568695     -2.05300334810997     -3.69953286290375
  H          -3.10125389497667     -0.49724628721010     -3.49790149760322
  H          -3.35129512695716      0.55175096048069      1.85424825476760
  H          -2.35523685806840     -0.83286581943668      1.37592558643655
  H          -4.09485109944352     -1.04008497165848      1.63531001003605
  H          -5.22301342690657      1.92470627973705     -0.13785923777643
  H          -6.09545917940503      0.40301735104974     -0.37467468766057
  H          -5.45677640331633      1.27862234698166     -1.77139778457730
  H          -2.15009899538672      5.66688522785438     -4.50049125895447
  H          -2.63370204909532      5.86421524764351     -2.79309335955576
  H          -2.98742475174624      4.34176463998013     -3.64748114851670
  H           2.04886673131311      4.61331306541006     -4.91287084128415
