48
Coordinates from ORCA-job goat_0_1093 E -1253.937870793342
  O           1.70161105336654      3.89954986619410     -0.92273897487199
  C           1.54619840747653      2.96786674386699     -1.98774828700744
  H           2.51320492592173      2.47314943991667     -2.10403038349291
  C           0.50214998098994      1.90554743481084     -1.64585954164114
  H          -0.28057498902996      2.36536424279348     -1.03941711397946
  O           1.14790523787728      0.87216651318831     -0.90598454771954
  C          -0.13615163938750      1.34225674119159     -2.91579108942975
  H           0.64728236516715      0.89461379337769     -3.53821433998112
  C          -1.16816288611330      0.27096064227557     -2.62312307784295
  O          -2.09826250895151      0.73037106078424     -1.65787324678520
  Si         -3.73349936677131      0.39678325889318     -1.70076539017543
  C          -4.04282901358090     -1.42475865487938     -1.29107860294375
  C          -3.62802356420338     -2.32516146754628     -2.46386002254151
  C          -3.23190607915615     -1.81295635340573     -0.04661511785864
  C          -5.53862108223385     -1.63135441874365     -1.00823875592770
  C          -4.46051101445280      1.51518310826314     -0.39273191926380
  C          -4.42454665656371      0.82470283017073     -3.38834469003902
  O          -0.79623790273077      2.37240370517144     -3.66941685232898
  C          -0.27403997003471      3.67307731179081     -3.56117567452262
  H          -0.53417394656770      4.17002592226448     -4.50422691201743
  O          -0.82802368541185      4.39062146256658     -2.48125182014160
  C          -2.23385364907371      4.59369509773929     -2.59529496894536
  C           1.23104957708130      3.67217488646941     -3.31689460749170
  H           1.57576536695244      4.70803290697316     -3.24840741093279
  O           1.91230413249657      2.97959453348223     -4.35565899579973
  H           0.85608672304495      4.35711269281443     -0.82541406279614
  H           0.47843264315709      0.41647016394704     -0.38327637835971
  H          -1.66124812282478      0.00802788001575     -3.56491601027505
  H          -0.65808332289955     -0.62367806353689     -2.25140317470005
  H          -3.81018719603516     -3.37683341659428     -2.21009027146941
  H          -2.56506590704759     -2.22409971645165     -2.70062720027293
  H          -4.19888850578127     -2.09872970243261     -3.36887189358929
  H          -3.49669312913758     -1.19699475827894      0.81839344827640
  H          -2.15726619868791     -1.70500057499271     -0.22055900552121
  H          -3.42596513450735     -2.85949055554111      0.21910240879710
  H          -5.73768709717036     -2.68900692477582     -0.79630469770070
  H          -6.15718575120303     -1.34393835285145     -1.86459250742212
  H          -5.86959044701044     -1.05071109087187     -0.14247779934041
  H          -4.18877622313711      2.55488908184488     -0.59728554611128
  H          -4.09376185475651      1.25576954596825      0.60417908428813
  H          -5.55168590404335      1.44527241718895     -0.38324503518621
  H          -3.94228603133791      0.25991775534465     -4.19004692378324
  H          -4.29170340645206      1.89075533201330     -3.59431315136628
  H          -5.49582218386773      0.60372099785802     -3.42214190260626
  H          -2.52632967918045      5.25166212158741     -1.77732855548132
  H          -2.77438607920684      3.64806667571727     -2.51422838229148
  H          -2.47537667612341      5.07020007682688     -3.55228310245693
  H           1.75324639114300      3.44528780759131     -5.18537699695035
