48
Coordinates from ORCA-job goat_0_244 E -1253.944613898028
  O           2.44234651568002      2.45714436255733     -2.67708903002865
  C           1.05662104678917      2.46983860814186     -3.00646456768449
  H           0.86944591441438      1.78757800724195     -3.84677531185031
  C           0.18865693913881      2.03130483527804     -1.83963469036357
  H           0.43065174770982      2.64528052028882     -0.96080650981577
  O           0.48907367014810      0.66338327555529     -1.59091466437153
  C          -1.28611784713846      2.24390713043742     -2.19545300303192
  H          -1.55029859925209      1.57503644325292     -3.02639941078729
  C          -2.22136753500673      2.00457466460626     -1.01726458181715
  O          -2.02550518567688      0.69803016024304     -0.49215415730903
  Si         -3.24900953293525     -0.42915711808976     -0.25870214299105
  C          -3.71290501754360     -1.23907299757077     -1.90311897360299
  C          -2.45245100546849     -1.80278004506735     -2.57483979480224
  C          -4.69903415608097     -2.38636369225832     -1.63176631267299
  C          -4.37778227833301     -0.22680833411921     -2.84710879658467
  C          -2.49126750877849     -1.66629065819386      0.91563796137927
  C          -4.72084489471625      0.42233691849023      0.52030356454655
  O          -1.49199200381266      3.60188615316116     -2.56856916852821
  C          -0.77142614038523      3.97429774136555     -3.73629034736596
  H          -1.04688502914764      3.29722150080440     -4.56138101719838
  O          -1.09749764178496      5.28399146864167     -4.04698839061904
  C          -2.40515782645409      5.42284177335379     -4.60424764529369
  C           0.72112053882034      3.88316543437420     -3.45395014067021
  H           0.95837146900412      4.59014660849745     -2.64826032022249
  O           1.43102454407063      4.21513870459569     -4.63739556721522
  H           2.70068689872546      1.53972238871232     -2.53014803016192
  H          -0.21148029857512      0.33266165807707     -1.00680099374557
  H          -1.99644090887618      2.73809518118945     -0.23604310262073
  H          -3.25314981106748      2.16232652451036     -1.34419357993084
  H          -1.96207358751688     -2.55397593679365     -1.94853540570189
  H          -1.72485159479550     -1.01499679482006     -2.78924424832449
  H          -2.71647113165648     -2.28354162256724     -3.52472655004417
  H          -4.98657060396231     -2.86180292061233     -2.57730938437570
  H          -5.61447864199206     -2.02958185921052     -1.14965553405097
  H          -4.25870205144855     -3.15789820077918     -0.99359091292570
  H          -4.66150413598168     -0.72246685863538     -3.78358173700791
  H          -3.70506849588023      0.59552509331701     -3.10494363836665
  H          -5.28487583783453      0.20112539042929     -2.41072805295874
  H          -1.59300676469133     -2.12091838699384      0.48913033793021
  H          -3.19890877124925     -2.46569536746904      1.15120453648494
  H          -2.21318122138887     -1.17195878205536      1.85085605862932
  H          -5.15173894633561      1.18607535325294     -0.13172212224782
  H          -4.42581733200082      0.89942478304869      1.45953553207421
  H          -5.50329202958577     -0.30887166821571      0.74365976513262
  H          -2.51830113798163      6.47032850245931     -4.88163293095407
  H          -3.17400111796713      5.15236347217385     -3.87610713263814
  H          -2.50857746915471      4.79454560670343     -5.49564783207397
  H           2.35186480795581      3.96546297869067     -4.48799202322024
