48
Coordinates from ORCA-job goat_0_126 E -1253.944220641065
  O           2.61444700886736      2.02591808937501     -3.31661584069027
  C           1.19711319795090      2.13598560658210     -3.24132901506769
  H           0.73859946378840      1.64743230854540     -4.11180928402218
  C           0.75564122376385      1.39426147986974     -1.98964610272876
  H           1.28564349015083      1.81350809836566     -1.12355683598074
  O           1.02764976098664      0.00396947653782     -2.10996187304937
  C          -0.74778837854318      1.57765103262692     -1.78449025824712
  H          -1.27058676034235      1.12966404920658     -2.63925520172804
  C          -1.21284204301823      0.93619754064157     -0.49026225577888
  O          -2.60205286501025      1.06669950663668     -0.26120002460193
  Si         -3.87905221377974      0.47164979999925     -1.15715679518154
  C          -3.66351575212871     -1.36725775398065     -1.56284893310444
  C          -3.28904253194052     -2.14674095243138     -0.29393059060693
  C          -5.00710065461502     -1.89606140063298     -2.09401563372116
  C          -2.59274688886149     -1.59692606501226     -2.63987463884260
  C          -5.34718126100284      0.73928487829444     -0.03046303393056
  C          -4.13636669215247      1.47291468363446     -2.72080381709921
  O          -1.04435388780518      2.96850410762958     -1.71666774615830
  C          -0.75770722967600      3.63480813206670     -2.93553504628179
  H          -1.31376152940662      3.14859936844665     -3.75407976992894
  O          -1.12722920840649      4.96687835375642     -2.81684765295448
  C          -2.54018831287411      5.17343289780833     -2.84914373624869
  C           0.74126073440046      3.58425731418256     -3.20500770631356
  H           1.25228165321837      4.11049185977976     -2.38936882597191
  O           1.06260862375465      4.16421659207812     -4.46089131255606
  H           2.89408908033095      2.37736778697496     -4.16999564958617
  H           1.95364105040683     -0.08116760015761     -2.36966299533080
  H          -0.91247174108082     -0.11431010845327     -0.49385399846125
  H          -0.70027413487486      1.42970648375859      0.34153554259629
  H          -3.21308604311002     -3.21750589700586     -0.51986568828782
  H          -4.04257315255253     -2.02670709624538      0.49019019380373
  H          -2.32681841488979     -1.82453152921626      0.11338973737005
  H          -5.32601008195896     -1.36195330382795     -2.99449365167103
  H          -5.80164302563371     -1.80734948321368     -1.34799220005684
  H          -4.91123598952594     -2.95700431795686     -2.35482262669625
  H          -2.54306935243086     -2.66381943304720     -2.89059379772912
  H          -1.59669004066019     -1.29429984504376     -2.30834336775310
  H          -2.82193197251318     -1.05208847923649     -3.56031016746633
  H          -6.28364762136343      0.50862267739402     -0.54541049768419
  H          -5.38434751364989      1.78653248649074      0.28437934364472
  H          -5.28586632242398      0.11648889253598      0.86594858386511
  H          -4.22992655597147      2.53245758582911     -2.46689483067876
  H          -5.06601881727875      1.16081643306085     -3.20693060645905
  H          -3.32682619806922      1.36784451735086     -3.44579281786779
  H          -3.01859038489046      4.74255643010535     -1.96613035950794
  H          -2.97087022001457      4.72702081280734     -3.75181341061446
  H          -2.69986266200384      6.25110537358371     -2.86196005575795
  H           0.84813116684058      5.10345860950637     -4.41366474887564
