48
Coordinates from ORCA-job goat_0_1036 E -1253.938247259991
  O          -1.55703515814976      3.96620635728990     -2.28547417639044
  C          -0.15694736735789      3.86526071015706     -2.06423558776771
  H           0.19629433328529      4.72712460432170     -1.48469822284816
  C           0.21437339871478      2.58951116618327     -1.29470429294581
  H          -0.45230187407369      2.47364602459739     -0.43442133789632
  O           1.57801594288741      2.68675610510572     -0.85367113841410
  C           0.12354331789178      1.32829424149722     -2.14278947429421
  H           0.68808662403352      0.55298143016909     -1.61884315928595
  C          -1.30145933299405      0.79791144298664     -2.30452767314083
  O          -1.72158671099030      0.31084035518983     -1.03681061702413
  Si         -3.31772466487463      0.30160774641871     -0.54440430940478
  C          -4.33813389255499     -0.87804382908699     -1.61702860374965
  C          -4.59364370469725     -0.27870489685574     -3.00792117163890
  C          -3.58889305600210     -2.20935948780882     -1.76915173432725
  C          -5.68941133388798     -1.13193833362398     -0.93073263581625
  C          -3.24192151063160     -0.28956936463112      1.22604258120934
  C          -4.01963220907222      2.03631057744645     -0.62113458176145
  O           0.80086993562383      1.47238120414484     -3.39624538979818
  C           0.44997195015532      2.58846266151672     -4.19013421787637
  H           1.20163558447560      2.59424842380361     -4.98766646366562
  O          -0.83285668407909      2.48398742358817     -4.74287959902312
  C          -0.92699526561861      1.47380688449681     -5.74345990988757
  C           0.55961043864819      3.90432969389480     -3.41517396548933
  H           0.12903516014739      4.69823971138867     -4.02788890190700
  O           1.93535752544730      4.21600955138855     -3.22630522178068
  H          -1.98684128536177      4.05211064913276     -1.42673278419441
  H           1.62589240929488      3.36981324328492     -0.17377160177990
  H          -1.97108320507294      1.57272433323879     -2.67656364155130
  H          -1.27659376801327     -0.02194835857963     -3.02906631411709
  H          -3.66350369620004     -0.08980698373200     -3.55083433874193
  H          -5.14552726717387      0.66354141608008     -2.94627849059623
  H          -5.19108108819549     -0.97502682438063     -3.60949766187144
  H          -3.38702578246313     -2.67354438596236     -0.79885273127713
  H          -2.63281746227628     -2.07426917490920     -2.28295257454713
  H          -4.18927991089874     -2.91506979908127     -2.35651788621666
  H          -5.56406458588115     -1.61632506841317      0.04177706015575
  H          -6.30799047919820     -1.78960416505848     -1.55366164175643
  H          -6.24759531961459     -0.20287078970849     -0.77618258618719
  H          -4.22712109556177     -0.23298684303785      1.69705242538484
  H          -2.55522043479896      0.33921584207066      1.80045661166988
  H          -2.89275291732603     -1.32376700561167      1.28913268208757
  H          -5.06725109506896      2.03358212504874     -0.30512429242818
  H          -3.97502493880504      2.45690187332350     -1.62855436963916
  H          -3.46641559279302      2.69697061330000      0.05382660540289
  H          -0.22111535602224      1.67407170482399     -6.55791264299234
  H          -1.94573485371110      1.50392110991546     -6.12963953052652
  H          -0.72652407641725      0.48227043464084     -5.32911510948967
  H           2.25425035523295      3.65237565003655     -2.50457738186384
