48
Coordinates from ORCA-job goat_0_146 E -1253.936827132872
  O           2.23129018926790      3.01862560485247     -0.92231191466959
  C           1.44356698254596      2.59548389315014     -2.02726600737226
  H           2.07787056648159      2.10328211074346     -2.77550595421156
  C           0.42129827930136      1.59782992619187     -1.50899483567693
  H          -0.02550330226368      2.01837084220907     -0.60081350098599
  O           1.03280624229921      0.34644604081916     -1.19991458731637
  C          -0.68420954585436      1.35644674901662     -2.54847459296039
  H          -0.76422802439806      0.27780776920242     -2.69218246761299
  C          -2.04863799655304      1.86446524950179     -2.08560435684346
  O          -2.41669167720640      1.13843202532227     -0.92305442619219
  Si         -3.88435525233294      0.36099715913427     -0.73176118755495
  C          -3.87871804105697     -1.29889400044031     -1.64087258840881
  C          -3.74621091195841     -1.09364312598682     -3.15684309305759
  C          -2.70446858154698     -2.15479509236256     -1.14463010220326
  C          -5.19773208531886     -2.03277855428428     -1.35285669499092
  C          -4.03335339478700      0.11145010707519      1.11372293818510
  C          -5.26043406030301      1.46398841353954     -1.36161909789710
  O          -0.33212674917760      1.86711820800951     -3.83734520031453
  C          -0.03496151007607      3.24692988032759     -3.91077379018115
  H           0.61016252081285      3.34343528858415     -4.79173843043238
  O          -1.17966762324991      4.04172872157316     -4.07071712282630
  C          -1.83220964145813      3.84195947087209     -5.32246535826268
  C           0.71644618636007      3.75762217913384     -2.67804555571827
  H           0.00438153748407      4.18549369183696     -1.96409146229685
  O           1.68326532501604      4.73612824377520     -3.04142759987098
  H           2.82551533169331      3.70760417301859     -1.24503305429060
  H           1.71344255644240      0.51421706923648     -0.53643857342264
  H          -2.01291381461553      2.92965237090026     -1.84309954105516
  H          -2.76469530470456      1.73201601878506     -2.90210770816617
  H          -3.77744278958163     -2.06374931959324     -3.66807157055366
  H          -2.79981485114775     -0.61563447752973     -3.42280981692580
  H          -4.55984512997187     -0.48194680300346     -3.55742405154129
  H          -2.69171333947945     -3.11726162397817     -1.67089110254098
  H          -2.78170563274583     -2.36389014541200     -0.07355212374341
  H          -1.74414805164202     -1.66259692554689     -1.32400364060226
  H          -5.20751253854897     -3.00010250933034     -1.86988904420416
  H          -6.06336923562173     -1.46208037548698     -1.70273026985395
  H          -5.32960138958716     -2.22696869213545     -0.28440126022949
  H          -3.19169478480755     -0.46685927989105      1.50425635037089
  H          -4.95663449238108     -0.41713652352110      1.36615341019678
  H          -4.04687553186839      1.07992160585100      1.62217980134899
  H          -6.23462680113504      1.01009856052676     -1.15784496941721
  H          -5.19128030257582      1.64094360319250     -2.43795070506168
  H          -5.22643212571573      2.43243782862208     -0.85339846596654
  H          -1.13453197309703      4.01040733515614     -6.15088981367921
  H          -2.64297906034737      4.56813027321862     -5.37654593955344
  H          -2.24323274255672      2.83156514518401     -5.39524342815624
  H           1.24234257196774      5.58988188994003     -3.11252749328007
