48
Coordinates from ORCA-job goat_0_1145 E -1253.935474008221
  O           1.46986121594182      4.94539428560782     -1.39723115344267
  C           1.35429647882421      3.65491130428367     -1.98686183438797
  H           2.34958297775083      3.20615677994790     -1.93143690470692
  C           0.39743799974198      2.76500791047887     -1.18805304407217
  H          -0.37337331700726      3.39876219810568     -0.73897463620172
  O           1.15821958393280      2.12327573521770     -0.16525684607600
  C          -0.27820089016296      1.73224242608116     -2.09504976527583
  H           0.49292898906852      1.08652764455593     -2.52940551695146
  C          -1.27090676223560      0.87089819509213     -1.33852791425480
  O          -1.72409468204638     -0.18901589927497     -2.16436247736585
  Si         -3.32852301860246     -0.51199754936081     -2.49572214658645
  C          -4.07906926824833     -1.52026670824145     -1.08120671590408
  C          -5.57698413449259     -1.73689394748305     -1.34118339745636
  C          -3.37697924616322     -2.88241673395430     -0.98926230965545
  C          -3.90121052453980     -0.77428137662527      0.24919423474118
  C          -4.28124103831881      1.08001007155435     -2.74481919406312
  C          -3.28993400106991     -1.50348291569816     -4.07913684469519
  O          -1.00602720795682      2.36294656179263     -3.16189985382363
  C          -0.54311739081958      3.61062115428941     -3.61160885200157
  H          -0.86801663153879      3.68470855663045     -4.65530965734919
  O          -1.07924555750294      4.68363174088890     -2.86805769605262
  C          -2.49890141143837      4.77701541253331     -2.94615221832263
  C           0.96326754566665      3.74479146853546     -3.47412439317761
  H           1.26513158724563      4.72653991638149     -3.85086391741710
  O           1.54106630100725      2.70368318268607     -4.25003169449757
  H           0.60443603566862      5.36732076210393     -1.48367912292850
  H           0.59253768186741      1.98573116140126      0.60169088965691
  H          -0.78158916897667      0.44511853484759     -0.45820828348685
  H          -2.09949828362074      1.50360203455614     -0.99971416415421
  H          -6.01212909438691     -2.35183659459659     -0.54373443022758
  H          -5.75466814026540     -2.25215919092148     -2.29037785482591
  H          -6.12274913274340     -0.78916262473532     -1.36409096222188
  H          -3.52844186930917     -3.47545282946247     -1.89582984649760
  H          -3.77662098968196     -3.45741017446560     -0.14471133494052
  H          -2.29921671552272     -2.76934385735561     -0.83570349985211
  H          -4.37166810022609     -1.34045833294549      1.06263124853412
  H          -4.36359840856075      0.21739248504414      0.22610106113087
  H          -2.84460641385711     -0.64996073099357      0.50258581359770
  H          -5.28625202430752      0.85412022162412     -3.11345662660264
  H          -3.77650969491676      1.70573622036375     -3.48509078416181
  H          -4.38425440134656      1.65772628748891     -1.82262920316406
  H          -2.93357242527981     -0.88101085423686     -4.90511343048875
  H          -4.28798447608432     -1.87014050701533     -4.33584311300108
  H          -2.62347603982330     -2.36531505872076     -3.98857466675820
  H          -2.78123305222273      5.71152370155944     -2.46199096047230
  H          -2.97694201963581      3.93925686464934     -2.43301199106557
  H          -2.82475077706344      4.79426210135742     -3.99237576881750
  H           2.49464991325944      2.84427096642774     -4.27137822025531
