48
Coordinates from ORCA-job goat_0_217 E -1253.943550852820
  O           2.81668418254588      3.58978871858872     -1.85707368485877
  C           1.61302976267283      3.04428275005143     -2.38433493413272
  H           1.82428133662821      2.51992985647985     -3.32834077033234
  C           1.09822471370528      2.02411091065800     -1.38570446480275
  H           0.96093292891685      2.51553841996047     -0.41266797271065
  O           2.00630447880869      0.93616784016716     -1.26726440058997
  C          -0.24772657836428      1.48121575986072     -1.86221677556774
  H          -0.10498277469257      0.95058625275825     -2.81387550519827
  C          -0.85521039154226      0.52993929726058     -0.84554885849103
  O          -1.83028207471642     -0.33209889840051     -1.39886050801982
  Si         -3.40376239625986      0.05284480061176     -1.80281093990829
  C          -4.39458982445994     -1.52147595692421     -1.45919883989291
  C          -5.82938213500859     -1.34300411400487     -1.97693021931744
  C          -3.74760462873341     -2.71899626230386     -2.16963041492401
  C          -4.42923733108535     -1.79419580213106      0.05102273446183
  C          -4.02691424365302      1.46479567021527     -0.74417667509252
  C          -3.47957265307489      0.46887211985106     -3.62749849701428
  O          -1.15351797133457      2.56992067753595     -2.04012378709093
  C          -0.75108142764254      3.49346114997284     -3.04345329144492
  H          -0.66059799020543      2.96095825223585     -4.00626679484435
  O          -1.70310302434849      4.49677651837954     -3.12540285031977
  C          -2.91467163861571      4.10453829183794     -3.76890420053843
  C           0.58010902022093      4.12997182742528     -2.65117979234975
  H           0.41952706659840      4.71449924192557     -1.74140629590408
  O           1.05505508193504      5.04338185892043     -3.63047699113789
  H           3.15743002374884      4.22197515233162     -2.50161758327542
  H           2.87630929898409      1.31216909132350     -1.08468683721351
  H          -0.05827513328554     -0.09849072221844     -0.44421218844258
  H          -1.27158947827265      1.12268030278371     -0.02263826401124
  H          -6.42129267744760     -2.24188055086850     -1.76485319565504
  H          -5.85005779472411     -1.18053465720128     -3.05874365270367
  H          -6.33184434285112     -0.49628622227304     -1.49872551283837
  H          -2.72668268035120     -2.88888928674038     -1.81686929016045
  H          -3.71186771692581     -2.57737856149760     -3.25396102574009
  H          -4.32728996059540     -3.62966883398861     -1.97374969107928
  H          -4.97055754973258     -2.72641533789219      0.25476674944646
  H          -4.93529221818693     -0.99124362181410      0.59471642324448
  H          -3.42050501320985     -1.89768499652400      0.46257872395297
  H          -3.49519910955949      2.39051414823439     -0.97005603866071
  H          -3.89885164906234      1.24578153239037      0.31959753865266
  H          -5.09329356180934      1.62607781255013     -0.92877799146458
  H          -4.44681302956011      0.90282215551828     -3.89721050083471
  H          -3.32914724769622     -0.42819360016723     -4.23472847078732
  H          -2.69958951252134      1.18774107276290     -3.88550606422255
  H          -2.70244363425611      3.64863113304373     -4.74202177744193
  H          -3.49985991689321      5.01256388357130     -3.91247401149368
  H          -3.47882926308960      3.40034005993951     -3.15387919051497
  H           1.17146067900332      4.56614086580352     -4.46247341873460
