48
Coordinates from ORCA-job goat_0_111 E -1253.937222012166
  O           2.60894075033547      3.53742496112593     -3.12811172860468
  C           1.20497685719202      3.29387766773541     -3.10349002926491
  H           0.93237046828274      3.04637248170169     -4.13296176954026
  C           0.84777367516483      2.12589085266038     -2.19908391669903
  H           1.02952975968055      2.41567258460373     -1.15369747424610
  O           1.61010034362706      0.96779977778216     -2.51318950360480
  C          -0.62643018018654      1.77280590821512     -2.40903504118186
  H          -0.66345815705132      1.08443714926710     -3.25750584079521
  C          -1.20379157125621      1.08389874738245     -1.17952914957656
  O          -2.55594228343901      0.69990364968514     -1.34104500983279
  Si         -3.08613277249626     -0.52414094421742     -2.34798707440537
  C          -4.63921416898341     -1.20261559234746     -1.51540279062046
  C          -5.27090053995269     -2.28574469061250     -2.40194099006829
  C          -4.27015735959458     -1.81254225680853     -0.15578695130486
  C          -5.65156558815445     -0.06764251807187     -1.30300495926553
  C          -3.49151026780096      0.17209665837102     -4.03908770177485
  C          -1.75536409026128     -1.83288058288621     -2.50201237505844
  O          -1.40712789921042      2.89932717307789     -2.82906762865790
  C          -1.02949644912300      4.16313509929098     -2.32931642844956
  H          -1.69608514073375      4.86567616019170     -2.84087093947778
  O          -1.19200446922597      4.26577602165436     -0.93895920403572
  C          -2.55958770325062      4.20304946960403     -0.53435365115594
  C           0.42851814130245      4.52299116767543     -2.65746480264541
  H           0.88947818655421      4.91434690526321     -1.74213926446667
  O           0.41301369096825      5.52805648166535     -3.66410530125252
  H           2.88088736327831      3.84568783047806     -2.25323828666632
  H           2.53547552421998      1.24313268067645     -2.54727265219834
  H          -0.57332484475189      0.21320733861515     -0.96241912845267
  H          -1.15130229256632      1.75819607580522     -0.32271712961077
  H          -6.16423663769378     -2.69533137278848     -1.91483335815280
  H          -4.58112904025302     -3.11651712198288     -2.58015549919773
  H          -5.57724220068683     -1.88595382303288     -3.37297707520128
  H          -3.80236105018189     -1.07333316069443      0.50096342731510
  H          -3.57889674456246     -2.65334303383232     -0.26584353809118
  H          -5.17111398511864     -2.18594517563275      0.34635987713780
  H          -6.55147291620576     -0.45468372354498     -0.80920214463590
  H          -5.96061468546488      0.38023475784896     -2.25223147694880
  H          -5.23823816950080      0.72522184202270     -0.67311036885630
  H          -4.23089540569645      0.97454179178340     -3.96752676026562
  H          -3.89805892988188     -0.60883643874323     -4.68861077250139
  H          -2.59787618395381      0.57778159787352     -4.52089519939495
  H          -1.43761425153353     -2.20095770932276     -1.52277139694883
  H          -0.87536131385602     -1.44381725544839     -3.02250561618794
  H          -2.13383456404326     -2.68259198622494     -3.07793400134316
  H          -2.57614625990551      4.36493521525831      0.54321297048464
  H          -2.99702148328160      3.22884093070437     -0.76482616097606
  H          -3.13856950886200      4.98955555417137     -1.03154885686417
  H           1.33084434811502      5.72558285400179     -3.88861732645740
