48
Coordinates from ORCA-job goat_0_322 E -1253.937723246937
  O           1.64249339677496      2.18602867722728     -0.66985495561009
  C           1.06560200814784      2.50238651062648     -1.93022129644958
  H           1.85365988214634      2.62068060518945     -2.68633618732334
  C           0.16399411939577      1.34634645309646     -2.32794245422346
  H          -0.44877187201828      1.08953005418292     -1.45703681293325
  O           0.92355544072076      0.20527448107799     -2.72303319637248
  C          -0.75591926323276      1.74831679646220     -3.49118603420617
  H          -0.63980528763827      0.99831330035337     -4.27566431260567
  C          -2.22956344533611      1.76546194034710     -3.08937654592699
  O          -2.58943546980712      0.43367951184745     -2.75985361229370
  Si         -3.66305930718617      0.08464196203485     -1.52683061992308
  C          -3.69129316095187     -1.79878795546196     -1.44296830703810
  C          -2.28888592078516     -2.32208810294292     -1.09955652276659
  C          -4.68160029592644     -2.24524510978889     -0.35726675068697
  C          -4.12956639455391     -2.37618617038198     -2.79657082129799
  C          -3.05668485696337      0.83878076200803      0.07723469589264
  C          -5.33937645118381      0.80262012315556     -1.94848847901870
  O          -0.34801667110772      2.97600652568451     -4.10179006134831
  C          -0.29096728990534      4.11027645392509     -3.26069222884257
  H           0.40762649135064      4.78696450714056     -3.77006367195296
  O          -1.53317038502975      4.74101604784151     -3.11227046600361
  C          -2.01372792825999      5.32743606412556     -4.31986801965927
  C           0.23869456158581      3.77752494314643     -1.86237240798995
  H          -0.60294343728895      3.62522931863012     -1.18151575159451
  O           0.97812192735156      4.85962463918562     -1.31127706152465
  H           2.11290793982598      2.97202434358840     -0.36465828430890
  H           1.46133646797220     -0.06062976558144     -1.96705432091052
  H          -2.39592629940528      2.44413431673537     -2.24743564809571
  H          -2.82700401869292      2.12297629896257     -3.93388169141517
  H          -1.55041135078839     -2.01048937010661     -1.84393548618239
  H          -2.29459791480781     -3.41859910459877     -1.06982683964917
  H          -1.95327635804932     -1.96561297590575     -0.12122469812674
  H          -4.70113905258300     -3.34003572760444     -0.29496089220082
  H          -5.69935471358146     -1.90765702782928     -0.57549654036046
  H          -4.40207497257759     -1.86248653811616      0.62901563874478
  H          -5.13374675506126     -2.04088433209569     -3.07280122127631
  H          -4.14648783980962     -3.47194961728961     -2.74869742182752
  H          -3.44329526992262     -2.08582837503538     -3.59686627497745
  H          -2.06084398332072      0.47525262888093      0.34363400101134
  H          -3.74182797961348      0.58416631637127      0.89150391351516
  H          -3.01518435225425      1.92981783065183      0.00969309944170
  H          -5.26782293537482      1.88984772765781     -2.05388731837019
  H          -6.06481914814238      0.59078725145051     -1.15765414325652
  H          -5.72513813330172      0.39469042933537     -2.88666131834914
  H          -2.23349479072529      4.56243182452957     -5.06921485484829
  H          -1.27761433558672      6.03145068432009     -4.72481077273778
  H          -2.92890394868594      5.86300688137047     -4.06876402034039
  H           1.69558935418783      5.08233396159622     -1.91906302377986
