48
Coordinates from ORCA-job goat_0_350 E -1253.935417584798
  O           2.20017348226976      3.93755442952342     -3.00850073952162
  C           1.01613527661048      3.22222539005860     -3.34791806898021
  H           1.20631752029203      2.76834461455847     -4.32390523255598
  C           0.75584276651792      2.08931479143104     -2.34565278881516
  H           1.11115606927411      2.40942435715068     -1.35963082206955
  O           1.41988035881938      0.88971699009865     -2.73430176304198
  C          -0.73467596444728      1.77793112801775     -2.24453313385181
  H          -1.08908054643252      1.45665551173603     -3.22990867907461
  C          -1.00440198809787      0.68758304227899     -1.22077758809420
  O          -2.38147579839321      0.37236201263639     -1.10413768568484
  Si         -3.27679227354802     -0.39382752488731     -2.28856461818156
  C          -4.61247881501931     -1.34584552840473     -1.35184623095658
  C          -5.40074414216481     -0.38385817110935     -0.45114384568301
  C          -5.57397198514319     -2.00756728104158     -2.34953231579050
  C          -3.95903739906272     -2.43001502977548     -0.48331662388382
  C          -4.05026064142235      0.87253334020131     -3.43171098593611
  C          -2.17050554280379     -1.54345648856530     -3.26970398771633
  O          -1.48518214937262      2.93247929648295     -1.84251379894072
  C          -0.97399948088084      4.19515088971796     -2.19208550032553
  H          -1.84617963512356      4.85514113813174     -2.25429005462135
  O          -0.06628288591876      4.68984110192469     -1.23310834345578
  C          -0.65431807517333      4.89914983763693      0.04805963196696
  C          -0.19843210216622      4.15720612133029     -3.49709736607192
  H           0.16400435468972      5.16499770199223     -3.72110557095032
  O          -1.10226972162744      3.70592408417207     -4.49659140730869
  H           2.02915614265728      4.37549881454417     -2.16379246823715
  H           2.36686923419246      1.07220915688143     -2.74888687201691
  H          -0.42597992389539     -0.19925324826903     -1.49195274283702
  H          -0.66367520695969      1.03477048655027     -0.24026660346305
  H          -4.75040562852918      0.10051352349107      0.28249027972655
  H          -6.17603554058093     -0.93289321528139      0.09749395127815
  H          -5.89749948941023      0.39878469053394     -1.03243351719430
  H          -6.09314158609536     -1.26585427305830     -2.96339768171155
  H          -6.33553035676388     -2.58435640792388     -1.81062750411247
  H          -5.05147077916441     -2.69636712102901     -3.02064558088116
  H          -3.42396321127299     -3.16524252057061     -1.09156313721892
  H          -4.72569342579720     -2.96674821670028      0.08905208749112
  H          -3.24964409427045     -1.99947719648909      0.22948724779998
  H          -3.28513152224144      1.44588937198107     -3.96150041467430
  H          -4.67439372680234      1.57606256301303     -2.87373937219763
  H          -4.67864043770534      0.37909818339664     -4.17923124396165
  H          -1.43368954063626     -0.98361792892076     -3.85295493373896
  H          -2.77101188663159     -2.13262788057054     -3.96920377158553
  H          -1.63323605897503     -2.23643349877099     -2.61652823277043
  H          -0.95705974524123      3.95146840217253      0.50045866165286
  H          -1.52654192496721      5.55739027071664     -0.03478064010817
  H           0.10335376295223      5.37512843893308      0.66972628809747
  H          -0.66222573553740      3.77967185007357     -5.35123627979139
