48
Coordinates from ORCA-job goat_0_239 E -1253.945096936088
  O           2.14367101227898      2.48311532210951     -1.15539346283304
  C           1.21376710743410      2.65797684270827     -2.21836893894076
  H           1.75122941535658      2.91578844240741     -3.14351976064464
  C           0.50622791453801      1.33215206819193     -2.42992184831966
  H           0.03305883292197      1.02832611770212     -1.48932660205813
  O           1.41492737185432      0.33216174777770     -2.87408506693696
  C          -0.57770103760881      1.49403701751401     -3.49035115769014
  H          -0.10900338044971      1.76331238540305     -4.44844733087492
  C          -1.38934252892182      0.22924591288792     -3.70538447650370
  O          -1.88209683326332     -0.32132968669700     -2.50035554982058
  Si         -3.27180715751155      0.12555168843861     -1.68810947063573
  C          -3.96368164913561     -1.49902448306512     -1.00791824990666
  C          -2.90779070770592     -2.18568263756827     -0.12951740434022
  C          -5.21839326286119     -1.22344783713987     -0.16688218804993
  C          -4.33183335703777     -2.42899662276253     -2.17253960528054
  C          -2.85122073832319      1.28709096274434     -0.28140782566680
  C          -4.48431446669612      0.93210106491119     -2.86391255848534
  O          -1.47498228964463      2.52302194368944     -3.08440869691371
  C          -0.86204766333132      3.79957298449243     -2.98629240643737
  H          -0.42156206008125      4.06117354210461     -3.96480296573147
  O          -1.83295508606226      4.72131879023857     -2.62797755786203
  C          -2.74083387631819      5.02786264693562     -3.68631127495565
  C           0.21844189949662      3.76972649531332     -1.90881252342803
  H          -0.26320280859218      3.57326923999971     -0.94729985210482
  O           0.88586633862737      5.01699489137472     -1.77146336856827
  H           2.59493189416694      3.32554290789765     -1.02160587454398
  H           2.14292864943699      0.30831905966868     -2.24106885163314
  H          -2.20599601325428      0.45841348940125     -4.39819617796571
  H          -0.74464623857653     -0.51782766647550     -4.17418446697173
  H          -1.99866644268312     -2.40712712586185     -0.69587441437566
  H          -3.29980713003521     -3.13344834823640      0.26029612458292
  H          -2.62935164935946     -1.56516533202876      0.72771073103596
  H          -5.62968196864934     -2.16614192991293      0.21469038363403
  H          -6.00178036856371     -0.73578134592661     -0.75531063346693
  H          -4.99729402406612     -0.58651734371446      0.69455901137337
  H          -4.70657898628790     -3.38585215503802     -1.78826212425418
  H          -3.46540713602983     -2.63911356289984     -2.80652206007325
  H          -5.11455250303241     -1.99536116633696     -2.80214091762457
  H          -2.48495515592393      2.23744725502470     -0.67449211622057
  H          -2.07741013799192      0.86000311167033      0.36296021797030
  H          -3.73368118488340      1.48515395260195      0.33430606424039
  H          -4.09748028544416      1.89045921895851     -3.21727934540838
  H          -5.43221571901274      1.11647920219868     -2.34945920452832
  H          -4.68899264398874      0.30017231511614     -3.73244171281985
  H          -3.38910747639657      5.82458207795768     -3.32279086328264
  H          -3.34589453819278      4.15726313557769     -3.95143750262445
  H          -2.19393707374279      5.37530362240736     -4.56970594339341
  H           1.29298514354818      5.24045778823909     -2.61879018066062
