48
Coordinates from ORCA-job goat_0_226 E -1253.937828124063
  O           0.73790889266178      4.26303543399524     -0.70442452161946
  C           0.71370499835008      3.49410848737837     -1.89988676384807
  H           1.68458944386250      3.55704254964885     -2.40766970188760
  C           0.44575389378727      2.04932518748049     -1.51281974763072
  H          -0.38211479379280      2.04665046835889     -0.79508227266542
  O           1.59374692162993      1.45309697934807     -0.91206288308524
  C           0.04732351216375      1.21759760284307     -2.74145762385862
  H           0.68418095020294      0.33126482193892     -2.75985344773433
  C          -1.40244323166343      0.74105707705704     -2.67974833903714
  O          -1.50993976038104     -0.16132057194192     -1.59110984319546
  Si         -2.84950772457533     -0.23072940957923     -0.59154809028479
  C          -4.35542453702523     -0.86018742409924     -1.54942721262965
  C          -4.90216917398452      0.22145807590958     -2.49295440070580
  C          -3.95980000630360     -2.09470890516242     -2.37178150206133
  C          -5.45513735567512     -1.24742609025958     -0.54845962351011
  C          -2.35163390409178     -1.42939786900995      0.75096875544505
  C          -3.18369609015504      1.46499421670784      0.13071555522057
  O           0.33426992095188      1.89757008252516     -3.96647644779091
  C          -0.28610544419206      3.15480817695460     -4.14590610245816
  H           0.36073179261393      3.68274333639949     -4.85606102627994
  O          -1.58304218253734      3.05127504328595     -4.67091345261349
  C          -1.61126946817465      2.54690065202367     -6.00408982986518
  C          -0.37503690570827      3.96240587840850     -2.84766915039813
  H          -1.35362626646731      3.80367322712688     -2.38133300497485
  O          -0.17734677374589      5.34911323922808     -3.09600227030913
  H           0.83022113049979      5.18816997247128     -0.96434228131843
  H           1.81557217941222      1.97536469571403     -0.13119950078415
  H          -2.08416515275113      1.58795802388230     -2.56418969660516
  H          -1.65111149486810      0.23418004010787     -3.61734797488446
  H          -4.16636478273888      0.52037047003163     -3.24456116263099
  H          -5.20899204989628      1.11724206838246     -1.94546132786421
  H          -5.78156858493747     -0.16000923815595     -3.02643777210723
  H          -3.56780388135501     -2.89588962982434     -1.73766504972373
  H          -3.19653268970364     -1.85059084105023     -3.11623626123108
  H          -4.83426752392759     -2.48965358301389     -2.90351159960738
  H          -6.34782894059875     -1.58838317095001     -1.08696080657442
  H          -5.75103458211284     -0.39961579515867      0.07780343169330
  H          -5.13435168479406     -2.05877005664954      0.11102020786313
  H          -1.40691707498454     -1.11181401041181      1.20197078457873
  H          -2.22003671919561     -2.44083172540543      0.35707981693696
  H          -3.10836551588802     -1.46625061146846      1.53941357067047
  H          -4.09818635888067      1.44533486388330      0.73142619489377
  H          -3.30865235106857      2.22779436995981     -0.64218261911004
  H          -2.35884762547117      1.77031461839932      0.78130981692916
  H          -0.98521981491405      3.16172222237688     -6.66092364500462
  H          -2.64709871871388      2.59507809567690     -6.33917844317136
  H          -1.26502957540180      1.51061582719764     -6.04001162745430
  H          -1.00950489546021      5.72589312743852     -3.40261110771591
