48
Coordinates from ORCA-job goat_0_1047 E -1253.935013158914
  O          -0.16174957463374      2.22343422159973     -0.75737018713971
  C           0.83198975771713      2.41158865421978     -1.74897634071699
  H           1.80559647542292      2.41391775753500     -1.25047228704055
  C           0.82825091581672      1.29336484655972     -2.79257830383194
  H           0.88276692462825      0.32884925129317     -2.28234399949691
  O           1.99430585410149      1.37539983876855     -3.61142479055148
  C          -0.46570772592145      1.34079603413770     -3.64405189513695
  H          -0.16681634897788      1.22329897844305     -4.69386749894805
  C          -1.44651854879555      0.23584598763685     -3.30426182692694
  O          -1.85194257588637      0.34408741149674     -1.94410862899929
  Si         -3.45761473048750      0.34209158778531     -1.43870274002768
  C          -3.99658691779600     -1.43981663173066     -1.12902284772545
  C          -3.18379246857287     -2.03116772447330      0.03128718715803
  C          -5.49034694982480     -1.46584427232763     -0.77345454020744
  C          -3.75958929066901     -2.28220531821078     -2.39091036780158
  C          -3.44169964555164      1.34269865595763      0.13760653018548
  C          -4.53510624556498      1.15840983736039     -2.73101304041047
  O          -1.17635501599480      2.56999536255907     -3.48793459839101
  C          -0.33836698461971      3.69907607318329     -3.60822862579922
  H           0.23010584581536      3.63660260456199     -4.54647289981494
  O          -1.13027515983408      4.84248861466518     -3.73161767820533
  C          -2.11748112826506      5.01352907158247     -2.71097505027952
  C           0.66614342299078      3.77217375953916     -2.43808555215189
  H           0.32761793380196      4.49311664118589     -1.69078443905163
  O           1.95820205691308      4.14883089733452     -2.92874756287402
  H          -0.85673726908034      1.64319732556281     -1.11732169308165
  H           2.22671420911186      2.30974289633574     -3.72165249447483
  H          -2.30601871530566      0.30551186374953     -3.97625510827191
  H          -0.95996288203019     -0.73073375288885     -3.46485192512699
  H          -3.36382269080123     -1.49151337897334      0.96552026052089
  H          -2.10941032702149     -2.00125588745876     -0.17526646657889
  H          -3.46432592369514     -3.07927180489481      0.19202303952802
  H          -5.80870641067909     -2.49435169777937     -0.56441395670223
  H          -6.10685492164118     -1.08808194060835     -1.59448149781719
  H          -5.70677326118996     -0.86551324586666      0.11587841410713
  H          -4.30309691274067     -1.88621881725101     -3.25422615969590
  H          -4.10438716211264     -3.31013365930530     -2.22523155682017
  H          -2.69795099897436     -2.32824797689192     -2.64979076941204
  H          -3.23269245815734      2.39396330981501     -0.08153457517955
  H          -2.67872674726731      0.97910369374238      0.83119972666256
  H          -4.41193759986331      1.28635563824514      0.63920677723342
  H          -5.52148695379712      1.36062372148467     -2.30291403665737
  H          -4.67643777345367      0.53575773147507     -3.61783912396307
  H          -4.09911683611005      2.11094130906059     -3.04385332000687
  H          -1.69147368026253      4.90896083553576     -1.70926082120689
  H          -2.92921812594104      4.29333644951115     -2.83016561013875
  H          -2.50547846113431      6.02474216088368     -2.83026567258394
  H           1.88070202633494      4.99510308585404     -3.38584144614792
