48
Coordinates from ORCA-job goat_0_229 E -1253.936757744872
  O           2.74941427536021      2.74552030650177     -3.50203260084197
  C           1.35010657451261      2.99613191063382     -3.44103069592026
  H           0.94947409718945      3.13643671973375     -4.45400551797688
  C           0.68975910163422      1.78126913371433     -2.81937257406504
  H           1.01868235372899      1.69707615356467     -1.77427080202664
  O           1.01505423476349      0.58702362308290     -3.52003279863218
  C          -0.82918755864802      1.94521457938630     -2.89430735138603
  H          -1.14546936583619      1.57542230437073     -3.87338024321263
  C          -1.52125887330386      1.12168664099696     -1.81928964289673
  O          -2.93040902124740      1.17345842209674     -1.96889616493931
  Si         -3.84737320920022     -0.12557477161580     -2.48493505550173
  C          -4.27699496443879     -1.22116228587624     -1.00432545729800
  C          -5.17491414320274     -0.44200096217605     -0.03277948228513
  C          -5.01948189158385     -2.47454554933475     -1.48952856025769
  C          -2.99573692354060     -1.64396278729821     -0.27157930654463
  C          -5.38431505378243      0.63527792497454     -3.22558677812337
  C          -2.90502968731754     -1.09927311848808     -3.77910054029760
  O          -1.23663285885558      3.32058835261520     -2.88114978668938
  C          -0.43784902508982      4.21477993815972     -2.13648446621881
  H          -0.88254089126838      5.19774367074182     -2.32908613623991
  O          -0.45661072324406      3.93985924012809     -0.75975445946665
  C          -1.73496409370767      4.16342558275594     -0.16631906164935
  C           1.03390002454525      4.22180469339715     -2.59514903838071
  H           1.66464951782368      4.19869598690744     -1.70492492062098
  O           1.37817279256601      5.42218105025678     -3.27799516507210
  H           3.16035751676811      3.46571609237684     -3.99416226563271
  H           1.97856852245577      0.54060291835687     -3.56183899951953
  H          -1.14108869378190      0.09699858307525     -1.89490032088712
  H          -1.25725868575907      1.50113704177648     -0.82994289472798
  H          -5.39348677286471     -1.05271572312304      0.85194993279337
  H          -6.12928231183908     -0.17223910865375     -0.49412492665897
  H          -4.69207473727030      0.47893847023318      0.30888058026168
  H          -5.93333489098593     -2.21985818724223     -2.03558470329666
  H          -5.30789432662514     -3.09595680707936     -0.63278973137714
  H          -4.39300256104765     -3.08540059384726     -2.14607878913512
  H          -2.30736353534033     -2.18225045693302     -0.93047941563983
  H          -3.24373280305770     -2.30993336769833      0.56415673948022
  H          -2.46562242770312     -0.78049806465567      0.14037932737149
  H          -5.13205306231658      1.18626703264523     -4.13631530779392
  H          -5.85589954470794      1.33001157673525     -2.52547906944738
  H          -6.11604903354187     -0.13499704840341     -3.48563647230472
  H          -2.56086440173550     -0.43803142582111     -4.57971177419714
  H          -3.56089962845289     -1.85313168770699     -4.22437113197925
  H          -2.03522949960070     -1.61518161720281     -3.36422754166740
  H          -2.48876270006795      3.48826773084582     -0.57887353859659
  H          -2.05082099985139      5.20067588069904     -0.32509406800964
  H          -1.62382483787861      3.97582851639074      0.90140915811150
  H           0.85700472734794      5.47125348600239     -4.08969818060300
