48
Coordinates from ORCA-job goat_0_31 E -1253.938727252813
  O           2.17304207042210      2.96735483798246     -3.96704267637869
  C           0.85513284793525      3.29542841327565     -3.54432571403445
  H           0.28361107621030      3.71121043442813     -4.38419340594458
  C           0.10875020354154      2.09761472048844     -2.99214027796562
  H           0.60210751000234      1.75401417697956     -2.07385358398481
  O           0.14109981207234      1.06393230045848     -3.96976091374977
  C          -1.33493491755159      2.52260008399350     -2.70035770041903
  H          -1.87992902058293      2.46728679844497     -3.64744957920775
  C          -2.00906110766725      1.59610760918700     -1.69558820259412
  O          -1.95881234281847      0.26510272144933     -2.20440607641682
  Si         -3.31858544985661     -0.57351869646258     -2.72009383262870
  C          -4.14376024411308     -1.39577625009589     -1.23295649772038
  C          -3.20843409777677     -2.46731351304064     -0.65473960875322
  C          -4.44040787668476     -0.35043595465608     -0.14804545189806
  C          -5.45893021893466     -2.05258971074410     -1.67722886416078
  C          -4.49395199321748      0.60071129979993     -3.58193616852194
  C          -2.65339591538007     -1.84016052654181     -3.91982893126132
  O          -1.44031976411481      3.88966773965811     -2.27959796715603
  C          -0.31727465758287      4.43777508893277     -1.62240999708149
  H          -0.57547203006692      5.49192246871314     -1.47818535113858
  O          -0.07444875989875      3.82328307325818     -0.38365051830450
  C          -1.07192104879174      4.12538502278902      0.59035403192066
  C           0.97106990386398      4.34758432277418     -2.45467963361188
  H           1.78487861516778      4.05453395551223     -1.78337743778044
  O           1.22211168463027      5.64084792221970     -2.99539009492600
  H           2.09580455536230      2.28100105467738     -4.64115276425888
  H          -0.40081042653822      0.34478868068791     -3.61532448721588
  H          -1.47545391118853      1.62125866089604     -0.74279556101820
  H          -3.03658223791735      1.93081683387078     -1.52530919067176
  H          -2.24381475042706     -2.04211963115749     -0.36026263693318
  H          -3.01922630226992     -3.26798651226501     -1.37542323394643
  H          -3.65971122328722     -2.92062508936924      0.23634977533489
  H          -3.52169213980610      0.10274150975259      0.23513603463621
  H          -4.95371594342434     -0.82404673604403      0.69775619534774
  H          -5.08593503635127      0.45153959745429     -0.51938551626522
  H          -5.29763723365372     -2.79180969030166     -2.46835358710840
  H          -6.17408669791841     -1.31214577117472     -2.04714494921235
  H          -5.92447397309714     -2.57056877401964     -0.82991178986062
  H          -4.94978100827965      1.31883241029445     -2.89565531409844
  H          -5.29978531470571      0.03233371419029     -4.05560046155741
  H          -3.97018400121833      1.15702017395560     -4.36479085215060
  H          -2.26147500073081     -1.34568524105918     -4.81373700059321
  H          -3.44138752408717     -2.53149184921418     -4.23197316289768
  H          -1.84642281575356     -2.42444535304328     -3.46980428492881
  H          -0.77393767615525      3.62730733885899      1.51253104498604
  H          -2.05528158032845      3.76067306426192      0.28252006894185
  H          -1.12390569019851      5.20700317205099      0.75744047224729
  H           2.03516165316768      5.58562009789300     -3.51207434505821
