48
Coordinates from ORCA-job goat_0_1066 E -1253.938810487594
  O          -0.60872615615327      2.52679676455005     -0.27595325874248
  C           0.44769575425382      2.85890972189153     -1.16468367859871
  H           1.31973486017733      3.10271811470863     -0.54820251163405
  C           0.81008152406712      1.66370589671008     -2.05310023598940
  H           0.92140629235655      0.77733462301857     -1.41863737517142
  O           2.02632821289569      1.91289848747522     -2.75802704744919
  C          -0.27567250840906      1.40204395560734     -3.11680350495628
  H           0.24479237318904      1.18690488896281     -4.05949968976823
  C          -1.16603291910301      0.21581902126450     -2.80507550825346
  O          -1.84774242247176      0.40432506476754     -1.56978218380943
  Si         -3.51818249626727      0.27559944618971     -1.39761390757887
  C          -3.98107439226090     -1.54195048396776     -1.17973923710213
  C          -3.45993326718993     -2.36742931521443     -2.36506029812222
  C          -3.36241157475173     -2.07928855550794      0.11840644472836
  C          -5.51011854014919     -1.66941862290106     -1.10858105929472
  C          -3.88540162552892      1.26736894489277      0.14099581020169
  C          -4.36866239687181      1.01869424017796     -2.88758174525552
  O          -1.12994903160392      2.52991994297734     -3.29203665544614
  C          -0.39673810430829      3.74153822572500     -3.37945210248415
  H           0.44878441593124      3.60561221264392     -4.07060187051273
  O          -1.24516128906170      4.74089724981023     -3.84013559736464
  C          -1.54668349138963      4.62383897912675     -5.23043328623147
  C           0.10975928372197      4.11674681169631     -1.99451918225672
  H          -0.69627685465795      4.64209433370275     -1.47173894710109
  O           1.23177508998441      4.97320645518224     -2.17840042494826
  H          -1.15471744711376      1.83345037172683     -0.68973298773973
  H           2.71869246265185      2.08795892196065     -2.10967817547890
  H          -1.87440366808255      0.08604154458535     -3.62800251461252
  H          -0.54495051076475     -0.68249374588250     -2.74190041490419
  H          -2.36787845935650     -2.35016422114272     -2.41902609474546
  H          -3.85353234882012     -2.00477615345480     -3.31951384206161
  H          -3.76857107845678     -3.41422368125355     -2.25564385693353
  H          -2.27299162699860     -1.97423234613628      0.11707459470877
  H          -3.59577286760047     -3.14473135632344      0.23411320521143
  H          -3.75150507793314     -1.55623241758748      0.99669854954602
  H          -5.79203938066007     -2.71733205829473     -0.94972346701259
  H          -5.98560952062358     -1.33454353101716     -2.03515462810048
  H          -5.92859607316883     -1.08522473694267     -0.28305843042861
  H          -4.93061959367922      1.14498318568594      0.43861214402474
  H          -3.70593582248029      2.33114223250013     -0.03927833852513
  H          -3.25443400147406      0.95015478034691      0.97559553391584
  H          -3.96554010557957      2.01417224278122     -3.09169290783488
  H          -5.43924281086625      1.11744315437188     -2.68492896343712
  H          -4.25338288431015      0.40908170511201     -3.78717908109190
  H          -0.62539480467638      4.62941304750170     -5.82344629064883
  H          -2.15499388369828      5.48834391722762     -5.49494506107221
  H          -2.10603475630745      3.70740442162068     -5.43590888688700
  H           1.42369352360014      5.39805831912399     -1.33487303275069
