48
Coordinates from ORCA-job goat_0_171 E -1253.935986019829
  O           2.81808129316317      3.43194889105316     -2.43119271805151
  C           1.49047342332451      3.03633794979327     -2.74801500400194
  H           1.57980894886979      2.37583606267393     -3.61636168999543
  C           0.78483672973928      2.29668576378790     -1.61928524268061
  H           0.59894012734632      2.99803889644685     -0.79757168101816
  O           1.56481412454675      1.25725658146048     -1.04751745234097
  C          -0.54277337708083      1.73924971174138     -2.15882977865955
  H          -0.32167563815842      0.75070744460369     -2.57263536853306
  C          -1.56390981146353      1.59111102022429     -1.03914076000383
  O          -2.78229095176529      1.01574506585217     -1.47136225324656
  Si         -2.97917806299545     -0.58336932061425     -1.91399733390031
  C          -4.76469942823591     -0.99721489013777     -1.46021921751122
  C          -5.71729363726072     -0.01994634768738     -2.16469227569568
  C          -5.09442705180745     -2.43108157790379     -1.89911551892866
  C          -4.94951403674384     -0.87599481989805      0.05890183674915
  C          -2.70497795500600     -0.77375986415691     -3.75741237326600
  C          -1.75826834422519     -1.64934305276201     -0.97554783984226
  O          -1.04913575417894      2.47756314158063     -3.27757055068395
  C          -0.83602233912902      3.87203562551083     -3.27423379973237
  H          -1.19406999840576      4.20051107476630     -4.25598860031862
  O          -1.54744491611270      4.52753793223428     -2.25708692968093
  C          -2.96219052909378      4.44582182751830     -2.42799865886627
  C           0.64589921918941      4.24633745791730     -3.12388722330744
  H           0.72832474719819      4.98275948035136     -2.31481802939946
  O           1.08071757944753      4.81931978197493     -4.35087654770474
  H           2.79455584496020      3.94174233918030     -1.61094612421510
  H           1.84788412070629      0.66510226078213     -1.75610200681605
  H          -1.10388665453169      0.98576057401341     -0.24921465868040
  H          -1.79252767929085      2.57304640916943     -0.62062539851248
  H          -5.63454255402611     -0.08936556628788     -3.25349242465510
  H          -5.51525989054998      1.01520730621721     -1.87510383893636
  H          -6.75601676220784     -0.24779913448023     -1.89536513756200
  H          -5.00299357711493     -2.55365473260672     -2.98226512650394
  H          -6.12629924278508     -2.68012445864477     -1.62302180406627
  H          -4.43797061856837     -3.16340448685281     -1.41896614011065
  H          -4.70641765004339      0.13032632140466      0.41216284774507
  H          -4.31731295907389     -1.58647667959939      0.59970763356971
  H          -5.99167531297996     -1.08474609316594      0.33019897144557
  H          -3.36950117675038     -0.11546390818615     -4.32375377071514
  H          -2.89945191565800     -1.80416529299991     -4.06967376395972
  H          -1.67470766764453     -0.53003240075133     -4.03041683552134
  H          -1.84543339401677     -1.50506984379923      0.10472080962039
  H          -0.72878337057233     -1.42210797252335     -1.26768039832923
  H          -1.94050796568863     -2.70585111182607     -1.19308841753015
  H          -3.31330623471546      3.41545925265197     -2.33519281055007
  H          -3.24973819152953      4.84265303979157     -3.40829073504283
  H          -3.40908147953017      5.05603071166158     -1.64339569206360
  H           2.02677997044928      4.99141963052046     -4.26159016798970
