48
Coordinates from ORCA-job goat_0_19 E -1253.939236861148
  O           1.11275010010716      4.58493546749391     -1.00799159369383
  C           0.98835106921047      3.52758358439286     -1.95126791888435
  H           1.94926483151459      3.00896143902085     -2.06269989505203
  C          -0.06792432114392      2.51705707139225     -1.55182705392246
  H          -1.05441833752829      2.99871201860649     -1.55858452583061
  O           0.23281794222175      2.05811764427568     -0.23827835875543
  C          -0.02983872287993      1.35669868569725     -2.55322387037026
  H           0.75704103187423      0.67347491400821     -2.21968557982982
  C          -1.35256821950295      0.60267193713179     -2.59292267250808
  O          -1.64022094397204      0.15601275253046     -1.27056819890363
  Si         -3.20200503879934      0.11954588544952     -0.65339189756905
  C          -4.23845248254869     -1.17538431906524     -1.56054912309374
  C          -4.60905289488972     -0.69868406347832     -2.97277364855095
  C          -3.44754071883566     -2.48753021242181     -1.65982895767597
  C          -5.52991922443505     -1.41877060352190     -0.76353206663537
  C          -2.95409736703169     -0.33136089665960      1.14097173596322
  C          -3.95931285915176      1.82408022619128     -0.80372870801535
  O           0.35696731671028      1.76715494557184     -3.87135059442100
  C           0.02762517219201      3.08998215069021     -4.24268296341677
  H           0.48748665091750      3.21620095457382     -5.22814705056944
  O          -1.35947516711175      3.29159284508971     -4.32477527992237
  C          -1.95809128244893      2.59881472834245     -5.41882412816707
  C           0.60094803245898      4.14467536375790     -3.28342515652397
  H          -0.17793474665060      4.89209509799696     -3.09993310709960
  O           1.71766771220476      4.74804981634653     -3.92857687555459
  H           1.34601415326288      4.18747442573979     -0.16018703517557
  H          -0.36510539987105      1.31623489580247     -0.06950882088482
  H          -2.13695306465656      1.26814869007740     -2.96168862024379
  H          -1.27316673388888     -0.25432129333348     -3.26908931691670
  H          -5.18233433195799      0.23242483372000     -2.94826672608252
  H          -5.22647554204520     -1.45653037090473     -3.47043956528405
  H          -3.72521988400057     -0.53524157156161     -3.59526328491969
  H          -3.17024348124261     -2.86900404681730     -0.67234370246781
  H          -2.53015766258073     -2.35866965141225     -2.24139955719368
  H          -4.05408404945233     -3.25599185211152     -2.15442994965796
  H          -6.15914181500513     -2.14907938705754     -1.28645629759285
  H          -6.11527741065461     -0.50085325130717     -0.64819776481891
  H          -5.32056837902858     -1.81411742066243      0.23443507286569
  H          -2.55535565576039     -1.34343044638853      1.24966031436805
  H          -3.89934239797704     -0.27577709961828      1.68773950711839
  H          -2.25235233825685      0.36592650130994      1.60870368633919
  H          -4.97938472979887      1.82008020560878     -0.40779969406459
  H          -4.00332680885115      2.17049360462638     -1.83921238322029
  H          -3.37410861745877      2.54618002621672     -0.22635157624499
  H          -3.01977407286409      2.84368677823382     -5.40464548818968
  H          -1.83430955875680      1.51692273345590     -5.32321387970409
  H          -1.51656772220889      2.93051849475887     -6.36510562009858
  H           2.07499797057302      5.41281776821197     -3.32719180892781
