48
Coordinates from ORCA-job goat_0_151 E -1253.939166335634
  O           1.12736365676671      3.53494414462632     -0.59147284006992
  C           1.41466108149948      3.31196913730035     -1.96570189610934
  H           2.48289970232786      3.49448765969887     -2.10485950956197
  C           1.13478287228477      1.85904454312680     -2.38021759364682
  H           1.54684289685490      1.20246146253708     -1.61051051479237
  O           1.83336239045260      1.54878721376485     -3.58501161117082
  C          -0.35937992019346      1.55269173970495     -2.52831307826492
  H          -0.42165618965932      0.68617137948941     -3.19027999641438
  C          -1.03016062111140      1.16444377843288     -1.21034165894815
  O          -2.39464470564089      0.82723443863293     -1.37748193286868
  Si         -2.96945904768153     -0.52278526607401     -2.17532396724780
  C          -4.60811881565639     -0.92279908457490     -1.32563072157067
  C          -5.29838073795571     -2.08739815722402     -2.05062120074151
  C          -4.34779317072559     -1.31804552313524      0.13467111403785
  C          -5.52484129371596      0.30887644396597     -1.36039362836953
  C          -3.24308571700222     -0.13411990094533     -3.98721583776792
  C          -1.74082484891096     -1.92603427026204     -2.00370527696944
  O          -1.06955033639393      2.57359715794604     -3.24907278529824
  C          -0.84869862430657      3.91121393247856     -2.88280455299537
  H          -1.37091770887785      4.49387096012817     -3.65181181461604
  O          -1.36005466422256      4.23845822102714     -1.61216953130502
  C          -2.78598665750712      4.16435800195604     -1.52984784074722
  C           0.63608642661671      4.28055507094445     -2.85638404976624
  H           0.73475081475442      5.29806487652233     -2.46609592342434
  O           1.19527462401500      4.18379522183116     -4.16356108248450
  H           0.19658350283114      3.79265880077084     -0.51844793871101
  H           1.63790512895327      2.25939070627051     -4.21381873358247
  H          -0.46936589761176      0.31486039223392     -0.80260448535383
  H          -0.98670801036232      1.97091730186215     -0.48010613175648
  H          -6.23733011123684     -2.34065986790011     -1.54340911685636
  H          -4.67484137740555     -2.98685363885349     -2.06028954018174
  H          -5.53979745463161     -1.83242895384726     -3.08657491971579
  H          -3.73277030969517     -2.22019029347707      0.20427186702987
  H          -5.29730289118292     -1.52236381751015      0.64463566002579
  H          -3.83898823403670     -0.51867159483221      0.68144269359671
  H          -6.47892443011438      0.08049404048814     -0.86943144584087
  H          -5.74607958073658      0.61942440443608     -2.38603681202411
  H          -5.07449178746569      1.15848003656727     -0.83940597188033
  H          -3.92342033630240      0.71314152354847     -4.11007251481041
  H          -3.67569595922810     -0.99664298880900     -4.50295582551113
  H          -2.30082776775667      0.11541041317989     -4.48200451638002
  H          -0.81540748918404     -1.71165897221188     -2.54614549678121
  H          -2.16408100942410     -2.84525142169718     -2.41956408963456
  H          -1.48772294977342     -2.11277646836854     -0.95656289738284
  H          -3.12894748433614      3.13836382480969     -1.67094956692780
  H          -3.23646586119547      4.81844855103548     -2.28396822411321
  H          -3.05978445012361      4.51249755456332     -0.53447945919234
  H           0.67982335400789      4.73214728584209     -4.76721480290230
