48
Coordinates from ORCA-job goat_0_2 E -1253.946880946629
  O           1.61434815703922      3.17230560696763     -0.39338065552189
  C           1.04616663677827      2.98103217621378     -1.68506632311233
  H           1.82172983857094      3.10012552266323     -2.45403508049707
  C           0.51879475013396      1.55733781378310     -1.74050193758015
  H          -0.19450747758551      1.41208126653030     -0.92109078121660
  O           1.58199960618722      0.61805340631150     -1.64360681636360
  C          -0.20286156718270      1.31742860534833     -3.06418673331791
  H           0.51975559240495      1.41140702184925     -3.88826938858571
  C          -0.83638588059041     -0.05927486717098     -3.15229456935434
  O          -1.65537430952814     -0.36089953327117     -2.04059785694186
  Si         -3.25286003087573      0.07788855282907     -1.82432429288473
  C          -4.04468457480858     -1.41923006911821     -0.98057918989169
  C          -5.51915029912447     -1.12746642961846     -0.66688695395603
  C          -3.95850712372560     -2.63831133857437     -1.90955869271602
  C          -3.30227512777931     -1.72853687260886      0.32758047847080
  C          -3.35983952252715      1.57754107745377     -0.70858333316060
  C          -4.06643973378053      0.42699198533821     -3.47345190071667
  O          -1.23981666606409      2.28222342386083     -3.21867719786461
  C          -0.74794357232718      3.60997716123051     -3.27824030155040
  H          -0.03340288811377      3.69583294697848     -4.11383006847971
  O          -1.81955078006609      4.47305346188748     -3.46271573702300
  C          -2.35550810730171      4.44113148012456     -4.78623116499509
  C          -0.06944972115401      3.97275652423635     -1.96342117249282
  H          -0.81814443919729      3.91653469955526     -1.16381431366218
  O           0.51140202934488      5.26761565118689     -2.02272123843558
  H           2.03690056235984      4.03913647747007     -0.38270417983807
  H           2.09144027627119      0.84676452812150     -0.85642520143745
  H          -1.40284969679304     -0.11729602066764     -4.08782682015973
  H          -0.03807156386333     -0.80403215741866     -3.19110938667841
  H          -5.62851432759386     -0.27803880322866      0.01370609889193
  H          -5.98063779836195     -1.99876900452334     -0.18589151880997
  H          -6.09145092977285     -0.90965125373816     -1.57390537416964
  H          -2.92187521366396     -2.87009879890359     -2.17107131766423
  H          -4.51358473439941     -2.47647739379196     -2.83845314482423
  H          -4.38580796341222     -3.52037872792329     -1.41656148154664
  H          -3.74644656700459     -2.60521399971512      0.81539383575326
  H          -3.35993502808948     -0.89279778184847      1.03158469433134
  H          -2.24564898191154     -1.94547405443654      0.14637122322462
  H          -2.95811825641053      2.45578950885922     -1.21768427751020
  H          -2.78859856283924      1.42274334950951      0.21125023428697
  H          -4.39831867608633      1.78324009739612     -0.43241332936458
  H          -3.96249365382898     -0.41406566951862     -4.16445456636223
  H          -3.62812901686446      1.31290422716603     -3.93812802392320
  H          -5.13472460723902      0.61255645768568     -3.32645587146014
  H          -3.12105585817731      5.21483805519116     -4.83423107943793
  H          -2.80469359063481      3.46871001938882     -5.00331194291865
  H          -1.57128801052364      4.65469299009015     -5.52042137900796
  H          -0.20576258988745      5.90589868084944     -2.11662196952482
