48
Coordinates from ORCA-job goat_0_1102 E -1253.932725524441
  O           1.70465215233273      1.97569273014162     -1.48862955136333
  C           1.23984433747406      2.24687447818175     -2.80429758249524
  H           1.94967460441000      1.86806934620568     -3.54733227791594
  C          -0.12643475805583      1.61116962517147     -3.06478892668004
  H          -0.07421954959483      0.53675565446157     -2.87603431715196
  O          -0.47089388299986      1.75729936729561     -4.44558324124126
  C          -1.19780959096789      2.21556195744625     -2.13446172906944
  H          -2.10840863932055      2.35350283317330     -2.73233670614654
  C          -1.50328639563198      1.33285305208335     -0.92924046560877
  O          -1.98957241065388      0.06353895270042     -1.32066136598903
  Si         -3.54033344462931     -0.24006006382659     -1.87064850785459
  C          -3.98045609008882     -1.94849673748282     -1.19750331352192
  C          -2.95700128125076     -2.98024778478349     -1.69412575802197
  C          -3.96282771094284     -1.91767715652583      0.33722875789870
  C          -5.38128825022104     -2.35161611137139     -1.68066536106653
  C          -4.70651436591270      1.07730915736533     -1.23056151097536
  C          -3.54346011808605     -0.24165153220470     -3.74275852310613
  O          -0.80341702407188      3.47838581763410     -1.59402944593524
  C          -0.22289118082252      4.30018427272791     -2.58611985572150
  H          -0.88249921495390      4.31160469665727     -3.47020895209670
  O          -0.07222738206874      5.58732326289827     -2.08703050060849
  C          -1.30877231138866      6.29184795310826     -1.95983091467899
  C           1.16031177972617      3.76721844653617     -2.97530850878479
  H           1.91026291564601      4.23131275408803     -2.32791007304332
  O           1.43006541909983      4.04432668472253     -4.35061084631649
  H           1.86241073145024      1.02658936953205     -1.42016118934396
  H          -0.05471833931776      2.55839075457130     -4.79331074343193
  H          -0.58677926044040      1.18065290850181     -0.35510058928259
  H          -2.22390994588809      1.85410967776649     -0.29051265550544
  H          -3.19816333112198     -3.97201367081742     -1.29207821405305
  H          -1.94292432960119     -2.72623283076534     -1.37216799117315
  H          -2.95711899935616     -3.05602024735685     -2.78558342483887
  H          -4.19418016446314     -2.91299415486519      0.73611493260693
  H          -4.70582020907233     -1.22023801869369      0.73554301995503
  H          -2.98172575374759     -1.62259192238883      0.72048336293354
  H          -5.43314725732394     -2.40678529079268     -2.77207667795467
  H          -6.14569782295815     -1.64607368903660     -1.34085814836045
  H          -5.64359095745921     -3.34066557726589     -1.28574335387630
  H          -4.69413467399187      1.13632792672693     -0.13905033969592
  H          -5.72892215570322      0.85019672611751     -1.54684355727031
  H          -4.44644733584478      2.06204346477775     -1.62991205763313
  H          -4.52531452009331     -0.53126910252119     -4.12874454441493
  H          -2.80204118236517     -0.94276226389538     -4.13591615756977
  H          -3.30748469292254      0.75226113338431     -4.13203023947950
  H          -1.95123860493841      5.82320077305893     -1.21053506787744
  H          -1.83115433147879      6.32183478201500     -2.92225559635657
  H          -1.06165021968720      7.30563320850448     -1.64658781198681
  H           1.36908574929883      4.99790438703830     -4.48707347789455
