48
Coordinates from ORCA-job goat_0_282 E -1253.937565908357
  O           1.71681377886635      1.78189743826454     -0.61694417182011
  C           1.00432704931058      2.46637421019299     -1.64050369305210
  H           1.55949148446979      3.36275277129492     -1.94752279428435
  C           0.88430712706342      1.52808985672626     -2.82984752907370
  H           0.58393649944343      0.54821961047544     -2.44517312358553
  O           2.12842738312889      1.40754188970862     -3.52156793565044
  C          -0.17125499113410      2.02684525444961     -3.83104134006864
  H           0.31864675754116      2.09690165765952     -4.80458939782399
  C          -1.33076198732075      1.05567059679249     -4.00506527873309
  O          -1.85336233490916      0.62797193317659     -2.76118074413516
  Si         -3.28278016158581     -0.22626207688569     -2.65177958472516
  C          -3.52449425945900     -0.55909756028214     -0.80949992861864
  C          -4.67033784471051     -1.56723811772555     -0.63200524207455
  C          -2.23791864260659     -1.14538460971344     -0.21070023047616
  C          -3.88091944004614      0.74008856690697     -0.07350804867513
  C          -4.68378611357965      0.79306694460309     -3.36221587825744
  C          -3.12162260165185     -1.82095219063022     -3.62186100811120
  O          -0.58154170699210      3.37482173914886     -3.56830607334457
  C          -1.03968918097391      3.70658555058950     -2.27348046210410
  H          -0.74989541759405      4.75705318143425     -2.14230077061232
  O          -2.42905417962274      3.58975811987657     -2.13676410458475
  C          -3.15225625747704      4.52278006582235     -2.93142584466434
  C          -0.38261120581830      2.87103127629379     -1.17752998300038
  H          -0.97986105360263      1.97599151428398     -0.99503065127584
  O          -0.24446761192920      3.63079516806470      0.02020001384233
  H           1.65997702696652      2.33127972706473      0.17537234654779
  H           2.76528948151709      1.02570827529968     -2.90531086404075
  H          -2.10081780362356      1.54577799181673     -4.61186344312296
  H          -0.95132731229004      0.19237726887834     -4.56667207898815
  H          -4.85250681279558     -1.74262978825821      0.43519922482355
  H          -4.43474829367201     -2.53129164997717     -1.09179445413160
  H          -5.60444984128857     -1.20242390472997     -1.07125401769419
  H          -1.94212525105401     -2.07043864805715     -0.71537762499598
  H          -2.39075718778609     -1.37958316161737      0.85011501882304
  H          -1.40528365459304     -0.44055598196304     -0.28323391618105
  H          -4.00170941391991      0.54160858919591      0.99864458274319
  H          -4.81936060184024      1.16592132072997     -0.44043641523265
  H          -3.10151575084273      1.49782577026612     -0.18871148914229
  H          -4.71661492853304      1.78594462109758     -2.90731350943197
  H          -5.64382147142346      0.29964526469266     -3.18242220373210
  H          -4.56999241495592      0.91474649841089     -4.44350471922789
  H          -4.06744673537350     -2.37034903739386     -3.62254106212712
  H          -2.34907341102170     -2.47033906219536     -3.20051072173191
  H          -2.85888262088207     -1.61009469863264     -4.66312464997449
  H          -3.02557537830904      4.31517121497362     -3.99776112440939
  H          -2.82365471485982      5.54788524432059     -2.72189432213855
  H          -4.20436151703259      4.41821299874023     -2.66624942628434
  H          -1.06274648119618      3.55287835680970      0.52243867455943
