48
Coordinates from ORCA-job goat_0_312 E -1253.935827693446
  O           2.42711530348823      3.25972190464107     -1.71697369702393
  C           1.20726558368022      3.28899013313346     -2.45002330679008
  H           1.46918834705119      3.67723075407849     -3.43941534208050
  C           0.57227751736643      1.91019471856748     -2.59464922530456
  H           0.57636809144115      1.42308860540530     -1.61524698601265
  O           1.34777191349523      1.05710733730170     -3.42979461635121
  C          -0.88969649652587      2.03913646006737     -3.07418714496755
  H          -1.01378864192506      1.36704053789547     -3.92511725933427
  C          -1.90279060753723      1.61696393266001     -2.00875928959756
  O          -1.68602928955649      0.24866508715052     -1.70096519519275
  Si         -2.67990573713959     -0.99025522202968     -2.22680546921594
  C          -4.11998328335502     -1.19334836138079     -1.01810272881520
  C          -5.07692667782340     -2.27745766679112     -1.53523031112192
  C          -3.57968394393025     -1.60745713526599      0.35819283130331
  C          -4.88489863215995      0.13065702239620     -0.87710754346876
  C          -3.30581091869273     -0.62006950081428     -3.95295219530933
  C          -1.58613857506181     -2.50403163170291     -2.23518373812066
  O          -1.16586702851269      3.33962153208160     -3.60333682688176
  C          -0.99277719270664      4.42624673780444     -2.71694879847575
  H          -0.81752903229247      5.29052684792673     -3.36791691907526
  O          -2.12043096535487      4.65455769931758     -1.91575675431640
  C          -3.25669216356955      5.08980669464585     -2.65852824992930
  C           0.20998567150343      4.23654926119669     -1.79612578087697
  H          -0.12827436392384      3.80025889699201     -0.84660291070227
  O           0.78368128203465      5.51321141530855     -1.56138838249725
  H           2.27678088741275      2.77532251299837     -0.89465489488315
  H           1.39806342826333      1.45804491534386     -4.30654494972481
  H          -1.78469956010362      2.19819948946305     -1.09191308354652
  H          -2.91004342931304      1.80233724196137     -2.39314566182287
  H          -5.89508146690919     -2.42783272474561     -0.82024673302620
  H          -4.56967130055767     -3.23867306258359     -1.66461357499984
  H          -5.52204810681299     -1.99833896470825     -2.49464866708427
  H          -2.86598717922560     -0.87429486212397      0.74660442274893
  H          -3.07895618913481     -2.57915721458799      0.31919493360582
  H          -4.40359735402785     -1.68598443916773      1.07816972637052
  H          -5.74090435450838     -0.00178902472277     -0.20398200444381
  H          -5.27136451117127      0.48328777219146     -1.83836067085408
  H          -4.25273966333514      0.91749373348867     -0.45560225182932
  H          -3.93807669629002      0.27112929222039     -3.98624292499975
  H          -3.89635636861217     -1.46323125779691     -4.32288408123693
  H          -2.46753812818216     -0.47216979947702     -4.63974629301785
  H          -1.11186624460121     -2.65306999493972     -1.26151545119532
  H          -0.79817138839194     -2.39365702092801     -2.98595612428166
  H          -2.16179841948617     -3.40265072405930     -2.47479558812369
  H          -4.03815012360090      5.32045210705059     -1.93489792428766
  H          -3.60796954683910      4.30696713050628     -3.33602493960880
  H          -3.01697269891822      5.98959835332726     -3.23684494718526
  H           1.64854825435235      5.35364048070400     -1.16027247641448
