48
Coordinates from ORCA-job goat_0_295 E -1253.938061284922
  O           2.33520902852791      2.34099396052207     -2.93454276680392
  C           0.99277034771167      2.25425842983534     -3.40241040831202
  H           0.99271491553608      1.49000570283370     -4.18312781348121
  C           0.04412266018572      1.79286301873144     -2.29126490526273
  H           0.45458215751090      2.13201669620095     -1.33194664871778
  O          -0.00944149421844      0.36996506862943     -2.32133872709442
  C          -1.35533406317332      2.39384217853474     -2.44488090783475
  H          -1.81008837187335      2.00539057392056     -3.36204117063753
  C          -2.25240702801253      2.07079247695767     -1.25369279188701
  O          -2.48637416623931      0.66892612208120     -1.15907318983169
  Si         -3.98476929258471      0.01603112767625     -1.55663402718436
  C          -3.73467597745189     -1.85180536590085     -1.52409442599010
  C          -3.03605238802828     -2.26494936312358     -0.22082683978500
  C          -5.10939197133588     -2.53411944273261     -1.60150800157066
  C          -2.88414874198991     -2.29819027627097     -2.72198527056882
  C          -5.22916647098606      0.57586793026056     -0.27785939108023
  C          -4.49802859900349      0.62715437859278     -3.24815037558220
  O          -1.32917511156905      3.82642253590321     -2.50083820376732
  C          -0.15888667461748      4.43521267850537     -2.99169288804965
  H          -0.48382040575270      5.39769122365677     -3.40163412776395
  O           0.79953585515858      4.64276477695492     -1.98017209189525
  C           0.36183305591676      5.53377896295110     -0.95721682571862
  C           0.53262940565922      3.57803003950583     -4.03823549450374
  H           1.41491211613993      4.11291457701206     -4.40234207581022
  O          -0.40733775407252      3.37258699217486     -5.08401191502275
  H           2.35190093044374      3.04782353760696     -2.27513070334965
  H          -0.76629757625112      0.10589214452608     -1.77410393806588
  H          -1.76236785497282      2.40440889810092     -0.33364959186707
  H          -3.18782327849258      2.63055757766201     -1.35920445605127
  H          -2.03605118593970     -1.82903048507881     -0.14728843745993
  H          -2.93177633740186     -3.35607872910848     -0.18211001968121
  H          -3.60588299929221     -1.95437195332374      0.66037708260444
  H          -5.73172983333618     -2.28725076775278     -0.73662261828268
  H          -4.98466684320552     -3.62332599273331     -1.62268939905125
  H          -5.65602698307125     -2.24601426798373     -2.50527774627588
  H          -1.90209897946033     -1.81656040549177     -2.72849296584502
  H          -3.37668040038639     -2.07126380895730     -3.67165752708125
  H          -2.72195379766023     -3.38211299385005     -2.68138131277095
  H          -6.23570039272970      0.24534509210305     -0.54973327203198
  H          -5.24334143777611      1.66769478601329     -0.20743355323751
  H          -4.99100437532001      0.17301994288853      0.71038054192546
  H          -4.64503665286228      1.71129171922292     -3.24311829870537
  H          -5.44427051671468      0.16374596457914     -3.54360505048454
  H          -3.74788282429189      0.38629501559686     -4.00545457222946
  H           1.21287139109581      5.69994190563036     -0.29757089658359
  H          -0.46417210448873      5.10087143429534     -0.38761466680143
  H           0.04374917309694      6.48775023787342     -1.39248008626248
  H           0.04486184757936      2.91550614476820     -5.80246722825521
