48
Coordinates from ORCA-job goat_0_276 E -1253.935771543637
  O           2.00951105359257      3.78923480238719     -1.02634846667728
  C           1.18803243642162      3.36116763664614     -2.10745352760007
  H           1.83573783449559      3.37495644413244     -2.98983508150623
  C           0.63232509697970      1.95511721499321     -1.90631242367893
  H           0.23818975743191      1.88002085972239     -0.88876706029548
  O           1.65741733173789      0.96935197853716     -1.97389657647118
  C          -0.51833199985053      1.68351000172812     -2.89920481935565
  H          -0.31702885008799      0.72373634606781     -3.37888299615286
  C          -1.87893189106159      1.56971642116286     -2.20981281813206
  O          -1.83682589039116      0.46096188418892     -1.32497893294689
  Si         -2.66810043216606     -0.96633740787552     -1.59007323448223
  C          -4.43159741429732     -0.79348976597097     -0.93013745450954
  C          -4.39262876597654     -0.59941873839780      0.59237763747130
  C          -5.11851398074769      0.42086039650209     -1.57164241843085
  C          -5.23191498250349     -2.06144779186659     -1.26119402965810
  C          -2.67860193409286     -1.36870192670940     -3.41924331610381
  C          -1.71215514969352     -2.25715088090430     -0.63747745994381
  O          -0.52845746805186      2.62660461412725     -3.97532207490288
  C          -0.69502638165620      3.98335255374520     -3.61695229477188
  H          -0.25614412862324      4.54597658447142     -4.44894676194686
  O          -2.04218662546032      4.33871481849082     -3.45966753423562
  C          -2.78115869188144      4.29088264068163     -4.67774546605468
  C           0.03842521236360      4.33584671067010     -2.32533038310048
  H          -0.66115529186471      4.25907535672170     -1.48209409681323
  O           0.50651307796138      5.67099414180517     -2.44065335467813
  H           1.52628781345562      3.64599575560369     -0.20204941431636
  H           2.05393472649223      1.00615425082537     -2.85325079237172
  H          -2.11069125628794      2.46563355599880     -1.63004810953224
  H          -2.65081431259453      1.46056675645904     -2.97726871070717
  H          -3.79937085347286      0.27741153928568      0.87008862727928
  H          -3.96670388981202     -1.47035805731506      1.09886699555858
  H          -5.40818912681179     -0.45216367570926      0.98008028138194
  H          -6.15247118908148      0.49884084587658     -1.21349254662392
  H          -5.15158590621729      0.34270623717490     -2.66275010479643
  H          -4.60924176156062      1.35370352823674     -1.31329379774295
  H          -4.76833652820109     -2.95685461416693     -0.83520432826818
  H          -5.32399182444897     -2.20987460652734     -2.34109395652543
  H          -6.24542259897474     -1.98513427458315     -0.84863338646425
  H          -3.10900987205984     -2.36179560999695     -3.57787894895741
  H          -1.65853615724787     -1.37875784968423     -3.81417523693016
  H          -3.26498881916523     -0.65302338547162     -4.00120186221115
  H          -2.23510805122436     -3.21774409552947     -0.64504176556766
  H          -1.57231046209415     -1.95384656293636      0.40352287007592
  H          -0.72527636409773     -2.40288545687701     -1.08637433895988
  H          -2.31094016080659      4.92476095188086     -5.43837946873833
  H          -3.77943904931427      4.66802069703062     -4.45693667150517
  H          -2.85435432697425      3.26709200941738     -5.05432172992243
  H           1.13699804792229      5.80059716595053     -1.71941865917735
