48
Coordinates from ORCA-job goat_0_323 E -1253.933837119625
  O           2.57242449663866      3.88872581186840     -2.28112658072021
  C           1.46708313454266      3.08956974320826     -2.68087140960280
  H           1.77895749417826      2.38102252642390     -3.45998090163949
  C           0.89711558576850      2.29256726324595     -1.51957702252516
  H           0.49665314008949      2.97633368583848     -0.76488067445186
  O           1.95642555267508      1.51829010311384     -0.95819322157531
  C          -0.19156785705670      1.36322226639488     -2.06391409087839
  H           0.31549243096495      0.50596216530474     -2.51646835390313
  C          -1.11611404863543      0.85473259439988     -0.97111924485211
  O          -1.88577320030216     -0.25194161823568     -1.40330007968485
  Si         -3.37808638075817     -0.19871042411392     -2.15115437217471
  C          -4.33801510482533     -1.65448699818226     -1.41557582980082
  C          -5.70971379045202     -1.77197728772562     -2.09604610639424
  C          -3.55661604182637     -2.95870693309365     -1.63025807521895
  C          -4.53876105190268     -1.43079542444309      0.08988338569722
  C          -4.24183027254090      1.42144404603913     -1.79128254786967
  C          -3.17318571363317     -0.42618200660978     -3.99789481916726
  O          -0.93896694646477      1.96617098758811     -3.13585707990809
  C          -0.99292172566281      3.36345311816309     -3.14892015620171
  H          -1.57915307169523      3.62757948295181     -4.03572688721627
  O          -1.65391406578019      3.81065147542341     -1.98101353355564
  C          -2.31753468048808      5.05582153849042     -2.16051925577418
  C           0.40027240613338      4.00461922938402     -3.26377795842866
  H           0.39914774943611      4.93586368366092     -2.68726358237304
  O           0.63257710319053      4.28278803578687     -4.64145522404671
  H           3.19349601846957      3.29676953912793     -1.83706520805875
  H           1.86278751079289      1.51478556781569     -0.00015801357640
  H          -0.49942360356839      0.51826667084375     -0.13104733276507
  H          -1.75345372065296      1.67239230613081     -0.62490438821160
  H          -5.61418930920679     -1.96137454921496     -3.16929230222755
  H          -6.30704451325822     -0.86439280487729     -1.96492904544072
  H          -6.27480042879632     -2.60571615563172     -1.66124926155751
  H          -4.10700451830995     -3.80328411338229     -1.19704520869647
  H          -2.57334741743056     -2.92009579904829     -1.15285188919039
  H          -3.40833032955315     -3.17071858481359     -2.69339963050380
  H          -3.58210874995615     -1.32686415476366      0.61049583365794
  H          -5.06973788956818     -2.28341286069717      0.53130701771756
  H          -5.13118518986445     -0.53275956745548      0.28876610666688
  H          -5.25362653639484      1.39790172345141     -2.20718398658659
  H          -3.70278824010467      2.25655537447647     -2.24310539291162
  H          -4.32206373684505      1.60915909266624     -0.71697318058505
  H          -2.58341970933605      0.39528856705100     -4.41066946079237
  H          -4.14661193176485     -0.43819605126999     -4.49732175566706
  H          -2.66285201441950     -1.36581095758075     -4.22775137732834
  H          -2.80856053783926      5.29233812606225     -1.21696405889107
  H          -3.06862886960510      4.98076707412982     -2.95536662364094
  H          -1.61435676517870      5.85895484371316     -2.40762012255936
  H           1.50108534079759      4.69600964838466     -4.71722709658528
