48
Coordinates from ORCA-job goat_0_1043 E -1253.943887651820
  O           2.09062192664264      2.53691970916520     -0.95453159208715
  C           1.21649234511124      2.66372016220777     -2.06740974344271
  H           1.79493871131620      2.93890955854767     -2.96511808361259
  C           0.54216985457505      1.32607268846277     -2.32565873792660
  H           0.05515816317453      0.98968272714108     -1.40797279430170
  O           1.47972995637804      0.31374816531483     -2.66793669236708
  C          -0.52021506061861      1.48412429935348     -3.41739717155503
  H          -0.02647988062382      1.75012358762033     -4.36552690682455
  C          -1.31552690879467      0.21169871773822     -3.64806426769059
  O          -1.84946277998326     -0.32596695593860     -2.45469037067406
  Si         -3.27497221672262      0.11801618699694     -1.70519252669666
  C          -3.98004182954502     -1.50443186285717     -1.03310940162966
  C          -2.95896216429151     -2.16371118228268     -0.09448408404953
  C          -5.27618127853120     -1.23127837216175     -0.25642547527618
  C          -4.28145525819469     -2.45713248222131     -2.19846852381963
  C          -2.92273896299221      1.29960094656044     -0.29626898628544
  C          -4.44535973333349      0.89848489861372     -2.94003565297011
  O          -1.44079281423581      2.50815090773627     -3.05405421772877
  C          -0.83911511605183      3.78751193502314     -2.93871151464210
  H          -0.35546602264343      4.04478024751551     -3.89781685224142
  O          -1.82797849358046      4.70837502596575     -2.63084480157864
  C          -2.68590368901882      5.00645748666100     -3.73243939453755
  C           0.18718363189250      3.76121794439641     -1.81249519497907
  H          -0.33984565392203      3.55335856835396     -0.87740584583032
  O           0.83635305732154      5.01294425172426     -1.63100950015830
  H           2.40242659700005      3.42626754097102     -0.74303931381647
  H           1.97793623259683      0.60946609239019     -3.44047921082063
  H          -2.10732244965807      0.42709191788056     -4.37326021960290
  H          -0.64939398483992     -0.53709847919194     -4.08248991092554
  H          -2.73001816232530     -1.52613750566941      0.76484084785670
  H          -2.02097079955818     -2.38170135111960     -0.61320077501457
  H          -3.35727984841430     -3.11052656561520      0.29125855418691
  H          -5.10202311947053     -0.58079426967114      0.60560182750341
  H          -5.69535350059054     -2.17317827782220      0.11851850991464
  H          -6.03594886620998     -0.75985699208708     -0.88750281759035
  H          -3.38344356132348     -2.66608939510854     -2.78722213933427
  H          -5.03857708893530     -2.04390245211631     -2.87170182420227
  H          -4.66255067473790     -3.41243718199824     -1.81654607545703
  H          -2.15348813954082      0.89837645231715      0.36987321830155
  H          -3.82571379057155      1.47530724481381      0.29603768440080
  H          -2.57377752322398      2.25809085773835     -0.68517378400761
  H          -4.61289266013162      0.25048750917356     -3.80472322890029
  H          -4.04969108695268      1.85274416133257     -3.29478402973571
  H          -5.41353564371120      1.08655101720843     -2.46631562677526
  H          -3.35658926767017      5.79914032867517     -3.40234191024848
  H          -3.27121270392431      4.13096566907659     -4.02455313384635
  H          -2.09953072041174      5.35624693123426     -4.58921764900382
  H           1.27463097927654      5.25218958795062     -2.45836065997687
