48
Coordinates from ORCA-job goat_0_0 E -1253.945373679977
  O           2.93107152226876      3.33017084658271     -2.37480796317126
  C           1.62214113102915      2.91538478737244     -2.75067441847883
  H           1.63585989055229      2.52135780771961     -3.77594364854083
  C           1.21910168658878      1.79129889581810     -1.81164537796491
  H           1.28473273199242      2.15243993832039     -0.77595241376083
  O           2.06470605670220      0.66362793475488     -1.99613261458382
  C          -0.22067603541470      1.36586813976151     -2.09912430945514
  H          -0.27463386434815      0.95527360614938     -3.11699509300478
  C          -0.70116414500930      0.31701725882061     -1.11081254371881
  O          -1.79721895220564     -0.44037178076462     -1.58611260839797
  Si         -3.38499032846124      0.05708636571713     -1.72314534094094
  C          -4.40948636587884     -1.50958357607553     -1.45147685206811
  C          -3.92525553426637     -2.62737730542654     -2.38602247366967
  C          -4.27100866703990     -1.97750662364979      0.00390871973991
  C          -5.88576534213030     -1.20855774178245     -1.74984908668966
  C          -3.78520354090401      1.33892204213286     -0.41971354523804
  C          -3.67922021704547      0.71522461731402     -3.45206995471134
  O          -1.07980100058078      2.50087964379554     -1.98483149008223
  C          -0.78134003104321      3.52115208078867     -2.92557998107399
  H          -0.86911821060646      3.11348912692748     -3.94603196858069
  O          -1.66338765367504      4.57656407649265     -2.73925959096286
  C          -2.98120425773725      4.33673156852781     -3.23314404271571
  C           0.62507776491163      4.05618600641124     -2.68243760264438
  H           0.64905832295313      4.50539435711009     -1.68198584627816
  O           0.99301532445272      5.00645022142124     -3.67153891958836
  H           3.24581090967186      3.95346689658338     -3.04001776110081
  H           2.97414288468012      0.98482003504696     -1.95314015503979
  H           0.11641573997361     -0.38132445478934     -0.92375520514558
  H          -0.94692465165027      0.81776084278422     -0.16688030532358
  H          -4.52876145515282     -3.53101496091135     -2.23448256447114
  H          -2.88047075341080     -2.88579020796417     -2.19307269958195
  H          -4.01460315123785     -2.34354448174306     -3.43892459284088
  H          -4.65837128098381     -1.23297104551448      0.70541653438179
  H          -3.22669558640891     -2.17585962787680      0.26396964645438
  H          -4.83593992313131     -2.90521566999085      0.15813928941750
  H          -6.03269048657099     -0.90451202779941     -2.79054827239705
  H          -6.27685498819718     -0.41339755329779     -1.10729294520019
  H          -6.49523939017648     -2.10395566614939     -1.57642566720959
  H          -4.85747358292241      1.55690135769578     -0.42839861853553
  H          -3.24413964913354      2.26845387033464     -0.60400173850069
  H          -3.52275690920327      0.97985617709383      0.57941420350417
  H          -3.66024621314208     -0.09708987917953     -4.18408715698953
  H          -2.90498791755884      1.43498910138600     -3.72373784389832
  H          -4.64981213118343      1.21459064833230     -3.52493182551620
  H          -3.49317805340566      3.58098446473222     -2.63384286072730
  H          -2.94551383284744      4.01127328648309     -4.27815765765073
  H          -3.51796635289025      5.28245894291638     -3.16352748160689
  H           0.41879648977749      5.77457765758794     -3.56818535544039
