48
Coordinates from ORCA-job goat_0_197 E -1253.945403942922
  O           1.90655376448903      3.85836813842600     -1.48323546439642
  C           1.08853909826399      3.25202402540274     -2.47831769528701
  H           1.66574549984481      3.11807904296612     -3.40349830556317
  C           0.68128941160904      1.88319140396064     -1.95954976381585
  H           0.17488921969324      2.00405399064278     -0.99500730609355
  O           1.81536246214667      1.03668979681613     -1.82138440998756
  C          -0.28533975527265      1.22674971542349     -2.94228955744278
  H           0.23214922664965      1.07623926207596     -3.90120743297272
  C          -0.78730985577116     -0.12416562347802     -2.47335864525845
  O          -1.38535620686236     -0.02018296005753     -1.19290503850410
  Si         -2.72553657894922     -0.89659319364738     -0.71797295261173
  C          -4.31463520627318     -0.05043424343480     -1.30274814895881
  C          -4.40471909438225     -0.05442220409805     -2.83578188419851
  C          -5.52451289745279     -0.80427340620866     -0.72932618969081
  C          -4.34058266889915      1.40231715012513     -0.80561834871926
  C          -2.60301952797550     -2.63666055484014     -1.40092804763744
  C          -2.63120668021112     -0.91914177734977      1.14837248190828
  O          -1.41163471940725      2.07941953286351     -3.12983401527081
  C          -1.05881220815809      3.31781908380806     -3.72274530362106
  H          -0.55870222193754      3.13032115105769     -4.68755632986216
  O          -2.21254098972667      4.06684523541974     -3.90878554602981
  C          -3.03595302510535      3.59045873068838     -4.97422273803576
  C          -0.13686529984802      4.09343763205414     -2.78970215684238
  H          -0.68476121181205      4.30075699497588     -1.86226794792121
  O           0.31459761341791      5.29909211939340     -3.38995849013639
  H           2.23777995679106      4.68996568590084     -1.84225374837395
  H           2.46392061722750      1.51734310215035     -1.29232651516605
  H          -1.49183574468239     -0.50232831230830     -3.22065575373431
  H           0.06201754317199     -0.81268438864695     -2.42956376457597
  H          -3.58371985041277      0.50683288513767     -3.28830574103161
  H          -5.34297779528486      0.41706083163497     -3.15444078413542
  H          -4.39118910317007     -1.07040777519271     -3.24161665980645
  H          -5.54842021949066     -1.84660146644362     -1.06207875464974
  H          -6.45427044681695     -0.32853263293742     -1.06479025333012
  H          -5.52577227718962     -0.79828558051751      0.36458610385577
  H          -4.30726133442559      1.45770006781554      0.28667947986099
  H          -5.26440895125781      1.89461502001581     -1.13438107229598
  H          -3.49700540694712      1.97366599700697     -1.20213659936692
  H          -1.67270595753092     -3.10603558358393     -1.06687650705887
  H          -2.62016245259412     -2.65407848862315     -2.49368245819060
  H          -3.43661510722523     -3.24699847502897     -1.04154816944349
  H          -1.70495893171713     -1.40516165346000      1.46861835730673
  H          -3.47057845383407     -1.47345907574767      1.57709072802082
  H          -2.64500278030411      0.09323074603834      1.56100615514991
  H          -3.84699725810695      4.30872449913564     -5.08983779472801
  H          -3.44944313801983      2.60665992444349     -4.73898452346132
  H          -2.46086132404659      3.53343775548891     -5.90469107243175
  H          -0.44933973220343      5.87792787473649     -3.49783141546402
