48
Coordinates from ORCA-job goat_0_327 E -1253.942506111741
  O           1.91500790056941      2.79981151495993     -1.00218236924512
  C           1.17410164560276      2.74256815991957     -2.21537379715285
  H           1.85543289259289      2.84761031799027     -3.07301579698475
  C           0.51582969071300      1.37536662840796     -2.28748971771944
  H          -0.09454684413194      1.23009207997349     -1.38948519775553
  O           1.48720120672289      0.34211126188076     -2.39803813912126
  C          -0.39017097804817      1.30171433801656     -3.51298616811061
  H           0.22587601829108      1.39595140072671     -4.41955984706042
  C          -1.15493738490854     -0.00698642693990     -3.61126971231039
  O          -1.78648076643252     -0.38226608312886     -2.40430472403612
  Si         -3.26521498692009      0.13629254093961     -1.82885906622897
  C          -4.06953628585847     -1.40687207779423     -1.08669401014973
  C          -3.12427344711760     -2.04733267540105     -0.05987625699179
  C          -5.38373217519839     -1.02445992699609     -0.39094670959979
  C          -4.36127171033747     -2.42124238256835     -2.20133380434701
  C          -2.99021140182394      1.42163993681137     -0.49618851251073
  C          -4.31052561663341      0.83084090577428     -3.21669025573947
  O          -1.33443043311831      2.37033305247907     -3.47137673298193
  C          -0.71605263665357      3.64696196268033     -3.54302338219357
  H          -0.06704455846392      3.68770697917377     -4.42979636517586
  O          -1.69050422003609      4.61277524700729     -3.76241161145532
  C          -2.61248662301855      4.82758213676528     -2.69131696628719
  C           0.12878126918602      3.85016649101253     -2.28249872757828
  H          -0.50880057165357      3.78413180821459     -1.39843551124296
  O           0.73707676098167      5.13312673164954     -2.23662136608796
  H           2.32368561964723      3.67270247200405     -0.95365326090418
  H           2.08440300725139      0.42978534173159     -1.64529043692448
  H          -1.88064641774844      0.08156774737073     -4.42673345398002
  H          -0.44584648734330     -0.79609684608544     -3.87208886390168
  H          -2.90511139555408     -1.36621671088278      0.76786913641079
  H          -2.17516334134636     -2.34030754052959     -0.51722401757798
  H          -3.58472468713775     -2.94793395809702      0.36524784352548
  H          -6.09186666464462     -0.56158449070636     -1.08529278075071
  H          -5.21482377042119     -0.32641581292967      0.43438440250615
  H          -5.86410783602642     -1.91906263165655      0.02415866610503
  H          -4.79602703712934     -3.33478107390726     -1.77702530979258
  H          -3.44862728987749     -2.70286757352118     -2.73539558019170
  H          -5.07192597855330     -2.02461910807167     -2.93246772856308
  H          -2.43765299798082      0.99918990474249      0.34785939720912
  H          -3.94280141920940      1.80691877292005     -0.12082142981852
  H          -2.41458013115960      2.25956595535346     -0.89359372511034
  H          -4.40125195069823      0.12474284320890     -4.04667205217158
  H          -3.88028145830952      1.75873586998990     -3.59893489192157
  H          -5.31743236126598      1.04649337189482     -2.84657592854251
  H          -3.36545873385597      5.51465353421711     -3.07627297867843
  H          -2.12059324085944      5.28436045763108     -1.82836620751244
  H          -3.09557832304986      3.89505080951712     -2.39282768457681
  H           1.24515615096757      5.26107474425182     -3.04835836677100
