48
Coordinates from ORCA-job goat_0_292 E -1253.934919003459
  O           2.05148186986259      2.98704557022412     -1.18076681249394
  C           1.16053742489630      2.51356644520307     -2.18379512496495
  H           1.54369828900044      1.57916873336125     -2.61428875634501
  C          -0.23269522325425      2.25910421012549     -1.64390183497194
  H          -0.67975752866338      3.20734732800269     -1.32000437758004
  O          -0.12118469204768      1.37468686362882     -0.53479914371652
  C          -1.06785231031765      1.62324387270682     -2.76035896452623
  H          -0.81416607267293      0.55907067726441     -2.77971005412031
  C          -2.56427154490601      1.76924355288418     -2.51445140002558
  O          -2.85778540142188      1.21355721796812     -1.23451913601333
  Si         -4.09518354435091      0.11898942699637     -0.94596971702698
  C          -3.57356699391663     -1.61735915201448     -1.48539055730590
  C          -3.37574370365384     -1.68649358907139     -3.00650400970558
  C          -2.25908597327953     -1.99970686945341     -0.78996239679618
  C          -4.67061147937013     -2.61486055585413     -1.08105989203601
  C          -4.34470633973919      0.20304174613558      0.90274538252194
  C          -5.63311093831346      0.67834551215137     -1.85266556182231
  O          -0.72837269664244      2.12264471690665     -4.06222958731219
  C          -0.19004438288327      3.41304084623606     -4.12050844426537
  H           0.06285929088392      3.57746793024343     -5.17352990427156
  O          -1.18321057614999      4.33395762858189     -3.71514401091269
  C          -0.99110873824065      5.63387986669274     -4.26223264064933
  C           1.09222641450401      3.56488000242447     -3.27918685913472
  H           1.07431081315961      4.54917869749116     -2.79900077429332
  O           2.20102213747804      3.47545681167933     -4.16843992655738
  H           2.06031549438645      2.33000250192027     -0.47374316911740
  H          -1.02846752060442      1.14407837263994     -0.28618676509129
  H          -2.83975416204062      2.82639483755150     -2.51845778906729
  H          -3.11410123973033      1.26613899305552     -3.31525785771060
  H          -4.28507061952365     -1.41155011567277     -3.54884769674412
  H          -3.11057300177425     -2.70942874766477     -3.30086790676045
  H          -2.56807859660834     -1.03108667880857     -3.34321729723551
  H          -1.45106766300276     -1.31080029992385     -1.05266775724245
  H          -1.95180300465183     -3.00780520614822     -1.09415993899920
  H          -2.36275671607866     -1.99960944509703      0.29916296284625
  H          -4.83006854805180     -2.62681087576042      0.00106371664179
  H          -4.38373334889870     -3.62864828062424     -1.38569297907189
  H          -5.62605999597553     -2.38338020137550     -1.56178185800659
  H          -4.64011058835360      1.21523652176255      1.19370501560124
  H          -3.42714671649761     -0.05248986241539      1.43963055546704
  H          -5.13062985000435     -0.48566437859968      1.22430754069497
  H          -6.47496185121512      0.02367114929433     -1.60912617512331
  H          -5.50205999455084      0.66782704656701     -2.93755839596708
  H          -5.89761158913841      1.69578600650475     -1.54943938625167
  H          -0.05704261676912      6.08762003446291     -3.91346097383829
  H          -1.82855007610743      6.24513631969319     -3.92730001894108
  H          -0.98165327300968      5.59296944097739     -5.35746757492214
  H           3.00513737823985      3.57649537714625     -3.64481174683557
