48
Coordinates from ORCA-job goat_0_232 E -1253.937245316583
  O           2.54547375419159      3.68778013619659     -3.10105374614538
  C           1.16228377240683      3.36529613029737     -3.13460039828150
  H           0.86026284532503      3.10560465523645     -4.15781554019816
  C           0.83055985442862      2.20273574907204     -2.21649606044809
  H           1.03067320151278      2.49526937856843     -1.17976668061900
  O           1.66003470620113      1.09708514542725     -2.57207780212102
  C          -0.64418823272887      1.83296083006225     -2.41077720689377
  H          -0.68382160242581      1.15541885334815     -3.26785664103723
  C          -1.19464040468298      1.12183736390850     -1.18247779174228
  O          -2.54241320785960      0.71636536462489     -1.32879114784306
  Si         -3.06240863600823     -0.50675357844299     -2.34248074675153
  C          -4.60229712189389     -1.21115665905629     -1.50707724196257
  C          -5.21419478315043     -2.30875699897318     -2.38940086367293
  C          -4.22180587630976     -1.80952182495983     -0.14544316735478
  C          -5.63547174084870     -0.09441947788171     -1.29813653846142
  C          -3.48509166050915      0.19421661913161     -4.02718009596562
  C          -1.71444586995376     -1.79576934146681     -2.51093349380097
  O          -1.44744830921253      2.95530786613372     -2.80260341233228
  C          -1.05769065731220      4.21848028355009     -2.31039078637008
  H          -1.74478107397599      4.92103081443656     -2.79394737918771
  O          -1.17412584361980      4.31075889501575     -0.91403964568188
  C          -2.52748820183334      4.24099616927810     -0.46615374500367
  C           0.38563609988449      4.58899082810438     -2.68453468145596
  H           0.87426384773235      4.99458919488340     -1.79235368964151
  O           0.32626441703089      5.58105150638310     -3.70436745059042
  H           3.02501649809034      2.87108502063963     -3.29118546357200
  H           1.97803161818317      0.67676689675376     -1.76677223353031
  H          -0.54869641807329      0.25822408902272     -0.98082340441533
  H          -1.14183149043745      1.78768842343370     -0.31889656458055
  H          -5.52740730125574     -1.91853308184095     -3.36213682616432
  H          -6.10030464243666     -2.73226246690971     -1.90103402924631
  H          -4.50981999257853     -3.12791738866696     -2.56396075674834
  H          -3.51460883470270     -2.63736941318796     -0.25266375303872
  H          -5.11555669361100     -2.19875675995655      0.35754328901682
  H          -3.76880057313424     -1.05945503145007      0.50919040863130
  H          -6.52767463787259     -0.49604923695327     -0.80205509555316
  H          -5.95361069905392      0.34392787751913     -2.24876811359260
  H          -5.23672056735136      0.70844879260866     -0.67156402295470
  H          -4.22290598812078      0.99705431303510     -3.94520764286540
  H          -3.89971231103426     -0.58489275988667     -4.67375185543888
  H          -2.59677576013592      0.60011460596668     -4.51837601181991
  H          -2.08112977439031     -2.64467886682089     -3.09545898392424
  H          -1.39138991166965     -2.16913214034674     -1.53539583050625
  H          -0.84015188792999     -1.38890327589594     -3.02740021566965
  H          -2.97124687223790      3.26868824102588     -0.69318707900399
  H          -3.12361425906900      5.03160600034282     -0.93585405605546
  H          -2.50997115079471      4.39085820080326      0.61313697436109
  H           1.23357237322821      5.82667005788648     -3.92247277976625
