48
Coordinates from ORCA-job goat_0_127 E -1253.939851333141
  O           0.67759223809400      2.20427050808511     -1.21880836492395
  C           1.00185040538450      2.09660545059796     -2.59985249557855
  H           1.95048886057941      1.55589562481636     -2.65886736471575
  C          -0.03949922204920      1.28296726535946     -3.38462113454578
  H          -0.30506634632719      0.40183356107542     -2.79762883252335
  O           0.53978386102201      0.80102741047549     -4.59789983694065
  C          -1.32472047603412      2.06049719466548     -3.67444055190838
  H          -1.79916887783399      1.56769984448249     -4.52600259688152
  C          -2.35049595465021      2.02250217528863     -2.53992564388267
  O          -2.84093325733757      0.69237265572337     -2.46233188714526
  Si         -3.42791703439882      0.06341489654539     -1.02896915940186
  C          -4.05370070848398     -1.65728596703066     -1.47959629745903
  C          -4.63183278950639     -2.33190849839306     -0.22685886887625
  C          -5.15073049991192     -1.54963635494148     -2.54848384547570
  C          -2.89535787406652     -2.50507544980028     -2.02469589934483
  C          -2.04727804790437     -0.01039758072673      0.23345771991929
  C          -4.79629104321898      1.16838181039891     -0.38690168641168
  O          -1.07883357678303      3.39887254601631     -4.13863800544973
  C          -0.15897728571031      4.17593967649500     -3.41308945194946
  H          -0.03426856173404      5.08688143195987     -4.00729599499869
  O          -0.61356587398864      4.49781645033722     -2.11916052795533
  C          -1.70833043917877      5.41505943379681     -2.10676399514120
  C           1.18603338936983      3.47708733551139     -3.23821563049378
  H           1.81846242451234      4.10060198478430     -2.60028658695326
  O           1.74659198551913      3.35978710515885     -4.54656495805940
  H           0.09848017893188      2.97161703222169     -1.10636577144763
  H           0.94627486182376      1.56452859579020     -5.03381529648887
  H          -1.92127387486031      2.33926831278883     -1.58714474746341
  H          -3.16632385164388      2.70827636665030     -2.79037065922012
  H          -5.47172123376011     -1.76503705657525      0.18611545770183
  H          -3.87847528702207     -2.44185775958272      0.55904925909487
  H          -4.99906964217564     -3.33458760040101     -0.47707965047885
  H          -4.77770548772863     -1.07279690380177     -3.45913187493529
  H          -6.00736627919872     -0.97141357513665     -2.18958379568062
  H          -5.51331209706871     -2.54964393983793     -2.81634561206864
  H          -3.25751602784537     -3.50380645899405     -2.29797806060488
  H          -2.10310978361703     -2.63168723681177     -1.28094126370806
  H          -2.45214667827894     -2.05373752296183     -2.91705668059164
  H          -2.40267889234997     -0.46902492671339      1.16098260468686
  H          -1.68638418913403      0.99344490098195      0.47492708048743
  H          -1.20070595343546     -0.59478344899693     -0.13636578409715
  H          -5.60885147977133      1.26503345266376     -1.11200948702319
  H          -4.40723757983702      2.16941090680125     -0.17573114623714
  H          -5.21232260957379      0.77005567240128      0.54310642558335
  H          -1.96429503084811      5.58620796801353     -1.06208200759977
  H          -2.57266102606846      5.00449393605973     -2.63292213758024
  H          -1.40979233293130      6.35936422983518     -2.57340793668603
  H           2.68218900103008      3.14404454492386     -4.45125701854585
