48
Coordinates from ORCA-job goat_0_150 E -1253.945846395415
  O           2.60649535875422      3.99067345591310     -2.30217494645281
  C           1.42283797681558      3.36764629737548     -2.78958192532341
  H           1.59027127814538      2.99717928304864     -3.81009629217125
  C           1.14041498437370      2.17524365079245     -1.88887264608810
  H           1.07279844336646      2.52629578458125     -0.85001034260452
  O           2.16699827561539      1.19982666907965     -2.01463653476806
  C          -0.18957014478034      1.53279302616508     -2.27910187684818
  H          -0.11384046747500      1.13922735800642     -3.30263668458580
  C          -0.57675571154519      0.40608079935135     -1.34359650518794
  O          -1.73187216250962     -0.25189113636580     -1.83435027915316
  Si         -3.09843650963257     -0.48695691436141     -0.90365408060983
  C          -4.38089784564950     -1.16471825626553     -2.11014291544614
  C          -3.86344256432348     -2.45884082229031     -2.75399103248864
  C          -5.68450300447963     -1.46130937536829     -1.35441870846914
  C          -4.65530905669131     -0.12681195131187     -3.20821939356964
  C          -2.70936378696030     -1.70520692577252      0.46449645624875
  C          -3.66041839068348      1.12663062476194     -0.13735885242193
  O          -1.21670226333001      2.51776960601662     -2.21751788427165
  C          -1.02077494469135      3.55527629647780     -3.16327672370381
  H          -0.93831489738037      3.11788098605707     -4.17203351024063
  O          -2.09664226740113      4.42927084795637     -3.09728498899284
  C          -3.28916296495383      3.90540893245628     -3.68459722917422
  C           0.24515433308267      4.32706691851371     -2.81366227118208
  H           0.11122486250710      4.77146824826536     -1.81975361514801
  O           0.52997469041016      5.32716517703830     -3.78113590156657
  H           2.86721166839604      4.66824899284515     -2.93694895845760
  H           3.00779252791920      1.65649008854162     -1.88617115078334
  H           0.25063574491405     -0.30549506772623     -1.28464095956325
  H          -0.73932454557548      0.82312073704644     -0.34226729976606
  H          -2.93733319372254     -2.28752171384949     -3.30973184281791
  H          -4.60863972650948     -2.85315952634516     -3.45593696093745
  H          -3.67108741788777     -3.23342386289443     -2.00558524714209
  H          -5.53624911853934     -2.20912239329350     -0.56935357689006
  H          -6.43923156129533     -1.85306344606001     -2.04718542231309
  H          -6.09718131314328     -0.56062834199272     -0.88982971632730
  H          -5.06328675135809      0.79997619117270     -2.79422334361345
  H          -5.38651020897432     -0.52132988611871     -3.92460660365428
  H          -3.74504485629182      0.12307962939764     -3.76070389189940
  H          -3.58574527472207     -1.87688123333565      1.09626296795667
  H          -1.91012954699406     -1.31311675632686      1.10165884576482
  H          -2.38125996515744     -2.66769750478951      0.06278773005255
  H          -4.56155784145014      0.96003695165713      0.46077239734151
  H          -3.88503834061143      1.87691620190678     -0.89859445828041
  H          -2.89287079410563      1.53550521344265      0.52577900889350
  H          -3.65057687843504      3.03682740532488     -3.12891012286896
  H          -3.10819471866400      3.62245071116571     -4.72715750239631
  H          -4.03397563999493      4.69957471314598     -3.64574285529067
  H          -0.17473546838056      5.98462431696448     -3.73991235278726
