48
Coordinates from ORCA-job goat_0_274 E -1253.935331147352
  O           1.45544827185402      4.11537820991229     -1.34208973944319
  C           1.00362118780890      3.29197122172949     -2.41085677277892
  H           1.85837385031185      2.79613543363588     -2.88879905485595
  C           0.02712896693700      2.23010700023168     -1.94612136459522
  H          -0.88629615670692      2.71014731777353     -1.57267413984418
  O           0.64626073635830      1.49209026094658     -0.89802765050647
  C          -0.29196795748918      1.31749797747699     -3.13506858760140
  H           0.52108412942625      0.58873584981591     -3.20611153821695
  C          -1.60920337028244      0.57474464767288     -2.94770994469038
  O          -1.53183909834973     -0.14436792970394     -1.71891947743941
  Si         -2.83551266067377     -0.30574304781035     -0.67356251444919
  C          -4.16373596171349     -1.40936596469619     -1.44229455856765
  C          -3.50796137738795     -2.66456929550320     -2.03487044591456
  C          -5.15647329205775     -1.82333706598342     -0.34443879164756
  C          -4.92748206401612     -0.66614973830400     -2.54813544574457
  C          -2.08455816135729     -1.09228079781266      0.84403950598198
  C          -3.51114717062987      1.39150393348484     -0.26768913894563
  O          -0.28917454903966      2.01536420749272     -4.38877555890870
  C          -0.61302712801462      3.37653821380589     -4.34917611824530
  H          -0.49147294682381      3.73615604463240     -5.37667444062237
  O          -1.96367157013784      3.50706499634679     -3.95141764653002
  C          -2.55986845989342      4.71816209831364     -4.40256650486794
  C           0.32234103883235      4.18792494258203     -3.43122050467212
  H          -0.28152014630410      4.91974938336573     -2.88400440178959
  O           1.26554982882111      4.85698886161914     -4.26202147600988
  H           1.86611800546046      3.53612052229664     -0.68836936066656
  H           0.07593211790653      0.72674388974688     -0.73719831449477
  H          -2.43052690373286      1.29489072145805     -2.93795490526477
  H          -1.76434535577563     -0.12139424619671     -3.77783538677133
  H          -2.81490684958499     -2.41027181854809     -2.84196798004585
  H          -4.27523180756727     -3.33074300975326     -2.44783008142346
  H          -2.95250177285249     -3.22728749617748     -1.27827407129988
  H          -5.95643854434034     -2.43682980317723     -0.77625846945976
  H          -5.62529868843859     -0.95411403208486      0.12807549249903
  H          -4.67085461553698     -2.41267170574297      0.43842859784588
  H          -4.27010387604683     -0.36182358485232     -3.36730442183080
  H          -5.42504648282612      0.22865655363163     -2.16363182930167
  H          -5.69947536566284     -1.32061739111947     -2.97114857755406
  H          -1.24173929620650     -0.49194808088999      1.19986182584664
  H          -1.72178885991493     -2.10211767589244      0.63455154149245
  H          -2.81898013459438     -1.15364016634668      1.65171563746597
  H          -4.36269329568129      1.30462052956392      0.41395895261712
  H          -3.84779098898026      1.92946361159400     -1.15732510541102
  H          -2.74159633094868      1.99324183955712      0.22517493057050
  H          -3.60208000367020      4.69460063426829     -4.08580768316186
  H          -2.50982769727499      4.78804860730428     -5.49524785870417
  H          -2.07441082326018      5.59766618158015     -3.96562970098364
  H           1.84652163005800      5.37153915875586     -3.68864692105891
