48
Coordinates from ORCA-job goat_0_1000 E -1253.941418684317
  O           2.26144280834448      2.64178329737891     -1.99048530563065
  C           1.02448666466852      2.47531690664151     -2.67174719560618
  H           1.10308724671794      1.64965178031839     -3.39318928443256
  C          -0.04771613205779      2.11864456763448     -1.65866606014452
  H          -0.05356395567030      2.88289287777439     -0.86834957484459
  O           0.26906851808891      0.84307957622211     -1.11798645978449
  C          -1.42476082937648      2.10415057063517     -2.33707225385230
  H          -1.45074461819101      1.27076823169400     -3.05304064868531
  C          -2.56883594806153      1.96596139652799     -1.33970283138450
  O          -2.41131909200279      0.78360585088088     -0.56662410974771
  Si         -3.58296595269001     -0.40899808460890     -0.39953929364454
  C          -3.64489049696256     -1.48916087120662     -1.95005180204742
  C          -4.60990980875294     -2.65892866437416     -1.69929748862347
  C          -4.14150238881460     -0.68815390729128     -3.16242067631179
  C          -2.24429618378155     -2.04248395157290     -2.25015187992682
  C          -3.00757112195474     -1.38534980211470      1.08361836939170
  C          -5.23422194912819      0.40486198252506     -0.06895017162167
  O          -1.67017948628166      3.33287919827998     -3.01152051637487
  C          -0.73346555253941      3.58256679326477     -4.04730428482339
  H          -0.72657567905986      2.74302079240000     -4.75431776842085
  O          -1.15920045761482      4.68512594152078     -4.78366230378556
  C          -1.21526816362731      5.92733472674769     -4.07392640403877
  C           0.65478346958139      3.74065661431114     -3.42945168384919
  H           0.65132552632416      4.58120547225210     -2.72705456634101
  O           1.64892063442027      3.92177077806706     -4.43015424885604
  H           2.90328811776755      2.94049562964187     -2.64686894386303
  H          -0.52927623266694      0.54029613863277     -0.65643475510362
  H          -2.55789388066000      2.83198813090941     -0.66968081172514
  H          -3.51547882606446      1.97281581678261     -1.88735199846818
  H          -4.66125049699153     -3.29691445341521     -2.58987802753852
  H          -5.62438552650493     -2.30888249502964     -1.48473726896238
  H          -4.28306745187146     -3.28335837722725     -0.86275593294218
  H          -5.13674380334067     -0.26761331560704     -2.99197895196600
  H          -4.20367095020344     -1.34322433319581     -4.04003556790861
  H          -3.46491734191432      0.13235453537549     -3.41568321008339
  H          -2.27544066572521     -2.67680444083463     -3.14446723780558
  H          -1.86486928284205     -2.65198865835007     -1.42465895698597
  H          -1.52554073519851     -1.23897833586300     -2.43433330927770
  H          -3.69575059420631     -2.20648120075662      1.30187394925831
  H          -2.96218045248826     -0.73718125121025      1.96349840249081
  H          -2.01303229256301     -1.80870246428819      0.91925897610862
  H          -5.57006122349522      1.01921387031551     -0.90806354099412
  H          -5.16724352082469      1.04245019790576      0.81758031373392
  H          -5.99885729312736     -0.35485760203653      0.11799744614411
  H          -1.73781495195016      5.81646306974724     -3.12191943945274
  H          -1.77010487364333      6.61388057827627     -4.71247166276973
  H          -0.21563172804821      6.33635134623920     -3.89945398919314
  H           1.56162695498435      4.80905554008046     -4.79623703930861
