48
Coordinates from ORCA-job goat_0_237 E -1253.937106820719
  O           2.87592537334476      2.82680221260088     -2.71066217922062
  C           1.48947810327098      2.98161419200722     -2.99457308388508
  H           1.31818512484716      2.92530719693692     -4.07642035749084
  C           0.75266471417315      1.84286659021416     -2.31785024866963
  H           0.84445747416333      1.95973035471047     -1.22910215029434
  O           1.27269305662798      0.57812455017480     -2.70786226722769
  C          -0.71688362591528      1.87556222763115     -2.73982520134617
  H          -0.79271755036940      1.33252349992736     -3.68563198570812
  C          -1.59493262580135      1.18096206220160     -1.71022148342025
  O          -2.94098962221853      1.11386028092481     -2.15061024236841
  Si         -3.67436939674848     -0.29589125177200     -2.66796169079191
  C          -4.36342434527211     -1.23188289070770     -1.17594539763416
  C          -4.93274891396735     -2.58271348790765     -1.63291067257016
  C          -3.25196394051127     -1.47446641896260     -0.14474139992095
  C          -5.47940758238390     -0.40429289549599     -0.52248871983136
  C          -5.04874703080064      0.26814397921261     -3.80056047626285
  C          -2.44319146286880     -1.35242936192737     -3.60446473005553
  O          -1.17320683704853      3.20014943349681     -3.04664038391475
  C          -0.58268137372992      4.25748792381289     -2.32318081555877
  H          -1.01851045573510      5.16124628886938     -2.76427248057466
  O          -0.87358465565307      4.20109501096409     -0.95009988638361
  C          -2.25499565383043      4.41719443647291     -0.66623023962813
  C           0.95096810277941      4.30367223312442     -2.47620970605075
  H           1.38431491563408      4.49293290276369     -1.48961940472435
  O           1.35909762293420      5.30886034523187     -3.39855909537154
  H           3.36654073506076      3.43235809410927     -3.27779015481762
  H           2.22743310751790      0.61581879023196     -2.56715208049202
  H          -1.17221716137863      0.18521534690260     -1.53670405316400
  H          -1.56188258966967      1.72399672498288     -0.76332989262004
  H          -4.15533881353229     -3.22445354289680     -2.05758916037427
  H          -5.71778353908594     -2.45951630835467     -2.38572665007551
  H          -5.37236155248101     -3.11328842486406     -0.77934842173660
  H          -2.85828467459117     -0.53335157373494      0.24968511658232
  H          -2.41723612966851     -2.04075553137674     -0.56952704399443
  H          -3.64592307112619     -2.04962269799189      0.70230559823100
  H          -5.11976588735169      0.58291767973276     -0.21563436572667
  H          -5.85443279896120     -0.91654675279480      0.37217997019566
  H          -6.32473027171851     -0.26053640973938     -1.20155103096704
  H          -5.67500088071705     -0.57427850355470     -4.10790989626875
  H          -4.63046498294723      0.72770844335109     -4.70083651136898
  H          -5.68767818133367      1.00482726814755     -3.30634281418798
  H          -2.95470809417907     -2.20983178220243     -4.05153101071869
  H          -1.64600617220796     -1.73578525873659     -2.96222298842437
  H          -1.98374689413434     -0.77605530620997     -4.41272508576366
  H          -2.87821743520497      3.63132403932211     -1.10013583898506
  H          -2.57506543525748      5.39011239704652     -1.05615808848147
  H          -2.35978245718753      4.40722819514802      0.41846088268907
  H           1.26905376523522      6.16863569897729     -2.97162218062552
