48
Coordinates from ORCA-job goat_0_1026 E -1253.937926285522
  O           0.21937504177377      3.64247688248939     -0.49933495812502
  C           0.98899598747229      3.56691688142427     -1.69268445906807
  H           1.94157980185837      4.05752395264872     -1.48473034063352
  C           1.24972515441709      2.10933677084804     -2.07672016624061
  H           1.73278756939910      1.59336720437359     -1.24050904354200
  O           2.13967227810180      2.16317358188708     -3.19612818780540
  C          -0.08480100569399      1.41666936701517     -2.42862405748288
  H           0.03937623708546      0.87200247497926     -3.37433127477096
  C          -0.51813801882727      0.43719669421604     -1.35429396178963
  O          -1.69830864631488     -0.23555973602999     -1.74797350023674
  Si         -3.10166956152507     -0.18460106107306     -0.83984631892516
  C          -4.39411934095512     -1.03575281942402     -1.91809876109852
  C          -5.73176237943989     -1.08243056504238     -1.16482132504571
  C          -4.57529780613412     -0.25199650730291     -3.22614977205956
  C          -3.94532073465067     -2.46740679879543     -2.24343240071120
  C          -2.81795105312528     -1.09802605777616      0.77028867696176
  C          -3.57688210333214      1.58488891237539     -0.45629982311301
  O          -1.12972451060522      2.37839105606260     -2.59161500896746
  C          -0.74301412931152      3.39782623322810     -3.50760513667569
  H          -0.32066205722644      2.91793802685569     -4.40507253475964
  O          -1.86179457272080      4.14884877798580     -3.83634859126760
  C          -2.78761438017881      3.44665183729815     -4.66828362754247
  C           0.30503527785594      4.30936094101575     -2.85351273782559
  H          -0.20698201358465      5.18070159884765     -2.43961950589617
  O           1.23209967834706      4.79748827572897     -3.81164241496211
  H          -0.67128535248292      3.33614571131759     -0.71840188640522
  H           2.30865979348900      1.26612129810360     -3.50563598769639
  H           0.28640124339067     -0.29301808413503     -1.21631452655993
  H          -0.64822721734122      0.96905934653553     -0.40409598460144
  H          -5.64902108038654     -1.63980883015889     -0.22676517723270
  H          -6.49178435729976     -1.57916935028091     -1.78005638950806
  H          -6.09926932578916     -0.07870445565172     -0.93066576567830
  H          -5.31802813368468     -0.74925075459086     -3.86207674585937
  H          -3.63966181809209     -0.18888639455189     -3.78915692005109
  H          -4.92632735639252      0.76731748282295     -3.04041955396220
  H          -3.82835704390314     -3.06943355998659     -1.33737139079675
  H          -2.99301651613880     -2.47661119909227     -2.78105321650227
  H          -4.69359115161501     -2.96096110984844     -2.87576120935235
  H          -2.00835556012480     -0.62409462739386      1.33453606804953
  H          -2.54494840123610     -2.14234115579902      0.59687256258919
  H          -3.71599056627021     -1.07640550869253      1.39463376084731
  H          -3.74125686269000      2.16412734895173     -1.36729528371285
  H          -2.79307624223789      2.08155997578305      0.12326191646331
  H          -4.49408837230278      1.60421346934608      0.14023944707901
  H          -2.28998091607361      3.09377137167183     -5.57825368767903
  H          -3.57191357228763      4.15527637778898     -4.93249307031032
  H          -3.22492286413749      2.59679249560268     -4.13881507132478
  H           1.77126696092157      4.04189422842190     -4.08537265621235
