48
Coordinates from ORCA-job goat_0_351 E -1253.944331028549
  O           1.81407518716096      3.75675435731364     -1.20766684229022
  C           0.96836533298703      3.33060819950576     -2.27205636307671
  H           1.57077981316332      2.84272141484518     -3.04999922485866
  C          -0.08479595053956      2.34048891885455     -1.80377640727796
  H          -0.63121253941462      2.76952154780288     -0.95214254807824
  O           0.60371316256302      1.15875020326383     -1.41057306776831
  C          -1.07738799928439      2.07397551916980     -2.93979698152499
  H          -0.55402404582370      1.55573856557511     -3.75597253649959
  C          -2.28132321729458      1.25495243132500     -2.49368817889213
  O          -1.84304160213044      0.01561362858701     -1.95034847752779
  Si         -2.68491764533353     -0.80763148526403     -0.74700830535887
  C          -4.33801666168938     -1.43616199800176     -1.41125770110497
  C          -4.12394988644199     -2.09578029953800     -2.78098437909979
  C          -4.89724013253010     -2.47600914574959     -0.42697834395966
  C          -5.35007902668581     -0.28950396460424     -1.55045180906928
  C          -1.53585714069363     -2.21087145513454     -0.30779605387549
  C          -2.92144682612154      0.33490238056993      0.71431202214862
  O          -1.61840229325708      3.30614021437341     -3.40161517011542
  C          -0.63937161478502      4.17504574344649     -3.95607091445975
  H          -0.11237221316679      3.65278827799729     -4.77136748457643
  O          -1.28308790086706      5.30506987786393     -4.43231671436112
  C          -2.01280348874468      5.07269462693294     -5.63786882224670
  C           0.34211320111051      4.58088783504486     -2.86678137477155
  H          -0.21584782492155      5.11920221896364     -2.08950060487410
  O           1.33766185909600      5.41495248696938     -3.43894998371028
  H           2.35426760780173      3.00407547217201     -0.94025911886334
  H          -0.06055377009867      0.45255674142283     -1.39066074119469
  H          -2.83756456823400      1.83863929801188     -1.75176269656030
  H          -2.93343139041049      1.07807104537405     -3.35421377078151
  H          -3.40598510970524     -2.91980133355034     -2.72580829272997
  H          -3.75607518845890     -1.37691784826685     -3.51864983476041
  H          -5.07123431425548     -2.50428053892232     -3.15343049791402
  H          -5.03681188861253     -2.05401596249133      0.57358199017703
  H          -4.23854783700628     -3.34456407900884     -0.33911861871125
  H          -5.87417301265749     -2.83192479423830     -0.77564805864353
  H          -6.30165395804110     -0.67858899777942     -1.93281093869423
  H          -5.00610063130785      0.47980519487978     -2.24710157332091
  H          -5.55027840049914      0.19064205297249     -0.58853592507543
  H          -1.92133230564346     -2.77311765077424      0.54697506137326
  H          -0.55073606531685     -1.81883942581919     -0.03728442312894
  H          -1.41149569797215     -2.90322484802519     -1.14466655124089
  H          -3.51359039986337      1.21795785477140      0.46237341989808
  H          -1.94928883770711      0.66897869281401      1.08946977012534
  H          -3.43459474542088     -0.19233164260688      1.52428083598040
  H          -2.39732903772659      6.03885846038452     -5.96297132055540
  H          -2.84591366854672      4.38615437135345     -5.46759913756276
  H          -1.35316243201786      4.66233941079807     -6.41019557581325
  H           2.04188510534481      5.49725842641582     -2.78315773477313
