48
Coordinates from ORCA-job goat_0_33 E -1253.939245164874
  O           1.69827190376401      3.99624891209916     -1.20350473862892
  C           1.13071246039119      3.31603409292535     -2.31669374039527
  H           1.92384863777146      2.85316933553556     -2.91778129829145
  C           0.14583167903976      2.24289723258113     -1.89899325506483
  H          -0.71366544677647      2.71104137620107     -1.40173190811983
  O           0.80391827785822      1.36479576473374     -0.99211350226573
  C          -0.30591362309318      1.48563070088016     -3.15349725688167
  H           0.45172630525545      0.72251645253673     -3.35577414209718
  C          -1.64988920837006      0.80046849671809     -2.94396949604578
  O          -1.52380659653613     -0.07227979963646     -1.82441163987657
  Si         -2.76290666403084     -0.29747140145553     -0.71304868319219
  C          -4.22763025656811     -1.17388638518759     -1.52581360096438
  C          -3.72363106198526     -2.38138347259916     -2.32875675018725
  C          -5.18242632635630     -1.65905965992653     -0.42330213582764
  C          -4.99096453734784     -0.22493934771653     -2.46162372800305
  C          -1.97508181744933     -1.35340404885134      0.60937130747498
  C          -3.26599658286124      1.36496055271175     -0.01683630218687
  O          -0.33688247815604      2.31100317788724     -4.32530186724119
  C          -0.59478035635517      3.68476497749537     -4.12116661352495
  H          -0.48690786231077      4.13077959885232     -5.11512372652353
  O          -1.88671283434194      3.91636532130933     -3.62234332565507
  C          -2.90922566248559      3.64216929513604     -4.57862711314434
  C           0.40662917487326      4.34825212093090     -3.16322424278469
  H          -0.15467472287324      5.00700847664214     -2.49248099920324
  O           1.31365989839591      5.11014071330768     -3.95348331160368
  H           2.15678332483549      3.33803700686091     -0.66723371922130
  H           0.20762764499442      0.61283270000015     -0.86698871541255
  H          -2.41799602456775      1.55762240182102     -2.76754009062145
  H          -1.92040883063592      0.22775753634197     -3.83657175176533
  H          -3.18259751870861     -3.09114983458334     -1.69548340293621
  H          -3.05500884046964     -2.07375999761465     -3.13793553482775
  H          -4.57061268929958     -2.91503833906127     -2.77701386527684
  H          -5.54973487509206     -0.82960899335432      0.18948671338385
  H          -4.69915176706323     -2.38185953309684      0.24006833741393
  H          -6.05400941234874     -2.14976216027413     -0.87310359948432
  H          -5.84593622832344     -0.74930790953731     -2.90574697484696
  H          -4.36405528215165      0.13443932266110     -3.28223792555011
  H          -5.37793382020616      0.64621964120481     -1.92541762272823
  H          -2.65133141530721     -1.48089417527979      1.45901746329074
  H          -1.06107931499085     -0.87509143747710      0.97446534812366
  H          -1.71427272624941     -2.34432687589045      0.22825334896066
  H          -3.60801637414145      2.05427774616758     -0.79284096946631
  H          -2.41865231014048      1.82581595607488      0.49985856874901
  H          -4.07866638461557      1.24327916895915      0.70568991246331
  H          -3.85986892579995      3.87575869705740     -4.10004842941226
  H          -2.90372682947486      2.59136091273880     -4.88000177643439
  H          -2.77889159551573      4.27289926685612     -5.46491710980519
  H           1.94186789582088      5.52725641631509     -3.35137613436123
