48
Coordinates from ORCA-job goat_0_22 E -1253.939456780061
  O           2.50558567869963      1.74601410315320     -2.48223832492585
  C           1.35040257884793      2.24668978509550     -3.14449484991308
  H           1.42301872278272      2.05347991147586     -4.22262073840374
  C           0.06998870878376      1.62468940587545     -2.62487392993968
  H          -0.07936878299258      1.91676910303826     -1.57736047544004
  O           0.19563997596950      0.21001228994100     -2.71616781873823
  C          -1.09261172085071      2.12120037076272     -3.49207263995553
  H          -1.11239542106553      1.49341313736997     -4.38811115561298
  C          -2.42990719841056      1.99078818438323     -2.77623352602048
  O          -2.59337393437855      0.61961724537806     -2.42496094824880
  Si         -3.96824432499000      0.08820611163535     -1.62246973208716
  C          -3.59125092752284     -1.69480281034557     -1.14077043928598
  C          -2.45935172353222     -1.73034214532682     -0.10376244781825
  C          -4.85344769604868     -2.32504139437773     -0.53209889265278
  C          -3.17305455713935     -2.49846282112601     -2.38053655991876
  C          -4.25652041539910      1.17473352874331     -0.12670155196786
  C          -5.43087587522139      0.20662562739910     -2.78266545579922
  O          -0.90331538681372      3.46032152526601     -3.96779647090884
  C          -0.10584740108008      4.30811047389166     -3.16740767674327
  H          -0.02223463468210      5.23082871230534     -3.75078550393941
  O          -0.69534642406708      4.57229088252970     -1.92116247291278
  C          -1.85706093974982      5.39415881690682     -2.01930871815038
  C           1.30157323446154      3.74711581262275     -2.91338390065667
  H           1.55570766169816      3.93956885935846     -1.86591612277348
  O           2.20033971676855      4.44192164441649     -3.77219243966764
  H           2.51918616276850      0.79009427775466     -2.61412180677458
  H          -0.67623535394084     -0.14933755629499     -2.49702567622286
  H          -2.43189442306503      2.61467587396575     -1.87786661101620
  H          -3.23520777211598      2.32409006620431     -3.44020516184271
  H          -2.22686541160046     -2.76881942761353      0.16154612084389
  H          -2.73905340276444     -1.20736006353104      0.81537389576813
  H          -1.54272432735948     -1.27204382537668     -0.48652872715847
  H          -4.64368105451511     -3.35542649250845     -0.22096267158136
  H          -5.67663422318198     -2.35672919707466     -1.25188868600121
  H          -5.19589600869748     -1.77598468768579      0.35055669979614
  H          -3.95841421028173     -2.50375835484570     -3.14232060089979
  H          -2.97375248884044     -3.54025108738224     -2.10136863447593
  H          -2.26448434264738     -2.09494273117644     -2.83615306663928
  H          -3.35743086127755      1.24655852644578      0.49129059934619
  H          -5.06331313402557      0.76729560930602      0.48966375466111
  H          -4.54609271142567      2.18530421824420     -0.42934323193620
  H          -5.30548729062479     -0.44534312791122     -3.65128410368283
  H          -5.55292110920475      1.23337425379441     -3.14070042397637
  H          -6.35353399967820     -0.07940387944252     -2.26944832032798
  H          -2.21636603552313      5.55577397128788     -1.00340509744351
  H          -2.64043444438734      4.91044948637628     -2.60855402168170
  H          -1.60331531719315      6.35685103417017     -2.47684703309028
  H           3.08433284551491      4.08960675292175     -3.61216440318311
