48
Coordinates from ORCA-job goat_0_214 E -1253.941036961626
  O           0.08921316037878      4.52455804473736     -1.68412647616786
  C           1.17412036128884      3.71943164198356     -2.12549556401140
  H           2.09571527304541      4.24193517379167     -1.85779759719804
  C           1.17864947934035      2.36380390965434     -1.40910168702030
  H           1.02997267608880      2.53349839394812     -0.33807923201587
  O           2.48332597383399      1.81384814828947     -1.63975757094623
  C           0.09553621972634      1.40970168924398     -1.91736079136743
  H           0.40455792382833      0.39469993062524     -1.64819721371588
  C          -1.25850667351455      1.61906349920674     -1.24668335834882
  O          -2.11624095675455      0.55404066223549     -1.62211342242024
  Si         -3.65495252680552      0.40615806850465     -0.98651937726713
  C          -4.36754276560806     -1.12951885963893     -1.81688334935726
  C          -4.32003236984966     -0.96389284031654     -3.34268546692414
  C          -3.55071200104385     -2.36624946652242     -1.41620750355132
  C          -5.82525018824538     -1.31687189840398     -1.37158182291037
  C          -3.54058917199571      0.21161435647004      0.87258603005461
  C          -4.65845361134773      1.93733183879519     -1.38087366403533
  O           0.02639965763616      1.36777038714046     -3.34980962834312
  C           0.00018163669462      2.59445481347259     -4.04283336934198
  H           0.09498514478187      2.31373114795286     -5.09709489328643
  O          -1.19324501351474      3.31809264166921     -3.84302584922043
  C          -2.35178798188523      2.66782347486678     -4.36866461216930
  C           1.15216179537461      3.51855034200945     -3.64443149011474
  H           0.99558175471172      4.48383048772297     -4.13064840537031
  O           2.38199477103172      2.99993947549214     -4.12416452173380
  H          -0.67034612189837      4.34061623550889     -2.25635554711369
  H           2.51544174947911      0.92414394642353     -1.26854526278815
  H          -1.09034712822870      1.61328059918255     -0.16273724860333
  H          -1.70397316204999      2.57786691832380     -1.51441917592248
  H          -4.90003640993305     -0.09716178742051     -3.67395757565251
  H          -4.74148935736552     -1.85184757274397     -3.82973287984750
  H          -3.29399316124745     -0.83978606100722     -3.69953197319546
  H          -3.95255310775634     -3.25882528209207     -1.91131899594443
  H          -3.58685934788581     -2.54086707825610     -0.33685198380311
  H          -2.50127435029769     -2.26557529324344     -1.70792863250386
  H          -6.24785343295615     -2.21457575617577     -1.83888845222125
  H          -6.44912164625396     -0.46647424189731     -1.66264694910962
  H          -5.90555743509982     -1.43962081982756     -0.28704018820795
  H          -4.52847741441145      0.01309041798392      1.29862079415858
  H          -3.15758506501482      1.12698448717959      1.33379122111591
  H          -2.87739425249434     -0.61281056383031      1.14798694996717
  H          -4.16030894233908      2.83447961791397     -1.00107123659938
  H          -5.64130971471931      1.87664521459176     -0.90418429652080
  H          -4.80687053880396      2.05964551284372     -2.45645077297282
  H          -3.19113474676253      3.34404997472636     -4.21074841491734
  H          -2.53786961776365      1.72441215683014     -3.85291096171750
  H          -2.22252403591625      2.48529853172003     -5.44081811471362
  H           2.66418467252248      2.31226578033541     -3.50055946610361
