48
Coordinates from ORCA-job goat_0_166 E -1253.945929257968
  O           2.25328726119797      2.55554434145500     -1.25566254001512
  C           1.25425422373077      2.67651752877200     -2.26369087517609
  H           1.79667143392488      2.92879560629629     -3.18084999411604
  C           0.53841723744054      1.34544080641952     -2.46541756459341
  H           0.06359233234718      1.05266623162509     -1.52030091118659
  O           1.45542148325323      0.34515765488078     -2.88703098804805
  C          -0.54928259873506      1.47825814027574     -3.52606725843340
  H          -0.08425522799251      1.73527616438058     -4.48929367992138
  C          -1.35251917033726      0.20464206552831     -3.71785603968870
  O          -1.84429272707066     -0.32516666423537     -2.50306779727186
  Si         -3.23786594785500      0.13135400454716     -1.70248141380254
  C          -3.93343489492584     -1.48457184835220     -1.00564531503800
  C          -2.87952596609296     -2.16387154739053     -0.11918855593537
  C          -5.18839683752585     -1.19803264690538     -0.16869318574412
  C          -4.30200999409649     -2.42600692084047     -2.16091015736715
  C          -2.82093337386411      1.30868598661345     -0.30779834385141
  C          -4.44616451777942      0.92503389283500     -2.89133470637096
  O          -1.45249874319696      2.50877473774998     -3.13460434104214
  C          -0.82579128392715      3.77565977448139     -3.05364580757868
  H          -0.37580294131477      4.02153981695234     -4.02998438328241
  O          -1.77956269915636      4.72277519626993     -2.70438389453225
  C          -2.67047091230185      5.05491643728128     -3.77035434670425
  C           0.24885403048586      3.77741290042425     -1.96995260013599
  H          -0.24269946754108      3.57978727070362     -1.00717002207592
  O           0.92762573430141      5.02225297258148     -1.94262690554637
  H           1.81041188220872      2.41294688390523     -0.40878476015603
  H           2.21424892790501      0.39579176041990     -2.29164127104152
  H          -2.16943309814054      0.41506225986570     -4.41631863902122
  H          -0.70235523851028     -0.54732695538262     -4.17112817029735
  H          -2.60050592407768     -1.53479839042043      0.73161027996735
  H          -1.97047322691850     -2.39302619482457     -0.68257598419483
  H          -3.27363234289020     -3.10671448263011      0.28031380292161
  H          -5.97011363206396     -0.71429756303274     -0.76255415274610
  H          -4.96662972954271     -0.55339011976391      0.68683263034004
  H          -5.60214049799340     -2.13606711039937      0.22161229240291
  H          -4.67756326866254     -3.37861445230102     -1.76700430648400
  H          -3.43557225516050     -2.64326522190193     -2.79250013885268
  H          -5.08423128802024     -1.99822626141889     -2.79511289325621
  H          -2.45111938657466      2.25359597887693     -0.71060884570872
  H          -2.05073627064115      0.88760557803950      0.34484354746708
  H          -3.70551585205903      1.51588321040006      0.30182087025994
  H          -5.39675529175753      1.11193135118548     -2.38274316372579
  H          -4.64585533448558      0.28440734651835     -3.75464671865910
  H          -4.05971397255106      1.88085084199823     -3.25207342759275
  H          -3.28745778003261      4.19601204253690     -4.04601485816372
  H          -2.10725725498633      5.39764750945433     -4.64485115679763
  H          -3.30806201152245      5.86038950492868     -3.40761609250405
  H           0.26567641350848      5.70334058159693     -1.77069721669818
