48
Coordinates from ORCA-job goat_0_249 E -1253.936477121168
  O           2.54654925500151      2.49435018097278     -3.28776639309207
  C           1.21420686463975      2.98707367888087     -3.21336819796213
  H           1.06837900355180      3.78577782093847     -3.95301961838770
  C           0.19351403866131      1.88195065098752     -3.45178034450670
  H           0.49770893785576      1.00888667337555     -2.87028744411644
  O           0.23062030891628      1.44719606077491     -4.80999166311841
  C          -1.20976363270491      2.33137692790418     -2.99939842172170
  H          -1.89048529448837      2.19996295979742     -3.84269847198305
  C          -1.74752126179870      1.49358020777378     -1.83918853940055
  O          -1.86596977200790      0.14722583628328     -2.27201131686886
  Si         -3.32173976957628     -0.57647550681597     -2.66727853959283
  C          -4.12848258511985     -1.25507316430768     -1.09699797651455
  C          -3.24118299543027     -2.35730068928845     -0.50099375309189
  C          -4.29787854114148     -0.13446941823175     -0.06097375917604
  C          -5.50666997996479     -1.84103935010964     -1.43711751201678
  C          -4.44623823707517      0.66022327138237     -3.51341403448876
  C          -2.86232968717659     -1.95363355316665     -3.84222553199556
  O          -1.25782468340038      3.73448363067511     -2.71880226586754
  C          -0.36125434452266      4.21710646510126     -1.73956177796530
  H          -0.25921289790558      5.28508737462976     -1.96407949425898
  O          -0.84288544557687      4.04999820848810     -0.43361571997180
  C          -1.99510142485868      4.84190679267816     -0.15564100776609
  C           1.01346641443852      3.55449173846844     -1.82113789780859
  H           1.06403092707109      2.73471390677090     -1.09339840705582
  O           1.98093987881816      4.54440141564795     -1.50191693018731
  H           2.68048939157383      2.14671363258035     -4.17756358619235
  H          -0.05441855766401      2.18153924149986     -5.36859196205943
  H          -1.06837744076053      1.52059397747675     -0.98449239391307
  H          -2.70562550255667      1.91313249862452     -1.51846792102941
  H          -2.23615364945751     -1.98637635145128     -0.27709420399127
  H          -3.14373133623650     -3.20829585410206     -1.18122275954625
  H          -3.67719599508617     -2.72755792688551      0.43508169925750
  H          -3.33188809244482      0.26874700835996      0.25610662611669
  H          -4.80357457644079     -0.52294065703653      0.83162325882809
  H          -4.90040752097017      0.69263755079757     -0.44920571902714
  H          -5.43817472038499     -2.62982283895460     -2.19286324492628
  H          -6.19007091425185     -1.07317299754067     -1.81107255947836
  H          -5.95945970574601     -2.28015536510918     -0.53969756245277
  H          -3.96855195591061      1.05904992266527     -4.41287517842694
  H          -4.71080216837307      1.49900640501016     -2.86422149944742
  H          -5.37422551424531      0.16794967263662     -3.81858358389697
  H          -3.73619384532294     -2.55954357556954     -4.09827029761947
  H          -2.10834994883999     -2.61200696076722     -3.40280857014110
  H          -2.45426442633684     -1.53630405752474     -4.76747756556883
  H          -2.22699798339138      4.70298890343468      0.90003114617663
  H          -2.84808127420693      4.52253836172336     -0.76032094358359
  H          -1.78948561575182      5.90116425535060     -0.34851869990758
  H           2.84849627659977      4.14089303517037     -1.63067946025463
