48
Coordinates from ORCA-job goat_0_1081 E -1253.937619554137
  O           1.25165356101537      4.47151194742181     -1.59231633203981
  C           1.28696190416350      3.27297365049684     -2.36093042705261
  H           2.28828306874137      2.85600169004859     -2.22452562152537
  C           0.27408914665862      2.25153340063213     -1.84255726972433
  H          -0.59250319559256      2.78630118938786     -1.44952498448728
  O           0.89657855503435      1.50054103808406     -0.80137433579126
  C          -0.19421493035340      1.32339305263856     -2.96450623134897
  H           0.67240476629690      0.77688066916439     -3.35418012645597
  C          -1.21151784360588      0.30233513547736     -2.49435224303723
  O          -2.29275726385554      0.94675660286471     -1.84348125818246
  Si         -3.31694437810682      0.19377511957236     -0.76042806159169
  C          -4.32747858870694     -1.15748952762265     -1.61751204370374
  C          -3.47115124310960     -2.40520434449621     -1.87886822400052
  C          -5.50499619186458     -1.54848653264263     -0.71056415774249
  C          -4.87128565775265     -0.62314514750471     -2.95009600172858
  C          -2.31565877355581     -0.52417738071700      0.65032934116583
  C          -4.41588384922376      1.57577894337588     -0.15158936970507
  O          -0.79966973658827      2.05760567814487     -4.04177442604910
  C          -0.36218184101056      3.37839441075324     -4.24155168724832
  H          -0.53605783603133      3.58611963591653     -5.30319363173844
  O          -1.07167463687402      4.30562127787417     -3.45043887384898
  C          -2.46323412413281      4.36079711622801     -3.75394613602820
  C           1.09877569964167      3.55827870456947     -3.86340444233666
  H           1.38680775912410      4.59598218331599     -4.05618451145022
  O           1.84481408820262      2.66464038262837     -4.67922732775823
  H           0.38226676317424      4.86821383183854     -1.73686910633552
  H           0.21282672703525      1.20155513110878     -0.19219288112768
  H          -1.57070251034867     -0.25032523717578     -3.36896984041676
  H          -0.71089722018469     -0.40833489245223     -1.82794222124603
  H          -2.61384178174150     -2.18940218118319     -2.52209611828838
  H          -4.07417734004882     -3.17302081918898     -2.37926787697203
  H          -3.09326706955900     -2.83581886279108     -0.94721131604525
  H          -6.08110687893916     -2.35834387891475     -1.17454320540140
  H          -6.18504633903862     -0.70803125796810     -0.54601703344747
  H          -5.16371053013175     -1.90396268147255      0.26716933698863
  H          -5.49573747312477     -1.38362087574927     -3.43501817847197
  H          -4.06288029702906     -0.36406594785089     -3.63969025837034
  H          -5.48806101039659      0.26936032486185     -2.80534522531985
  H          -2.96953693526922     -1.05052690011279      1.35224820374079
  H          -1.80603375811041      0.27451410851858      1.19840680558493
  H          -1.56185340949214     -1.23426873339870      0.30020434095451
  H          -3.80412637760168      2.39745856854961      0.23222148748557
  H          -5.06591438967968      1.23012737248703      0.65681073968278
  H          -5.04754558743272      1.96552556671254     -0.95460576180416
  H          -2.61392428882038      4.56821732412507     -4.81949239892771
  H          -2.88359819276312      5.17374287283352     -3.16252261714293
  H          -2.95953105656999      3.42326059583444     -3.49233310879257
  H           2.78107049755919      2.84360767577614     -4.53459538291682
