48
Coordinates from ORCA-job goat_0_1015 E -1253.936241199516
  O           1.64477584975356      1.39552803271504     -0.47599840737937
  C           1.02862642217072      2.20722553092469     -1.46650675143254
  H           1.65237568123957      3.09277712713876     -1.66480623253874
  C           0.90007813896691      1.39681536180319     -2.74906914754885
  H           0.55468091984521      0.39854303564945     -2.47562315780442
  O           2.16737235029822      1.19601358286900     -3.37138277393589
  C          -0.12069724208751      2.04241714162737     -3.71136926073491
  H           0.37472299782036      2.16044035138342     -4.67767947983190
  C          -1.33934651031289      1.16533450422667     -3.96748467030728
  O          -1.87592830825816      0.63849457952917     -2.76803746644887
  Si         -3.34735319285393     -0.14928628850727     -2.73931442552674
  C          -3.63066721826969     -0.61344924602901     -0.93217862203578
  C          -4.81907879431722     -1.58373735406168     -0.84883273188248
  C          -2.37854697598140     -1.29722339676818     -0.36447192702183
  C          -3.94725080396317      0.63867283525087     -0.10188478687555
  C          -4.68729255337706      0.98947105011243     -3.38207810156334
  C          -3.24928899342358     -1.66740246257984     -3.83242828973333
  O          -0.43882618746142      3.39082875228146     -3.33937070087698
  C          -0.93619028492723      3.62594003102077     -2.03890411152912
  H          -0.61461526665075      4.65263899179234     -1.81248140642613
  O          -2.33195610698457      3.55500598290592     -1.96514485925631
  C          -2.98520586280705      4.58502076022628     -2.69853878026787
  C          -0.34783730665317      2.66749878677952     -1.00603699212128
  H          -1.00023048736725      1.80102537431979     -0.90712723952802
  O          -0.28825539966902      3.26400521990243      0.28548454498318
  H           1.51095311909281      1.84456824716382      0.36921695574722
  H           2.52972169271270      2.06116820528001     -3.59985004597112
  H          -2.08428669177018      1.76037565932975     -4.50789343100275
  H          -1.01721703711220      0.34515583301161     -4.62163314351380
  H          -5.02592481467455     -1.83276232561258      0.19901691999881
  H          -4.61541714479827     -2.51849808180898     -1.37892593507814
  H          -5.73023775531985     -1.14722861247430     -1.27063898475368
  H          -1.51736503178808     -0.62365204704975     -0.36833499109155
  H          -2.11036769628495     -2.19078129685448     -0.93696857905500
  H          -2.55892131494885     -1.60854492635587      0.67187766996347
  H          -4.08870346557604      0.36362850535508      0.95061585054726
  H          -4.86490382885440      1.12551867680051     -0.44440907069839
  H          -3.13952385926322      1.37342645044024     -0.15028724721875
  H          -5.67159899391936      0.52922220243153     -3.25278725832076
  H          -4.55182633683352      1.19042444554151     -4.44887768906957
  H          -4.68094727816254      1.94361038016023     -2.84989232150439
  H          -2.95485214372589     -1.38705504769100     -4.84848986061580
  H          -4.22165153174871     -2.16456619102618     -3.89295379473918
  H          -2.51933633241238     -2.38806602983325     -3.45311282370161
  H          -4.05050195469398      4.50053573163495     -2.48411001242150
  H          -2.82209324506707      4.46941460950595     -3.77379775445747
  H          -2.62721154767682      5.57248197364352     -2.38305991708496
  H           0.20597832809556      4.09160535389486      0.21871124166617
