48
Coordinates from ORCA-job goat_0_1087 E -1253.936782483267
  O           0.92262351088606      4.82306650356322     -1.93615648078546
  C           1.13739596394901      3.54805115934276     -2.53301028942325
  H           2.20506326405247      3.33965256661884     -2.41623917359171
  C           0.34418499763314      2.45524677061226     -1.80439967510241
  H          -0.56695881838769      2.89906246225428     -1.40461511724232
  O           1.04947107498740      1.95408839251310     -0.67302570282770
  C          -0.04882011663512      1.30968884093584     -2.73969765866850
  H           0.86282158758611      0.80177406100827     -3.08001272723148
  C          -0.92714595151709      0.28330636556406     -2.04956765159234
  O          -2.05942189131804      0.92176752410694     -1.48965941552415
  Si         -3.23527285073143      0.15388268554887     -0.59090793484299
  C          -4.26321993356339     -1.00696660088999     -1.67912538990632
  C          -3.53613445413773     -2.33830679819251     -1.91842264355928
  C          -5.59629985963038     -1.29709715022973     -0.97112816936667
  C          -4.54374851350768     -0.32728194041975     -3.02693342801729
  C          -2.44025969275686     -0.78952217945690      0.81680177998608
  C          -4.28162029432135      1.56057176327682      0.05592098550351
  O          -0.77077914236151      1.76512876829850     -3.89539007349079
  C          -0.58756238875257      3.10021447503380     -4.28819695383246
  H          -0.84788329444787      3.12605301963145     -5.35221326292354
  O          -1.41007936101277      3.99281247184679     -3.57106081580045
  C          -2.80333420748649      3.74290005270693     -3.74754211339472
  C           0.83620156865937      3.57054611579265     -4.04314353450605
  H           0.93799306195489      4.59894033899339     -4.40257988887478
  O           1.68496424636269      2.69018550938620     -4.76830855411893
  H          -0.01183172178614      5.03472029075112     -2.06393780993538
  H           1.87757122275653      1.56374039665291     -0.97983909727764
  H          -1.22845318361042     -0.45826516795771     -2.79701849839902
  H          -0.34129233800185     -0.22338930189026     -1.27623790224035
  H          -4.14583677684051     -2.98673038185597     -2.55996371922581
  H          -3.35828065145055     -2.87262428691538     -0.98091863859085
  H          -2.57128454697924     -2.19944380934669     -2.41354547268445
  H          -6.18777103755457     -2.00671550855337     -1.56258731461062
  H          -6.19307092493616     -0.38955029941629     -0.84542156920873
  H          -5.44245547744845     -1.73987385962300      0.01860128490453
  H          -5.05337204165751      0.63276917368045     -2.89646252311808
  H          -5.18825260333824     -0.96495049433658     -3.64465978792473
  H          -3.62084049272735     -0.14248932510123     -3.58375611202147
  H          -1.91617311300991     -0.10258926582252      1.48797249156571
  H          -1.72112126421955     -1.52891267262864      0.45430142222635
  H          -3.20153728880279     -1.31899615970840      1.39790298834191
  H          -3.64845017707493      2.29143804238529      0.56732778869366
  H          -5.02853554562869      1.19992462368715      0.76824004333679
  H          -4.80483260102391      2.07144480577822     -0.75746250691530
  H          -3.08787607149441      2.78981449764491     -3.29612395604775
  H          -3.05748026338645      3.73535812180216     -4.81366090068312
  H          -3.33412024046766      4.55636118336174     -3.25347180245383
  H           2.58094863317949      3.04377421956577     -4.72851451859682
