48
Coordinates from ORCA-job goat_0_1137 E -1253.941803954640
  O           1.77025632825545      3.93783132869628     -1.69158950340272
  C           0.94908834160712      3.18783308148111     -2.58138134577559
  H           1.53062575853807      3.09942934846349     -3.50527334969550
  C           0.62538427829578      1.79284058544179     -2.07325279373875
  H           0.12228811262030      1.86995367955920     -1.10342861618654
  O           1.84018468948601      1.06438187701718     -1.94609987322630
  C          -0.31768156944534      1.10610486680433     -3.06724432128445
  H           0.20626141520292      0.99716699779749     -4.02877590627243
  C          -0.74337432654405     -0.27994296038850     -2.61695714734826
  O          -1.15545895474049     -0.33164701410385     -1.26509090504880
  Si         -2.62829287867904      0.00625989897956     -0.55223254463414
  C          -4.08311316136920     -0.74206236206122     -1.51157843692925
  C          -3.77887925050452     -2.19997430533811     -1.88575717372884
  C          -5.31373128095721     -0.71691116596445     -0.58724509680891
  C          -4.41770761813947      0.05733294703596     -2.77921777213885
  C          -2.46097124816605     -0.81469422442788      1.12265131536029
  C          -2.87518857016650      1.84307278226304     -0.28911620203174
  O          -1.48881164765943      1.89390352867672     -3.24567603845057
  C          -1.21875049050128      3.16186220867179     -3.82087513115491
  H          -0.71637484311576      3.01998724737837     -4.79250262624567
  O          -2.42314698062106      3.82932867039143     -3.98678057900881
  C          -3.21772590308779      3.30398440828605     -5.05052274578729
  C          -0.33105834220847      3.96359551149898     -2.88222757552552
  H          -0.88726774248349      4.11821990737234     -1.94676717897501
  O          -0.02348001962129      5.20724777052382     -3.49136974782561
  H           1.33894989914404      3.96008594206870     -0.82736433533717
  H           1.69512129298806      0.34730762988478     -1.31878063207697
  H          -1.52670987930770     -0.63499785312803     -3.29171301847877
  H           0.11261940449682     -0.95210109257370     -2.72121894193734
  H          -3.55493191811647     -2.80434331897880     -1.00152656662629
  H          -2.92914805549295     -2.27852212047293     -2.56903667694485
  H          -4.64794163667665     -2.64878355087565     -2.38256473989607
  H          -5.56145727829194      0.30007765100862     -0.26722422970001
  H          -5.16215500972500     -1.32642019911371      0.30762799633421
  H          -6.18444532748722     -1.11738794969694     -1.12046001845752
  H          -5.29469634796010     -0.38104685403093     -3.27186248180926
  H          -3.59673188116337      0.05805364531827     -3.49871427936359
  H          -4.65313149915517      1.09962338489078     -2.54625820315877
  H          -2.41427558706044     -1.90361215602796      1.03481448653339
  H          -3.30174667778615     -0.55870776980326      1.77302201610916
  H          -1.54244500039907     -0.47346120839587      1.60993673346165
  H          -2.97234865427712      2.38510426737166     -1.22981921213745
  H          -2.02524737048684      2.25970066582440      0.26044102850197
  H          -3.77571479792265      2.01105023282096      0.31017820445456
  H          -4.08226773691529      3.95974681210284     -5.14963571349318
  H          -3.55318881926329      2.28837496806565     -4.82680698782774
  H          -2.64951034611546      3.30376482494872     -5.98719455422606
  H           0.69615913097861      5.59396943473735     -2.97537857805893
