48
Coordinates from ORCA-job goat_0_1035 E -1253.940744012948
  O           2.51002895543391      3.98280713447687     -2.01793756197152
  C           1.47721390834504      3.16177859070349     -2.54236236987450
  H           1.86477496660009      2.56536830712861     -3.38327426782611
  C           0.96446212917779      2.19501536316167     -1.48276500922371
  H           0.66093240322003      2.76759988561322     -0.59854442503065
  O           2.05130605231037      1.32805935205841     -1.16428716024488
  C          -0.24101394507991      1.42498246334836     -2.02261196195224
  H           0.07454822183539      0.81869613327434     -2.88386875895828
  C          -0.87071903467193      0.51796013641840     -0.98511912701430
  O          -1.81839764537720     -0.36185753246169     -1.55581218021612
  Si         -3.42363241981660     -0.02300316168475     -1.88073146555520
  C          -4.33916573446644     -1.62497831761088     -1.45763462302459
  C          -5.83175751380265     -1.47865207199418     -1.78726277281422
  C          -3.75507161542979     -2.78812158171498     -2.27269767344176
  C          -4.18052886713189     -1.92941323095474      0.03856195228331
  C          -4.02505070473838      1.39160461127356     -0.81309166203883
  C          -3.64009996961955      0.37993920511794     -3.69551016176953
  O          -1.23665984799096      2.35852256052993     -2.42988588978506
  C          -0.81362509864428      3.17065307946506     -3.51252412621029
  H          -0.48575935337730      2.53032371957798     -4.34369762549645
  O          -1.91149310750179      3.87152523372083     -3.99877832599667
  C          -2.44494691666895      4.87406211540514     -3.13016862891820
  C           0.35549507451662      4.05369865478039     -3.05651066913334
  H           0.02580790651935      4.70040446385818     -2.24008528723235
  O           0.78462538413129      4.91680453152874     -4.09651614718354
  H           3.16226324821102      3.38670429804495     -1.62776409995670
  H           1.99101772777635      1.08045219385007     -0.23576275233268
  H          -0.08745109268842     -0.09238332422589     -0.52859560817213
  H          -1.32296710984081      1.13676286406093     -0.20124450501885
  H          -5.99446299574657     -1.29014973676859     -2.85242514160883
  H          -6.29313140284833     -0.66095684607843     -1.22495563699309
  H          -6.36628808704376     -2.40103852972699     -1.52851209880894
  H          -3.86811026821539     -2.62407718213206     -3.34860889433213
  H          -4.27444573042921     -3.72175202956416     -2.02286748061893
  H          -2.69128859335930     -2.93009173886313     -2.06196297888143
  H          -3.12726686471224     -2.02384693305363      0.31885631177928
  H          -4.67985694051206     -2.87419144034756      0.28702224043849
  H          -4.62631143696742     -1.14594681443288      0.65863337347014
  H          -5.10183157840434      1.52723747597082     -0.95200169749490
  H          -3.52584155861207      2.32251494063423     -1.09014143742569
  H          -3.84340466536110      1.20349174780562      0.24865010355022
  H          -3.22700319601035     -0.41329901187907     -4.32515075946983
  H          -3.13220510904626      1.31497601472639     -3.93986543388578
  H          -4.70031378763456      0.48967604346508     -3.94264875459533
  H          -3.41046710739652      5.15551113278150     -3.54960081085675
  H          -1.79756173942689      5.75475153012652     -3.10004008358533
  H          -2.59189378484129      4.48707526739258     -2.11916437967099
  H           1.13537884533717      4.37738043319362     -4.81658354690046
