48
Coordinates from ORCA-job goat_0_200 E -1253.938604284985
  O           0.72107967990404      2.88895091048429     -0.45733332389805
  C           1.18462221018517      2.95841255162448     -1.79998751976819
  H           2.27165838464657      2.85267804011346     -1.76808843764554
  C           0.63381089804465      1.81256532099724     -2.66303854952324
  H           0.70390121194648      0.88668028392547     -2.09010963833286
  O           1.45382598597900      1.63489636308682     -3.81848677721455
  C          -0.82890069915536      2.00691227513845     -3.06426699201014
  H          -0.99031529089599      1.38743407057675     -3.94900548017249
  C          -1.84098069916866      1.53310017671739     -2.01655330264622
  O          -1.70127181695632      0.12916714739815     -1.85664238459696
  Si         -2.84686553174035     -0.97378413712303     -2.37551929452625
  C          -4.18812867228650     -1.15856075254716     -1.05502053028633
  C          -5.30345020201196     -2.07282638337406     -1.58227551117089
  C          -3.57936718647251     -1.77621702644890      0.21196980214503
  C          -4.78096970854147      0.21436778793683     -0.70686164297889
  C          -3.58978101226141     -0.40779431076094     -3.99941448684779
  C          -1.90288345754072     -2.56889546163566     -2.60415560362021
  O          -1.11524419097366      3.34210569165543     -3.51737185443051
  C          -0.64809289499590      4.40843537511513     -2.73099848230740
  H          -0.85854849824527      5.30400306198880     -3.32810470835372
  O          -1.29864994407988      4.50329977397407     -1.48501804065686
  C          -2.67067401957883      4.88906759747264     -1.57859988459933
  C           0.84946213167008      4.31034403113244     -2.43061029413038
  H           1.11801136670719      5.11499975655773     -1.73930491952562
  O           1.60377656523465      4.40439899047041     -3.63564530463428
  H          -0.12265263373589      3.36067109253883     -0.40678073453991
  H           1.56058707003062      2.50770655679532     -4.22444291115013
  H          -1.69096496868633      2.00658054333685     -1.04687785803100
  H          -2.83940640124268      1.80490545932610     -2.37192603783264
  H          -6.06609576175251     -2.22101279760923     -0.80785814931338
  H          -4.92111494482056     -3.05937824843785     -1.86284151400618
  H          -5.79861985099612     -1.64123039349429     -2.45702128835996
  H          -4.33889440393302     -1.84590654002034      1.00045720853563
  H          -2.75357088112735     -1.16965732183276      0.59681364452538
  H          -3.19986238297649     -2.78506778285892      0.02605955290861
  H          -5.58852893164504      0.09879758113365      0.02661795169184
  H          -5.20107354264806      0.71294507530027     -1.58591534448435
  H          -4.02899928435687      0.87625046515250     -0.26788310383116
  H          -4.20679460024509      0.48757410001919     -3.88786346268323
  H          -4.22128092014293     -1.19987794174329     -4.41233165650866
  H          -2.80146399821258     -0.19346821375655     -4.72688084182595
  H          -2.58269999028562     -3.39779976958021     -2.82138361648967
  H          -1.33464462130028     -2.82155589379101     -1.70500045137337
  H          -1.20063094156083     -2.47706692810078     -3.43785261139224
  H          -3.24994510910418      4.15309747695848     -2.14018180395330
  H          -2.75155660364973      5.86682524050696     -2.06456483321274
  H          -3.05043100791528      4.95263837365222     -0.55981988726017
  H           1.37045010089380      5.22286873202861     -4.08992908968161
