48
Coordinates from ORCA-job goat_0_122 E -1253.937639450027
  O           2.52799148718045      1.72488947227860     -2.18269008289284
  C           1.34152011452823      2.28943664918023     -2.73566536299151
  H           1.57071561487515      2.48185084511702     -3.78684927563637
  C           0.16437997866754      1.32980782840997     -2.64040575617631
  H           0.10444774326623      0.96250951582310     -1.60759842736784
  O           0.32558622950354      0.22339633631480     -3.52472932155506
  C          -1.14895186160909      2.04826956696452     -2.98984256962700
  H          -1.63172869285069      1.47363703328843     -3.78115338271875
  C          -2.11255720270032      2.11425323933588     -1.80451232098971
  O          -2.44426403081229      0.79038189147872     -1.41417057172318
  Si         -3.89565110616483      0.07874805280760     -1.84377884501470
  C          -3.71528210143246     -1.72672453532824     -1.33125812219063
  C          -2.54841367487772     -2.37048079485419     -2.09414774638743
  C          -3.44489594326539     -1.81813290688978      0.17741225961927
  C          -5.01395087172962     -2.47768789262434     -1.66036929064157
  C          -5.28754654367383      0.93379651458867     -0.92918591305831
  C          -4.18108826271323      0.25501468744416     -3.68636089996871
  O          -0.91950032042853      3.33456010176978     -3.57334929428624
  C          -0.17486830221255      4.25810220705292     -2.80566555092950
  H           0.23396431677958      4.96001395971057     -3.54153945280867
  O          -0.96288841160498      4.95011344929695     -1.87526944087525
  C          -1.91421391166781      5.82019378356560     -2.48380648662991
  C           0.97610526157618      3.59637492436615     -2.04924675348483
  H           0.65454168272387      3.38456170504709     -1.02025962480458
  O           2.06515542223009      4.50723576747439     -2.03681627699663
  H           2.34207532868223      1.46394883919737     -1.27057582196045
  H           1.15778302979767     -0.20974860298868     -3.29690723416984
  H          -1.65530535396804      2.61868645596233     -0.95082215272472
  H          -2.99599225876105      2.69164911314623     -2.09925931876204
  H          -1.60383111529243     -1.85878192021604     -1.88971689376178
  H          -2.71392812996197     -2.35361161405523     -3.17538556260584
  H          -2.43572558831757     -3.41878443848636     -1.79149032252047
  H          -3.33603899316909     -2.86801215054138      0.47602812479788
  H          -4.26535556780886     -1.39077441083959      0.76144084411311
  H          -2.52482434384537     -1.29452988295065      0.45204954481592
  H          -4.92201650197296     -3.53105550903999     -1.36927310751014
  H          -5.23870525451075     -2.44823219406867     -2.73089827857686
  H          -5.87048550417150     -2.05914673078754     -1.12319228131754
  H          -6.25401504982717      0.49675705477176     -1.19669592479586
  H          -5.31799247065072      1.99593994127574     -1.19135674184498
  H          -5.16232136755200      0.85436673989716      0.15390864007002
  H          -3.39567052803986     -0.23347590630791     -4.26858605491973
  H          -4.21338763020352      1.31070685517627     -3.97303387767754
  H          -5.14049595527989     -0.19283617353708     -3.96186712659438
  H          -2.66482619389591      5.25483530862107     -3.04251284402314
  H          -1.41427523241450      6.52491566178920     -3.15818230743744
  H          -2.40018830921146      6.37042762954329     -1.67843801783860
  H           2.83474637678754      4.01521453281990     -1.72182477461899
