48
Coordinates from ORCA-job goat_0_328 E -1253.945607586891
  O           1.67747382111991      2.98614920961265     -0.30517609396535
  C           1.10646099833278      2.85372182766557     -1.60029679857770
  H           1.88014773802767      3.01455661853634     -2.36719197338104
  C           0.55520646850358      1.44416873628082     -1.75535743899598
  H          -0.12624703175254      1.23606316813582     -0.92778208693953
  O           1.58086143227776      0.46282459839004     -1.67708320384476
  C          -0.21742857034978      1.32002004639487     -3.07393714641763
  H           0.48612182369294      1.43951859182557     -3.91305558235698
  C          -0.89719164845075     -0.02878426311390     -3.22555885506940
  O          -1.70176161432518     -0.36491029630990     -2.11291518587120
  Si         -3.28295229117200      0.10339731979399     -1.84406477587108
  C          -4.09624993908659     -1.41080362889646     -1.05243583024907
  C          -4.02839634777182     -2.59862803704141     -2.02239942990833
  C          -3.35728299825746     -1.77485027915195      0.24356096831333
  C          -5.56617007351665     -1.10843820046257     -0.72746924533695
  C          -3.33156915030590      1.55304535921914     -0.66027777523026
  C          -4.11760655870452      0.54636248136468     -3.45974681849777
  O          -1.22668029589579      2.32231480472818     -3.15140742553944
  C          -0.69281394827599      3.63437384146105     -3.13839205615212
  H           0.01341526585170      3.74922106125522     -3.97767620437776
  O          -1.73740637826163      4.54143885891476     -3.25206682925605
  C          -2.29749355167204      4.60359616603979     -4.56435345680168
  C           0.00953020735061      3.88468209995365     -1.81223167867926
  H          -0.73358576465586      3.79322126228036     -1.01067475885086
  O           0.62817091658597      5.16386957779979     -1.78201998610805
  H           1.94853846304868      3.90790490063559     -0.21097587459373
  H           2.24085276951383      0.65867028082202     -2.35435346118048
  H          -1.48510510165118     -0.01678312846191     -4.14937391443398
  H          -0.12472252759237     -0.79488632284522     -3.32283977194565
  H          -2.99506126683013     -2.83981607835846     -2.28785928760957
  H          -4.57663442354681     -2.39544430253550     -2.94729667334369
  H          -4.47367914383640     -3.48899672104629     -1.56125891283871
  H          -2.30290025369593     -1.99638378936615      0.05453145881144
  H          -3.81045732856203     -2.66379967612308      0.69991916466306
  H          -3.40641920159920     -0.96420862039679      0.97681493097655
  H          -6.13650424328240     -0.85720366691225     -1.62695568263481
  H          -5.66325684298003     -0.27740127342803     -0.02269482191334
  H          -6.03852843403314     -1.98686802975303     -0.27063164555035
  H          -4.35691108362039      1.75540665074068     -0.33650941904838
  H          -2.93923402068525      2.44938770550560     -1.14445732011763
  H          -2.72847221465826      1.35197748557978      0.22976978955555
  H          -3.65603590861315      1.43249125633988     -3.90118762778642
  H          -5.17458970405492      0.76634098942466     -3.28224794368540
  H          -4.06035219320062     -0.27123982626406     -4.18361370525809
  H          -3.03433989481128      5.40604626030166     -4.55406321690375
  H          -2.78641480471447      3.66191550249951     -4.82644139763793
  H          -1.51899269765109      4.82960475567163     -5.30096290831666
  H          -0.06950245223165      5.82973472329388     -1.77515209124294
