48
Coordinates from ORCA-job goat_0_169 E -1253.945795646568
  O           2.12424392736799      2.67427348882538     -1.14113153297160
  C           1.20943406457714      2.71122801867911     -2.23125821775078
  H           1.74793062757425      2.95207068926151     -3.15880487649500
  C           0.49596006493621      1.38528739273969     -2.41962001718110
  H           0.01882570816127      1.09528878662190     -1.47928908540695
  O           1.48131172551286      0.42642339152403     -2.79616763349201
  C          -0.57713400141174      1.53926923119885     -3.49810365441427
  H          -0.09421371494156      1.79999854201897     -4.45160497929743
  C          -1.38765424036785      0.27488580638461     -3.71493327654430
  O          -1.87384031931854     -0.28130411942351     -2.50873962932923
  Si         -3.26336804039589      0.16690435980119     -1.69371926275182
  C          -3.95224268067911     -1.45592298823619     -1.00722144656363
  C          -2.89471793321748     -2.13862497547934     -0.12776446466572
  C          -5.20589467086338     -1.17758680999617     -0.16537629794543
  C          -4.32159888243818     -2.39021272233189     -2.16799150880825
  C          -2.84006436032260      1.33428105641599     -0.29317340623634
  C          -4.47639216457625      0.96939010739310     -2.87133746590601
  O          -1.47460451728621      2.57624845822633     -3.11028141764100
  C          -0.85174507967832      3.84886835905727     -3.02457796181311
  H          -0.40114637669634      4.09665940896425     -4.00007472786145
  O          -1.81850146423590      4.78178664164270     -2.68171630376571
  C          -2.71537754135491      5.08394958647073     -3.75053023958707
  C           0.21947622845203      3.82778989108954     -1.94289553316080
  H          -0.27263023555288      3.63470667539623     -0.98075456630460
  O           0.87121951113287      5.08901534920408     -1.92854178440671
  H           2.78823805092810      2.00531133668920     -1.34727584479638
  H           1.18371719489237     -0.44477708716615     -2.51264002283889
  H          -2.20639406064856      0.50131009183673     -4.40579185567208
  H          -0.74412599152745     -0.47090208720807     -4.18938360824662
  H          -2.61515760358747     -1.51464233342747      0.72654402270620
  H          -1.98644542693592     -2.36214547610816     -0.69474803644638
  H          -3.28579023392612     -3.08501236096266      0.26624191412256
  H          -5.99035005960179     -0.69263681018271     -0.75458056283662
  H          -4.98369626973696     -0.53721091851750      0.69322645789325
  H          -5.61595720997354     -2.11901470406456      0.22054628933513
  H          -5.10529775790729     -1.95917846613240     -2.79812420512966
  H          -4.69552870280013     -3.34567428625255     -1.77952801264758
  H          -3.45595763425702     -2.60246323064589     -2.80233899528665
  H          -2.07033388528108      0.90836665305750      0.35679694694775
  H          -3.72399293742839      1.53965211898050      0.31808181929098
  H          -2.46910248615194      2.28088933657675     -0.69098214642620
  H          -4.08994846405438      1.92696709852911     -3.22748197264174
  H          -5.42422989699770      1.15485753043550     -2.35722755258808
  H          -4.68103367089392      0.33479036773724     -3.73793389143728
  H          -2.15915225137352      5.42141382864410     -4.63193100072568
  H          -3.36290372468778      5.88681194495175     -3.39940916833110
  H          -3.32247643276688      4.21408903222540     -4.01377378883900
  H           1.64647382034019      4.99710479555607     -1.36052749510573
