48
Coordinates from ORCA-job goat_0_203 E -1253.937751165836
  O           1.50445768967688      2.72016527232347     -0.89749974219398
  C           1.53341286799259      2.33579041867435     -2.26650769830006
  H           2.56982501542465      2.08119366537269     -2.50526729387635
  C           0.67803491892667      1.08742262029926     -2.52782343731769
  H           0.89257985009719      0.35624664317655     -1.74507645582769
  O           1.06367619270932      0.47928297415605     -3.75972626846118
  C          -0.82678160453148      1.37830688555809     -2.52174564998871
  H          -1.28482370712975      0.57127374228404     -3.09570616393027
  C          -1.44255612986561      1.34936929951693     -1.12391773957735
  O          -2.84764183338354      1.51543748926562     -1.13932232922312
  Si         -4.02308575292885      0.55463194282008     -1.83319828214790
  C          -3.79378812483021     -1.27475416667843     -1.39139023223841
  C          -2.59829008624885     -1.90267786262067     -2.12369916438569
  C          -3.60306705379423     -1.42860711889741      0.12451494282132
  C          -5.06828351348572     -2.02682906613814     -1.81238227067718
  C          -5.60214879443104      1.22885509735836     -1.09177565016854
  C          -4.09153054377817      0.78510997336907     -3.69241902094475
  O          -1.16932947236525      2.55561315816578     -3.27153538513523
  C          -0.41542744748311      3.72110590898434     -3.04884071403475
  H          -0.75260674653069      4.41803671121849     -3.82344386492087
  O          -0.61791503663994      4.28362254961678     -1.77335308565643
  C          -1.94856207627491      4.76201102012526     -1.56198470039851
  C           1.08640579054252      3.48335819871947     -3.17782160002100
  H           1.60647184376883      4.40348241980885     -2.89793089962360
  O           1.32592751604044      3.16486317559385     -4.54932846755488
  H           0.75974742156835      3.32720005006287     -0.77438374925564
  H           1.07697983143683      1.18395114106203     -4.42495898616655
  H          -1.17169191000372      0.39098790226862     -0.66810610150319
  H          -1.03873982824424      2.13714150836498     -0.48990320157191
  H          -2.54474542684967     -2.97390088671062     -1.89346001555696
  H          -1.64588075164199     -1.45919435031146     -1.82283831497371
  H          -2.68936915531949     -1.80269570972380     -3.20906765057808
  H          -2.69808641377067     -0.92398718856124      0.47404302340947
  H          -3.51574790470449     -2.49009835670525      0.38709265980454
  H          -4.45158105499558     -1.01887934244701      0.68049844134712
  H          -4.96406876326304     -3.09313591187987     -1.57799919877193
  H          -5.25380109596385     -1.94137033266265     -2.88757135552035
  H          -5.95163191798522     -1.65553292610699     -1.28548111597346
  H          -6.48102656718780      0.76438400272348     -1.54676445749494
  H          -5.66019842889019      2.30699024516758     -1.26987474724814
  H          -5.64378346008490      1.05989252717640     -0.01247721829385
  H          -4.15037478493681      1.85115992564235     -3.93028468959493
  H          -4.99049318575174      0.30143147124635     -4.08733114152418
  H          -3.22816470142498      0.36855628275302     -4.21503688656616
  H          -2.66313492949607      3.93740805233772     -1.56498281724758
  H          -2.21081598800970      5.48781800457937     -2.33900882751979
  H          -1.95323991483614      5.25153551027403     -0.58874293917616
  H           2.27272516887757      3.25060742937727     -4.71402953624079
