48
Coordinates from ORCA-job goat_0_303 E -1253.935672314475
  O           2.81648608753586      2.71766761745779     -2.63944531646813
  C           1.45861297071748      2.38306808482674     -2.89325982322161
  H           1.48478072855083      1.40311200814357     -3.38050554049838
  C           0.59869240409626      2.29989972028212     -1.63908600188786
  H           0.48024800137011      3.30663957672020     -1.22202226917706
  O           1.18600613164716      1.53463132109470     -0.59719845696288
  C          -0.76873367215993      1.71470087632006     -2.02595824379437
  H          -0.67838487486889      0.62588858190112     -1.96712623392884
  C          -1.84902088332320      2.16687428205928     -1.05426888915329
  O          -3.09031684758187      1.53777902679835     -1.31193029320434
  Si         -3.61265868400147      0.10284492955823     -0.63375087704126
  C          -4.10908101292688     -1.02867725819911     -2.06314154419078
  C          -2.87447876194295     -1.36863579130459     -2.90973734972216
  C          -4.71875151443997     -2.32467194795186     -1.50967672414793
  C          -5.14368460348739     -0.31841215480102     -2.94801278265197
  C          -2.25606101702636     -0.66010067202816      0.40924813962087
  C          -5.08578277328034      0.49763792103132      0.45088031544469
  O          -1.11779848531088      1.95962255942698     -3.39488233186221
  C          -0.69225558462648      3.18171929484777     -3.95575964760000
  H          -0.96475307486612      3.10180003639121     -5.01359932131026
  O          -1.32594352107135      4.29290769120806     -3.37696365399107
  C          -2.72763635490087      4.33138842274471     -3.64145649618216
  C           0.82435071251656      3.39411829380117     -3.83920396362560
  H           0.99419140014769      4.39743469816580     -3.42938548779436
  O           1.38126729109311      3.30069085804633     -5.14479591925610
  H           2.83852134199071      3.53376884935147     -2.12286462535065
  H           1.39384706131358      0.65822552899686     -0.94573961680893
  H          -1.49382662834936      1.95372867062321     -0.04006678572290
  H          -1.99069248560335      3.24608987206296     -1.13925365746320
  H          -3.15888868810705     -2.02347150272747     -3.74268247423486
  H          -2.11289484940505     -1.89130684453881     -2.32302556292076
  H          -2.41909720712852     -0.46928248883021     -3.33353119666363
  H          -5.00341226913505     -2.98847914038050     -2.33517794356251
  H          -5.61762341280853     -2.12850504244913     -0.91768019104636
  H          -4.01007342763660     -2.86872865003631     -0.87760224465831
  H          -5.43094541953813     -0.96632276403964     -3.78542820448036
  H          -4.74237850288538      0.60968273212845     -3.36542785615846
  H          -6.05338680962213     -0.07422567270245     -2.39122214282465
  H          -2.60272890227852     -1.61768216448296      0.80938742761139
  H          -2.00776133660969     -0.01723145672318      1.25868459724763
  H          -1.34131125622749     -0.84385506150949     -0.15938583052342
  H          -4.78950876548408      1.19398649870551      1.24141365847209
  H          -5.48133571346726     -0.40475928404876      0.92582798686895
  H          -5.89105325634022      0.96108606362587     -0.12569117828375
  H          -2.91102386925810      4.31664041280034     -4.72181761422223
  H          -3.10164114368343      5.26482268670920     -3.22140962082781
  H          -3.24319742108500      3.48842816708799     -3.17490681698499
  H           2.33894889948871      3.38004261383605     -5.04921139485520
