48
Coordinates from ORCA-job goat_0_216 E -1253.935194778931
  O           2.68694437754737      1.94007025236250     -3.24699902930083
  C           1.28738488137036      2.20014417377179     -3.26173255417489
  H           0.91998248806220      1.76872676371601     -4.19878013394045
  C           0.58764516091164      1.50299022033828     -2.10436841141187
  H           0.88180525187861      1.98901450165765     -1.16334427727768
  O           0.92593170310804      0.12313796090960     -2.05699127270009
  C          -0.92560386555903      1.59727520906466     -2.30463058020878
  H          -1.20150392041087      0.79118112433599     -2.98859529820698
  C          -1.65528742097885      1.41366992090666     -0.98040587126754
  O          -3.06324828610660      1.48109825872762     -1.08837368652632
  Si         -4.11077872773585      0.47299899772329     -1.90893770608790
  C          -3.79732713845047     -1.35035937553028     -1.49683764446291
  C          -2.52974288126990     -1.88227661827327     -2.18211770019050
  C          -3.67352058127988     -1.53162142936704      0.02290721401769
  C          -4.99994015919259     -2.16738919452259     -1.99938306591196
  C          -5.78925905080477      1.01883291290702     -1.29182184022298
  C          -4.02527242530994      0.75735888725049     -3.75931700657454
  O          -1.31310657541340      2.79984324378697     -2.98268114441595
  C          -0.49037448592980      3.92900559007909     -2.78093626254284
  H          -0.93545208596025      4.70542041865377     -3.41288376110977
  O          -0.46789285905594      4.34835223158568     -1.44201062419789
  C          -1.72296009296443      4.86787019961462     -1.00286638557556
  C           0.96596566893716      3.68995165130199     -3.23023060461721
  H           1.61712808668642      4.17939120198851     -2.50176797316509
  O           1.24118818332559      4.31887495672776     -4.47387204195071
  H           3.07813436826808      2.42006515494658     -2.50527172231177
  H           1.88712862438502      0.07358834106534     -2.14488906386639
  H          -1.33918357107044      0.45417116452452     -0.55702905452324
  H          -1.34598135764659      2.19771211257341     -0.28643053067214
  H          -1.62580478604825     -1.37002766571287     -1.84407315036324
  H          -2.58676345892966     -1.78141854164998     -3.26968882571297
  H          -2.40541888954884     -2.94828470495470     -1.95465894670046
  H          -3.54640505616758     -2.59377278568777      0.26598931170271
  H          -4.56751747984993     -1.17740520889225      0.54495545984241
  H          -2.81291982253120     -0.99276887333327      0.42839840806802
  H          -4.83636668190237     -3.23258325620245     -1.79554453093877
  H          -5.14465033756755     -2.05610073566787     -3.07859765008035
  H          -5.92747913851545     -1.87233521603355     -1.50107929260466
  H          -6.59140298907944      0.52089494339210     -1.84301267975445
  H          -5.90120791374710      2.09801250728001     -1.43334177843316
  H          -5.91611894204765      0.79981762829945     -0.22820469220550
  H          -4.82972664568685      0.20259193216143     -4.25246135850424
  H          -3.07841813762676      0.44051451723327     -4.20083503397731
  H          -4.16490866104328      1.81984564342526     -3.97873450906777
  H          -2.01786670697011      5.72123985595105     -1.62378008067781
  H          -1.58475941011986      5.19711674522473      0.02670090526295
  H          -2.50378841213762      4.10438298974153     -1.04055302684235
  H           0.72655016017887      3.87376139259928     -5.15873049561545
