48
Coordinates from ORCA-job goat_0_1029 E -1253.941743011694
  O           1.84362871414047      3.57843014156428     -0.92344424322564
  C           1.19195206906201      3.14550893566959     -2.11201812540099
  H           1.92834256197271      3.04211976873563     -2.92296528536231
  C           0.58715438463594      1.78133955569582     -1.83276162467504
  H          -0.09552394598503      1.86504514912110     -0.97912209048674
  O           1.59797808159007      0.81659063921699     -1.56742806674205
  C          -0.20584950101346      1.31582341193727     -3.05026748350582
  H           0.48369503184834      1.19200068002174     -3.89849191074230
  C          -0.91357766405669     -0.00802498769292     -2.82654500337669
  O          -1.74328094673641      0.03619216311927     -1.68324797335880
  Si         -3.41176332359000      0.09484273947669     -1.68132319265775
  C          -4.03086112264631     -1.60917247667979     -1.14220078954523
  C          -5.56524568203025     -1.64375843937537     -1.15479369910588
  C          -3.48891233277406     -2.67038024685372     -2.11080918669044
  C          -3.52635994989158     -1.91784367566567      0.27439819951102
  C          -3.87906469075325      1.40842291650314     -0.43544756534793
  C          -4.08332025095814      0.53283207823712     -3.37232557906681
  O          -1.19355490082720      2.29106740358226     -3.37319205191631
  C          -0.63901634083452      3.54326251818264     -3.74498757721121
  H           0.05903961868943      3.40023640955822     -4.58254250191216
  O          -1.65515663542150      4.34826358346552     -4.24703781206852
  C          -2.62859457473735      4.78572987761159     -3.29492774357438
  C           0.11380501504834      4.12997445450333     -2.54746329641492
  H          -0.57902453084474      4.27784778651107     -1.71620827316207
  O           0.66844289838958      5.40661059692231     -2.83309936519297
  H           2.23226242726438      4.44329274458796     -1.10293132959154
  H           2.15348554311227      1.17368645838874     -0.86371840396381
  H          -1.48273901433344     -0.25184920934332     -3.72904666194457
  H          -0.15745919867163     -0.78440167760869     -2.68300283565891
  H          -5.92389510271944     -2.62820162095624     -0.82943347907963
  H          -5.96492893285522     -1.46045188615964     -2.15658298341809
  H          -5.99259321471393     -0.89633824779366     -0.47891827456546
  H          -2.39476360073175     -2.67787152565005     -2.12482114773598
  H          -3.83931637439430     -2.50166979772984     -3.13363278653045
  H          -3.82564568364908     -3.66879517881547     -1.80540129357839
  H          -3.92291106822484     -1.20838618861180      1.00671215322175
  H          -2.43389368867214     -1.88306531850807      0.32722626026731
  H          -3.84401458181686     -2.92298056694529      0.57861054019362
  H          -3.55038123073966      2.39109936786760     -0.78633888969077
  H          -3.40835166356306      1.21764857722929      0.53285436753055
  H          -4.96221173927893      1.44392706422770     -0.28659468575696
  H          -3.65746828408711      1.47675651400682     -3.71966320401710
  H          -5.16977049707584      0.64680388614361     -3.30898290713407
  H          -3.87080606919451     -0.23656034390975     -4.11913915448226
  H          -3.44725149988109      5.21246813132271     -3.87368477633583
  H          -2.21744860209823      5.55494327474584     -2.63556124833665
  H          -3.00566611354523      3.95007215181460     -2.70100348498442
  H           1.22866620759375      5.32949240832917     -3.61654353317595
