48
Coordinates from ORCA-job goat_0_261 E -1253.936919504871
  O           1.24705072032819      2.80737774719719     -0.11624231769871
  C           0.92961083097088      2.71944965459991     -1.50149486259347
  H           1.89006490226084      2.75671604412011     -2.02515536249615
  C           0.20398947460302      1.42610319447295     -1.85687536448636
  H          -0.59210311481076      1.26641090401072     -1.12526132949620
  O           1.05335992056919      0.29156869970925     -1.72213021773767
  C          -0.43088283910802      1.53079770456795     -3.26020118728835
  H          -0.13885857243545      0.64012051407678     -3.82029370169731
  C          -1.95841391752030      1.55050047625586     -3.21455822020748
  O          -2.37985216553983      0.29216883057390     -2.71186886966539
  Si         -3.65427963983413      0.15401514908478     -1.63795323676840
  C          -3.80360625927067     -1.69597641020583     -1.30763346372366
  C          -4.16306184361943     -2.43243446565229     -2.60586386035147
  C          -2.47112656564406     -2.23762898892971     -0.76949059629966
  C          -4.90662743328767     -1.93537011408639     -0.26581327877277
  C          -3.26679061742100      1.10643682308733     -0.07116906154404
  C          -5.19881795311471      0.86290064682756     -2.42274955022051
  O           0.10863024036406      2.62206130977220     -4.01087189992572
  C          -0.06305043221366      3.90940866160781     -3.45406855214150
  H           0.73918065961847      4.51160980269079     -3.89565538506001
  O          -1.30842744408138      4.47193024825903     -3.76758470053919
  C          -1.45690717608906      4.76690937606158     -5.15438565445409
  C           0.08460807958767      3.91000937423714     -1.93444157339900
  H          -0.90974490090708      3.82823978001415     -1.47467652436801
  O           0.68797263641250      5.13876235894634     -1.55861481010961
  H           0.44380118930405      2.63244225229397      0.39176248211268
  H           1.79385520857613      0.39366280313509     -2.33291998099876
  H          -2.32246937963405      2.37264556359661     -2.59104468168909
  H          -2.34546192210308      1.70112800152247     -4.22695713363705
  H          -3.40306263776494     -2.27983145233908     -3.37764306200258
  H          -5.12452282207817     -2.09819892955575     -3.00663785462403
  H          -4.23788175482007     -3.51041949169660     -2.41740177091057
  H          -1.65812626639161     -2.08755716477968     -1.48524228535981
  H          -2.55520176829272     -3.31401659033297     -0.57588968419826
  H          -2.18806591959051     -1.75315546692600      0.16971859813215
  H          -5.01222323734470     -3.00965239228575     -0.07199100277297
  H          -5.87691752929340     -1.56402731982311     -0.60991281274543
  H          -4.67590586490296     -1.44811462232466      0.68630096073862
  H          -2.40635263859888      0.68562315310583      0.45567148239007
  H          -4.12579619331767      1.08325800506861      0.60603796749692
  H          -3.05033725771435      2.15553234115059     -0.29474726723824
  H          -5.43033777062755      0.36591934064876     -3.36852573707186
  H          -5.06718736819881      1.93100878728955     -2.62238202065829
  H          -6.05937034730845      0.75161882248320     -1.75656806675544
  H          -1.45449240396713      3.85291806421604     -5.75423261384975
  H          -0.65113404654812      5.42714737670891     -5.49523038458376
  H          -2.41493267809139      5.27345903983299     -5.26903199082953
  H           0.95803681889091      5.03910255771171     -0.63592955990014
