48
Coordinates from ORCA-job goat_0_253 E -1253.935513162638
  O           2.19171455002444      2.01712367751352     -2.22698973079747
  C           1.04599224526450      2.70924931034069     -2.70943019032602
  H           1.24853990894559      3.11796871186496     -3.70791611586676
  C          -0.17516408008968      1.81527634719692     -2.79397784468742
  H          -0.46322370255994      1.49084609683852     -1.78645553437743
  O           0.16146269337960      0.68303389786627     -3.58720841856807
  C          -1.30690249095170      2.61399777014686     -3.44990471601725
  H          -1.13706740253971      2.57567945378153     -4.53017302339136
  C          -2.67998032912966      2.03105782360608     -3.14117672520032
  O          -2.65986009438703      0.65567192779101     -3.51883251038519
  Si         -3.84233008515768     -0.42997487849372     -3.02574560823316
  C          -3.37904548486880     -1.17295558567229     -1.34934393542994
  C          -2.06372403446947     -1.95544166295362     -1.47481271607889
  C          -3.20884957636204     -0.07639246483780     -0.28816794593913
  C          -4.49676454926826     -2.12981727868600     -0.90523560478445
  C          -5.48252633063775      0.46549701936486     -2.94051511956454
  C          -3.85758421469527     -1.73968831717009     -4.35662541018279
  O          -1.27745114853247      4.00728573847342     -3.10607832865274
  C          -0.69792234238589      4.33448429913273     -1.87456046794314
  H          -0.71502918109394      5.42851724346704     -1.82396204790105
  O          -1.49730118221600      3.79280892619558     -0.84157837403438
  C          -1.36979878829925      4.49724253988847      0.38842036243119
  C           0.76334683683908      3.86010526190051     -1.75816928742653
  H           0.92805541007510      3.49957656552044     -0.73708425214124
  O           1.60060255816276      4.98180207452078     -2.02072662533945
  H           2.34942381546090      1.27524307338419     -2.82380634758726
  H          -0.66719877650803      0.19989666441611     -3.72173311908987
  H          -2.89145552059784      2.14785172903773     -2.07656138998704
  H          -3.44422563940097      2.57000542823972     -3.71030910847193
  H          -1.78276422693766     -2.37641324708255     -0.50164818428036
  H          -1.24257453736973     -1.31340307129984     -1.80785261359192
  H          -2.15340007218108     -2.78514715759329     -2.18177676075153
  H          -4.10804921521522      0.53865183351460     -0.18590975641502
  H          -2.36970962845043      0.58403983699950     -0.52160596142670
  H          -3.00591524887780     -0.53268765575505      0.68855764240096
  H          -4.65874664963733     -2.93234889871358     -1.63127951411550
  H          -5.44593920762301     -1.60445508250972     -0.76393833281640
  H          -4.23034176559969     -2.59638097268110      0.05090154909933
  H          -5.69460489129330      0.95781945248364     -3.89427372114898
  H          -5.49490136197159      1.22394670443939     -2.15345023619157
  H          -6.29047813019684     -0.24377067211663     -2.73993610028928
  H          -4.19475587330819     -1.30739382026219     -5.30315350264025
  H          -4.53467616391104     -2.55795702800907     -4.09612124129991
  H          -2.85954310998230     -2.15917974882321     -4.50919838218695
  H          -2.05368001705302      4.02679866750123      1.09422677274895
  H          -1.64336611425674      5.55069312710155      0.25900772275091
  H          -0.35098457922113      4.43907902588776      0.78670967651436
  H           2.51652772908577      4.68473731424385     -1.95844892038588
