48
Coordinates from ORCA-job goat_0_27 E -1253.939235188492
  O           1.66715588217583      4.04601119280757     -1.19681567362664
  C           1.12473308172192      3.33449564600557     -2.30289066380474
  H           1.93130575277324      2.85610324889385     -2.87320728281420
  C           0.13191286983926      2.27191476466003     -1.87716299462364
  H          -0.73980240072087      2.75223791757399     -1.41380298564562
  O           0.76989142317336      1.42170491148837     -0.93030196709108
  C          -0.28911148696160      1.47812384688304     -3.11964967824131
  H           0.47561257852659      0.71288153138761     -3.28377714711814
  C          -1.63461567937812      0.79271303025632     -2.92088699951755
  O          -1.53028633281496     -0.04376524735875     -1.77178136189584
  Si         -2.79788901956695     -0.25691186342161     -0.69120166229815
  C          -4.21388360850324     -1.19892601843590     -1.51664914983049
  C          -3.65194071287221     -2.41705090643306     -2.26336075931655
  C          -5.18932601483337     -1.67462207959605     -0.42830330011286
  C          -4.97263137590064     -0.30275945461825     -2.50655172103964
  C          -2.02911270447093     -1.24423605141989      0.69408910617272
  C          -3.36216292237922      1.41627582874882     -0.07196834138450
  O          -0.29692742973012      2.27042787025198     -4.31437657628334
  C          -0.56076929544240      3.64896134164275     -4.15466227578582
  H          -0.43122054935950      4.06680759122112     -5.15821485513959
  O          -1.86371484233367      3.89252652359270     -3.69168907040658
  C          -2.86432745872419      3.58908365513233     -4.66215125243554
  C           0.41835552060070      4.34115041304621     -3.19383268168240
  H          -0.15864716089871      5.01729250681637     -2.55440288091921
  O           1.34148624068563      5.08262949995046     -3.98483932623770
  H           2.11306729870735      3.40296249883945     -0.63220628266679
  H           0.17049654422924      0.67358807358499     -0.79673277750780
  H          -2.41091762109936      1.55019411424571     -2.78629562201063
  H          -1.88070008462891      0.19085140743637     -3.80133270274446
  H          -3.10920455225282     -3.08886438622368     -1.59127782381394
  H          -2.96890006918663     -2.11638235911036     -3.06304725723227
  H          -4.46956835091125     -2.99038095288245     -2.71710054927381
  H          -5.59676807865287     -0.83640112669795      0.14606487741111
  H          -4.70816768504879     -2.36268692079757      0.27247732748599
  H          -6.03367458416758     -2.20262632543258     -0.88776073339197
  H          -5.79354812868180     -0.86771676644226     -2.96493941069240
  H          -4.32838314172988      0.05410821326894     -3.31483788525248
  H          -5.40701755952872      0.56994238566418     -2.01062028151183
  H          -1.13983200728385     -0.72992020527229      1.07105711382886
  H          -1.73172179590339     -2.24128846199126      0.35846320122728
  H          -2.73013817119076     -1.35847661658297      1.52534669886139
  H          -2.53871554454785      1.92308466746154      0.44029259610367
  H          -4.18335978639259      1.29678412181452      0.64132430948391
  H          -3.71192252785255      2.06408664673846     -0.87957069023584
  H          -2.85432774147522      2.52905096974130     -4.92913520523674
  H          -2.71197823841562      4.19050609355235     -5.56517752961251
  H          -3.82525540576582      3.83970839510990     -4.21366580026338
  H           1.95428287717348      5.51938683489995     -3.38078407187614
