48
Coordinates from ORCA-job goat_0_368 E -1253.944647029912
  O           2.41388525222050      2.64441228322034     -1.68548716410967
  C           1.20572468565583      2.40325808008062     -2.40046443272042
  H           1.29263905704978      1.46807042770511     -2.97008210571148
  C           0.00803077804835      2.28219649624605     -1.47380581737597
  H          -0.03847504271373      3.17124111256925     -0.82929722136749
  O           0.20268081536890      1.10926126016046     -0.69312232907308
  C          -1.27551470877593      2.21389437909580     -2.30748127756990
  H          -1.26625152220481      1.28664167219222     -2.89735849821294
  C          -2.53795906479614      2.27539010290427     -1.45757281735176
  O          -2.53267086058587      1.22777628380424     -0.49603378376619
  Si         -3.77257613484212      0.11095332790496     -0.30116626849026
  C          -3.69457313953834     -1.19896408065675     -1.66231665792399
  C          -4.00373541956750     -0.58483299111461     -3.03552818037265
  C          -2.29397959505885     -1.82771825849629     -1.69415473722283
  C          -4.73399166493808     -2.29060626116920     -1.36175205371984
  C          -3.43456291142455     -0.63335897618773      1.37683002946690
  C          -5.40996066360824      1.01462029530858     -0.31789280877508
  O          -1.34339219128930      3.34590420742363     -3.16706021548104
  C          -0.28591874063143      3.38583663146568     -4.11688986690171
  H          -0.28866785341709      2.44948496707546     -4.69851687481289
  O          -0.48700698804085      4.47717935361362     -4.94504036150009
  C          -1.54526241459869      4.28412531912875     -5.88459246621802
  C           1.03783962350794      3.54913954405831     -3.38493110155387
  H           1.00967477816134      4.50141822563901     -2.83938444707778
  O           2.08852444378312      3.54867957273200     -4.33896824760315
  H           2.61438033963492      1.85367970938160     -1.17124636168704
  H          -0.65216459459900      0.91313545471051     -0.27813382598349
  H          -2.56366560149559      3.23685538565083     -0.93430722225611
  H          -3.41133693334849      2.22274710038945     -2.11391143444731
  H          -3.98511922177287     -1.36636811853418     -3.80495552209853
  H          -3.26689403881362      0.17060922185559     -3.32089365696131
  H          -4.99350511577654     -0.11985685027575     -3.05927063350594
  H          -2.04626833218628     -2.31109987395826     -0.74445390351620
  H          -1.52271328108773     -1.08125143028157     -1.90382381259673
  H          -2.24375442148265     -2.59225777742592     -2.47902175632736
  H          -5.75059281716249     -1.88635564401086     -1.33378947392073
  H          -4.53955357015360     -2.78483964003040     -0.40547036714289
  H          -4.70440357209176     -3.05814116393435     -2.14453492301158
  H          -4.18510408308788     -1.38742752160554      1.62877567938343
  H          -3.46502376972028      0.14574289003162      2.14394811779763
  H          -2.45004746586209     -1.10771144161667      1.41043268823014
  H          -6.22987630911566      0.31550826457606     -0.12914445206901
  H          -5.60220032007907      1.50687662426377     -1.27443709025110
  H          -5.42608280887730      1.77509719945925      0.46843042613536
  H          -1.36273096951671      3.38636871819965     -6.48516748760896
  H          -1.55382571476163      5.16026247791217     -6.53210345139964
  H          -2.50965842678656      4.19408366461841     -5.37830880194490
  H           2.91347051037880      3.46291977592085     -3.84439302937210
