48
Coordinates from ORCA-job goat_0_1069 E -1253.934859718031
  O           2.07193870886947      4.14457685897518     -2.13666430335333
  C           1.03802173480047      3.25244497704418     -2.53714971638868
  H           1.30002262216675      2.94676707891546     -3.55713915608810
  C           0.95263682567871      2.00611129090465     -1.66169340005956
  H           0.81800873363040      2.30827630704516     -0.61685919106958
  O           2.15805728998936      1.25657682958807     -1.69832990429977
  C          -0.24969988884720      1.15128334347537     -2.09014268203768
  H          -0.05622109308499      0.74932203856375     -3.09619086244422
  C          -0.47853092792071      0.01129986689301     -1.11782482293631
  O          -1.32781790348759     -1.00873559298990     -1.59979199635643
  Si         -2.80279735277927     -1.03078794585542     -2.37885172861032
  C          -4.21590911654005     -0.26768916099442     -1.33525447642264
  C          -4.96670568523388      0.79973279680464     -2.14555972340011
  C          -5.21695300029396     -1.36546976257229     -0.93737744026659
  C          -3.67764113392163      0.37524474987282     -0.04874609133850
  C          -2.70188928083251     -0.27698995452884     -4.09319601220952
  C          -3.05646264802037     -2.87395837581997     -2.61636759207067
  O          -1.43699283593054      1.93803055453121     -2.11119139062519
  C          -1.37869752575267      3.00441395291671     -3.04557175312778
  H          -1.12080987742938      2.61545326966096     -4.03930306176284
  O          -2.64748982921965      3.55493588495944     -3.17879274398628
  C          -3.14735126520776      4.24833860609669     -2.03244254643498
  C          -0.30082433116404      3.98048574560197     -2.58470794691255
  H          -0.54393408710757      4.33028986553824     -1.57267963897870
  O          -0.25437001076063      5.06802082401779     -3.49263653987406
  H           1.93878660143584      4.36611303170298     -1.20555452442947
  H           2.35504766593817      1.04493146593184     -2.61983256092291
  H           0.48766031756993     -0.45010431405346     -0.90432247247690
  H          -0.87061834420285      0.42987157306583     -0.18517004373862
  H          -5.78264085969937      1.21740341497836     -1.54227291253691
  H          -5.40893671148811      0.37930498493093     -3.05409395217090
  H          -4.30922313321346      1.61999208047607     -2.43982971401686
  H          -5.66356765678984     -1.84768612567244     -1.81147000993963
  H          -6.03022670523853     -0.92489056340595     -0.34753808782450
  H          -4.74706909562602     -2.14303770192212     -0.32846122382938
  H          -3.02375463451800      1.22149228771182     -0.26513614196864
  H          -3.11838477856562     -0.34228863253178      0.55930760842906
  H          -4.51614398201365      0.74294771624040      0.55624132297782
  H          -2.66821868776819      0.81155327250495     -4.08759465783078
  H          -3.58013200614088     -0.58620398744075     -4.66951933176619
  H          -1.81490796167045     -0.65493974220207     -4.61096331275770
  H          -2.23556758499513     -3.27819968087618     -3.21675911490759
  H          -3.99291332103614     -3.07986676136299     -3.14230611908017
  H          -3.07684567225861     -3.40778236644336     -1.66272290593993
  H          -3.04421815485682      3.64542337267712     -1.12736224190783
  H          -4.20480293618748      4.42724186467656     -2.22474869969095
  H          -2.63882039927253      5.20737161374406     -1.90128194875526
  H           0.56573991899720      5.54595914862593     -3.31199423386116
