48
Coordinates from ORCA-job goat_0_36 E -1253.938629810437
  O           2.49855875415380      2.48647744388930     -2.35889264719700
  C           1.23956461510975      2.41425292446558     -3.01695178808013
  H           1.28344439038033      1.68032679164360     -3.83203603705977
  C           0.11649260422609      2.03162401703726     -2.07456066676091
  H          -0.01869372798704      2.82629797533972     -1.32916585756197
  O           0.47765417727257      0.81943530424995     -1.42261428110847
  C          -1.16227847777429      1.84357851807447     -2.89929666961783
  H          -1.12770587809043      0.82974812937183     -3.30918972335004
  C          -2.41441791741123      1.98140488369551     -2.04270469459126
  O          -2.31962388881379      1.04386440859338     -0.97353950651351
  Si         -3.54842511166938     -0.00883671777244     -0.53336021476055
  C          -3.58108446436054     -1.49508160035041     -1.70255203808580
  C          -2.20080272135740     -2.16741159216490     -1.71977009333246
  C          -4.63021590123282     -2.50057055043860     -1.20279043671009
  C          -3.94626785260646     -1.06233504320101     -3.12981080772206
  C          -3.09637831985374     -0.52648996686545      1.20277028495421
  C          -5.17918393212536      0.90846830790405     -0.55403812658142
  O          -1.22599005483019      2.71287094558123     -4.03772196999792
  C          -0.54479391060009      3.94549943640937     -3.93384039018662
  H          -0.64117353617912      4.39206041920856     -4.92889599139912
  O          -1.11483614042575      4.78802374862551     -2.96620606619264
  C          -2.40367219730398      5.27024714799470     -3.34214186981390
  C           0.94644819272354      3.78556142194532     -3.59979242231889
  H           1.20476092480459      4.53779869918759     -2.84733211427001
  O           1.68104425199699      4.01755414581069     -4.79741608471158
  H           2.66545175004934      1.62124748386867     -1.96535594176785
  H          -0.29658945407108      0.55376789120226     -0.90541995321204
  H          -2.47279767295580      2.98942829528369     -1.62441582277037
  H          -3.30096064676897      1.81111204385452     -2.66071246479995
  H          -1.91358290125511     -2.52726344391308     -0.72733317470274
  H          -1.42448452486529     -1.47999501708103     -2.06814234722224
  H          -2.21140160581797     -3.03104706800921     -2.39594308038356
  H          -5.63318348045804     -2.06324273881344     -1.18266361266184
  H          -4.39855268105594     -2.86260162495347     -0.19686378906052
  H          -4.66173537506452     -3.37050670976720     -1.86997657532966
  H          -3.99601892152198     -1.94127257928262     -3.78424387963936
  H          -3.20115761162967     -0.38293826414649     -3.55246121259777
  H          -4.91999899844180     -0.56538611874747     -3.16816545606927
  H          -3.08224887255225      0.34663725864974      1.86150435569923
  H          -2.10777086007201     -0.99252636087662      1.23275448739425
  H          -3.82199793582822     -1.24076337563227      1.60120127840658
  H          -5.98128541791134      0.26131434447558     -0.18735325649255
  H          -5.45258113105466      1.24726720333854     -1.55643565988286
  H          -5.12532060979180      1.78357393238815      0.10042052500602
  H          -2.73979642186306      5.93013432656873     -2.54288968003805
  H          -3.11749363052756      4.45107909929974     -3.46113255378802
  H          -2.33934013718584      5.83253690030087     -4.28033273660360
  H           2.61825326259773      3.93765532375803     -4.58203923651366
