48
Coordinates from ORCA-job goat_0_1057 E -1253.932112741302
  O           0.82145939428161      1.89166784720919     -1.05540684184759
  C           0.75289189572642      2.63293101652267     -2.27028895514297
  H           1.75592218987042      2.95117457287439     -2.57351371494658
  C           0.22509055763531      1.70747243647869     -3.37080819386581
  H           0.39605338055345      0.67414774195409     -3.05626104381649
  O           0.98193205806929      2.00457213350099     -4.54682290983224
  C          -1.26604316324499      1.87859211649116     -3.63389915443896
  H          -1.51068704347243      1.32896926021465     -4.54980527806613
  C          -2.13835157513745      1.29736949458782     -2.52113680708507
  O          -2.01294571558391     -0.11356125576546     -2.54981491389539
  Si         -2.47496793186737     -1.11918298513366     -1.29558981361766
  C          -4.34515367196436     -1.02386953143394     -1.01550784056314
  C          -5.07251669997581     -1.05636961206435     -2.36692214009167
  C          -4.78182972746999     -2.23676832664032     -0.17833477998136
  C          -4.72537375638162      0.25819043583589     -0.25994058613733
  C          -1.96828732756254     -2.81959048142046     -1.87916686586685
  C          -1.55302797821603     -0.65633735806615      0.26654934069054
  O          -1.64266042168118      3.23954749817202     -3.87092546498606
  C          -0.74996318408128      4.25676745079628     -3.44094613650868
  H           0.00934295241863      4.43288145615000     -4.21551252252902
  O          -1.48684891779008      5.42073136509621     -3.22835552154650
  C          -1.89639703668176      6.06476146563662     -4.43439652009913
  C          -0.10206378529080      3.88548068140174     -2.11595752529852
  H          -0.90942212197942      3.68934713307864     -1.40047834800996
  O           0.73428863517558      4.92965067332326     -1.63935131157389
  H           1.19059862895138      2.47115499163106     -0.37814646638805
  H           0.66675079789364      1.43223295321715     -5.25659376694099
  H          -1.84715407097084      1.69814248152411     -1.54520854811810
  H          -3.17188814220322      1.59799223966390     -2.72052632997843
  H          -4.82098546285244     -0.18723394057659     -2.98114092691975
  H          -6.15838987927802     -1.05351061682156     -2.21077354677426
  H          -4.82251850622978     -1.95538415456533     -2.93900913169434
  H          -4.25964582388018     -2.27639501000469      0.78318001478648
  H          -4.59532325981807     -3.17789497441895     -0.70305667025066
  H          -5.85694207138582     -2.17862204944832      0.03114007205492
  H          -4.25770991438032      0.29506208928452      0.72795195790343
  H          -5.81214187929352      0.29780570712504     -0.11517633411911
  H          -4.43260755741126      1.16013319112070     -0.80421366029668
  H          -0.91250561847912     -2.81773230408673     -2.16546161346719
  H          -2.55737689013934     -3.13729089909387     -2.74389819264212
  H          -2.10302279382495     -3.55859324839652     -1.08459258770493
  H          -0.47859380262353     -0.81256206735793      0.13490360165800
  H          -1.88929505589196     -1.28063017995202      1.10005530399450
  H          -1.71346355250443      0.38865460441344      0.54401956393142
  H          -2.61522924714425      5.44984228355387     -4.98234021262823
  H          -1.02970305943529      6.26979410630264     -5.07202838560882
  H          -2.36724511145345      7.00431072826387     -4.14648308774034
  H           0.18178126700535      5.71472883982223     -1.53785720399988
