48
Coordinates from ORCA-job goat_0_1056 E -1253.934185736030
  O           1.00591284762021      4.79114027017109     -1.16031688314119
  C           1.01535890434366      3.58871057722402     -1.91791815205793
  H           2.01545234951140      3.16643536818233     -1.76445945778740
  C           0.00654729746320      2.55915042351223     -1.42127516418868
  H          -1.01214117088814      2.92815245770501     -1.54963808416697
  O           0.15272958640881      2.29872973398143     -0.03197924843419
  C           0.20731906293909      1.26204635673968     -2.21155235205185
  H           1.16901879772299      0.83852574530381     -1.89125837951196
  C          -0.85301135664896      0.21448654612617     -1.91644979960391
  O          -2.14958559059623      0.70637407178172     -2.18399758468063
  Si         -3.48037200910895      0.53894617334683     -1.19651681233829
  C          -4.34666819922617     -1.09783454876716     -1.57948789847944
  C          -4.85936273724553     -1.08193144498198     -3.02639139923820
  C          -3.35676399224754     -2.25946194105481     -1.41059054402521
  C          -5.52913657809913     -1.29529915633881     -0.62065790183796
  C          -2.97267884179013      0.61407527655182      0.60436984006035
  C          -4.56993476080560      1.99497479764454     -1.62933227203036
  O           0.32052261647716      1.47020590786733     -3.63025455131570
  C           0.03507192734561      2.76007759832537     -4.12563456319190
  H           0.33573788265902      2.71669266063972     -5.17858172663310
  O          -1.32165289284118      3.09951298814775     -4.02821171105469
  C          -2.14949926557099      2.33308076516831     -4.89995422862200
  C           0.84236900214698      3.85699151099881     -3.42112274388515
  H           0.29367976446091      4.79192216459268     -3.54733881028016
  O           2.09638391675800      4.06036089025000     -4.06373557771859
  H           0.12189315557673      5.17468029622486     -1.21501356508806
  H           1.07711423704456      2.07833495218211      0.13969429274515
  H          -0.65380246190157     -0.65928117810096     -2.54635286071707
  H          -0.74516658497535     -0.09106261366495     -0.87075610060934
  H          -5.31997300657260     -2.04597984663320     -3.27563386129625
  H          -4.04632322444454     -0.90679603545063     -3.73807628916196
  H          -5.61386596457850     -0.30448544842186     -3.17795492726580
  H          -3.86061556533194     -3.21478132696619     -1.60305484387657
  H          -2.94580816886840     -2.30046899319468     -0.39717483663238
  H          -2.52134072670038     -2.17911799250312     -2.11180425324036
  H          -6.05515528950233     -2.22871621117464     -0.85649887857453
  H          -6.25414457636199     -0.47880583176819     -0.69711644389058
  H          -5.19787652981414     -1.35590234111083      0.42029476384310
  H          -3.86309415817523      0.70193401928982      1.23406668497186
  H          -2.33956446711755      1.48726884970186      0.78302845333655
  H          -2.42338439316065     -0.27568519427459      0.92311935799907
  H          -5.53160353004332      1.93667398873418     -1.11143103192783
  H          -4.76289837086135      2.03448636935942     -2.70467056361603
  H          -4.08145560162396      2.92928811089239     -1.33668649322317
  H          -1.83870368767245      2.47924498580037     -5.94133901868160
  H          -3.16828598727412      2.69779984592192     -4.76950387096441
  H          -2.11293380172879      1.27342937702279     -4.64410758564593
  H           2.61952214329940      3.25445702501619     -3.96859212226841
