48
Coordinates from ORCA-job goat_0_1060 E -1253.940992244503
  O           2.36151713597283      3.76305534655445     -2.91281735298754
  C           1.04339427332776      3.23546551506506     -3.00148829113072
  H           0.86967907504230      2.83518252213009     -4.01017067433047
  C           0.81512893115578      2.11507168795574     -1.99922767962548
  H           1.08598304377337      2.46815347613559     -0.99762130789540
  O           1.65474856841655      1.03144377381842     -2.39187012951708
  C          -0.66380665575020      1.71513158793730     -2.01516838732990
  H          -0.89664943667487      1.31004817097778     -3.00983604996531
  C          -0.98106623710092      0.68425730347988     -0.94743230659518
  O          -2.33945354601450      0.28949111568327     -0.93759440083386
  Si         -3.10180588762193     -0.53690084691340     -2.17489306409718
  C          -4.51414897648515     -1.46624209283620     -1.33398754244724
  C          -5.32587127712486     -2.23678109036930     -2.38539750319049
  C          -3.94433820458256     -2.45796904610022     -0.31006586254190
  C          -5.43455767618438     -0.46875132865209     -0.61549929899323
  C          -3.76932882102490      0.67154210459366     -3.44148008942952
  C          -1.88687004535676     -1.70891774828337     -2.98596753544973
  O          -1.47191223512467      2.86103567463263     -1.76831189875230
  C          -1.34675061019907      3.84453248668048     -2.78427457992305
  H          -1.55268376778912      3.39189126759960     -3.76299322455702
  O          -2.33684837088461      4.80261266788373     -2.60277306624991
  C          -2.18976089036231      5.63989000874759     -1.45288387966792
  C           0.08108851305524      4.38681762479231     -2.76274377073577
  H           0.29107683729885      4.81443958304171     -1.77486278565425
  O           0.19983121514468      5.37623638171102     -3.77264782449162
  H           2.97243578602498      3.05134829009340     -3.13890691055512
  H           1.94587344323025      0.56053275155340     -1.60417744705154
  H          -0.32801024599683     -0.18229161240016     -1.09550285910122
  H          -0.75864169651413      1.11608733960783      0.03349684601533
  H          -5.77478682367095     -1.56534317836962     -3.12304103918629
  H          -6.14035014980413     -2.78770736112389     -1.89951873529199
  H          -4.70821035996704     -2.96422804468425     -2.92103663874043
  H          -4.76145946992623     -2.98591873977723      0.19675498737922
  H          -3.34951374793840     -1.94884604753484      0.45353353434868
  H          -3.30971714286241     -3.21031251507360     -0.78785598937304
  H          -6.25221955144948     -1.00370732946613     -0.11684159750938
  H          -5.88219398268518      0.24323901138685     -1.31537426081898
  H          -4.89321078311056      0.10008820471079      0.14581577446059
  H          -2.95999629544713      1.17255769716003     -3.97881446616968
  H          -4.38354195732968      1.43953879738981     -2.96345776530201
  H          -4.38759737244874      0.15064139120302     -4.17867767952724
  H          -2.39703661228107     -2.31481110941520     -3.74053611359179
  H          -1.43465781585680     -2.38539867884159     -2.25558908027568
  H          -1.08281571798671     -1.16209474607409     -3.48693081071884
  H          -1.38394212960350      6.36522597987074     -1.59478191010587
  H          -2.00300183971065      5.04955826118702     -0.55282340469858
  H          -3.13418189094478      6.17221198239951     -1.34364486328885
  H           1.13801140137296      5.59147350993258     -3.84793106450532
