48
Coordinates from ORCA-job goat_0_338 E -1253.937171001787
  O           0.29289280466158      1.42555071235230     -0.99615773499192
  C           0.98146080203123      1.98684147426404     -2.10401269539571
  H           2.00282364527076      1.58835319487138     -2.15555296168709
  C           0.24497220254615      1.56455065684299     -3.37829866370122
  H           0.00098689233986      0.50073424418729     -3.31881383129610
  O           1.08819513597932      1.82046963185993     -4.51208841424959
  C          -1.04335915486835      2.34190307789873     -3.61545801179244
  H          -1.31156684525925      2.19534960458436     -4.66462391529137
  C          -2.22505695002586      1.84601171427885     -2.78315873460839
  O          -2.55390709487875      0.54190511709807     -3.24376952256419
  Si         -3.85104807798726     -0.33351360732113     -2.65764933574774
  C          -3.46582028836659     -1.06249100688255     -0.95189798520097
  C          -3.53092103959054      0.00886011863998      0.14661140695631
  C          -4.50631868039520     -2.15005007454188     -0.63853226152916
  C          -2.06539894811802     -1.69121460166686     -0.96410863152527
  C          -5.36226157134955      0.76985711337634     -2.58036066267239
  C          -4.08638640128832     -1.69369444948781     -3.91748274500169
  O          -0.85090969178100      3.75615415411556     -3.49288194168361
  C          -0.23549503531280      4.22315983424663     -2.30884729971020
  H          -0.02849620694769      5.27907245727410     -2.51729617516899
  O          -1.05861266603497      4.11258029930274     -1.17996928941151
  C          -2.17140462213760      5.00193761055796     -1.21318412015767
  C           1.09190542332928      3.51494235265525     -2.02974691472781
  H           1.42886579251426      3.80981416764723     -1.03271505559295
  O           2.07199463746363      3.97723292376804     -2.95217073048629
  H           0.73061767586951      1.72055795619807     -0.18947039645552
  H           1.82750431405451      1.20112008616651     -4.48125419169359
  H          -1.97884930304468      1.83638881649294     -1.72365923162116
  H          -3.06128721900816      2.53343617529782     -2.94674785451135
  H          -4.52013771811396      0.47220143064782      0.20095134404378
  H          -2.79460877017415      0.80231502637779     -0.00643027657452
  H          -3.32414248728657     -0.44710367976611      1.12291878913901
  H          -5.52691980682461     -1.75374788039631     -0.65518631508137
  H          -4.32742862819092     -2.56048940729742      0.36279201386465
  H          -4.45360495190218     -2.97740773387765     -1.35150808205909
  H          -1.85401452417348     -2.15882263071428      0.00569792232855
  H          -1.29217851883509     -0.94141944042476     -1.15089938991608
  H          -1.97686611632077     -2.46700959834839     -1.73128098227423
  H          -5.20990611696765      1.62514863059832     -1.91701076287827
  H          -6.22431618198386      0.20693221847315     -2.21002363558097
  H          -5.60800468991486      1.14910029589957     -3.57686325941268
  H          -3.23091674842581     -2.37476508537171     -3.93228148354078
  H          -4.19740578416559     -1.26207194559075     -4.91641825718397
  H          -4.98341401337292     -2.27915312074939     -3.69864729818889
  H          -2.84142771369827      4.77062008379395     -2.04540061245765
  H          -1.82996630613862      6.03979518505391     -1.30231739606089
  H          -2.70711567725602      4.87470885735708     -0.27261921322436
  H           1.90508522407993      3.51792904025827     -3.79002520342260
