48
Coordinates from ORCA-job goat_0_231 E -1253.944249025993
  O           2.96191541193766      2.57462556616410     -2.74643228822307
  C           1.57778402843832      2.87539066220763     -2.88897474977037
  H           1.36407341727441      3.16269286892955     -3.92745906122199
  C           0.80833088100630      1.60132397034405     -2.57773910422179
  H           1.09303206824307      1.25260275565659     -1.57562305812965
  O           1.08891035007736      0.59976580240525     -3.54701473251650
  C          -0.69348596836083      1.88338880440880     -2.59255546590052
  H          -0.99412461590831      2.18782981364715     -3.60488965146951
  C          -1.49860527077793      0.67016208134739     -2.17863533320025
  O          -2.88067128382424      0.93579607160695     -2.34354867970917
  Si         -4.02391327841682     -0.25512031638726     -2.60525398050212
  C          -4.15577931107824     -1.40197427854352     -1.10473559767316
  C          -2.96420671630480     -2.36878993266506     -1.04200170133835
  C          -4.19986785549325     -0.56406898743388      0.18087074818824
  C          -5.45113863316416     -2.22127114357301     -1.21877344086290
  C          -5.61110081338673      0.69398138303473     -2.86738120987251
  C          -3.57617192380452     -1.22802834580466     -4.14158158267328
  O          -0.97838399559648      2.93117888130141     -1.66920865402529
  C          -0.36940148823668      4.15510821091765     -2.04546030765144
  H          -0.68426825147495      4.41923450742748     -3.06855498475046
  O          -0.75188431425755      5.14098102912914     -1.14713259749870
  C          -2.10064454887088      5.57753563325535     -1.32509211557429
  C           1.14557950183715      4.01057843262935     -1.97728472426846
  H           1.42071293100034      3.77722339275052     -0.94125742765508
  O           1.80107692938135      5.18929319915277     -2.42185319913890
  H           3.46435746778488      3.33112477972375     -3.07086298365184
  H           2.04988581971884      0.53465389961245     -3.61426402295276
  H          -1.17824520922434     -0.18045776924854     -2.78733705289451
  H          -1.28006535289262      0.44487726362975     -1.12810958135592
  H          -3.05967121780615     -3.02217113930961     -0.16587147968489
  H          -2.01031165567417     -1.84139879171683     -0.95604990245404
  H          -2.91719490657315     -3.00773171853461     -1.92838169055114
  H          -3.27906773264036      0.00975457528473      0.31859062805824
  H          -4.32152753243089     -1.21796335845081      1.05327903587187
  H          -5.03729697307463      0.14054553945692      0.17525477203285
  H          -5.48014965989002     -2.80990420772072     -2.14147833780375
  H          -6.33728405590742     -1.58073638378102     -1.19863692631050
  H          -5.52602199431089     -2.92091472480530     -0.37734492098182
  H          -5.92027228278312      1.21401818427976     -1.95653739971960
  H          -6.41981745254000      0.02202062643847     -3.16738307865319
  H          -5.47716115603186      1.43794971175882     -3.65805298321860
  H          -2.58716775960408     -1.68715839909108     -4.06521803021936
  H          -3.58337273793722     -0.57433081411531     -5.01881508052394
  H          -4.30384014452004     -2.02808992577529     -4.30847892944958
  H          -2.80404770612680      4.76781886477177     -1.11576478019189
  H          -2.25206759256533      5.93895619705932     -2.34789585489585
  H          -2.26260632778519      6.39331049101160     -0.62140562566225
  H           1.57300891257522      5.89896703761289     -1.80951287512729
