48
Coordinates from ORCA-job goat_0_210 E -1253.941506898220
  O           2.51482626661285      3.48349720703510     -2.70559685931702
  C           1.16053283220375      3.09317872589350     -2.90263005493481
  H           1.04543189033082      2.63339688378545     -3.89374213962213
  C           0.83524594881221      2.04855124896668     -1.84785528103034
  H           1.02931588197277      2.47560924417603     -0.85441502073846
  O           1.61492222635792      0.87633459354074     -2.04365648306072
  C          -0.64063118078951      1.66642028743583     -1.94302884231778
  H          -0.81389087398054      1.20748691037657     -2.92616216492051
  C          -1.04081509647118      0.70119908122027     -0.84164324503133
  O          -2.40457558158527      0.32790447155425     -0.90043480915869
  Si         -3.09522782832208     -0.56151360768796     -2.13587312937311
  C          -4.57048160721632     -1.42991530667012     -1.33859581996484
  C          -5.34056397647882     -2.22601043937971     -2.40216820595773
  C          -4.07624396410582     -2.39124684687185     -0.24835113869605
  C          -5.50735911622059     -0.38866133776918     -0.70911269294829
  C          -3.66595140097130      0.57645532096898     -3.51098196922871
  C          -1.84458856322042     -1.78932925430799     -2.79615399600382
  O          -1.44563802297608      2.83333391246655     -1.81625739772004
  C          -1.22984994768861      3.75660616393339     -2.86933849394371
  H          -1.39359506781821      3.26397390646570     -3.83680758540109
  O          -2.19520031038691      4.75922353395220     -2.79838385645024
  C          -2.17896320234785      5.55950208415793     -1.61136278328652
  C           0.20934166027165      4.27308514294052     -2.80188058703680
  H           0.37616714745484      4.77907272117016     -1.84458472403770
  O           0.49706180163225      5.13996191733410     -3.89065555544537
  H           2.76072199507679      4.07023571439517     -3.43048614956138
  H           2.53520378734378      1.15853516761006     -2.11832792846735
  H          -0.39229849190455     -0.17778025498217     -0.89942784139684
  H          -0.87488743269836      1.18566697894394      0.12559062212115
  H          -6.18565760686697     -2.74967316418119     -1.93894324457570
  H          -4.70796477587891     -2.97921979583663     -2.88192574077705
  H          -5.74296077239764     -1.57458582651670     -3.18322725524185
  H          -4.92975923760685     -2.87857828181378      0.23878173584077
  H          -3.50613030435541     -1.86496366059854      0.52256109029130
  H          -3.43873234152504     -3.17739148069386     -0.66373765444241
  H          -5.89838470929004      0.30756192318913     -1.45720828191125
  H          -4.99733500756118      0.19498437299687      0.06239656389321
  H          -6.36410140669515     -0.88857866479592     -0.24057243941096
  H          -2.81895507161954      1.04845609165327     -4.01551082929230
  H          -4.31114283165259      1.36825938782998     -3.12066423164626
  H          -4.23085101426405      0.01496660628576     -4.26108630922131
  H          -2.31778737168326     -2.44939710990570     -3.52905038398417
  H          -1.43418110593291     -2.41000736852929     -1.99499458337689
  H          -1.01321370235865     -1.28168914647723     -3.29363702985624
  H          -3.09854178051010      6.14335503771212     -1.63013064597726
  H          -1.32514139110953      6.24344199758548     -1.59930280027437
  H          -2.16302099509083      4.93684592845731     -0.71493454577898
  H          -0.00631834648847      5.95401898298472     -3.77433928132759
