48
Coordinates from ORCA-job goat_0_1089 E -1253.943037760821
  O           2.25254128308833      3.53009423745966     -1.74732581658103
  C           1.15114430825290      3.19381304893545     -2.58579141535567
  H           1.51677403793137      3.32603310888329     -3.60970812758469
  C           0.68540669460382      1.75583254971146     -2.41969428065736
  H           0.41105623921124      1.58047448022938     -1.37359082218427
  O           1.74779791101432      0.89361999845782     -2.80897023610527
  C          -0.54980063967090      1.52809053574219     -3.29901820688291
  H          -0.26127640653071      1.67469508032105     -4.35047691584042
  C          -1.12336330740636      0.13156792095932     -3.17049587493183
  O          -1.37984017955656     -0.17727179835624     -1.81068373165553
  Si         -2.63874326049010     -1.15587478958862     -1.30737555395367
  C          -4.22450061556917     -0.13962639499394     -1.12927704285612
  C          -4.62263720204098      0.48588536064664     -2.47413021398866
  C          -5.35898545102269     -1.05595068714720     -0.64618885302488
  C          -4.00448435440075      0.98153116486040     -0.10326366391660
  C          -2.86861055900650     -2.54989470882120     -2.53633880654677
  C          -2.08112455217098     -1.82075244342954      0.34747733989346
  O          -1.56591030214940      2.46045163073752     -2.94236368581227
  C          -1.19095977413506      3.80202209528178     -3.21399556354678
  H          -0.93407903133864      3.89770792076451     -4.28228982577178
  O          -2.25808877066666      4.62660921496038     -2.89198405928804
  C          -3.34197363230520      4.53492959792578     -3.81713690647640
  C           0.00304584228148      4.17258791238568     -2.34844156173320
  H          -0.31500653752920      4.10641128922171     -1.29817048881425
  O           0.40691370151901      5.49528660327345     -2.66475910594784
  H           2.00356173790015      3.34257366144466     -0.83273164155764
  H           1.62665420717193      0.04637638410536     -2.36680450670488
  H          -2.03188502146084      0.07959615541236     -3.77809713523655
  H          -0.40357376295930     -0.58290008913678     -3.58350338741601
  H          -3.86445611915565      1.18732588274689     -2.83032421071113
  H          -5.56242567408153      1.04121922299125     -2.36234040567629
  H          -4.77821713476621     -0.27374536778881     -3.24641465881077
  H          -5.12660784102080     -1.51850071295457      0.31784477813817
  H          -5.56564592909644     -1.85541383583846     -1.36401879232723
  H          -6.28126613957786     -0.47528760818030     -0.52171093291089
  H          -4.91549050752083      1.58479634857355     -0.00437144484709
  H          -3.19337258677371      1.64960290550850     -0.40769270288574
  H          -3.76268263453863      0.58249146532138      0.88622578459197
  H          -3.60689637344535     -3.26687837772621     -2.16597444649934
  H          -1.92384748630218     -3.08281750443282     -2.68080686251305
  H          -3.20900741574740     -2.18872522608799     -3.51035815840033
  H          -1.82542775911837     -1.00869539418484      1.03348024409883
  H          -1.19596330686205     -2.45061562139064      0.21913921235348
  H          -2.86390142735929     -2.42597727635099      0.81305309837033
  H          -2.99229943983890      4.73259638682759     -4.83640960766567
  H          -4.06681412743552      5.29507163578694     -3.52737145254617
  H          -3.81125999345405      3.54864578410765     -3.77779725637816
  H           1.27335929353044      5.62356825282565     -2.25687209490290
