48
Coordinates from ORCA-job goat_0_337 E -1253.940430041738
  O           0.67041454388363      1.05545630859861     -3.51093550979655
  C           0.44337587607557      2.33490994448826     -4.08589384537630
  H           0.82759772424125      2.29889889111856     -5.10819319328426
  C          -1.05384448463472      2.66153968246489     -4.16763419711928
  H          -1.58978141336418      1.77890330124599     -4.52803565662382
  O          -1.15286765618420      3.72574548515317     -5.12656217222971
  C          -1.66462502154139      3.08477787265482     -2.83167459241684
  H          -2.57245993570240      3.65285880950329     -3.05603291644326
  C          -2.12432106000132      1.91210081590408     -1.96204761698499
  O          -3.25499959253816      1.33288743838467     -2.59312797234031
  Si         -3.64557923306822     -0.28903713584021     -2.46212383452486
  C          -4.08916173852367     -0.72124015759136     -0.67330137601991
  C          -2.83461711312089     -0.77717196914433      0.21111177777201
  C          -5.05568088758829      0.33282502713595     -0.11490791498385
  C          -4.77242585691939     -2.09760692355325     -0.65105951191103
  C          -5.11987801821342     -0.48755492622501     -3.59123604843521
  C          -2.21288584320951     -1.33383668240099     -3.06141361742081
  O          -0.84558244439583      4.01227155427696     -2.10697230168231
  C           0.52185152659582      3.69766923044544     -1.97564694262353
  H           0.96423407755003      4.58004365622755     -1.50249389500200
  O           0.74343466262133      2.55616582406187     -1.17909074604611
  C           0.45067270702584      2.75029965348259      0.20495483247707
  C           1.18751932435558      3.43918815213774     -3.32835463257057
  H           2.21615649490485      3.12063837539396     -3.14649360367057
  O           1.24255685188623      4.64240077030200     -4.07755611120924
  H           0.72182769123172      1.16575005411379     -2.55056231286379
  H          -2.06894850653956      4.02542992923589     -5.16146235188124
  H          -1.33388784338154      1.17443064759260     -1.81625832814925
  H          -2.40588485975120      2.30956431334909     -0.98198163388388
  H          -2.12575731675526     -1.53214325427237     -0.14061233771140
  H          -3.11557567863001     -1.03848913638772      1.23889596166908
  H          -2.31423695877995      0.18376989586785      0.24800036377284
  H          -4.59450928519921      1.32427619310267     -0.08612321644485
  H          -5.35037634886515      0.06980178589769      0.90851133607895
  H          -5.96814218209455      0.40319475582876     -0.71497391503420
  H          -4.12788667432759     -2.87788099909811     -1.06851614448243
  H          -5.70798794055457     -2.09333226986067     -1.21752167540652
  H          -5.00934560855434     -2.38124280881559      0.38165027602879
  H          -5.40538449220007     -1.53963988209739     -3.67602879350759
  H          -4.87616629894234     -0.12081396634981     -4.59261311367411
  H          -5.98404968337107      0.07173912988442     -3.22252032701606
  H          -2.45986333065637     -2.39637684771791     -2.97464126337686
  H          -1.30076356114714     -1.15329027065397     -2.48759076172103
  H          -2.00118369223656     -1.11901430685876     -4.11294798450236
  H          -0.60102121939884      3.00439227276871      0.35399765962345
  H           1.08115132469507      3.54714797257642      0.61253139887762
  H           0.67331013938525      1.81120339415217      0.70995843737880
  H           0.37340883593945      4.76097039951685     -4.49231967530669
