48
Coordinates from ORCA-job goat_0_1123 E -1253.943888498536
  O           0.82417514235682      4.18901867356971     -0.84360647858161
  C           0.50966348922573      3.53926155109665     -2.07442187323290
  H           1.47528762306962      3.35781687489962     -2.55729669953257
  C          -0.18266924157178      2.20424846645320     -1.84819146611528
  H          -1.12028409669697      2.37231396946180     -1.30390863716328
  O           0.65292031539303      1.30714276727991     -1.13064302486321
  C          -0.51353289066424      1.57969961777206     -3.19928238615730
  H           0.42125843812701      1.40677299217228     -3.75308875962296
  C          -1.23070105468252      0.24883397723885     -3.08361570242108
  O          -2.40098750411493      0.34928926971660     -2.29638780335530
  Si         -2.70503041746444     -0.45964391354263     -0.86786535653745
  C          -4.48174951809021     -1.08624612341687     -1.01674195477049
  C          -4.89076780449229     -1.82352785747067      0.26624263774442
  C          -5.43058234886634      0.09995241584315     -1.24255492469673
  C          -4.58284395831389     -2.04815250056008     -2.20900920383336
  C          -1.49913079597902     -1.87466006094695     -0.64893937329438
  C          -2.54081550656512      0.73542278754601      0.56392506898760
  O          -1.34346855548745      2.48272204784944     -3.92540933959385
  C          -0.67783437674465      3.69427895820072     -4.25215762147659
  H           0.23885317477805      3.46122188252533     -4.81910689782328
  O          -1.53684576888139      4.47304547947147     -5.01152102234231
  C          -1.70101545525278      3.99276891792542     -6.34636735450551
  C          -0.32496632584644      4.44339903688827     -2.97391664251176
  H          -1.26458009445122      4.70036857456787     -2.46468024443103
  O           0.39590799950479      5.61627917091993     -3.31736375062680
  H          -0.00342811090522      4.37495308890610     -0.37953230501608
  H           0.97262330485937      1.77668656441487     -0.35001402762616
  H          -1.50990585614645     -0.07805898770360     -4.09060261557009
  H          -0.52891981994948     -0.48126467362400     -2.67271327546446
  H          -5.92098739774877     -2.18957963169581      0.17712189714018
  H          -4.84764482338046     -1.16829247640073      1.14129492950595
  H          -4.24837969140376     -2.68812122846674      0.45897975587333
  H          -5.17180313163154      0.65459686340893     -2.14917989662741
  H          -5.40971070190351      0.79876732945648     -0.40082427920476
  H          -6.46180689429635     -0.25818641935006     -1.35164173004655
  H          -5.61597659995293     -2.39801029485397     -2.32568884944421
  H          -3.94822866815929     -2.92874033147102     -2.07093189383169
  H          -4.28695368679214     -1.56053630987094     -3.14256782903787
  H          -0.47858235933242     -1.50449904345752     -0.51846363462514
  H          -1.51152700763803     -2.55939077866925     -1.50114716948101
  H          -1.76416469234775     -2.44413278149242      0.24690575697534
  H          -2.85605031380235      0.26360022033571      1.49930538859360
  H          -3.15390745306140      1.62768709608127      0.40974359931598
  H          -1.49959402379620      1.04878678634301      0.67802448233716
  H          -0.72893418554759      3.91125057407849     -6.84489386291606
  H          -2.31801099103271      4.72303840302115     -6.86898372374366
  H          -2.19860075774590      3.01976065508475     -6.35610872898996
  H           0.77806339342559      5.96063840046424     -2.50002317735911
