48
Coordinates from ORCA-job goat_0_167 E -1253.943644062000
  O           2.80308347995930      3.65423739431022     -2.42925599468560
  C           1.54074524837944      3.08119579577072     -2.74842701871011
  H           1.55487415294021      2.70173506012018     -3.78127033784854
  C           1.18948356907819      1.92662646816075     -1.82129124271075
  H           1.26966137215094      2.25943593844163     -0.78203699031086
  O           2.13329426180570      0.87117534167114     -1.96759470366433
  C          -0.24521419825161      1.46537528408577     -2.09624204724139
  H          -0.30236045780317      1.05461352451110     -3.11571450090305
  C          -0.69057146551400      0.40334899567205     -1.10564396779675
  O          -1.76095228572135     -0.39356897297197     -1.57563552627162
  Si         -3.36253638856841      0.05781030763668     -1.71859584228600
  C          -4.34241147065837     -1.53756237483379     -1.44967036550881
  C          -3.82034924304439     -2.64204483489227     -2.37968499327940
  C          -4.19946797500744     -1.99917225620153      0.00726794370311
  C          -5.82486825797237     -1.27915413953183     -1.75741025104548
  C          -3.80351762139359      1.32817531684901     -0.41728855163379
  C          -3.66702914930896      0.70458483048151     -3.45017155876084
  O          -1.12956886391360      2.57889988303790     -1.97226663265361
  C          -0.87780298790033      3.62169291225668     -2.90472627548025
  H          -0.95901513089536      3.22128699567108     -3.92868019800005
  O          -1.80533672147066      4.62963200513498     -2.69424839641443
  C          -3.11457145069794      4.32838756094622     -3.17507682500925
  C           0.51200444380432      4.19488955109329     -2.66613671356722
  H           0.52861947490545      4.63007870602951     -1.65838200548040
  O           0.76366854603027      5.19024383314770     -3.64652104259180
  H           3.47085136365910      2.96571235351384     -2.53397362465736
  H           2.07399064355577      0.53373075316456     -2.87119765637438
  H           0.15122945043283     -0.26583736494936     -0.91808343936560
  H          -0.95143455097807      0.89850503516415     -0.16287926377236
  H          -3.91252196541618     -2.36249106545001     -3.43348634047603
  H          -4.39757220615798     -3.56290634515385     -2.22965256048262
  H          -2.76934373924473     -2.86879047932922     -2.18083478483482
  H          -3.15131291006030     -2.16450511015159      0.27490286939642
  H          -4.73616003067134     -2.94389559190513      0.15899050344988
  H          -4.61464719487503     -1.26619168378300      0.70495834115333
  H          -6.40978319913848     -2.19122224441048     -1.58636256818980
  H          -5.97398965507794     -0.98042137948756     -2.79931164723989
  H          -6.24192620515601     -0.49465459940611     -1.11807359714611
  H          -4.87898323390460      1.52860317781761     -0.44185091127058
  H          -3.27512542106022      2.26722598440337     -0.58912498899393
  H          -3.55052463043561      0.96920723267394      0.58428420536098
  H          -2.91082856813670      1.44361312285281     -3.72099396170772
  H          -4.64999589254212      1.17783849862881     -3.52983491108738
  H          -3.62288368195828     -0.10963626186988     -4.17905126573347
  H          -3.58459736465440      3.54464011354732     -2.57736798703762
  H          -3.07542336941410      4.01255344632934     -4.22314342636648
  H          -3.69579714944527      5.24656979583001     -3.09337127252865
  H           1.69474862974778      5.43300948537378     -3.56768767394415
