48
Coordinates from ORCA-job goat_0_1132 E -1253.937235796159
  O           2.17276707488124      3.41374507734594     -1.23780168028178
  C           1.17149993177155      2.72706071154399     -1.98115436059554
  H           1.48996374287854      1.69266853826888     -2.16903013198075
  C          -0.08553219326196      2.70193509012718     -1.12803085965097
  H          -0.37427506271078      3.73670782103943     -0.89650550021617
  O           0.13321660382053      1.97267658839235      0.07015636913942
  C          -1.22688057004182      2.05178306483662     -1.90613021426309
  H          -0.96166304529679      1.01167679736276     -2.13788348714000
  C          -2.56135374048562      2.05901015455149     -1.16198985679179
  O          -2.69245295045780      0.90581237388170     -0.34912598153828
  Si         -3.95630783100240     -0.17897659540692     -0.49381691445470
  C          -3.73268955141746     -1.28147163798228     -2.01674043356528
  C          -3.70548507903662     -0.44878264511993     -3.30682753197407
  C          -2.41964903610495     -2.06852790148864     -1.89942213639526
  C          -4.90854822719883     -2.26849622772653     -2.08980125504645
  C          -3.87170754093054     -1.18516706030397      1.07794074258844
  C          -5.57475392776893      0.75981371099082     -0.58792128906727
  O          -1.42671334084433      2.77958217096755     -3.11793386574539
  C          -0.30097831152957      2.71781967758270     -3.97894071305577
  H          -0.04881784021569      1.66878921253309     -4.18237084479650
  O          -0.64621606303422      3.26141790151373     -5.21462929009715
  C          -1.01005731611147      4.64628778909384     -5.20862510941290
  C           0.89453801668721      3.40206951218664     -3.31290595038426
  H           0.66310088753622      4.45696398063379     -3.12906485192945
  O           2.06635357777754      3.26999881066969     -4.10596963914992
  H           3.00266992656855      3.34126817437259     -1.72355945718108
  H           0.93611383390850      2.33048396194272      0.46967572131700
  H          -2.63327056747667      2.95022381173898     -0.52973763178744
  H          -3.35511183530133      2.11808716697694     -1.91288712536012
  H          -4.61063295743718      0.15485937661708     -3.42270623915224
  H          -3.63764943121657     -1.11411183429476     -4.17647856576615
  H          -2.84399554017041      0.22247301205154     -3.34253607548774
  H          -1.55606852305715     -1.40146705944566     -1.81991079506024
  H          -2.27677110513864     -2.69647630014878     -2.78754345983251
  H          -2.42012161254282     -2.72620805529419     -1.02534680937448
  H          -5.86486755724874     -1.75021788360963     -2.20738181669433
  H          -4.97083341232092     -2.89487071657255     -1.19486654272721
  H          -4.78421810207519     -2.93427862350214     -2.95258495685407
  H          -4.04402558278078     -0.54052580351183      1.94478151441560
  H          -2.89230840953030     -1.65697847868934      1.19332646968561
  H          -4.63196775378340     -1.97103402169651      1.08359877728780
  H          -5.65707968840694      1.44758153143950      0.25913309125377
  H          -6.41882663822641      0.06560540943782     -0.54188666114139
  H          -5.66780142857070      1.34036822939318     -1.50931533210603
  H          -0.13997465028173      5.28954906246618     -5.04818281398626
  H          -1.76473640762887      4.85356091712488     -4.44764080573625
  H          -1.42457957393995      4.85193983656580     -6.19486754665799
  H           1.94652880875497      3.77835137114456     -4.91640815324901
