48
Coordinates from ORCA-job goat_0_137 E -1253.944613829563
  O           2.64442760576015      2.43654483648617     -3.80436714545995
  C           1.27302284501077      2.70759086162483     -3.53557249041936
  H           0.72100956135655      2.80765376259338     -4.48003560289336
  C           0.71744438575364      1.50874329862177     -2.78323329056580
  H           1.32828816207377      1.34040862155874     -1.88574444276826
  O           0.72558909512872      0.35238599855008     -3.61075091069020
  C          -0.72291492303061      1.78542221156845     -2.35524271034025
  H          -1.34561324110623      1.90818901311993     -3.25200539428110
  C          -1.28492049379529      0.66457062877544     -1.50317041440191
  O          -2.66310022913734      0.87061111322640     -1.23943701732089
  Si         -3.88010213694663     -0.00468417852379     -1.98121802571922
  C          -4.19683300426067     -1.59127779141590     -1.00211042741918
  C          -2.89540318742519     -2.39426708363321     -0.86291237171096
  C          -4.71542788042210     -1.23346286357213      0.39802251999802
  C          -5.24439214333491     -2.44705443986101     -1.72874301509473
  C          -5.37124425505167      1.11949089640558     -1.94197079598866
  C          -3.39907977218222     -0.39926784209260     -3.74812101694476
  O          -0.75731327056807      2.97997572233241     -1.57856071263960
  C          -0.36969723816718      4.11897958759332     -2.32922531414035
  H          -1.01056393689313      4.20175470888406     -3.22260797259281
  O          -0.49752223593979      5.24619966546387     -1.53026547679330
  C          -1.85385384470529      5.64745292834897     -1.32855752853728
  C           1.09276073448765      3.98562895388182     -2.73506048788088
  H           1.69782590117700      3.93701370758237     -1.82133416281288
  O           1.50535999039824      5.06714975984062     -3.55800103531945
  H           2.97295354138826      3.12707703050643     -4.39190744545382
  H           1.61672882429193      0.27119601556586     -3.97321957825302
  H          -1.10360381500190     -0.28434030236667     -2.01370864150432
  H          -0.74771804468757      0.64341030952196     -0.54922994824613
  H          -2.47103658070312     -2.65667766544636     -1.83697604689533
  H          -3.08771858087729     -3.32923223695048     -0.32229510460249
  H          -2.13922786827898     -1.83837481544447     -0.30121285002865
  H          -5.67534757915253     -0.71111840245194      0.35131444587568
  H          -4.00839358136853     -0.59460291622767      0.93638035751614
  H          -4.86051605842042     -2.14495992638691      0.99097372690088
  H          -6.18587572527393     -1.90618455332589     -1.86712004416993
  H          -5.46375742076593     -3.34905026484765     -1.14422195701322
  H          -4.89132536015769     -2.76827881797846     -2.71299593098283
  H          -6.26494057331132      0.59932794227353     -2.29838319514331
  H          -5.20425165708506      1.98880579012388     -2.58463435129614
  H          -5.56738542429094      1.47691460691923     -0.92754754367781
  H          -2.53532549443942     -1.06664535240056     -3.80703773659706
  H          -3.16028109202106      0.51803953239380     -4.29392074255855
  H          -4.23455989291165     -0.88601384376520     -4.25971428178576
  H          -2.34612409019699      5.82406234921111     -2.29095478548239
  H          -1.82599965404194      6.57440718169939     -0.75682107647807
  H          -2.40692495103783      4.88871170793380     -0.76934006878621
  H           1.47071459016382      5.87035455408396     -3.02505195860018
