48
Coordinates from ORCA-job goat_0_1003 E -1253.941789159489
  O           2.67941804355525      2.61095603912428     -3.72349152301684
  C           1.30602910000685      2.80446598585463     -3.40282166603667
  H           0.79119411623871      2.86754630620986     -4.36900943679779
  C           0.75590266325980      1.59120362462955     -2.66015355341558
  H           1.33209658064717      1.45007635570655     -1.73387454932477
  O           0.84293814488654      0.43151109552139     -3.47729730680238
  C          -0.70510787649480      1.82663361560985     -2.29200857159152
  H          -1.29452857856453      1.94689043875393     -3.21156917819222
  C          -1.27880815307470      0.68719179899786     -1.47332287898367
  O          -2.66585276627745      0.87436369846718     -1.24491131010332
  Si         -3.85451311084594      0.00972086554553     -2.04286351856834
  C          -4.17140879791733     -1.61700526482962     -1.13133510567333
  C          -2.86377381586449     -2.40935835964062     -0.98992874600180
  C          -4.72954467120936     -1.31946161865480      0.26771423700550
  C          -5.18938357642749     -2.45725898708305     -1.91626148045791
  C          -5.36100129542696      1.11318379212015     -1.99298640577509
  C          -3.33168538627279     -0.31086281900844     -3.81321276513862
  O          -0.78503308042344      3.01242114616907     -1.50851344940756
  C          -0.42033599649417      4.17385670428247     -2.23776735676011
  H          -1.05209704145723      4.24367210931077     -3.14070782147925
  O          -0.61276817624652      5.27739699099148     -1.42236746587513
  C          -1.99004839861655      5.60179614716032     -1.22974933288973
  C           1.05526650231759      4.09969285240170     -2.63305269108418
  H           1.64755898666026      4.10560056155542     -1.71227911298421
  O           1.45850057284947      5.24045655283513     -3.37187180436987
  H           3.18700038280952      2.62788239538918     -2.90147098546987
  H           1.73905988124901      0.41101413918871     -3.83738043135848
  H          -1.07250754750410     -0.25084188089603     -1.99471492823920
  H          -0.76856436796628      0.65559484582577     -0.50496112516058
  H          -2.13013192501271     -1.86843591738042     -0.38537839664326
  H          -2.41008890267219     -2.62609580815119     -1.96206570825543
  H          -3.05872957242652     -3.36816885069220     -0.49385795243930
  H          -5.69499963140892     -0.80790736688029      0.21600944595239
  H          -4.04515180116708     -0.69261142394588      0.84783136415061
  H          -4.87718421504036     -2.25475054255335      0.82174887303507
  H          -5.41136212106971     -3.38332040597202     -1.37180937371255
  H          -4.80716656896923     -2.73595024697049     -2.90254184216276
  H          -6.13411845940133     -1.92302651947461     -2.05839312465734
  H          -5.19090351441937      2.00926294276998     -2.59696081522351
  H          -5.58485734434600      1.42788202001507     -0.97019746140414
  H          -6.23947566178982      0.59661117546123     -2.39022022679692
  H          -3.10340101200447      0.63141809949770     -4.31961905135196
  H          -4.14519061163505     -0.79663091090149     -4.35987455141538
  H          -2.45157029304664     -0.95595442060879     -3.87917472566861
  H          -2.48078458309345      5.77162870888200     -2.19451894163896
  H          -2.01745406632504      6.51820993668716     -0.64102375295486
  H          -2.51099980936040      4.80562724203602     -0.69193171018348
  H           1.02339775579268      5.21645315664327     -4.23370178467703
