48
Coordinates from ORCA-job goat_0_365 E -1253.938800286566
  O           2.24848647493757      1.70372578875499     -3.60469887992746
  C           0.97437811255988      2.33164485723718     -3.67010033798798
  H           0.55342606915896      2.22310059603864     -4.67860477617588
  C          -0.00113487053222      1.72452371309076     -2.68132151916684
  H           0.35664937048151      1.89895394372168     -1.65954075228743
  O          -0.05744083655714      0.32532750393432     -2.93986865078800
  C          -1.37825753891500      2.36216592787619     -2.88602141234443
  H          -1.83150987096644      1.87261694412065     -3.75305043841013
  C          -2.28519864944529      2.16530257639742     -1.67612048192699
  O          -2.43868487614571      0.77014115061542     -1.41710292959443
  Si         -3.88602126805701     -0.01223605582558     -1.75812740133970
  C          -3.62755629639514     -1.79224829066655     -1.19186364300936
  C          -3.57010959903992     -1.85343241072652      0.34118875617040
  C          -4.80677905611205     -2.64225595362629     -1.69036711768064
  C          -2.32069133682301     -2.35429656875054     -1.76890376477590
  C          -5.27174448231788      0.81870949450608     -0.81526688935628
  C          -4.22023846899920      0.09749330552160     -3.59573834887888
  O          -1.30524640040986      3.75562923446530     -3.21995514904165
  C          -0.13738523164933      4.43290427234705     -2.80633609932035
  H          -0.25635333206505      5.44626160008919     -3.20547413529209
  O          -0.01372652323440      4.47504228935286     -1.40844996778749
  C          -0.96619999841258      5.34049787967535     -0.79291832550179
  C           1.14938748561899      3.81233800260335     -3.38266264169604
  H           1.94061923745388      3.93291509091086     -2.63687329681812
  O           1.51619606594631      4.44363800311942     -4.60489601885201
  H           2.09903299150907      0.75570981652917     -3.71036462522175
  H          -0.74402481112897     -0.02864582707233     -2.35739710024611
  H          -1.83521920606228      2.62843599405401     -0.79521460454537
  H          -3.24824481919555      2.65171499450102     -1.86594146775481
  H          -2.76539813550997     -1.22743525373320      0.73871701523940
  H          -3.38618868553708     -2.88379686863057      0.66906935837500
  H          -4.51015028482282     -1.52366648374364      0.79241209923617
  H          -5.76654755623720     -2.25687842493944     -1.33170744562596
  H          -4.70551615537776     -3.67136768142175     -1.32572554795977
  H          -4.84417288972701     -2.67855604030169     -2.78287945354686
  H          -2.23147986328744     -3.41968820231902     -1.52472280202337
  H          -1.44800164867619     -1.84966757065680     -1.34479131699468
  H          -2.27790370658500     -2.25972538720626     -2.85855439398046
  H          -6.19533509006650      0.24065805112690     -0.91617331539068
  H          -5.46457281807465      1.82326344090181     -1.20223254067814
  H          -5.03434358635465      0.89981092078743      0.24866297579490
  H          -3.43881434374915     -0.40187359073276     -4.17522224288113
  H          -4.26396508045756      1.14405178182833     -3.91274929869314
  H          -5.18022900289896     -0.36558724896947     -3.84119415508564
  H          -0.78075015197803      5.30392357941468      0.28019815160168
  H          -1.99005599082634      5.01559220021264     -0.99558330966067
  H          -0.83480642865603      6.36675640562304     -1.15348332085618
  H           1.85965308362099      5.32108849996492     -4.39989843731250
