48
Coordinates from ORCA-job goat_0_296 E -1253.944427357200
  O           2.71148331298442      2.72426676465069     -1.49286246058502
  C           1.49135176621885      2.51751300496743     -2.19658056170127
  H           1.60998322453401      1.69407524592400     -2.91391605566994
  C           0.44522042307251      2.11052621543619     -1.17089136969304
  H           0.39639093295559      2.88281234379245     -0.39107918491608
  O           0.76989225514587      0.85014539029976     -0.59809297556323
  C          -0.92446175448629      1.99675299428313     -1.83898326363112
  H          -0.89535088394845      1.19036054581831     -2.58496578710359
  C          -2.02019898796036      1.70873538232891     -0.83420943716910
  O          -3.24495324556308      1.46274982967812     -1.50560602751722
  Si         -4.28811661820123      0.22361626330225     -1.09337407478713
  C          -3.73234921085249     -1.39311767663011     -1.90397969062288
  C          -4.68926168488242     -2.52082115323380     -1.48867368090588
  C          -3.76235153683880     -1.23764836633530     -3.43124225409702
  C          -2.30694515848085     -1.76027938111901     -1.46700181883454
  C          -4.34848360385418      0.04943766519190      0.77056653789716
  C          -5.94725145003414      0.76827496367537     -1.75784098392819
  O          -1.23644884647501      3.23136275623308     -2.47888900087873
  C          -0.33479452589587      3.53049941699808     -3.53165009883453
  H          -0.32154822495835      2.69301358053537     -4.24861632708325
  O          -0.74528167860650      4.70046194865130     -4.15423048654889
  C          -1.89720070356899      4.52821458633394     -4.98167932692048
  C           1.05723047242759      3.75886536057139     -2.95649612096685
  H           1.00753982052491      4.61301716871864     -2.26997681735399
  O           2.01317751333801      3.98829175769668     -3.98142969963162
  H           3.40931240956826      2.85996033579938     -2.14449443309742
  H           1.68373567022980      0.90520669853410     -0.29200959596441
  H          -1.71233585882838      0.85933697343322     -0.21941447731438
  H          -2.13375277073403      2.57940631317023     -0.17804258635005
  H          -5.72217841844594     -2.30531637293125     -1.77862000553711
  H          -4.66963139797651     -2.68890430132962     -0.40778790364179
  H          -4.39692298717971     -3.45899991812689     -1.97610222969337
  H          -3.41835510752189     -2.16215999122683     -3.91125974756945
  H          -3.10889742857060     -0.42528439342917     -3.76415532531002
  H          -4.77252840833166     -1.03025015225915     -3.79599935800989
  H          -2.01800958994248     -2.72177159643461     -1.90926487457161
  H          -2.22420324501498     -1.85798455926289     -0.38029148902331
  H          -1.57757418819233     -1.01604420767159     -1.79723102502274
  H          -4.57317574644359      1.01614617523449      1.23137812751589
  H          -3.40542338194240     -0.31589896402651      1.18526412450904
  H          -5.13655435254241     -0.65239032354599      1.05850794172727
  H          -6.29129213335121      1.65840502781187     -1.22303254618103
  H          -6.69946447865825     -0.01541610411796     -1.63191693214252
  H          -5.88467065760635      1.01264989710245     -2.82162808662732
  H          -2.76812423268303      4.24596125441780     -4.38493538715932
  H          -1.70980858349114      3.76141438202252     -5.74108453110232
  H          -2.08172191792116      5.48590154516110     -5.46711003006437
  H           1.78213519898550      4.81748567390667     -4.41691866232290
