48
Coordinates from ORCA-job goat_0_288 E -1253.935413584048
  O           1.61854656193824      3.89765757475819     -1.27518569931036
  C           1.07738200817792      3.18963711194860     -2.38444903607886
  H           1.88432355995462      2.70348909412880     -2.94781577806208
  C           0.07861837800545      2.13097372383792     -1.96131039694277
  H          -0.79313411980935      2.61179656147404     -1.49972577384931
  O           0.71500058020673      1.27853675213956     -1.01536132183314
  C          -0.33852438076972      1.34022185046634     -3.20609826684078
  H           0.43801979749309      0.59001244447400     -3.38326047329097
  C          -1.67604450832509      0.63556475031229     -3.01472760024464
  O          -1.57523929984751     -0.18366914093983     -1.85217524526198
  Si         -2.83818289770730     -0.37819726125569     -0.76334355714128
  C          -4.23791673404491     -1.37384359106531     -1.55234039698658
  C          -5.20890574318573     -1.82215157380102     -0.44861330436975
  C          -5.00711085204593     -0.52876999387493     -2.57822769070076
  C          -3.65533210832625     -2.61085099717247     -2.25055926236054
  C          -2.05409305322261     -1.30245682450526      0.65680764884481
  C          -3.43065081994614      1.30570168068855     -0.20197673681483
  O          -0.36856971950997      2.14580991710233     -4.39336455492174
  C          -0.62952191819579      3.50958840259855     -4.21776218032495
  H          -0.54726551814403      3.95445559184365     -5.21537793179932
  O          -1.94996990986850      3.65709889549917     -3.73370688945531
  C          -2.51169695778669      4.92922405273229     -4.03661809264493
  C           0.38800780549586      4.19824029417588     -3.28730479150205
  H          -0.15244512938518      4.90559131361811     -2.64896949582664
  O           1.31840493539869      4.89580557540620     -4.10908813701518
  H           2.04042206041519      3.24796905658650     -0.69953367864194
  H           0.11638676470130      0.52872383271528     -0.88715765844425
  H          -2.46462483159244      1.38399993133906     -2.90871753530417
  H          -1.89746499778733      0.01588839934700     -3.88924102017043
  H          -4.71978996257895     -2.47651951784681      0.27844381433568
  H          -6.04459920198347     -2.37897485196424     -0.88948365023315
  H          -5.62954817827075     -0.96892155834006      0.09320326837086
  H          -5.45683188511701      0.35563454434492     -2.11796823134261
  H          -5.81753824772022     -1.12393210284504     -3.01664084806576
  H          -4.36529571318049     -0.19387561443015     -3.39777065893887
  H          -2.97613687142263     -2.32992137427839     -3.06063457023182
  H          -4.46291416523372     -3.21437565400397     -2.68258960306567
  H          -3.10273698206757     -3.24733369218314     -1.55263687286446
  H          -1.73356851266220     -2.30368327673398      0.35687303067705
  H          -2.75713482126427     -1.40352685884615      1.48810657144034
  H          -1.17828226486840     -0.75685937738064      1.02103768505810
  H          -4.24587485458320      1.19611793956433      0.51972286852899
  H          -3.79699865546808      1.91713604797285     -1.03024231829346
  H          -2.61474742103750      1.84614210115363      0.28736904991863
  H          -1.95831672697021      5.74238541081745     -3.55447051708771
  H          -3.53335421655867      4.92214349448785     -3.65817205294334
  H          -2.52242482545513      5.09721493239153     -5.11966289377671
  H           1.95550455415609      5.32768198354229     -3.52712921419132
