48
Coordinates from ORCA-job goat_0_1025 E -1253.933562807253
  O           2.54833882007141      2.82760756990898     -1.76188267763444
  C           1.45194657990230      2.57663803751314     -2.62651600317750
  H           1.89514081981093      2.26151720934810     -3.57703641266838
  C           0.55956052434598      1.45344304377012     -2.09135362748382
  H           0.38496682992722      1.63697093181739     -1.02751435743519
  O           1.22761427610310      0.19641042440522     -2.14095436592599
  C          -0.80169005951984      1.42076225474889     -2.81429627641090
  H          -0.99423083258187      0.38479881323322     -3.09844472013584
  C          -1.96338916022344      1.87062678962531     -1.92833920032684
  O          -2.07356122423040      0.95451385631080     -0.84987160142589
  Si         -3.48980265843629      0.17143515099557     -0.42923273021409
  C          -3.81009638266402     -1.28945817807397     -1.58893131267208
  C          -2.60130987138537     -2.23615869702363     -1.57166940747628
  C          -5.05497411743502     -2.05005815758481     -1.10597053795947
  C          -4.05139061713548     -0.80632503964888     -3.02638109570227
  C          -3.18785366446581     -0.41516208715488      1.31853105894495
  C          -4.91200816991647      1.38873140287609     -0.47997850018777
  O          -0.75808420666910      2.13380019782744     -4.05282792400147
  C          -0.43016168283664      3.50329993404523     -3.96502815900339
  H           0.00563314148395      3.74904884092972     -4.94061207224029
  O          -1.55070047396310      4.31511705902509     -3.72906976353097
  C          -2.46745043825033      4.33835448715958     -4.82074522471527
  C           0.59617713135543      3.81217437552963     -2.86933532422398
  H           0.06837249150304      4.07126183185194     -1.94276426342848
  O           1.42461210697701      4.89471519328022     -3.26546010145472
  H           2.20072352010950      3.12557557237090     -0.91179018246076
  H           1.43304328451085      0.00105165711396     -3.06378717679752
  H          -1.79504930547164      2.87233555170059     -1.52522162265226
  H          -2.87146101464026      1.90649503504357     -2.53760718686259
  H          -2.42046479928422     -2.64112295402591     -0.57158167850903
  H          -1.68882166314673     -1.73039732075948     -1.90053385858004
  H          -2.77685974754444     -3.08327871393653     -2.24619941353624
  H          -5.94617540388370     -1.41514754869532     -1.11328489066324
  H          -4.92488321090649     -2.43940783520966     -0.09199767150219
  H          -5.25059414733339     -2.90343914034825     -1.76671378248479
  H          -4.26306070380151     -1.66393257213475     -3.67683731760858
  H          -3.17775832627132     -0.29377909646270     -3.43743982554131
  H          -4.90492820142320     -0.12495682624108     -3.08880795806486
  H          -4.04894912578918     -0.97029544473510      1.70056942138385
  H          -3.01815565816859      0.44206970913152      1.97654098027435
  H          -2.31111880592878     -1.06607102388950      1.37318108292194
  H          -4.69600739216832      2.24468124540264      0.16652110909749
  H          -5.82976877531649      0.91593069908867     -0.11834103352841
  H          -5.10246243708782      1.76276691870605     -1.48917562312857
  H          -2.92218274759032      3.35587586169328     -4.97308347028772
  H          -1.96101720657189      4.65084375594830     -5.74115160057618
  H          -3.24257891821237      5.06160368342591     -4.56854341457571
  H           0.88070162415353      5.69111354209732     -3.27688028582710
