48
Coordinates from ORCA-job goat_0_162 E -1253.936439302164
  O           2.51217835105717      2.30713602859228     -2.10686797860314
  C           1.29241073055988      2.79431508707487     -2.65081744228563
  H           1.46012567268133      3.17778535783824     -3.66643563484747
  C           0.31839018169109      1.62930299356224     -2.71982168585822
  H           0.35827142658961      1.10071667731396     -1.76051204017386
  O           0.66688209360126      0.73034855499721     -3.77135644260020
  C          -1.11375289946227      2.13160294540869     -2.95833674575534
  H          -1.51080495043644      1.59081576325000     -3.81978425705814
  C          -2.03935098536540      1.87024647029150     -1.76807055344571
  O          -2.17223137892980      0.47682639435619     -1.55459856972427
  Si         -3.25135369679444     -0.51972822982363     -2.35661707063899
  C          -4.03722550958276     -1.60086540567316     -1.02266171887317
  C          -4.99599996329054     -2.61231563564490     -1.66657819256328
  C          -2.94055101748200     -2.35694273264681     -0.25842692769365
  C          -4.81706546757457     -0.71516538474988     -0.04064836168264
  C          -4.53348678585690      0.51419136814215     -3.24698750059112
  C          -2.30821680784631     -1.55966586501058     -3.59314432926096
  O          -1.13986204364012      3.50508225411752     -3.36173617386364
  C          -0.56706277858643      4.43710897217657     -2.46670784698024
  H          -0.31231969913898      5.29584656627596     -3.10171778988106
  O          -1.45399642445159      4.84273186076895     -1.46109033676199
  C          -2.56419246476458      5.58676070293491     -1.95754817416511
  C           0.69805400736886      3.89940143360633     -1.79085290819795
  H           0.44269223263211      3.49562992376633     -0.80792257351109
  O           1.63782161119876      4.93603792064653     -1.53762753474261
  H           3.08411477133469      3.07111218025908     -1.95992994159273
  H           1.55465662009103      0.40009511534688     -3.58630587393395
  H          -1.63464819286522      2.30726101736945     -0.85323167441000
  H          -3.00619797493965      2.34220012913176     -1.96588057310055
  H          -5.79640092764338     -2.11524609724512     -2.22334097204711
  H          -5.46580433082316     -3.23050050278344     -0.89181959555824
  H          -4.47307265046254     -3.28410635238304     -2.35358434591000
  H          -2.37342202783209     -3.02089286536421     -0.91770915580662
  H          -3.38910169464220     -2.97438892847489      0.52955364602514
  H          -2.23597515030798     -1.66813213761085      0.21642065987615
  H          -5.24733708103823     -1.32892074523870      0.76018709982750
  H          -5.64025480319420     -0.19141539601832     -0.53555178243860
  H          -4.16957935474251      0.03443861671213      0.42391911089943
  H          -5.08628235409891      1.16317378294993     -2.56306508843879
  H          -5.25166712722399     -0.14487472942902     -3.74381350261091
  H          -4.07015394330255      1.14036722058865     -4.01504732739824
  H          -1.49661157116683     -2.11024530516586     -3.10960389049183
  H          -1.87111167238416     -0.92492194102211     -4.36891083781074
  H          -2.97041302041505     -2.28251400612772     -4.07844439486078
  H          -2.21935298961239      6.45277478734577     -2.53418139525896
  H          -3.12863059249130      5.92877229633216     -1.09045237199434
  H          -3.20549565312048      4.96434866391620     -2.58718567541449
  H           1.84121828670444      5.37699117533975     -2.37300332779151
