48
Coordinates from ORCA-job goat_0_185 E -1253.939504311935
  O           0.40152412932829      4.49049486844914     -1.34717976703720
  C           1.20065157768836      3.62022966106276     -2.13796339551153
  H           2.24368464307739      3.89934507658740     -1.97056751737062
  C           1.03590445938379      2.15358632481818     -1.71214462810597
  H           1.08658857383963      2.11002249921814     -0.62181083801934
  O           2.13023387537887      1.37480709257391     -2.19312261277205
  C          -0.29718525659040      1.54643064982639     -2.16009350041382
  H          -0.15681454510640      0.46373200444314     -2.16583901753493
  C          -1.45455888606469      1.83233321354328     -1.20544552851285
  O          -2.61479621095633      1.12173507752654     -1.60966168907230
  Si         -3.13046384611759     -0.25971702847302     -0.82544750909301
  C          -4.56170991307740     -0.89486176517417     -1.87630708605294
  C          -4.05619769735469     -1.25029391193030     -3.28196336608933
  C          -5.15990390739121     -2.14745763464926     -1.21927438637367
  C          -5.64616246807285      0.18648092047124     -1.98834459963893
  C          -1.73076016473420     -1.50067772300057     -0.72559354177920
  C          -3.67682927733627      0.18185977162801      0.91044965119508
  O          -0.60880095403608      1.84913920880853     -3.53191090973434
  C          -0.48147365757256      3.18179154124279     -3.95620578128555
  H          -0.62330448190336      3.13621904483720     -5.04335576821527
  O          -1.43836899301668      4.04750642606956     -3.39029086235642
  C          -2.78319100903029      3.74761898504606     -3.77213985364262
  C           0.88646413568291      3.78317227246159     -3.62540975323827
  H           0.86920742368164      4.84679611090183     -3.88211163946663
  O           1.91284651683077      3.10627580341102     -4.34536469922396
  H          -0.46812530050129      4.56295109073969     -1.76737965817137
  H           2.23068637379377      1.58139559676748     -3.13427496399544
  H          -1.12904272942455      1.53241772479865     -0.20155618449152
  H          -1.70488607577708      2.89148174144733     -1.16504367925780
  H          -3.30421362240965     -2.04419187641332     -3.25162737103402
  H          -3.61260070625887     -0.38319013114612     -3.78000035528659
  H          -4.88886908309067     -1.60458992107860     -3.90199700093883
  H          -5.55222746702894     -1.93198615991541     -0.22080928865132
  H          -4.42065627465560     -2.94907614277189     -1.12663103383722
  H          -5.98938295546038     -2.52943649221669     -1.82665797577315
  H          -5.25932073450011      1.09385029760169     -2.46078187940801
  H          -6.04763002011540      0.45963284539174     -1.00788919453087
  H          -6.48043224052280     -0.18115368661853     -2.59839892132744
  H          -2.06352871278253     -2.40810579365145     -0.21283753420718
  H          -0.89068884879296     -1.08786288608100     -0.15825443783624
  H          -1.36697328369413     -1.78107389716220     -1.71737350808967
  H          -4.01299191820392     -0.70904884402095      1.44893156765003
  H          -4.49550051950457      0.90631844292885      0.89998633331638
  H          -2.84486558899070      0.61660222292141      1.47318989894419
  H          -3.09014098900171      2.77452756348806     -3.38522395478412
  H          -2.87222959568298      3.76044024111983     -4.86360797158322
  H          -3.41066397089539      4.52935925333531     -3.34554614957435
  H           1.70553019697020      3.13675032083678     -5.28696813778642
