48
Coordinates from ORCA-job goat_0_178 E -1253.937116163070
  O          -0.83798741973879      4.69167383068133     -2.57127906856343
  C           0.07764586040823      3.94562720866819     -1.77926381282032
  H           0.44330481109741      4.61512426737745     -0.99697797688354
  C          -0.59732740356019      2.75192261556082     -1.08646171997917
  H          -1.55145696231467      3.08746484956230     -0.67786898871507
  O           0.19055036133913      2.32417675500252      0.02439481770074
  C          -0.87393144371999      1.58239364184287     -2.03199162642483
  H          -0.95396387914052      0.69456258247319     -1.40243041029709
  C          -2.17816903531342      1.69523947564423     -2.82914885382958
  O          -3.30347297577228      1.78888064924101     -1.97610155521854
  Si         -3.95299005575523      0.65420093230488     -0.93587082195231
  C          -4.09381712176996     -1.05231267131712     -1.74709225316099
  C          -4.77505892991904     -0.93107635450770     -3.11798515883626
  C          -2.72273399617573     -1.72522442060111     -1.91126345329144
  C          -4.96228683237780     -1.93875292472646     -0.83755781788112
  C          -2.96600071496707      0.55339178918975      0.65407779858808
  C          -5.64240494291389      1.35461294102135     -0.54803140502397
  O           0.23380023026259      1.27953489756825     -2.89853296424190
  C           0.86160752132135      2.34957900546946     -3.55947766893608
  H           1.74736388757642      1.90057167378765     -4.02489666758762
  O           0.05413999771823      2.94262901070853     -4.54956375369543
  C          -0.20115856425793      2.09370044773167     -5.66945386094312
  C           1.27320739708838      3.47591012463901     -2.60871005674401
  H           1.65650470671223      4.30918766600213     -3.20543250903985
  O           2.25957408730906      3.01410286867068     -1.69023155475043
  H          -0.85273954871622      4.30626074610703     -3.45897746008341
  H           1.09850418814749      2.22282580760354     -0.29718573023375
  H          -2.18544992142273      2.57942719682266     -3.46436741555360
  H          -2.24932775899266      0.81960470215179     -3.48102467388969
  H          -4.18705020013131     -0.32820008509545     -3.81529501730353
  H          -5.76684930114137     -0.47661559152956     -3.03557647463503
  H          -4.90179757332105     -1.92573730327672     -3.56296628389260
  H          -2.20829160376807     -1.83250387479723     -0.95212853159338
  H          -2.06483200156352     -1.17244686676344     -2.58641108207645
  H          -2.85175702553373     -2.73004098746378     -2.33218706583615
  H          -5.05042327562346     -2.94150133426421     -1.27293344607795
  H          -5.97242791119401     -1.53603330744693     -0.72311649732777
  H          -4.52584307179514     -2.04874815879343      0.16001095446850
  H          -3.51222170499132     -0.05098414839046      1.38502612823657
  H          -2.83644455842948      1.55448029240490      1.07628605486916
  H          -1.97681096945102      0.11055805189202      0.52383637810163
  H          -6.28331809143226      1.37376872000948     -1.43352965392477
  H          -5.54080262789636      2.37974051969596     -0.17912481282742
  H          -6.14236546600999      0.76616251916506      0.22596000039018
  H          -0.75699803597801      1.20265517242775     -5.37009727321905
  H           0.74367148200220      1.79639898282658     -6.13603350174196
  H          -0.79310132698020      2.67376169007354     -6.37608098477713
  H           3.00956772108588      2.66262639464573     -2.18478226854461
