48
Coordinates from ORCA-job goat_0_1014 E -1253.936992403911
  O           2.74743804321115      3.46825804856492     -2.61325065775641
  C           1.42078842356086      3.06939529088101     -2.92517762591868
  H           1.41739891477329      2.44741614898819     -3.83075390683095
  C           0.80555696420903      2.26567301612674     -1.79226814427017
  H           0.72494920698911      2.89814115589321     -0.90224613142127
  O           1.66637177896535      1.15946033004019     -1.51984734345546
  C          -0.57031179096036      1.75606364135015     -2.23128692155237
  H          -0.39500121939962      0.86032493228737     -2.83368084493387
  C          -1.42539079790563      1.39287777225349     -1.02456513039546
  O          -2.70566827779812      0.90328630164480     -1.37532807262997
  Si         -2.99313425887512     -0.57886960171487     -2.09274778495636
  C          -4.72438433284328     -1.06753824336547     -1.51872423807866
  C          -5.72742571704868      0.02892862412817     -1.90615070495616
  C          -5.13650110525544     -2.38888983548871     -2.18371494468908
  C          -4.73179921658179     -1.24359728803476      0.00625367316125
  C          -2.93774448830204     -0.41174197727707     -3.95743154327616
  C          -1.69927121899155     -1.80817579457427     -1.52558953238276
  O          -1.24097244982122      2.66772670839134     -3.11336452511546
  C          -0.91137884998314      4.03077027866592     -2.96373195665540
  H          -1.49389037422927      4.53782069194737     -3.74125897117073
  O          -1.25628846644075      4.53124177153496     -1.69748592162435
  C          -2.66717011833347      4.59735240697858     -1.49400522635460
  C           0.58682352476193      4.30838694538911     -3.19253961421871
  H           0.89485519783029      5.09351632787124     -2.49547770842390
  O           0.83398989412963      4.70923640954325     -4.53582392892302
  H           3.20977880613814      2.66990487585610     -2.32588292709698
  H           1.72816151593233      1.04391613352096     -0.56621503547791
  H          -0.87359078218305      0.65159794353615     -0.43354888060443
  H          -1.56958150451818      2.27723692243727     -0.40081979951217
  H          -6.73416086394552     -0.24691660181663     -1.56876871890134
  H          -5.76906419515278      0.17376540982701     -2.98987524414785
  H          -5.47047537472667      0.98740744651439     -1.44629053750739
  H          -4.44503173649794     -3.20034205503280     -1.93636979948256
  H          -5.17585433902305     -2.29837240724374     -3.27311063123177
  H          -6.13427143212878     -2.68713345459945     -1.83940866614921
  H          -4.06135645485148     -2.04822219628358      0.32255648963298
  H          -5.74170978310257     -1.49748960305220      0.35119067123423
  H          -4.42427582965557     -0.32636741087062      0.51676061411448
  H          -3.20322749084609     -1.35918584635420     -4.43577939849606
  H          -1.93718345747661     -0.13293500318985     -4.29830957469002
  H          -3.63852054035712      0.35284434333984     -4.30375511196767
  H          -0.70596191212647     -1.53270950465126     -1.89201602003776
  H          -1.93271264270040     -2.80385030239719     -1.91406252631260
  H          -1.65533629262800     -1.87053040092900     -0.43488701277745
  H          -2.82396592620839      5.02730174690141     -0.50500830296707
  H          -3.12280634750415      3.60487318329662     -1.53679135000652
  H          -3.12932844795179      5.24137969530165     -2.25063247461522
  H           0.50646576585383      5.60934302386405     -4.64662805617124
