48
Coordinates from ORCA-job goat_0_307 E -1253.936308899325
  O           0.72896464377715      4.61013337089974     -1.63617120472593
  C           0.79179174729070      3.36958728613498     -2.32869113087311
  H           1.70953066751629      3.32303954758716     -2.93018119242082
  C           0.82268692389879      2.26067271313343     -1.29106466550663
  H           0.04623504473690      2.48245885236597     -0.55181331120549
  O           2.09324285369472      2.19436981787332     -0.64173834301252
  C           0.54046747882855      0.88966853415424     -1.92754065388333
  H           1.38194021294372      0.24091420700934     -1.67446418549282
  C          -0.70044766430818      0.21554078855165     -1.35948668666373
  O          -1.81766947849007      1.08392432596587     -1.35998805322676
  Si         -3.27748921961449      0.73840259942224     -0.62617604435808
  C          -4.44163086798459     -0.10277104479902     -1.85691211116632
  C          -4.85932979411975      0.89562511478455     -2.94627948836867
  C          -3.73886577580349     -1.29881333166896     -2.51463878839061
  C          -5.69296002412689     -0.59628356835258     -1.11552535721386
  C          -2.98051323203391     -0.35984289464255      0.86132156329906
  C          -3.95445720914961      2.39967095598039     -0.10253936011775
  O           0.57313662506247      0.92902247139509     -3.36044172149757
  C          -0.20723382916191      1.89158321776104     -4.03923301194369
  H           0.37239162578907      2.12665008499452     -4.94109330185789
  O          -1.46803689095302      1.40955760966072     -4.41439966881634
  C          -1.40806286658771      0.38435298181897     -5.39982294476609
  C          -0.40906887788843      3.17355961313087     -3.23482428446463
  H          -1.31482329594705      3.08640174424518     -2.63016603661396
  O          -0.49458868026719      4.30198092067143     -4.10074966790975
  H           0.56643712052633      5.29180774576741     -2.30074125597780
  H           2.22764856647080      3.03464450784298     -0.18656420139002
  H          -0.90208083278997     -0.68684467555076     -1.94603164258865
  H          -0.46005761015826     -0.09050159667426     -0.33398868579796
  H          -3.99131385139166      1.30152517072137     -3.47349126126972
  H          -5.42524015012608      1.73277032509722     -2.52738023428325
  H          -5.49958664301336      0.39861111176301     -3.68585463333009
  H          -2.87944719609820     -0.97939327959604     -3.10957118831134
  H          -4.43286485099275     -1.81913764291612     -3.18645625182087
  H          -3.38912424331131     -2.02460129594124     -1.77359872240724
  H          -6.39990618624315     -1.04079166875989     -1.82683784581964
  H          -6.21030971949394      0.22057283832659     -0.60198241874218
  H          -5.44627959164774     -1.35978121773085     -0.37216405393774
  H          -2.65183988854040     -1.36220639042474      0.57321006442544
  H          -3.90148601992997     -0.46067821119122      1.44251640752329
  H          -2.21742904119898      0.07638357999348      1.51301258450094
  H          -3.33944155924475      2.82473978578034      0.69601297524855
  H          -4.97977862252972      2.30870661146986      0.26762974788227
  H          -3.95690139308302      3.10082884075030     -0.94163179492760
  H          -0.85846364631063      0.72878256427678     -6.28395931255540
  H          -2.43589717571120      0.15175934510292     -5.67870300788770
  H          -0.92844827129322     -0.51575557797190     -5.00498803819081
  H          -1.40556931099061      4.38173321178711     -4.40366757914538
