48
Coordinates from ORCA-job goat_0_1065 E -1253.937093275120
  O           1.93385891188993      1.52236910203613     -1.25289068740564
  C           1.09297353917458      2.29367756033713     -2.10563917560635
  H           1.63992846537002      3.17025160965281     -2.47415907158370
  C           0.71321385269019      1.41424973844083     -3.28409126936084
  H           0.41154664706085      0.43982344149814     -2.88616625149154
  O           1.81426601022911      1.24293174642344     -4.17789858080709
  C          -0.45503856309693      2.02827604907590     -4.07256261556550
  H          -0.13034350127183      2.11795169247124     -5.11138176475882
  C          -1.69518449244759      1.14442155132072     -4.08637898641329
  O          -2.02128536600976      0.66754101305832     -2.79409959949105
  Si         -3.45620495556105     -0.12573357847848     -2.48479038622947
  C          -3.41657325113247     -0.52388752394953     -0.64037214209864
  C          -3.57797135635093      0.75926863705049      0.18705247032014
  C          -4.57184076751233     -1.48198496450769     -0.31191195901608
  C          -2.08425992373023     -1.19613717441125     -0.27868934799512
  C          -4.90111039905471      0.97994966988653     -2.92709111221645
  C          -3.53052596707811     -1.68475461503280     -3.52135176676236
  O          -0.71316275003366      3.38526880889141     -3.68816640644358
  C          -0.95197485605139      3.66726332463998     -2.32420005225378
  H          -0.59586403314758      4.69768811085084     -2.19421617875298
  O          -2.30761539223076      3.59994736252721     -1.98155796567647
  C          -3.09323880010974      4.61064017730236     -2.60238572730330
  C          -0.16887635772076      2.75140824349228     -1.39032579679408
  H          -0.78103414208197      1.88335900727247     -1.14005292024832
  O           0.14435990529812      3.49450909392931     -0.21446788326607
  H           2.30367654227506      2.11785624906664     -0.59060436331374
  H           2.52436823415004      0.82425460027728     -3.67588391195369
  H          -2.52252028592192      1.72006154526618     -4.51670124929713
  H          -1.48438165418458      0.29821986832451     -4.75282572320297
  H          -4.54121626003093      1.24178212319936     -0.00286064793167
  H          -2.79094753183432      1.48530526842323     -0.03234841737314
  H          -3.52964720821450      0.52273892216775      1.25723493845321
  H          -4.46827963851497     -2.43529016137509     -0.83807530340507
  H          -5.54350686524901     -1.05308797568219     -0.57739546639074
  H          -4.58686841734225     -1.69524100543811      0.76379917370203
  H          -1.92293537307483     -2.11257092271351     -0.85495540046001
  H          -2.07778890728221     -1.46691933368022      0.78439687008497
  H          -1.23693101687336     -0.52971650681631     -0.46133569050793
  H          -4.95035191608255      1.14465790555507     -4.00757077243172
  H          -4.81884627889917      1.95235049015231     -2.43567355494576
  H          -5.84320161478151      0.51668155675245     -2.61831535406409
  H          -3.42575192070913     -1.44263834650506     -4.58344704286044
  H          -4.49009643402803     -2.19264899410063     -3.38871918130825
  H          -2.73339202954414     -2.38309523499099     -3.25124667794860
  H          -3.13770775504085      4.46815517790282     -3.68595319329024
  H          -2.68701970088915      5.60602113917177     -2.38573375010839
  H          -4.09814018647080      4.53159803758447     -2.18744648950993
  H           0.14127376145240      2.88580751368050      0.53160638528387
