48
Coordinates from ORCA-job goat_0_310 E -1253.940813597789
  O           2.72823078351963      3.53440616175892     -2.68493135340030
  C           1.45486043836116      3.00654918084844     -3.03986584541912
  H           1.56667116044509      2.65239091570215     -4.07148014279796
  C           1.11115742044063      1.80905341741004     -2.15931181433620
  H           1.08675297425670      2.13900975989744     -1.11002085441403
  O           2.07183303704231      0.77630998012862     -2.32922901483171
  C          -0.26528041098899      1.26689033455693     -2.53034746030326
  H          -0.24145484269508      0.89622394934085     -3.56505944710960
  C          -0.71030035388031      0.14842924953425     -1.60934838483095
  O          -1.89096677202663     -0.47718300102321     -2.07120194603525
  Si         -3.45914105064727      0.01071840690053     -1.75701050005674
  C          -4.40769593464883     -1.59546460086425     -1.43580117640085
  C          -3.83234825708689     -2.29097801013615     -0.19412426859635
  C          -5.89351283200429     -1.28804967561071     -1.19979176571618
  C          -4.27310003402991     -2.53214220582391     -2.64505376106032
  C          -3.51537175608871      1.12530944137893     -0.25398035459910
  C          -4.16085696747148      0.88708228535140     -3.25431833844196
  O          -1.21976346757428      2.31710100241960     -2.41877023804059
  C          -0.98677495776909      3.37096044170901     -3.33874758100580
  H          -0.93517117152034      2.96354056739687     -4.35831517505496
  O          -2.08962209875025      4.21705042005464     -3.33561728035704
  C          -2.29059603020396      4.97266103857812     -2.13871243587281
  C           0.34461789638510      4.05363853060000     -2.99447524252446
  H           0.28607318821265      4.46161084509645     -1.98148236193751
  O           0.60180686280971      5.15402695570600     -3.84951750669089
  H           2.65388064301085      3.94052764561636     -1.81133805852937
  H           2.94145489873218      1.19232648031517     -2.26664758174013
  H           0.07860889021658     -0.60582014910183     -1.57192602388385
  H          -0.84410172590598      0.55462645553353     -0.60008308675635
  H          -4.35450707495859     -3.23914627213964     -0.01506610570742
  H          -3.94784071047322     -1.67501862623059      0.70271149192032
  H          -2.76809532718286     -2.51297931270538     -0.31672395476398
  H          -6.35273936752407     -0.81471194918671     -2.07265301885562
  H          -6.03913367793401     -0.62582636585027     -0.34084432267148
  H          -6.44266927149841     -2.21632961576707     -0.99916035703444
  H          -4.81036457781181     -3.47004482556136     -2.45666930133325
  H          -3.22682852145080     -2.78027745253927     -2.84531872338538
  H          -4.69414551494848     -2.08528244972191     -3.55072992203685
  H          -2.99924361380625      2.06689594311347     -0.45275383603178
  H          -3.05500625584953      0.65567442244187      0.61950853791187
  H          -4.55608494197160      1.35314702968416     -0.00447584955695
  H          -3.62517177480669      1.82274480519199     -3.42743901823620
  H          -5.22060889260326      1.11732731109079     -3.10952292342937
  H          -4.06943762230118      0.26586117216990     -4.14993383582948
  H          -1.57121463760708      5.79299294859099     -2.06551646842530
  H          -2.22119368504348      4.33868754947706     -1.25183427556611
  H          -3.29672815037227      5.38555603098085     -2.20599381126567
  H           0.71895408800347      4.82250383368705     -4.74892530495890
