48
Coordinates from ORCA-job goat_0_144 E -1253.938505685315
  O           1.55657729172214      2.67484328881240     -0.94437493899971
  C           1.55160322362741      2.33727703215572     -2.32543465254787
  H           2.57986962301172      2.07785179795241     -2.59415906222909
  C           0.66723065004202      1.11048969759387     -2.59497244959515
  H           0.88828514682224      0.34489394603494     -1.84514896861111
  O           0.94191903035043      0.60167820811393     -3.91024819708677
  C          -0.82834487649046      1.41828659098542     -2.56019421198248
  H          -1.30680077005851      0.63494794703476     -3.15053101985429
  C          -1.41512812431534      1.34839998018687     -1.15056622224456
  O          -2.81611077863879      1.53688038280441     -1.13349096056170
  Si         -4.02085713065684      0.60957516206978     -1.82368092940669
  C          -3.80893985315805     -1.23212711065205     -1.42692014071047
  C          -2.64080167712260     -1.86122104905975     -2.20128724157659
  C          -3.58506982852617     -1.42214153386507      0.08035548510565
  C          -5.10405399405790     -1.95642206741012     -1.83345372082115
  C          -5.57331232735707      1.29057911286044     -1.03466820917375
  C          -4.12098365335339      0.88239731230126     -3.67557614651368
  O          -1.16783505982762      2.62163870093137     -3.26331246735041
  C          -0.39164868039169      3.77137941827177     -3.01665556644057
  H          -0.73923242400145      4.49812388559355     -3.75845327171720
  O          -0.56214881225637      4.28995694669740     -1.71742706939972
  C          -1.87916248340614      4.78374136127917     -1.46251624451730
  C           1.10489755679969      3.51333134280157     -3.19939953673217
  H           1.64524880854508      4.41291369981138     -2.89739193788686
  O           1.39508150444062      3.28616373270975     -4.56931152616553
  H           0.82526068878518      3.29078644497094     -0.78806152920589
  H           1.84197097447536      0.25279484733983     -3.91558642586225
  H          -1.15011916728054      0.37080022962669     -0.73422149164802
  H          -0.98525615648639      2.10820378629189     -0.49979145286562
  H          -2.59737797747993     -2.93768766151086     -1.99465029896667
  H          -1.67471188701922     -1.43797260662206     -1.91506691407721
  H          -2.75692047272730     -1.73719548265863     -3.28175843243272
  H          -4.41438184878784     -1.01300783905364      0.66502552134610
  H          -2.66501772586357     -0.93831784674529      0.41967833012544
  H          -3.50746142257241     -2.49030804752144      0.31765023525160
  H          -5.00995076774871     -3.02897283772859     -1.62468528973037
  H          -5.31374413403035     -1.84482033826327     -2.90177640850699
  H          -5.96909316296725     -1.58435999844931     -1.27756510512411
  H          -6.46841755799487      0.84954949824927     -1.48124189021735
  H          -5.61835095678034      2.37315759685453     -1.18767075906883
  H          -5.59509903586942      1.09801344289483      0.04125075595886
  H          -4.16992810516790      1.95409517726276     -3.88900444310379
  H          -5.03337996129254      0.41925687038680     -4.06422213196736
  H          -3.27316859714183      0.46619647351274     -4.22339816736839
  H          -2.14326499199025      5.54128879278923     -2.20803813054407
  H          -1.85722788170400      5.23817452128659     -0.47252392467889
  H          -2.60870366190020      3.97236797862326     -1.48081487417715
  H           1.15189144780139      2.36709921244848     -4.76255796611708
