48
Coordinates from ORCA-job goat_0_1080 E -1253.937492604310
  O           1.87085310408617      2.96151650351498     -0.49061091697174
  C           1.36591984917517      3.01486982135109     -1.82143954792929
  H           2.19642381845965      2.96984723497359     -2.53730052419439
  C           0.44507929662831      1.84225451304986     -2.11047628931217
  H          -0.23940522238413      1.70401195086651     -1.27442047983189
  O           1.26604629227155      0.68614282433295     -2.26863786395810
  C          -0.35043649433395      2.11750686150277     -3.38607783414357
  H           0.35860243621549      2.25257077194743     -4.21457548721574
  C          -1.26731483217508      0.96828523113945     -3.75905425726330
  O          -2.01757233011399      0.55360870867982     -2.63092064463063
  Si         -3.43806051172290     -0.31081210547795     -2.78988193932597
  C          -3.83095263682387     -0.92105724688338     -1.04946208915728
  C          -5.19614921962261     -1.62430161866486     -1.05494220762313
  C          -2.75012982986559     -1.91052725825025     -0.59103907342078
  C          -3.87507902200725      0.26517109751727     -0.07575928949893
  C          -4.77777283942512      0.81524283419758     -3.45478683077381
  C          -3.16781291052608     -1.72736758195503     -3.98405745326469
  O          -1.14487949354497      3.31378005417510     -3.27725062077435
  C          -0.84609860896383      4.20042297294008     -2.21795709055319
  H          -1.29016974582320      5.15418411887191     -2.52443117354832
  O          -1.39206072270657      3.79187717294354     -0.99284281999228
  C          -2.81725110477953      3.83416390937638     -0.97889946839088
  C           0.65915623447952      4.36631920776104     -2.03061689264037
  H           0.83136422034232      4.98462696642789     -1.14934908384558
  O           1.19714241201875      5.08821511518394     -3.13340061902920
  H           2.28309468372449      2.09555924156347     -0.37932414846051
  H           0.73478287160373     -0.08930066438673     -2.05527920601501
  H          -1.91915734508365      1.30343354160821     -4.57454406334740
  H          -0.65930087682455      0.13769889354429     -4.13352766889354
  H          -5.21129202290313     -2.47771433070807     -1.74012867301495
  H          -6.00005018524451     -0.94199045502652     -1.34692058800431
  H          -5.42804339524101     -2.00094606526361     -0.05133071019772
  H          -2.71051353003083     -2.79294762711668     -1.23636896060379
  H          -2.96251269841102     -2.25338105451820      0.42904961383655
  H          -1.75842776099439     -1.44812994807858     -0.58874847688771
  H          -4.63659859559110      0.99646353756813     -0.36240394322397
  H          -2.91260064917834      0.78158481152272     -0.02975861794539
  H          -4.11673857423973     -0.08839935063027      0.93421228310646
  H          -5.69556825717387      0.25145496086498     -3.64593102636913
  H          -4.46187390203502      1.26841147642235     -4.39945238799190
  H          -5.00978593779026      1.62009482627384     -2.75241847234184
  H          -4.05202913718242     -2.37031252215890     -4.02362748027717
  H          -2.31208141393446     -2.34080957176831     -3.68939090636726
  H          -2.98488500606897     -1.34918092010746     -4.99448458432533
  H          -3.13186993425449      3.58052868711340      0.03294360632749
  H          -3.23826524643401      3.11131205453295     -1.68131085960363
  H          -3.17179514460301      4.84014940067904     -1.23188555060343
  H           0.94389991903296      4.63844901854802     -3.94902868150607
