48
Coordinates from ORCA-job goat_0_286 E -1253.934977475833
  O           2.01812473882130      2.97391045566288     -3.87402790329805
  C           0.67629419225763      3.27740618661492     -3.51162131912860
  H           0.11782721047537      3.61851254829383     -4.39295936156874
  C          -0.04510767205744      2.08480072215851     -2.91537517779036
  H           0.42798033083828      1.80825772427789     -1.96490918125787
  O           0.05390853623644      1.00367915792052     -3.83535824747472
  C          -1.51028080005682      2.47520784417967     -2.69539414065036
  H          -2.01402097785449      2.37950063963806     -3.66195235877355
  C          -2.20596313016918      1.56929034858209     -1.68585330472561
  O          -2.08561974763026      0.21856316666136     -2.12694967487741
  Si         -3.37766323568171     -0.68689804496137     -2.70138197840527
  C          -4.28019871399545     -1.47903078959055     -1.24304209747984
  C          -3.33984057492666     -2.46219433403136     -0.53131581845161
  C          -4.72474716548339     -0.39906913413460     -0.24611010790312
  C          -5.51469575458066     -2.23473220100028     -1.75636048814279
  C          -4.52546079699199      0.40802229923813     -3.69396021049056
  C          -2.58468117221413     -1.97598957265005     -3.79545788836101
  O          -1.66750508889475      3.85072973621116     -2.31616604853344
  C          -0.58579763450757      4.45218724133943     -1.66382017390136
  H          -0.87124807632746      5.50104774865009     -1.52865528741832
  O          -0.41978457952134      3.83311617647524     -0.40344037337166
  C           0.21886735333984      4.67618815606360      0.54879720322451
  C           0.71479602524223      4.40124639377429     -2.48908438384632
  H           1.54814066055318      4.20287213863856     -1.80647424271505
  O           0.88159849512604      5.67403784298565     -3.10584311166713
  H           1.98680673001836      2.24165244280952     -4.50207905866435
  H          -0.47506714366164      0.28559378970969     -3.45976733892673
  H          -1.72674359264412      1.66258643156618     -0.70923460252734
  H          -3.25144646517764      1.87592800718267     -1.58708334602079
  H          -3.84109060898828     -2.89771217927407      0.34175647786096
  H          -2.43037496435706     -1.96479134552014     -0.18031100966102
  H          -3.04342251858422     -3.28466932586175     -1.18867880391566
  H          -5.37969367213966      0.34285700454086     -0.71320975773704
  H          -3.86826359300064      0.12716730389116      0.18494103668944
  H          -5.28066224428425     -0.85869720502808      0.58027316210021
  H          -6.02459805016237     -2.73102129448461     -0.92169167433856
  H          -5.24461759486750     -3.00580852570950     -2.48476084179707
  H          -6.23328311034567     -1.55929673077840     -2.22979481434367
  H          -5.03329477946450      1.15240310766375     -3.07549898930477
  H          -5.29187317327319     -0.20465213054435     -4.17768821063189
  H          -3.97019437058629      0.93225900599623     -4.47715718938823
  H          -1.79986967512710     -2.51844067213242     -3.26147979872532
  H          -2.13704637848569     -1.50323011076917     -4.67493518868426
  H          -3.32537554970532     -2.70243272554950     -4.14164778730122
  H           0.25495530365253      4.12353741692805      1.48712914379655
  H          -0.35272788238999      5.60079152470054      0.68960366585156
  H           1.24045129832513      4.93053144839563      0.24583319732503
  H           1.70033961325209      5.64736231127018     -3.61565259464721
