48
Coordinates from ORCA-job goat_0_11 E -1253.938724812379
  O           2.52196077494494      3.05155586282674     -2.55439391847574
  C           1.16391491258577      3.18787503234139     -2.95426476757597
  H           1.08290923730582      3.09948805570195     -4.04544335768540
  C           0.26468637514189      2.15086029500497     -2.31212715750646
  H           0.23634701235631      2.31661386089059     -1.22742288325010
  O           0.80612205275680      0.86361079703998     -2.58655719179970
  C          -1.13797474854224      2.29055667363615     -2.91479929893929
  H          -1.13416574619743      1.73985882322623     -3.86023190061402
  C          -2.20880480241603      1.69471784210483     -2.00889346942338
  O          -1.88285061685508      0.32833931835434     -1.76645680674745
  Si         -2.79120973867563     -0.95349537268901     -2.35772338124072
  C          -4.20552416955900     -1.31624133011317     -1.15902612205241
  C          -5.11679207752551     -2.39860568157199     -1.75616101275607
  C          -3.63339803184235     -1.81064145084705      0.17706837868085
  C          -5.02563270621930     -0.04159606052489     -0.91285547179669
  C          -3.44297917350372     -0.53041208501556     -4.06045191350508
  C          -1.58346439975256     -2.37484841368478     -2.44417703371156
  O          -1.46280750095078      3.64327548694586     -3.26361273436546
  C          -0.83681038987586      4.65968264273156     -2.50956232442439
  H          -1.14665605171577      5.58908872162161     -2.99819523543965
  O          -1.24883220884505      4.65598450288632     -1.16731290924097
  C          -2.60800703423864      5.05661931773921     -1.00338760429871
  C           0.69689603352487      4.56984342183322     -2.53215772385408
  H           1.05947845346561      4.75605121304839     -1.51595098717317
  O           1.17281143395637      5.57997193864637     -3.41585666505755
  H           2.80106860860086      2.15827344803960     -2.79015107039889
  H           0.18063164055441      0.22560363124898     -2.21511671581465
  H          -2.22842226378234      2.22108953927620     -1.05196221735149
  H          -3.18832909539250      1.80368574160531     -2.48377224876116
  H          -5.92041292682560     -2.64351534940475     -1.05106716342196
  H          -4.56744623831348     -3.32200420080909     -1.96560149988051
  H          -5.58255282551807     -2.06377441111243     -2.68759691261251
  H          -2.94985053151558     -1.07782335044397      0.61723653746723
  H          -3.08931743030074     -2.75204573387480      0.05863134514913
  H          -4.44552369790280     -1.98294500356775      0.89396460041483
  H          -4.42250022408782      0.73891407310785     -0.44025503129806
  H          -5.86683868643737     -0.26091592862804     -0.24395314149830
  H          -5.43859780384352      0.36380088184123     -1.84174469061113
  H          -4.21099327857410      0.24674621234603     -4.03353225875597
  H          -3.88404440358580     -1.42088358309819     -4.51794923333285
  H          -2.62956587252594     -0.18798844688315     -4.70676811018535
  H          -0.81934712818770     -2.17693653748393     -3.20196549977531
  H          -2.09341111394151     -3.30491210238821     -2.71101798681329
  H          -1.08238368700241     -2.52473448754296     -1.48408467736915
  H          -2.81048785602113      5.05636612066675      0.06725781599189
  H          -3.29170866111567      4.36484580079682     -1.50217053054772
  H          -2.75778363190389      6.06497834892271     -1.40504704891503
  H           2.13643021829947      5.52860192525258     -3.42123076942654
