48
Coordinates from ORCA-job goat_0_1094 E -1253.931754693536
  O           0.84263653857991      2.85101461124515     -1.32068200307226
  C           0.64595263323538      3.05196094558752     -2.71608563958550
  H           1.59371693216318      2.80397597568930     -3.20015861523415
  C          -0.44030326160248      2.12136668510211     -3.26595772096733
  H          -0.25434933488165      1.11805239083153     -2.87956371015023
  O          -0.36388529453124      2.01439605700357     -4.68414596009765
  C          -1.83343333017595      2.60511521908254     -2.79750407712901
  H          -2.41414305222493      2.88778933022307     -3.68481260624887
  C          -2.59071470925939      1.54118176748150     -2.02023289052085
  O          -2.79466577842572      0.43008260023945     -2.87128912489890
  Si         -2.73507807198520     -1.16065365102825     -2.35603317570897
  C          -4.19755469747038     -1.53469672053870     -1.21514316571835
  C          -4.31488710256469     -3.05605805239313     -1.03415051523751
  C          -3.99914601611209     -0.88393086427691      0.16172781380032
  C          -5.48972249842009     -0.99780371230658     -1.84663306095007
  C          -2.83543716445007     -2.15091812169118     -3.93551573357595
  C          -1.11046024331799     -1.47739705482249     -1.48016953925286
  O          -1.73080731190778      3.73488621556579     -1.92575630212355
  C          -1.14319985676682      4.84478588384326     -2.58984543905227
  H          -1.71926299760539      5.06265978135950     -3.49678371259902
  O          -1.26966322866204      5.97309972462603     -1.78528145784742
  C          -0.69137659050828      5.87565493466315     -0.48152829882378
  C           0.30668713009112      4.51757044520439     -3.01270806630083
  H           1.00858685330712      5.16201077011897     -2.47870495542505
  O           0.37667067090744      4.77917437703443     -4.41919780261051
  H          -0.00212906906464      3.02569203583980     -0.88474961263178
  H          -0.28847296957874      2.91434673442993     -5.03446210664046
  H          -2.00883067155166      1.27116984911736     -1.13056444032255
  H          -3.55221082069159      1.94674097167336     -1.68934743573979
  H          -4.51717029065136     -3.56136057850942     -1.98280268583522
  H          -5.13983764327536     -3.28904188676088     -0.34985735622909
  H          -3.40210156722734     -3.48636879150297     -0.60970309790973
  H          -3.92541428884659      0.20493589491421      0.09301267004780
  H          -3.09645961530456     -1.25343677404233      0.65657044866128
  H          -4.85295662208986     -1.11580395936167      0.81034192811406
  H          -5.67393834659589     -1.44019581327782     -2.83053925308512
  H          -5.45449319451498      0.08875141220509     -1.96725332153075
  H          -6.34913698578141     -1.23751893085484     -1.20841351022431
  H          -2.04708150260704     -1.83430150462334     -4.62466662884647
  H          -3.79979342167373     -2.01573165650568     -4.43267375083216
  H          -2.70199520151768     -3.21730635655563     -3.73382722889106
  H          -0.95513231721899     -0.79721072536502     -0.63878217424368
  H          -0.27364702207226     -1.35898267671892     -2.17472798184794
  H          -1.08617976415057     -2.50013666355609     -1.09177463137747
  H           0.37360341902062      5.63063689109908     -0.52733746064241
  H          -1.21052957162861      5.12832399989285      0.12264123867517
  H          -0.81082340903089      6.85720921839209     -0.02453361528490
  H           1.30640065864154      4.78884977222658     -4.67824423405288
