48
Coordinates from ORCA-job goat_0_335 E -1253.937219328996
  O           1.25874799689153      3.18547445299799     -0.66705040752598
  C           1.44165714708900      3.23436695731508     -2.07352244806981
  H           2.48769868398813      3.45349718411140     -2.31708648984789
  C           1.11417607980224      1.84879057552425     -2.62784085632230
  H           1.60182678355804      1.09301429581399     -2.00316986131796
  O           1.67242987273690      1.83117967170080     -3.94753155182998
  C          -0.38776089559393      1.56448677643043     -2.67389426015968
  H          -0.52831814866586      0.71904693823460     -3.35528278498212
  C          -0.95135082097193      1.14537529521666     -1.31570471602280
  O          -2.33365504810946      0.84400979511611     -1.37748787266839
  Si         -3.01536153906398     -0.45379489111717     -2.17314483054924
  C          -4.59533517773945     -0.83194509028370     -1.20968473564397
  C          -5.47807546872634      0.42358539450758     -1.15239362722433
  C          -5.36864738307207     -1.96397288473533     -1.90107015224450
  C          -4.23626646221859     -1.26250928485872      0.21941150861842
  C          -3.41791435108421      0.00979583488212     -3.94330968417184
  C          -1.82827743663460     -1.90309661995457     -2.15258133710599
  O          -1.11293377243895      2.62427622047127     -3.30220990217951
  C          -0.90575989846829      3.93426027313075     -2.81206461486030
  H          -1.38972895731857      4.57291138659916     -3.56029752041695
  O          -1.48357692505145      4.15550560965286     -1.55554758156000
  C          -2.90933449012282      4.13173820116962     -1.59163486439061
  C           0.57789580721585      4.30585584458164     -2.75234583170880
  H           0.66694305802239      5.24519533118235     -2.20094547370397
  O           1.05516183586244      4.55335438726964     -4.06994798296380
  H           1.42677974335709      4.06584251872124     -0.31186280790456
  H           1.39614712241217      1.01960800754358     -4.38897739686173
  H          -0.38048817116131      0.26964945819455     -0.98298173439981
  H          -0.82018418711932      1.93709221880021     -0.58282341664120
  H          -4.96349329305858      1.25230180956300     -0.65789121555859
  H          -6.39538392241270      0.21260924118962     -0.58887266711795
  H          -5.77270137984632      0.75656924416830     -2.15218350247282
  H          -6.27534405533662     -2.20194059998093     -1.33146884381130
  H          -4.77250582143798     -2.87922648139120     -1.97049643706624
  H          -5.67725796401421     -1.68410703667847     -2.91253783229286
  H          -5.14969577906458     -1.45323258186756      0.79618663733828
  H          -3.66705373490810     -0.48684134741971      0.73990015094848
  H          -3.64159047836173     -2.18087200069394      0.22640141266629
  H          -2.50861075102009      0.23370858115824     -4.50719415565603
  H          -4.06360253535150      0.89157362525385     -3.98104305854081
  H          -3.93326248356296     -0.81238279421299     -4.44876001558709
  H          -1.51102838590097     -2.14761351302826     -1.13520724801231
  H          -0.93472833979252     -1.69162610586456     -2.74723002985756
  H          -2.30951958180371     -2.78771175051723     -2.58009491592967
  H          -3.28480132152560      4.87214899770712     -2.30813079694015
  H          -3.25491920978857      4.38982141641986     -0.59036340523459
  H          -3.27675881128329      3.13872751699723     -1.85785889703577
  H           1.21359285109540      3.68807992097901     -4.47802194517953
