48
Coordinates from ORCA-job goat_0_132 E -1253.940535113457
  O           1.79786978036248      2.70819305901987     -1.29103856282351
  C           1.45075477584691      3.18167763004192     -2.58609190850970
  H           2.38604020651503      3.42539296165777     -3.09845250762417
  C           0.73169377713358      2.09506540513718     -3.39946306947123
  H           1.28127372545750      1.15471152668335     -3.29543181684071
  O           0.68546549892605      2.48395571100312     -4.78236207966239
  C          -0.71564626886658      1.87205122430903     -2.96833317394940
  H          -1.22577500809164      1.41551851916307     -3.81897432241397
  C          -0.85640328927401      0.89636979506663     -1.80103174367895
  O          -2.22640701941294      0.62674950337572     -1.55220183334863
  Si         -2.95630797839107     -0.79734131869454     -2.03184551425710
  C          -4.78853434810070     -0.53578053888839     -1.67162745454149
  C          -4.98806414379204     -0.22361525921874     -0.18147556233649
  C          -5.31959254797078      0.63667676867628     -2.50892966054315
  C          -5.56436941841194     -1.81127538469440     -2.03179742904719
  C          -2.63930320559635     -1.10164096757493     -3.85286206065624
  C          -2.24220640851612     -2.21923535255568     -1.04468547205607
  O          -1.43066376638943      3.10189933438967     -2.77026553632882
  C          -0.81046131539428      4.11143788883169     -2.00868289925772
  H          -1.46795412302272      4.98011606392779     -2.12046083262485
  O          -0.67997010205497      3.78017796065836     -0.64449104128668
  C          -1.92933112915745      3.63329192361891      0.03422138841909
  C           0.59147882446185      4.44817718930636     -2.51951939339915
  H           1.04659168128443      5.15676566366104     -1.82433078766941
  O           0.50785725247109      5.09015420720875     -3.78177885037527
  H           1.05665298586069      2.90011412583800     -0.69736110693120
  H           1.58809628552301      2.48359035101526     -5.12461501723144
  H          -0.30912658835000     -0.01568550895616     -2.06959676823131
  H          -0.41512781658967      1.28535531448888     -0.88455643318242
  H          -6.05327765896162     -0.06827067815499      0.02949649095302
  H          -4.45225334829169      0.68326634214284      0.11292564771481
  H          -4.64064963016819     -1.04386491631466      0.45377910415216
  H          -5.23140827975175      0.43925800444594     -3.58130911496420
  H          -4.78014063596608      1.56274826648815     -2.29000199801203
  H          -6.38079890174363      0.80514970244800     -2.28818377317421
  H          -5.45765503622598     -2.06485762290573     -3.09101501395127
  H          -6.63320656404741     -1.67002983973895     -1.83047428727884
  H          -5.22684908207108     -2.66953102343884     -1.44288145457228
  H          -3.11472241834748     -2.03549028774847     -4.16749193970826
  H          -1.56638623344530     -1.19332166935195     -4.04865407919322
  H          -3.03153357601547     -0.29174263515249     -4.47321226143250
  H          -1.16367589782460     -2.29655457267259     -1.21412503312320
  H          -2.69533486529987     -3.16778331172868     -1.34742844741868
  H          -2.40920186510901     -2.08530186907898      0.02740012665190
  H          -1.69755977309231      3.47578973864557      1.08708740519740
  H          -2.48577385855013      2.77833001386355     -0.35376253295825
  H          -2.52375118718974      4.54622284114927     -0.07814443908660
  H           0.36347849564187      4.39569572060701     -4.44381294993557
