48
Coordinates from ORCA-job goat_0_198 E -1253.940582549324
  O           0.16278370145200      4.70836614912592     -1.71323978280325
  C           1.11359126922659      3.72306404955152     -2.09680478977656
  H           2.09716588697982      4.09304249477453     -1.79284667199117
  C           0.85989888054461      2.39347277201876     -1.37001823229988
  H           0.68827735772040      2.59883334658040     -0.30904579689005
  O           2.00344008032779      1.53683403625357     -1.52391413209778
  C          -0.33392619275117      1.61844383350754     -1.92234195075094
  H          -0.18600540210990      0.57443476476817     -1.63863256078857
  C          -1.66792730904186      2.05067857928820     -1.31528036189671
  O          -2.71094610751126      1.21216326010765     -1.78330905191378
  Si         -3.38163504583353      0.00436878732164     -0.84452652782789
  C          -4.51732063389111     -0.93149300789794     -2.02335077461165
  C          -3.68997179881900     -1.54144453566026     -3.16403026416351
  C          -5.23412214748999     -2.05347097325512     -1.25795711348562
  C          -5.56091293912078      0.02783239055856     -2.61341408509162
  C          -2.03327218495124     -1.09571975627177     -0.15133349446799
  C          -4.32530198805064      0.77754807155611      0.57578882355157
  O          -0.35014124251051      1.57567650213934     -3.35775817494680
  C          -0.14731751655450      2.78238644955432     -4.05568464538684
  H          -0.06000770027116      2.47922217715507     -5.10438175269032
  O          -1.20895169399795      3.69752504638120     -3.90667911785836
  C          -2.44043131408620      3.24882071600713     -4.47713953857239
  C           1.12697754923468      3.50340577643132     -3.61276482195346
  H           1.16380934885554      4.47131459160850     -4.11703565484661
  O           2.26902529033199      2.76939712192922     -4.02449140548904
  H          -0.59502779787293      4.63744457152727     -2.31271878715701
  H           2.73998048603873      1.92810696649778     -1.03789410656629
  H          -1.56351015621002      1.99330522923102     -0.22463226519715
  H          -1.92077587650805      3.07939999009874     -1.56767654672690
  H          -2.95642766781946     -2.26208538244023     -2.79070333409885
  H          -3.15198277393840     -0.77206110399749     -3.72545913834242
  H          -4.34862474030305     -2.06969698387792     -3.86434127625098
  H          -4.52516203903888     -2.76626958045916     -0.82559957746562
  H          -5.89200282954077     -2.60972808028930     -1.93664061106232
  H          -5.85292106419396     -1.65770712215050     -0.44691528636257
  H          -6.21969711148037     -0.51340392222506     -3.30365519777600
  H          -5.08742769852952      0.84161246173549     -3.17010411511325
  H          -6.18873671535296      0.47059466208938     -1.83441559406946
  H          -1.44670061375554     -1.56704716640758     -0.94401502984455
  H          -2.47057378385715     -1.88509720720484      0.46732309656009
  H          -1.35152532971707     -0.51864482661409      0.48134503421760
  H          -4.77024234342371      0.00620326199221      1.21123884619772
  H          -5.12531976227591      1.42970037297093      0.21551952838031
  H          -3.65306328090800      1.37538185924469      1.19927180358575
  H          -2.81925067084420      2.37364442069268     -3.94653989884717
  H          -2.29496859436631      3.00908318024848     -5.53581510249672
  H          -3.14780716845655      4.07221634364336     -4.38361697953042
  H           2.38281938467159      2.04292541216049     -3.39161358298431
