48
Coordinates from ORCA-job goat_0_252 E -1253.939794796324
  O           1.69792501064940      1.77165883452034     -1.43669376868156
  C           1.60334431805271      2.48702380472826     -2.66201302084146
  H           2.58980767105411      2.44556955457490     -3.13330485505283
  C           0.59371176622958      1.82623101242455     -3.61230890079099
  H           0.77553276488175      0.74742874083186     -3.62541567571369
  O           0.75712254970301      2.36503168157179     -4.93471251740676
  C          -0.86074412895102      2.07687907092553     -3.22215802903840
  H          -1.45635798103674      1.92713453362507     -4.12575551612143
  C          -1.39139508034849      1.08455609978328     -2.18975135710564
  O          -2.78576885531510      1.27892118546587     -2.01565290841010
  Si         -3.94011963627182      0.15572186991023     -2.46075007007342
  C          -4.14792841946585     -1.11985919168011     -1.08036704178810
  C          -2.79193853604674     -1.75456365552047     -0.74008760687136
  C          -4.70801048773365     -0.43276116003519      0.17305911863309
  C          -5.11997747084386     -2.21675633987866     -1.53833824347735
  C          -5.50367044232280      1.14923186427784     -2.70014592196541
  C          -3.43675210519787     -0.67481364805116     -4.06319194437768
  O          -1.11298425547962      3.44754888099179     -2.87521826493330
  C          -0.22023273807930      4.07736788506433     -1.98605827927212
  H          -0.52753522914169      5.12851290717420     -1.99033829587745
  O          -0.28346289498074      3.56371693384438     -0.67457209662781
  C          -1.53924984824612      3.78396236226480     -0.02917966986748
  C           1.23576354499539      3.95724151031568     -2.43897979953862
  H           1.87189438927427      4.37305397060126     -1.65479809342641
  O           1.44680826525468      4.73217144583403     -3.60843973996053
  H           1.04118192781875      2.13910417225670     -0.82653712453571
  H           1.61376017903214      2.07552605898421     -5.27293417567230
  H          -1.16816229492455      0.07903775230834     -2.56240017546307
  H          -0.90284453598960      1.19367091683195     -1.22232595398164
  H          -2.91993621181427     -2.52046882148761      0.03485993310132
  H          -2.08612963740507     -1.01222025871368     -0.35675475991050
  H          -2.33751035817068     -2.23780874211289     -1.61057778339800
  H          -5.70397261487422     -0.01767993827003     -0.00635305766678
  H          -4.05802881294703      0.38142134123743      0.50910989938735
  H          -4.79090957806494     -1.15497532996209      0.99464496086295
  H          -5.27737745303555     -2.94200915620463     -0.73053002927741
  H          -4.73224869820957     -2.76253897534950     -2.40349288603007
  H          -6.09772554245521     -1.80551216914999     -1.80860840191981
  H          -5.40292113943472      1.80890387746800     -3.56696794805236
  H          -5.71524724705037      1.76729590618226     -1.82350706283335
  H          -6.36238755364709      0.49330868306379     -2.86965783245552
  H          -4.27061100589056     -1.26777279562077     -4.45030740953773
  H          -2.58044572378157     -1.34286090580444     -3.93993165342573
  H          -3.18022542947681      0.07652350030890     -4.81608253308289
  H          -1.77421934336355      4.85363363430278     -0.02566822534231
  H          -1.43131077655341      3.43063276859185      0.99579302315228
  H          -2.33692553418501      3.23104345065827     -0.52835210279793
  H           1.10624521378961      4.21611487691658     -4.35609620253392
