48
Coordinates from ORCA-job goat_0_269 E -1253.936278122602
  O           2.80853467104379      2.71678896946695     -2.33254028598850
  C           1.46667581525769      2.42390213295024     -2.70610809236518
  H           1.51249685480990      1.46659112094958     -3.23591599292227
  C           0.57886002047933      2.25943177939149     -1.48135054495008
  H           0.45021644898562      3.24068577815279     -1.00175604167430
  O           1.14539543643171      1.34476440254238     -0.55233602521658
  C          -0.77403421699178      1.69451759454575     -1.91304149111495
  H          -0.66377136056431      0.60859185571455     -1.97068064835004
  C          -1.85653055189831      2.02835515410461     -0.89644655578228
  O          -3.10417963816826      1.45796673177902     -1.24131964841636
  Si         -3.65026389626715     -0.05254859622182     -0.78050630113297
  C          -4.08862376934572     -0.99225909169847     -2.36059580457779
  C          -4.72493458695966     -2.34220152257146     -1.99855578458674
  C          -5.08375407022107     -0.16859419073923     -3.19117739001524
  C          -2.82260465092038     -1.23571976901287     -3.19383627988600
  C          -2.33735503468159     -0.94767374539976      0.21083618769159
  C          -5.16898367892544      0.20607476294377      0.28204642918815
  O          -1.12988627363998      2.09163812911176     -3.24477213487557
  C          -0.67082994525481      3.35509165660513     -3.67408315218109
  H          -0.99684808456663      3.42076573789700     -4.71797604086772
  O          -1.22019780301126      4.41120948995125     -2.93030809933420
  C          -2.62537816705086      4.55873041199564     -3.13381145249718
  C           0.86680186978790      3.48404877848281     -3.62079802213210
  H           1.09867742739117      4.47266034509359     -3.21623153440537
  O           1.44122197568544      3.45707229974199     -4.91935886830955
  H           2.84007825147872      3.62094284454799     -1.99375886432046
  H           2.07073354491795      1.60186779425314     -0.44442125933063
  H          -1.51136892290249      1.67798604619362      0.08279682591482
  H          -1.98331087751526      3.11111849740235     -0.83698529845963
  H          -5.64774725225427     -2.21411790673128     -1.42523934070005
  H          -4.04493551008705     -2.96592399382402     -1.41005410855119
  H          -4.97543656587646     -2.89582613011442     -2.91171825318310
  H          -6.01517578502569      0.01138983688475     -2.64596539672291
  H          -5.33768538816874     -0.70497972385235     -4.11387668369433
  H          -4.66225354562043      0.80087538893730     -3.47227876587036
  H          -3.07619433174112     -1.78363021732820     -4.10986977937698
  H          -2.08514979603927     -1.83027799600183     -2.64605457100930
  H          -2.34996133027931     -0.29505484092219     -3.48910894266334
  H          -2.12493782278491     -0.41751872045938      1.14377004311628
  H          -1.40002065100078     -1.06068771798315     -0.33922791908660
  H          -2.69820208282401     -1.94702533603519      0.47204968201920
  H          -5.59077025878547     -0.74910733296681      0.60767872762500
  H          -5.94457532073578      0.75461554098435     -0.25952707053375
  H          -4.90582811373911      0.78192823462148      1.17461213415262
  H          -3.17196220365134      3.67797066893555     -2.78769183426115
  H          -2.83908352393983      4.72456664914202     -4.19573317826852
  H          -2.93737278666217      5.43034858472233     -2.55897689048603
  H           1.31828548183218      2.57322961381716     -5.28764568160660
