48
Coordinates from ORCA-job goat_0_1031 E -1253.933233009786
  O           0.70548357823518      4.52455085223309     -1.67620365590015
  C           0.92571726913727      3.35168559066113     -2.45322564099039
  H           2.00804601108490      3.19702627910632     -2.46764774863120
  C           0.27410638890595      2.12531090501867     -1.81824408908685
  H          -0.63958065509388      2.44680381974472     -1.31113007330456
  O           1.17899895551665      1.55658210330164     -0.87902915216746
  C          -0.11656122881031      1.12018383007108     -2.89730556580125
  H           0.75659332712314      0.89014500342944     -3.51529658878328
  C          -0.62029157077788     -0.19998088340572     -2.32593320665976
  O          -1.22594397780799     -0.08551677575235     -1.04915907224293
  Si         -2.81829125230660      0.07605453747241     -0.57481297808061
  C          -4.01245400978226     -0.90760965204664     -1.66816116866401
  C          -3.49188041207687     -2.33422958576488     -1.89588175789538
  C          -5.35897072177601     -0.99163401875727     -0.92678984637769
  C          -4.24856214593788     -0.21319345790880     -3.01751575631275
  C          -2.81669518359298     -0.59271097966466      1.17197924012618
  C          -3.28822911069209      1.88545888123302     -0.53781873280233
  O          -1.13398415646747      1.68713115444428     -3.74165933538029
  C          -0.97100132279855      3.04937867352353     -4.08690053649729
  H          -1.28320651497429      3.13836527223709     -5.13283416718402
  O          -1.77054763233893      3.88216591612156     -3.27941845925082
  C          -3.13796748531571      3.90354498891075     -3.68425043482735
  C           0.45835838842158      3.54292355288138     -3.91079735563435
  H           0.47325029907115      4.61312893871735     -4.13652164840234
  O           1.25987499058698      2.82333066587305     -4.83913440254195
  H          -0.24417587970002      4.70223645223186     -1.69590409141597
  H           0.66557744826767      0.93061185238546     -0.35086831738164
  H          -1.29064071735183     -0.65800142864131     -3.05627727880431
  H           0.23906229793429     -0.86389209447335     -2.20427698467643
  H          -2.55850696500381     -2.34861338794114     -2.46403513544589
  H          -4.23137030844006     -2.91604361299183     -2.45977916986466
  H          -3.31539279907914     -2.85342526200351     -0.94888595200519
  H          -6.09128051734721     -1.51721663535612     -1.55145608793748
  H          -5.76543577249429      0.00007630230056     -0.70488189259644
  H          -5.26998508943167     -1.54039299147723      0.01464938507593
  H          -4.95741270313913     -0.79747858391044     -3.61730668472209
  H          -3.33072499949298     -0.10428259793512     -3.59966107269639
  H          -4.67417059131265      0.78506679222260     -2.88086000433985
  H          -3.76483566833257     -0.38085358633142      1.67384968547475
  H          -2.01669726431224     -0.11754898121465      1.74790428355344
  H          -2.65305419566275     -1.67375005247482      1.18955928761556
  H          -2.67401901524903      2.41536908534520      0.19683545112070
  H          -4.33732334785924      2.00627250980093     -0.25152421666646
  H          -3.13985223051536      2.35975514215298     -1.50786921161687
  H          -3.23037731889976      4.33768748623045     -4.68548330856696
  H          -3.67480298109787      4.52346073914753     -2.96670819428941
  H          -3.56498623863003      2.89689167806669     -3.68436409421287
  H           2.15197302961714      3.18775556318632     -4.80681426230813
