48
Coordinates from ORCA-job goat_0_1103 E -1253.932087348553
  O           2.05853247638357      1.02064740505530     -1.53886208778338
  C           1.23740642437551      1.82370997963366     -2.38217070990908
  H           1.89840579546278      2.60431879464762     -2.77290214261638
  C           0.63657776300642      1.03531329850941     -3.53675086871469
  H           0.18219444470343      0.12898831950783     -3.12840628990341
  O           1.63191902201054      0.57402302241504     -4.44458272698163
  C          -0.45576911942256      1.86713795088548     -4.24550663299690
  H          -0.17139370360398      1.94451493176145     -5.29719345048102
  C          -1.82186696539697      1.19613368298939     -4.22214223851143
  O          -2.15594118811520      0.72253481374065     -2.93026690700780
  Si         -3.71060428005153      0.23705684782811     -2.56176981542799
  C          -3.63485152606370     -0.35024792642186     -0.77018028189937
  C          -3.41207647270408      0.84149768144109      0.17080629084661
  C          -4.96304323506655     -1.03396901706450     -0.41181572243869
  C          -2.48547290754861     -1.35337677758041     -0.59764573017023
  C          -4.89684085876346      1.66962808898576     -2.77343581870459
  C          -4.20535694852460     -1.15069234232849     -3.71952209934945
  O          -0.47142643609562      3.23646581385771     -3.81483673725016
  C          -0.59413965954099      3.51702874272239     -2.44868692433878
  H          -0.09651415007403      4.48440598384019     -2.29701537772235
  O          -1.96615877303688      3.65681265757179     -2.15033082205768
  C          -2.21252611367514      4.34583430456546     -0.93109280343389
  C           0.12173937881220      2.47778549484137     -1.57612630243046
  H          -0.59514558882122      1.70979667023051     -1.26720819976030
  O           0.65555447382298      3.14658790165773     -0.43884731305396
  H           1.56050390234459      0.22984953996484     -1.29364272159707
  H           2.08981167550567      1.34254563798110     -4.80764554527772
  H          -2.56407639910228      1.91416694259870     -4.58831114883774
  H          -1.78305679281970      0.35555861905026     -4.92667076477404
  H          -2.47796243690281      1.36251141487641     -0.05309364328176
  H          -3.36070581271740      0.49438428300951      1.21024738229085
  H          -4.22672392429165      1.56830445550788      0.10291464664520
  H          -5.13963677095711     -1.92100489039707     -1.02697430772094
  H          -5.81492972542622     -0.35852728272036     -0.53971974282974
  H          -4.94836365827186     -1.35365723655751      0.63719643885301
  H          -2.60353026015017     -2.22073241535386     -1.25452933725525
  H          -2.45911711561559     -1.72024592444013      0.43591837243833
  H          -1.51805751433401     -0.89283217423090     -0.81649979347167
  H          -4.97626542409588      1.95774911886563     -3.82590123801541
  H          -4.56427240166799      2.54107266283370     -2.20511967604811
  H          -5.89724423447148      1.39000824285756     -2.42933085580269
  H          -4.13123709173414     -0.82382110952954     -4.76133095807301
  H          -5.24062998496663     -1.45417378416744     -3.53940227961162
  H          -3.56431694004195     -2.02745366264631     -3.59161625592202
  H          -1.87722624062555      3.76984415476654     -0.06397013353025
  H          -3.29075654379180      4.49447116442495     -0.86758956784101
  H          -1.70975705094514      5.32092710604542     -0.92557961608083
  H           1.30217889300699      2.54169881396799     -0.05070754215936
