48
Coordinates from ORCA-job goat_0_1106 E -1253.935279405639
  O          -1.04913327023691      3.80606614220158     -0.70209659593192
  C           0.14340426825186      3.17457385860206     -1.14853831723811
  H           0.81474210815941      2.98330854922306     -0.30452056529358
  C          -0.24584410624541      1.83921661344474     -1.76820675946127
  H          -0.81646715888829      1.24444476173371     -1.05070005178201
  O           1.00361842349089      1.19726453326740     -2.04985059959559
  C          -1.08785755562607      2.04525739295351     -3.04115714231086
  H          -0.76550458745000      1.30144148065286     -3.78431118631344
  C          -2.57661538891616      1.85616746044924     -2.79145020653591
  O          -2.80677737452227      0.49624703759163     -2.46230340621194
  Si         -3.95495063908764      0.05760269320175     -1.32777387737152
  C          -3.93142098368780     -1.82753744027549     -1.32599656144886
  C          -4.32979382110312     -2.35611914124835     -2.71132690603805
  C          -2.52290384674712     -2.33040010335824     -0.97796380075824
  C          -4.92868745785020     -2.34571427568855     -0.27917660287267
  C          -3.48568053100445      0.75770004351453      0.34485436334019
  C          -5.61884023508089      0.74449033203504     -1.84063897580185
  O          -0.93304785683466      3.35237098808113     -3.58680190612342
  C           0.42440493415236      3.76110778614204     -3.59943666301285
  H           1.03058354347633      2.96529179647330     -4.06098804023835
  O           0.52915236735276      4.93422893027070     -4.33620500877560
  C           0.38461054041333      4.73070314288111     -5.74192292773744
  C           0.91699008735629      4.02717855096008     -2.17306594289449
  H           0.74859003438979      5.08214950526450     -1.94407699412303
  O           2.32042606126226      3.81241569679230     -2.08474302794841
  H          -0.79921731154570      4.57686058796731     -0.18014927311163
  H           0.82630427692434      0.36572883719633     -2.50387729124046
  H          -2.89827975046457      2.53060820037517     -1.99175555328932
  H          -3.12350861737176      2.11926823978448     -3.70268138240552
  H          -4.30489781411821     -3.45273791927342     -2.71625530227855
  H          -3.64555087756740     -2.00204213214619     -3.48770224070425
  H          -5.34251954568922     -2.04624067582823     -2.98558073832418
  H          -2.50509160061425     -3.42717704774995     -0.98034889047742
  H          -2.20780997788183     -1.99619004814992      0.01500353719168
  H          -1.78183112030547     -1.98168553268191     -1.70276768482859
  H          -4.92850583539352     -3.44239635503885     -0.27187930595434
  H          -5.94980008785330     -2.01642742568985     -0.49483136027474
  H          -4.66983221032769     -2.00759122441299      0.72869910433572
  H          -2.52229616994050      0.37092833370569      0.68741255562931
  H          -4.24350443973954      0.49707540729971      1.08970236077429
  H          -3.41950017535136      1.84887264942902      0.30636361799124
  H          -5.90111309692443      0.40375537568567     -2.84036960692850
  H          -5.59225918601814      1.83857461666603     -1.84818197120765
  H          -6.39895741980127      0.43488702299703     -1.13908323206798
  H          -0.62185748547314      4.38266383155618     -5.98770870359644
  H           1.11996817028307      4.00145535138354     -6.09953920625493
  H           0.56412676502441      5.69337320431739     -6.21979998722382
  H           2.46076595512527      2.86156036744236     -2.19412174327404
