48
Coordinates from ORCA-job goat_0_235 E -1253.945046487067
  O           2.95998591230715      2.89724852530934     -2.26408575131799
  C           1.59053594826386      2.96902861946559     -2.64728957363966
  H           1.51060568930413      3.35602118268636     -3.67213382732742
  C           1.04652512956252      1.54940695505772     -2.62708859052760
  H           1.21582569140004      1.12210948454145     -1.62906671853779
  O           1.68645535580356      0.75657897035243     -3.61839700385396
  C          -0.45603768797757      1.55937131708628     -2.90819029843493
  H          -0.63074744445905      1.93516721802951     -3.92610892172801
  C          -1.05691496785857      0.17652778814493     -2.77460568432153
  O          -2.40402469273716      0.19353773324037     -3.21924589028395
  Si         -3.53664425292579     -0.92957965035803     -2.71508104371241
  C          -4.40633603436738     -0.30394953223098     -1.15688783261229
  C          -5.22153198558626      0.95206289533401     -1.49599349465657
  C          -5.34920856766729     -1.39364126161498     -0.62559044350534
  C          -3.37634180225311      0.04562690415880     -0.07329260030847
  C          -4.74142899627438     -1.07452016169557     -4.13590943281346
  C          -2.68635491492912     -2.56752413466645     -2.39780229709460
  O          -1.10216410298960      2.40854862924453     -1.96282470246413
  C          -0.68821019227278      3.75998035458487     -2.08068002626532
  H          -0.86372486555685      4.10631659689357     -3.11249249692858
  O          -1.40839343671262      4.52930582435265     -1.17783092637163
  C          -2.75905748824768      4.76383857609808     -1.57985618406448
  C           0.78907068118161      3.87200622837247     -1.72667098119728
  H           0.91709633589666      3.54606779017005     -0.68704231568790
  O           1.26682664545305      5.19746917353564     -1.90402113778177
  H           3.35391786662761      3.76580631312485     -2.40651354213496
  H           2.63759257911229      0.87668813202184     -3.50367558299720
  H          -0.47100594843247     -0.52049873748905     -3.38029456006884
  H          -0.98103542492504     -0.13347655663980     -1.72636037548063
  H          -5.68969898881304      1.35489280908912     -0.58934208673424
  H          -6.01873979809639      0.73377345729388     -2.21244303188147
  H          -4.59008917836932      1.73739026678419     -1.92248856288959
  H          -5.89133849422355     -1.02431606167583      0.25360679370493
  H          -4.79988061579860     -2.29021451097661     -0.32389676750199
  H          -6.09288554139384     -1.68792144619324     -1.37287511108886
  H          -3.89052468366665      0.36787500101520      0.84086175029661
  H          -2.72057638652363      0.86052720645016     -0.39058612456450
  H          -2.75026253426100     -0.81401895357726      0.18602992022429
  H          -5.10556669145489     -0.09059819048689     -4.44360287254035
  H          -5.60528543988804     -1.68471707355995     -3.85694705409962
  H          -4.25659274284922     -1.54392408004298     -4.99680388039416
  H          -2.01656528584285     -2.52356411883932     -1.53484066324104
  H          -2.09806833911532     -2.86324095016159     -3.27180919555474
  H          -3.42776782005280     -3.34945472634584     -2.21059999027455
  H          -3.19499256641906      5.43568961298870     -0.84128315197027
  H          -3.32707443974955      3.83085303429454     -1.60555743776632
  H          -2.78606047915944      5.23641146617131     -2.56756591677792
  H           0.80452499693779      5.76161208066245     -1.27267438082731
