48
Coordinates from ORCA-job goat_0_199 E -1253.934524384636
  O           2.39786985481236      4.04875020593406     -2.37397562341692
  C           1.56510419099329      3.05771557318810     -2.97071513095211
  H           2.20573579667202      2.49056662978012     -3.64922184266348
  C           1.03354060198778      2.09317552827564     -1.90129428029760
  H           0.86074502515855      2.65564229667695     -0.97810933685600
  O           1.96011045464079      1.03826915372712     -1.65643429515747
  C          -0.27647269195807      1.44139605024649     -2.33660736141294
  H          -0.07361222353789      0.79698361104167     -3.20164930122690
  C          -0.87976135560601      0.58350151621947     -1.23772000788676
  O          -1.87192768018023     -0.29627513269020     -1.73094406759105
  Si         -3.47644335827487      0.04199075335602     -2.04525523018986
  C          -4.39850297772801     -1.54085414308740     -1.57139573775563
  C          -3.77568094853997     -2.74806715968585     -2.28704727610120
  C          -4.30509355805177     -1.75248438008001     -0.05369423471333
  C          -5.87487362845191     -1.42326502059284     -1.97678679457758
  C          -4.06800114962561      1.48651593652049     -1.01322077804235
  C          -3.70508664945180      0.40342046248574     -3.86785610444451
  O          -1.27153204404972      2.41322413495379     -2.71428395863209
  C          -0.83985213224465      3.72427144547769     -3.00928116539023
  H          -1.67141374795786      4.17071632674434     -3.56549051155637
  O          -0.55286158108710      4.48878827219735     -1.86712287029126
  C          -1.66859868149333      4.67585123173152     -0.99983866052208
  C           0.44253695187010      3.68449915389117     -3.82165216165841
  H           0.74010433629367      4.69987941941831     -4.08838753058396
  O           0.22949607685470      2.98110378615921     -5.03840151981916
  H           1.83516456796132      4.57402876773396     -1.78968502734162
  H           2.76431531867185      1.43595550298177     -1.30258475119618
  H          -0.09037762831929     -0.02762280856204     -0.79667129925462
  H          -1.28414243361496      1.24308106986345     -0.46121035100278
  H          -2.72609297340685     -2.87940624569091     -2.01030640714977
  H          -3.82818829870948     -2.64493027757092     -3.37522786653005
  H          -4.31266569276640     -3.66526430003340     -2.01464256172448
  H          -4.80757203129165     -2.68543513289766      0.23034791790433
  H          -4.78360341171400     -0.93708778258685      0.49694333240360
  H          -3.26445105348509     -1.81919739260083      0.27799018818375
  H          -6.42055828345887     -2.32619438833135     -1.67626784342884
  H          -5.98821424740868     -1.31295142150275     -3.05921795581666
  H          -6.36247432907712     -0.56858961382561     -1.49746606460907
  H          -3.66128881017248      2.42396939458576     -1.39629300862217
  H          -3.77325068072852      1.38406479836835      0.03477322005511
  H          -5.15981584896239      1.54653844611859     -1.05163752925866
  H          -3.41740449950882     -0.45554601613085     -4.48071920868451
  H          -3.09010267254541      1.25765089183896     -4.16001345557521
  H          -4.75045603906915      0.64082198400653     -4.08691596745316
  H          -1.37869950744064      5.43411742451903     -0.27308619158279
  H          -1.92007926290648      3.74809338435579     -0.48054974333107
  H          -2.54013030287190      5.02379900358854     -1.56516132411624
  H          -0.38761076021917      2.25736905988359     -4.87386232012905
