34
Coordinates from ORCA-job goat_0_21 E -843.849578800006
  O          -3.78046936406510      0.99689753381178     -0.29788999845606
  C          -2.57105590073077      0.59351953902138      0.33229762225797
  H          -2.77189379730150      0.24550354933621      1.35252636471901
  C          -1.99597627323688     -0.56504813018493     -0.45697242380919
  H          -2.16467982188336     -0.37310976577816     -1.52000539444871
  O          -2.63439231118520     -1.77151070399929     -0.05395592269371
  C          -2.15135485872258     -2.93783930773712     -0.71894042347125
  C          -2.77315579318912     -4.11539391781416      0.00600130911958
  C          -2.52539740711245     -2.93973755301408     -2.19997961452362
  O          -0.74335063874176     -3.06053434231434     -0.53177216696168
  C           0.00815232938809     -1.91991552880455     -0.93448628526821
  C          -0.50311840640717     -0.69548921830081     -0.19409767060809
  H          -0.34661581698393     -0.83073443267308      0.88208943651378
  O           0.23045004050796      0.44304812330504     -0.63987264599807
  C          -0.47784495263026      1.66747184761968     -0.66072558570809
  H           0.28433016653763      2.43944554786168     -0.50554079191391
  O          -1.13132784443759      1.87957740908789     -1.88333060406702
  C          -0.23198768297457      2.01864513505572     -2.97973676759331
  C          -1.53899330628617      1.74338440966870      0.43291125126297
  H          -2.06772861220261      2.69535931705013      0.32324058425125
  O          -0.82388759448105      1.69877119942165      1.66236216682193
  H          -4.24782258689242      1.59179662155288      0.29990949066088
  H          -2.41910068779373     -5.04909141051554     -0.43369361779430
  H          -3.85997811333358     -4.07123890463660     -0.08032352794554
  H          -2.49319227342988     -4.08419211319888      1.06037578953956
  H          -3.61029449588585     -2.86564307337779     -2.29436255279682
  H          -2.19556283481109     -3.87854278179094     -2.64846238577000
  H          -2.07589467747187     -2.11850037381949     -2.75677170226412
  H          -0.05888985868463     -1.75147922427196     -2.01528718754026
  H           1.04813986710481     -2.12776622835538     -0.67909438677922
  H          -0.83295284588443      2.28202933362522     -3.84977633327119
  H           0.30078126213361      1.08401388259728     -3.17379918312775
  H           0.49427139095608      2.81571189314850     -2.78221954421862
  H          -1.45193629986860      1.84137166842348      2.37984270188183
