34
Coordinates from ORCA-job goat_0_14 E -843.853913027344
  O          -3.66398795105639      0.71743840564532      0.54326915434132
  C          -2.27016770240671      0.45889352358323      0.44226630695447
  H          -1.84956499691555      0.25401444269318      1.43596455106333
  C          -1.98263779607512     -0.71664071340361     -0.47080615160595
  H          -2.43441760792641     -0.51310006051126     -1.44919881186153
  O          -2.52903367707443     -1.89554565134668      0.10051406040762
  C          -2.27618399624707     -3.07335189855584     -0.67147228965405
  C          -2.68920274331146     -4.23865898890999      0.20525715678700
  C          -3.05566353971856     -3.06063707825880     -1.98423078882835
  O          -0.87604628206206     -3.22514850351490     -0.89236983149112
  C          -0.23288640208153     -2.10915658814961     -1.50407499096368
  C          -0.48223717809319     -0.88596862890654     -0.64329269249227
  H          -0.02103344975396     -1.03952273890163      0.34203419014592
  O           0.05943207195587      0.27033920776008     -1.26070676042774
  C          -0.10316328053500      1.40249411369721     -0.41776949692025
  H           0.40332262570505      1.22165634312303      0.53893178077486
  O           0.55926914798616      2.48826357753415     -0.98627824967886
  C           0.06983682344328      2.92515495761683     -2.26030989293671
  C          -1.58962187204441      1.68715403797581     -0.14231623273849
  H          -2.09502465819743      1.93810829731069     -1.08221998715473
  O          -1.70274412145002      2.75222821238355      0.78939634417185
  H          -4.07767974209482     -0.08125030039401      0.89298657686272
  H          -3.75486035262626     -4.17245903196640      0.43012809792681
  H          -2.12147965068972     -4.21454360714216      1.13690531664105
  H          -2.49313469876411     -5.17851732309776     -0.31281176074978
  H          -2.75607928639501     -2.25412211094564     -2.65242653382928
  H          -4.11978256952018     -2.95139074146140     -1.76776735721729
  H          -2.89590124118002     -4.00897158195253     -2.50020032912241
  H          -0.60122847311533     -1.93572607930726     -2.52120195004795
  H           0.82887442844123     -2.35293035257396     -1.55247399028171
  H          -0.87410179892238      3.46868599245731     -2.16081370401099
  H          -0.05956891731381      2.08373156870387     -2.94319262311609
  H           0.82709914240284      3.60042136000122     -2.65682761198153
  H          -1.25313025436352      3.51983793881470      0.41556850103387
