34
Coordinates from ORCA-job goat_0_15 E -843.852570867947
  O          -3.82579217832492      0.60049917020087      0.68574910050102
  C          -2.44281829390378      0.45296096104676      0.39329117723004
  H          -1.87261211978421      0.30277031347192      1.31992085796239
  C          -2.18575870771578     -0.70442731485554     -0.54858815978431
  H          -2.79634857268007     -0.56320835538385     -1.44715856052338
  O          -2.49220531932553     -1.93673803642720      0.08056902386687
  C          -2.46344266177052     -3.03665714840360     -0.85187899324862
  C          -1.85222972878515     -4.21493917809848     -0.11258339374779
  C          -3.87209854862194     -3.32109445097559     -1.34180448226616
  O          -1.71467383613152     -2.68587320702769     -2.00959556434589
  C          -0.48206505564526     -2.01207460110142     -1.75843368244764
  C          -0.71839303450247     -0.74442400998562     -0.93413800101579
  H          -0.11086293496214     -0.77505310162290     -0.02010850712243
  O          -0.39873154208832      0.43348414716988     -1.66692868138198
  C          -0.52552025519868      1.56495035171166     -0.81348667430206
  H           0.16952092271098      1.44966722211233      0.03424172582746
  O          -0.22486373080168      2.70953818992323     -1.53744318670108
  C           1.17141364928619      2.87433293871877     -1.79179260811311
  C          -1.95734720036648      1.72516797230728     -0.28809904057474
  H          -2.60868776846420      1.93394014309943     -1.14651663362753
  O          -2.00788667447209      2.78814042333252      0.65031269194474
  H          -4.12165341598094     -0.22319476312857      1.09198541145328
  H          -2.44735737973721     -4.43648672646494      0.77538415988356
  H          -0.83259052946266     -3.98912936954545      0.20374075016969
  H          -1.84339307038956     -5.09310862391782     -0.76081273119425
  H          -3.85907747297409     -4.13410086043674     -2.07031024463790
  H          -4.28907290038914     -2.42844529676395     -1.81280187309482
  H          -4.50204552918268     -3.60910357817068     -0.49857266605416
  H          -0.08085894801159     -1.74939736428053     -2.73781581191515
  H           0.22677313744803     -2.67551272185124     -1.25646986830250
  H           1.73328173615206      2.86787279245934     -0.85182057167553
  H           1.28925852539085      3.84013306851528     -2.28182884743371
  H           1.54502973161509      2.08353700869550     -2.44695856898467
  H          -1.71962029293051      3.58675400567702      0.19121245365617
