34
Coordinates from ORCA-job goat_0_13 E -843.849565754209
  O          -3.57618288250865      0.91376131181489      0.39683414425445
  C          -2.20786534458050      0.52522365012185      0.34373765377037
  H          -1.83609685077147      0.31521743058900      1.35470172252586
  C          -1.96672647458988     -0.67241114466464     -0.54659742327508
  H          -2.37297744948589     -0.45881626417928     -1.54141640775639
  O          -2.54939115277887     -1.84228506386856     -0.00058379874813
  C          -2.48180797778980     -2.95608925198211     -0.91530450030518
  C          -2.16130917755933     -4.18439081622938     -0.08010163016059
  C          -3.80188486179491     -3.08009979949796     -1.65494915724864
  O          -1.49929908600131     -2.71862378421574     -1.91540737748524
  C          -0.25445078243170     -2.20656009512601     -1.44085990448550
  C          -0.47065262832871     -0.91895717244333     -0.64202561226723
  H          -0.07307171127565     -1.03918146731457      0.37451914202307
  O           0.16672984598653      0.19405237953247     -1.25798051495237
  C           0.04281221863305      1.34957441323662     -0.43267202071434
  H           0.48862071829333      1.14242482238168      0.54871485701428
  O           0.80769825470475      2.37050185944539     -0.98142805152651
  C           0.32027593440932      2.92831805064700     -2.20505835513709
  C          -1.43823024967582      1.70521456514951     -0.24398305416205
  H          -1.87995063895278      1.93507111929555     -1.22108346163747
  O          -1.49979589736254      2.83715234784531      0.60843277743247
  H          -4.05282766102152      0.25888184589312      0.91966477263778
  H          -2.92959842650505     -4.31562484384649      0.68422914561104
  H          -1.19605106229857     -4.07557929908290      0.41708402971507
  H          -2.14175070129169     -5.06987330573163     -0.71813544418203
  H          -4.60473886942700     -3.27264644406450     -0.94139642560665
  H          -3.75587133606077     -3.90364282807189     -2.37022660359625
  H          -4.01424006366736     -2.15367777146109     -2.19261554381915
  H           0.33873132141893     -1.99484877056480     -2.33106057956346
  H           0.26906283859644     -2.95515389363247     -0.84089938216890
  H           1.13689758330738      3.52355626782701     -2.61247302239051
  H          -0.54116453584206      3.57724186491826     -2.02514466083469
  H           0.05309959317077      2.14652184029105     -2.91974639142809
  H          -2.43072248651864      2.97652824698867      0.82369107846718
