34
Coordinates from ORCA-job goat_0_8 E -843.856215497652
  O          -3.59395016685284      0.56914845988697      1.06417283779264
  C          -2.29173233130518      0.43088603813761      0.50801207364281
  H          -1.62404609512761      0.27345718734899      1.36057918824486
  C          -2.15469355240898     -0.73327318029339     -0.45130658126632
  H          -2.86195606427844     -0.59497978184777     -1.27984800199165
  O          -2.39865035594272     -1.95799553844537      0.22089973550518
  C          -2.22840930223829     -3.10862253564944     -0.61005221807847
  C          -2.27583761619914     -4.30184622175536      0.32358772333997
  C          -3.31542057405877     -3.19682115557960     -1.67933609387267
  O          -0.92451078943056     -3.11474963946619     -1.18744133423094
  C          -0.58322120424231     -1.94211761878530     -1.92255898890972
  C          -0.73598041781265     -0.74257546322833     -1.00798624122100
  H          -0.02889837503144     -0.83756370674653     -0.17226601013641
  O          -0.49188694147721      0.45422771187878     -1.72558336441768
  C          -0.50940281321050      1.58285827257213     -0.85389880260600
  H           0.25927886331146      1.44301737937811     -0.07650992075868
  O          -0.24926323594609      2.71664616308439     -1.60381252013651
  C           1.11951190453340      2.83429692092324     -1.99569613604392
  C          -1.88563177483395      1.72137922096617     -0.20968504450123
  H          -2.60888339885003      1.92366021779518     -1.01250921576755
  O          -1.84222570397601      2.80331397299337      0.70607208674106
  H          -4.22926369078713      0.62574592932448      0.33822293854784
  H          -3.24931340325313     -4.34877573595165      0.81423283114152
  H          -1.49495117812191     -4.20523267153758      1.07979501908052
  H          -2.11836242547770     -5.22093850701781     -0.24276251537390
  H          -3.27845629384091     -2.37796740576140     -2.39695977871883
  H          -4.29441917164039     -3.18937679644784     -1.19692230597382
  H          -3.19821636268322     -4.13412018035285     -2.22599038741057
  H          -1.21384391502758     -1.82136856369540     -2.81029376546330
  H           0.45166643460432     -2.06762728238672     -2.24272246061680
  H           1.40415582328619      2.02897578855134     -2.67750593692032
  H           1.77128988819601      2.81605933196608     -1.11546989379609
  H           1.21881946296133      3.79342412692249     -2.50277990200120
  H          -2.65602522283799      2.75963526321921      1.22478298617721
