34
Coordinates from ORCA-job goat_0_24 E -843.849040637013
  O          -3.72015122687198      0.76840256656717      0.38124896851436
  C          -2.32698190098633      0.48497358643663      0.38232336442464
  H          -1.98243766966546      0.27876708901661      1.40451940177921
  C          -1.98921565908965     -0.68799360191938     -0.51264127810411
  H          -2.36651550195680     -0.47660640529086     -1.51933054375638
  O          -2.55065530736486     -1.88546050650433     -0.00447339410090
  C          -2.43189353036810     -2.97341093262738     -0.94394397792683
  C          -2.13131458823268     -4.21927611529455     -0.12797396829310
  C          -3.71717213367145     -3.09373735040322     -1.74297569317567
  O          -1.40931873581290     -2.69770661024727     -1.89373960637358
  C          -0.20225383770165     -2.16310759532775     -1.35177898707994
  C          -0.48533505432830     -0.88168076637117     -0.56431968373658
  H          -0.10566276668808     -0.98201623443637      0.46100626393796
  O           0.11822239183819      0.25564057674775     -1.17115767380656
  C          -0.08808843747730      1.39701595815099     -0.35150878586763
  H           0.35923852395401      1.22338872075091      0.63584682702720
  O           0.61327342131531      2.47530726977866     -0.88850778232099
  C           0.22022142418606      2.88840713616099     -2.20299667543020
  C          -1.58640153407308      1.70008980205917     -0.16025209489176
  H          -2.03343397724339      1.95776758462628     -1.12738703496523
  O          -1.73496672357141      2.76918935763080      0.76194211083133
  H          -4.17325531798578     -0.02166856407875      0.70012763458263
  H          -2.92924359588023     -4.37969146390518      0.59955321200816
  H          -1.18896589996805     -4.11290558749451      0.41178818938891
  H          -2.07405354330694     -5.08701522657469     -0.78769498161299
  H          -3.92080447747984     -2.15545067720070     -2.26311092707754
  H          -4.54670017619458     -3.31825011842639     -1.07046884692603
  H          -3.62809225475078     -3.89547477382281     -2.47867304513209
  H           0.43635971208124     -1.94045035736015     -2.20715446266985
  H           0.30052320145624     -2.90193731059256     -0.72272947657503
  H           0.17002384327625      2.03816331178971     -2.88532474055003
  H           0.99031507260985      3.58039596840023     -2.54186957145157
  H          -0.74231351704890      3.40740353378277     -2.18890406925200
  H          -1.25568022299859      3.52970773597948      0.41102132858225
