34
Coordinates from ORCA-job goat_0_11 E -843.848741641458
  O          -3.87252280760433      0.93541383802515     -0.21182904375182
  C          -2.63228480774904      0.58312573291681      0.38952404790891
  H          -2.79007298738492      0.23257029269114      1.41555636519473
  C          -2.03032940709366     -0.54785751336829     -0.41856873024365
  H          -2.19579486432312     -0.33985007206743     -1.47791276771249
  O          -2.63989996026548     -1.77860902538420     -0.04661533487089
  C          -2.13641129190990     -2.91162486026948     -0.75343984255775
  C          -2.73072191567263     -4.12560281220193     -0.06687247312073
  C          -2.51545083216969     -2.87116141009119     -2.23255601051843
  O          -0.72433539283769     -3.01257318664495     -0.57673747232417
  C           0.00357489354555     -1.84154502696388     -0.93134099336799
  C          -0.53812497672796     -0.66123167462462     -0.14225061006307
  H          -0.39937558577923     -0.86349129790406      0.92799371528640
  O           0.19205792068187      0.51433048732876     -0.49836942185041
  C          -0.56565528798849      1.70857778270681     -0.60793402366007
  H           0.16484494235583      2.51286549440315     -0.46642933520119
  O          -1.18984138396820      1.83684917664131     -1.85414363998468
  C          -0.26687739347417      1.96459275062237     -2.93347052461386
  C          -1.64954041830763      1.77983825320810      0.46588592780753
  H          -2.21833041264185      2.69862911284005      0.31684441091825
  O          -1.04207286391798      1.89136586220290      1.74764727488459
  H          -4.34926671148959      1.51020143960190      0.39821788334839
  H          -2.35537895817252     -5.03624480643525     -0.53612888254858
  H          -3.81828049295997     -4.10341581178435     -0.15234743165435
  H          -2.45137178794992     -4.12176435044402      0.98811312517639
  H          -3.60100229990031     -2.80041330578861     -2.32179003448662
  H          -2.18150816296892     -3.79441196613887     -2.70926457994324
  H          -2.07153410127755     -2.03175182145498     -2.76632108237116
  H          -0.06481794280365     -1.62854551932334     -2.00422526794013
  H           1.04708043561705     -2.03640383645675     -0.68042288358067
  H           0.31383943216708      1.04797647016966     -3.06539734547720
  H           0.41490344104012      2.80455133902623     -2.75773711429425
  H          -0.85552052985308      2.15487173898988     -3.83040114450353
  H          -0.36270748821611      1.21151852597240      1.83318324011577
