34
Coordinates from ORCA-job goat_0_19 E -843.853717322001
  O          -3.46569626190115      0.79991248000418      0.77114585654351
  C          -2.11278243197520      0.47338197361288      0.47620365351051
  H          -1.64500483711544      0.25829042088999      1.44180517254636
  C          -1.95519189156681     -0.72471590782166     -0.43751826338884
  H          -2.46041029680769     -0.50995812539382     -1.38857638303840
  O          -2.49557821014511     -1.88738143274646      0.16755600256337
  C          -2.33513847193310     -3.06805453291783     -0.62244899439642
  C          -2.73394433412020     -4.22215571360446      0.27578049362108
  C          -3.19612034410582     -3.02301041083177     -1.88327321613068
  O          -0.95902723100619     -3.27142269703554     -0.93523348850945
  C          -0.31727283206803     -2.17432418340983     -1.58045074822851
  C          -0.47085173948861     -0.94659691106518     -0.70381943277788
  H           0.03469427293570     -1.12729509337007      0.25505724332053
  O           0.09243290138792      0.18464382980727     -1.34510792180426
  C           0.05031739849391      1.32583580568262     -0.49148333619049
  H           0.58169191772075      1.10065655063678      0.44193430657427
  O           0.76568309229027      2.35367370652633     -1.09023204911061
  C           0.16999000792445      2.93559252284498     -2.25332037873985
  C          -1.40830879240424      1.66712037322417     -0.17291316000272
  H          -1.93227881357924      1.89789083141983     -1.10992052458047
  O          -1.41572539504166      2.79161547602027      0.68993975319842
  H          -3.94399101046693      0.89836768198706     -0.06269083967441
  H          -2.10755279021432     -4.22316198157427      1.16944823325784
  H          -2.60569922606299     -5.16617828364812     -0.25584703847210
  H          -3.77991481794955     -4.11803930040420      0.56852577906834
  H          -3.10830809333036     -3.97736545387264     -2.40532849475025
  H          -2.90662775161903     -2.23035185993316     -2.57222382347691
  H          -4.23897578608565     -2.87019645747933     -1.59981177650541
  H          -0.73985909109163     -1.98361437216384     -2.57324179279854
  H           0.73127214559098     -2.45188213343929     -1.69324098713300
  H           0.94666620591535      3.54061423464627     -2.72004051605210
  H          -0.67206052966008      3.57872753122501     -1.98328902495774
  H          -0.15995337008338      2.16794163581620     -2.95705659151524
  H          -2.31920359243689      2.88221979636762      1.02013228803006
