34
Coordinates from ORCA-job goat_0_26 E -843.848881371810
  O          -3.53020021766816      0.79568268581181      0.68128932685624
  C          -2.16520680257406      0.47133332639780      0.44482482866478
  H          -1.74205612310719      0.24385728753706      1.42789380822113
  C          -1.96267907895092     -0.70550832533400     -0.48389753572020
  H          -2.42634642003452     -0.47783486672463     -1.45183216660307
  O          -2.48773731397078     -1.90241488860205      0.05902039086351
  C          -2.46316314098467     -2.98359782174185     -0.89425552210687
  C          -2.08599252925733     -4.23497654403592     -0.11924213345962
  C          -3.82144901329115     -3.09882459463911     -1.56340482482784
  O          -1.53999265327122     -2.70385703971797     -1.93937123144724
  C          -0.27927284443006     -2.18886715743365     -1.51452968865926
  C          -0.46857124686235     -0.92506654450291     -0.67123018956002
  H          -0.01735522741665     -1.06704017877446      0.31974401651022
  O           0.12683460314588      0.20775449949441     -1.29127640188141
  C           0.04091347093006      1.34063323264487     -0.43095593007348
  H           0.53902497121056      1.11244450167592      0.52022245449683
  O           0.76902994200161      2.38135767482068     -0.99280593445264
  C           0.21309027271585      2.96719555170613     -2.17320512151374
  C          -1.43113203417388      1.67308594767995     -0.15877761316497
  H          -1.92072216961704      1.91876757119163     -1.11039255500950
  O          -1.46867693413365      2.78523222680185      0.71952500934904
  H          -3.96744221978490      0.90973111689741     -0.17284539181738
  H          -2.80889635095310     -4.39803897006369      0.68228218742427
  H          -1.09506857437005     -4.13217566122444      0.32603168686408
  H          -2.09535126884778     -5.09940505701017     -0.78570046619691
  H          -4.07323628962263     -2.15858597205444     -2.05851784572452
  H          -4.58137901703000     -3.32344656889237     -0.81318695126318
  H          -3.80740065689567     -3.89850391700935     -2.30651730069594
  H           0.26592099419600     -1.94566688171906     -2.42706947548992
  H           0.28257628202292     -2.94616682587853     -0.96184994924918
  H           1.00352179467934      3.57721752367087     -2.60943317907864
  H          -0.64011682451616      3.60642410422401     -1.92994475569788
  H          -0.08939787315728      2.20233711848764     -2.89214609212558
  H          -2.38479950598101      2.87770344631670      1.01201454656895
