34
Coordinates from ORCA-job goat_0_31 E -843.837544122362
  O          -3.39519301640990      1.33703933232061     -0.39051850655823
  C          -2.26674680245474      0.72178010396477      0.22285973324872
  H          -2.52058987434533      0.41682192142938      1.24499354489895
  C          -1.79212834906598     -0.50250558230066     -0.52494635846635
  H          -1.88949049483533     -0.32342778656828     -1.59856882226911
  O          -2.53701744708711     -1.65028929038040     -0.14778736701386
  C          -2.27508735470021     -2.75879313527621     -1.02597911231124
  C          -2.39517177476195     -4.01600681065754     -0.18149879464867
  C          -3.25350982966846     -2.74514279289251     -2.18786108719959
  O          -0.97749348880414     -2.63156494991505     -1.60352607317476
  C           0.01989991272904     -2.15287994770409     -0.70338765655470
  C          -0.33023377777834     -0.74981763464549     -0.20955374875944
  H          -0.15571145218499     -0.68591273300183      0.87014811609391
  O           0.44767354989817      0.23648810815480     -0.88316892386676
  C           0.11409036015052      1.58512334186502     -0.57466861633909
  H           0.95099981669647      2.02074557658661     -0.02265590035619
  O           0.06420645061149      2.33455259193191     -1.75603729904652
  C          -0.94929009488827      1.97616698016904     -2.69402697895366
  C          -1.13016217353721      1.76526323317351      0.33515419013930
  H          -1.55168989819237      2.74559665276169      0.09302680237309
  O          -0.59359012789821      1.77382734031768      1.65955893953055
  H          -4.09675940737830      0.67662098091175     -0.44480011440742
  H          -3.38824480448800     -4.05941135302784      0.26990184595717
  H          -1.65164855994066     -4.02067763626626      0.61696536664088
  H          -2.25405870078952     -4.89642756171927     -0.81093259349233
  H          -3.18529462068484     -1.79830996508113     -2.72720096650541
  H          -4.27040422660902     -2.87164088538925     -1.81257120523704
  H          -3.02480511236814     -3.56052356097767     -2.87678031307073
  H           0.95503601891584     -2.13487525243059     -1.26372234274766
  H           0.13349633375156     -2.83327949323022      0.14461502545101
  H          -1.94800363413442      2.05144171134890     -2.25454630918051
  H          -0.79020749730480      0.96495866237685     -3.07675002494724
  H          -0.86549212601712      2.68615369794793     -3.51664824445150
  H          -1.31010779642569      1.97968613620399      2.27137379522445
