34
Coordinates from ORCA-job goat_0_30 E -843.851431711262
  O          -3.89919784652602      0.67974168460830      0.53222820067889
  C          -2.51371023435396      0.52010775353311      0.24989966590603
  H          -2.02286381585048      0.44595158710929      1.22507016652645
  C          -2.18806667567691     -0.70547954143892     -0.57368677367715
  H          -2.72388324328476     -0.64737596637961     -1.52904033871058
  O          -2.50749056952381     -1.90200361776949      0.11246248385389
  C          -2.38498323398629     -3.05692518527750     -0.74044773884427
  C          -1.81956938179226     -4.17330720681494      0.12135122282175
  C          -3.74363687517734     -3.40196763853077     -1.32445840610375
  O          -1.54723626615930     -2.76608421988867     -1.85364991899120
  C          -0.35572686515401     -2.04553613974876     -1.54326123152121
  C          -0.68924097339711     -0.73136787216582     -0.83245929419798
  H          -0.16998479820766     -0.68918647249911      0.13407885809480
  O          -0.31615883345541      0.39701558027072     -1.61262630333070
  C          -0.50975658916700      1.59641963759111     -0.86703324603821
  H           0.11128590305313      1.55350935936357      0.04265050425693
  O          -0.14043740898202      2.66925903703589     -1.66158298602060
  C           1.27320691966371      2.79297764344995     -1.82311289729636
  C          -1.98075367664439      1.75525505029411     -0.48547330051670
  H          -2.55053190655570      1.88195832499722     -1.41712453912488
  O          -2.10216233636769      2.90795268023735      0.33216962355200
  H          -4.38083407413281      0.68202405881585     -0.30551304171287
  H          -1.74901943032703     -5.09203102018839     -0.46382938086880
  H          -2.48023042996818     -4.34568347824279      0.97310090424530
  H          -0.83078403084300     -3.90914229062037      0.49982420972756
  H          -3.65741456884766     -4.25848181861703     -1.99594094020963
  H          -4.13564076543810     -2.55035445548075     -1.88447819438872
  H          -4.43607623601173     -3.65014254203669     -0.51839871753742
  H           0.12541596864346     -1.83786332535111     -2.49955710987742
  H           0.31907685518355     -2.65509149430355     -0.93684507938277
  H           1.44567792115987      3.71326378395941     -2.38023557098001
  H           1.68163368589387      1.94631092276903     -2.38064848231756
  H           1.76444685976042      2.85860588677414     -0.84625848943433
  H          -2.99808304752734      2.89845129454518      0.69328614141955
