34
Coordinates from ORCA-job goat_0_4 E -843.850669752653
  O          -3.70793160403768      1.16592844346458     -0.18141292183244
  C          -2.54325012572559      0.60087730951552      0.40715994420300
  H          -2.84113275358032      0.23618052858250      1.39227087377847
  C          -2.01484198990263     -0.57236820263121     -0.41131048428511
  H          -2.20840727139438     -0.36723414118754     -1.46863905218540
  O          -2.67452183618357     -1.76589512296949     -0.00670739304106
  C          -2.25100869326970     -2.93243785378336     -0.71276062119757
  C          -2.86864834663973     -4.10697850506603      0.02040094763983
  C          -2.69223143727950     -2.89848801880971     -2.17476278242340
  O          -0.83933688395921     -3.09441098398605     -0.59399416993331
  C          -0.07392280898611     -1.96616620928047     -1.00709709133916
  C          -0.51826816593543     -0.75150143562282     -0.21120942054144
  H          -0.31884609660000     -0.92263761912652      0.85130836009998
  O           0.21851292548484      0.38644701548446     -0.65834411484661
  C          -0.44396121311576      1.62819379373926     -0.53935208019227
  H           0.35298646548680      2.36962279350716     -0.40506118425949
  O          -1.19866361424438      1.94268108412636     -1.68521540622049
  C          -0.40932000174239      2.10179996512955     -2.86163458892261
  C          -1.43958631459073      1.65399062074909      0.61976640984817
  H          -1.91004287424145      2.64129060914987      0.64443491446764
  O          -0.79162086261074      1.37071224030064      1.85257534149723
  H          -3.44548196478666      1.52629669419582     -1.03881292014517
  H          -2.54014709791440     -4.10128978846063      1.06110123609980
  H          -2.55897113100767     -5.04118070653724     -0.45053357849504
  H          -3.95679938727157     -4.03443454412566     -0.01483852419635
  H          -2.41018621172195     -3.83845370364928     -2.65240427313666
  H          -2.24446615764712     -2.08128537022162     -2.73893049820368
  H          -3.77767495041648     -2.79229065314456     -2.21838104622307
  H          -0.18704490937272     -1.76978295310669     -2.07934209285020
  H           0.97019896295036     -2.21022262878918     -0.80634536000797
  H           0.04932895055710      1.15473555326736     -3.15673074718760
  H           0.37406935046102      2.85028695343046     -2.69762921532975
  H          -1.08045753815093      2.44338001668446     -3.64900279302510
  H          -0.13105441261130      2.05541481917114      2.01189433238680
