34
Coordinates from ORCA-job goat_0_5 E -843.849027992138
  O          -3.81598159481003      1.06831560093496      0.07850381105828
  C          -2.52591115245305      0.63233838959265      0.49423374278005
  H          -2.56366112974705      0.27649519321343      1.53055115264654
  C          -2.00056704797991     -0.49510855740384     -0.37270799209257
  H          -2.20203777169953     -0.25879314417756     -1.41909208441347
  O          -2.64503339373632     -1.70798154840664     -0.00003327230811
  C          -2.19952024098671     -2.84799991437214     -0.73738151726061
  C          -2.81087573394962     -4.05190213896295     -0.04843038153355
  C          -2.62243605108367     -2.77333051808470     -2.20289167744785
  O          -0.78741750013788     -2.99443819229293     -0.60471729906830
  C          -0.03003927468711     -1.84550673983899     -0.97399522259192
  C          -0.50503108670645     -0.65856679707088     -0.15328740427248
  H          -0.33250185786060     -0.87440430449345      0.90919459758831
  O           0.23895972719706      0.50552997383125     -0.51954743095697
  C          -0.50230218493918      1.70865253178782     -0.63713275410408
  H           0.24466676126363      2.50284077568825     -0.53020433858237
  O          -1.15330015071652      1.82318083234775     -1.87222933561770
  C          -0.25498265641787      1.89236716976251     -2.97717470734096
  C          -1.56101550111799      1.83729425144151      0.45902609243852
  H          -2.14741984063363      2.73417688568786      0.25801662394707
  O          -0.92434200446461      2.05299203756400      1.71255233097009
  H          -4.40929889917711      0.30867046733857      0.12847676661196
  H          -3.89932993983891     -3.99263369874529     -0.09616637777293
  H          -2.49590200376264     -4.07391845001175      0.99620854663716
  H          -2.48261614591809     -4.96713967871193     -0.54330958360164
  H          -2.32290979265338     -3.69475436014411     -2.70530775310915
  H          -2.17776820567915     -1.93384199960560     -2.73591342061523
  H          -3.70844531705718     -2.67877050057626     -2.25763992996904
  H          -0.12766677298466     -1.61952302568772     -2.04178698921453
  H           1.01351393219990     -2.08130517121969     -0.76131042952029
  H           0.28709128176211      0.95163111895516     -3.10351769872815
  H           0.46244247777168      2.70917059493307     -2.83784187618468
  H          -0.85953240264180      2.08596472032879     -3.86275219588915
  H          -0.29155852635384      1.34107819639925      1.86806800751778
