34
Coordinates from ORCA-job goat_0_18
  O          -3.83619100191054      1.06780244306971     -0.25358954919728
  C          -2.62926074123397      0.60795749502640      0.34367412067911
  H          -2.81619551070560      0.27908832931819      1.37237656297605
  C          -2.00145860563056     -0.53580021267990     -0.42382219253866
  H          -2.07326681725972     -0.32363204583651     -1.49205419188652
  O          -2.63477124106443     -1.76864519824490     -0.11569604354260
  C          -2.22633707468779     -2.80950104989757     -1.01897147464226
  C          -2.25039877584010     -4.10383008775851     -0.22257161941277
  C          -3.15368039529432     -2.85293081934665     -2.22158019420341
  O          -0.92724977238468     -2.53013711714091     -1.53342912085661
  C          -0.02119161422331     -1.99096327359414     -0.57288348739870
  C          -0.54276050635543     -0.66228887209211     -0.02116754333670
  H          -0.47307417551619     -0.66805844644454      1.07193667259974
  O           0.21730975572959      0.44356479681864     -0.51707115438186
  C          -0.49465268876562      1.66456408211688     -0.60444974306161
  H           0.25381011780490      2.44650289218057     -0.42208235647949
  O          -1.06670338582783      1.85481702386365     -1.87221494528960
  C          -0.09970758658522      1.96721979993464     -2.91235336351823
  C          -1.63296366871891      1.78052748655544      0.41821439475737
  H          -2.17745430177520      2.70425545371166      0.20314688293284
  O          -1.09891064314685      1.80379810120987      1.73769512553936
  H          -4.45340013978370      0.32623921501829     -0.27055221666089
  H          -1.99682274854174     -4.94191182449648     -0.87416554958705
  H          -3.25018516345201     -4.26250631322758      0.18619117056105
  H          -1.54033799477107     -4.06215274649694      0.60490563505013
  H          -2.81356940938624     -3.61510633499101     -2.92539758898185
  H          -3.16264824929131     -1.88535203366594     -2.72726845124230
  H          -4.16613445360907     -3.09657617634728     -1.89515946780732
  H           0.92195023383552     -1.83564037691352     -1.09748471455486
  H           0.14369206138247     -2.70213871240538      0.24102514926470
  H           0.43019643862476      1.02273585838893     -3.06181066707479
  H           0.62532952341645      2.75598510730688     -2.67954436569745
  H          -0.64181685355833      2.22853448351211     -3.82086223870517
  H          -0.52387461147392      2.57435907354808      1.81747652569763
