34
Coordinates from ORCA-job goat_0_0 E -843.856987507576
  O          -3.72118684032703      0.67610911880691      0.77315679292201
  C          -2.36272920915294      0.48033058636387      0.39632681019019
  H          -1.74097500113202      0.34198197105810      1.29015242975252
  C          -2.17050119302967     -0.70343960773777     -0.52652035926986
  H          -2.82359180029117     -0.57972521647486     -1.39860717019779
  O          -2.47359540607775     -1.90468328787085      0.16637309321589
  C          -2.25619750249346     -3.08221516837187     -0.61589865714617
  C          -2.37097679061000     -4.24588139336221      0.34849282036391
  C          -3.27224767943023     -3.19721111653653     -1.74986348184759
  O          -0.91734001068093     -3.10984722133803     -1.10559198425708
  C          -0.52000730606468     -1.96349073410366     -1.85547596388712
  C          -0.72111379498762     -0.73656891049266     -0.98803808433549
  H          -0.06577183103145     -0.80883098272597     -0.10892762530877
  O          -0.43383200687124      0.44210739035375     -1.72097083005059
  C          -0.50802192948625      1.59428260251961     -0.88296396064680
  H           0.21452397166419      1.47951766094213     -0.05872539337356
  O          -0.20784028994948      2.70805740965973     -1.64759246850820
  C           1.17984447747677      2.81695763037774     -1.96885523378126
  C          -1.91999088484605      1.75115551390976     -0.32244636849453
  H          -2.59779529617784      1.93426517023273     -1.16661999020012
  O          -1.92072423292226      2.85587831086643      0.56766250651210
  H          -3.96419131787970     -0.02399331329229      1.38978730559388
  H          -1.63884329616385     -4.12992316658421      1.14942308244493
  H          -2.18418023823515     -5.18273895075583     -0.17844186865841
  H          -3.37395227216360     -4.27289646480429      0.77734983436313
  H          -4.27996981704517     -3.17743946276784     -1.33112639887084
  H          -3.12257470908786     -4.14772628720642     -2.26490805006074
  H          -3.18857506863878     -2.39564178313405     -2.48287242228127
  H          -1.09272298209974     -1.86728755109801     -2.78448861412163
  H           0.53158319540859     -2.10758659696890     -2.10574297697250
  H           1.49803821250308      1.99967233567959     -2.62088547162136
  H           1.78445660309993      2.81280318844296     -1.05541098059366
  H           1.30784334408599      3.76712088967438     -2.48629542975878
  H          -2.77957109736263      2.85766743673859      1.00900510888555
