34
Coordinates from ORCA-job goat_0_25 E -843.856193038337
  O          -3.75131222787411      0.65678032805778      0.80307522696694
  C          -2.40278501201672      0.49627583794258      0.37796098944141
  H          -1.81610307116475      0.39222471294923      1.29581497217591
  C          -2.17719035203838     -0.71959873829539     -0.49659272888284
  H          -2.80782766892250     -0.63385210355876     -1.39148043141872
  O          -2.47785703922623     -1.90585002971956      0.22005671109016
  C          -2.23351802317369     -3.10049029838014     -0.52614401394143
  C          -2.36115099767357     -4.23933460888373      0.46594610796836
  C          -3.22309852794949     -3.25541202311376     -1.67896970128147
  O          -0.88386611324818     -3.13063292261475     -0.98566088205433
  C          -0.48174592924336     -1.99911664208421     -1.75376602181627
  C          -0.71519136953447     -0.75109304588551     -0.92498062525272
  H          -0.08341567774199     -0.79488974350823     -0.02694659239952
  O          -0.41077301068832      0.40546631778308     -1.68481645981011
  C          -0.50640941055234      1.58077639399661     -0.88274863249631
  H           0.19105418280292      1.48943788631418     -0.03428839667227
  O          -0.18234066836922      2.67263132633730     -1.66943962285568
  C           1.21459451825637      2.77257214189352     -1.95082681852866
  C          -1.93486958604353      1.74666394392024     -0.37268982224336
  H          -2.58299185971540      1.89810765859239     -1.24755005733984
  O          -1.97593456431524      2.87889543154932      0.48002846712581
  H          -4.31775734190913      0.66061768207384      0.02007405321865
  H          -1.64710888246414     -4.09734568713051      1.27890113160934
  H          -2.15717100579813     -5.18843246708191     -0.03195214361956
  H          -3.37274983142501     -4.26243017712851      0.87418641745037
  H          -3.05285745581715     -4.21732338118123     -2.16567290271434
  H          -3.13172667065828     -2.47287181131533     -2.43139477675821
  H          -4.24002878087113     -3.23552385109619     -1.28308259125604
  H          -1.03291931830329     -1.93324174444175     -2.69847754010869
  H           0.57721030773355     -2.13591401643221     -1.97554855876977
  H           1.35814631414508      3.70318790667166     -2.49885554965691
  H           1.55417495350839      1.93246722367524     -2.56173533895873
  H           1.79005447389031      2.80377228960631     -1.01924307738697
  H          -2.83726435359889      2.86425621048855      0.91727920917583
