34
Coordinates from ORCA-job goat_0_22 E -843.851657205536
  O          -3.86257155646217      0.53315544880760      0.73555827984980
  C          -2.48836415892225      0.43791011556367      0.39172946606917
  H          -1.95260606792004      0.31215093726590      1.33764311178218
  C          -2.19366481131575     -0.73961769316205     -0.51742806452782
  H          -2.79750179732801     -0.63774038918151     -1.42765138797241
  O          -2.46059636796848     -1.97140190921115      0.12829717848271
  C          -2.41084680105979     -3.08024720497528     -0.78936871406490
  C          -1.78661688385907     -4.24078370210462     -0.03286355600891
  C          -3.81202619645210     -3.39286870234636     -1.28453459361505
  O          -1.65897507430696     -2.73384605744236     -1.94759989519079
  C          -0.44640874479040     -2.02705481280006     -1.69360653562468
  C          -0.72021719461273     -0.75230369449435     -0.89095302080659
  H          -0.12700662425886     -0.75999118921927      0.03307067012899
  O          -0.40435705732811      0.41624453327503     -1.63808496412075
  C          -0.54878053482233      1.55747674693989     -0.80191299542875
  H           0.13536591922192      1.45897140342092      0.05671293582484
  O          -0.24678130478823      2.69492352284560     -1.53735174853527
  C           1.15149282701507      2.86417049407861     -1.77805307247745
  C          -1.98898747418727      1.70718627420270     -0.30137672387862
  H          -2.62312942013302      1.90088096409145     -1.17788162681421
  O          -2.06976331797290      2.78092042258037      0.62168503550387
  H          -4.37015242029063      0.63334919203072     -0.08002769938670
  H          -0.77087034747360     -3.99693491812157      0.28257596042786
  H          -1.76433678456449     -5.12710233732503     -0.66959256149567
  H          -2.38104959289229     -4.45856602236962      0.85647445294999
  H          -3.78183670580429     -4.21337257520621     -2.00413348537216
  H          -4.24160250950553     -2.51297713227874     -1.76799380707816
  H          -4.44155608593371     -3.68208199499300     -0.44142946433489
  H          -0.04201974683753     -1.76716252300387     -2.67247831031466
  H           0.27381942236756     -2.66568575308266     -1.17583805058331
  H           1.26909610260966      3.82053795475676     -2.28632681548335
  H           1.53847913237820      2.06283458808593     -2.41230658931032
  H           1.70168561211121      2.88065985886168     -0.83132767335297
  H          -1.79004343391310      3.57914615451104      0.15683426475904
