34
Coordinates from ORCA-job goat_0_27 E -843.850750949589
  O          -3.87814664596706      0.65365298677384      0.55990702343351
  C          -2.48716276997144      0.50083564271035      0.31517433001215
  H          -1.94921009931791      0.36376252455258      1.26496403482581
  C          -2.19512369810073     -0.67551192802027     -0.58917757050197
  H          -2.76675903350406     -0.55351757398978     -1.51578686317732
  O          -2.52611546214338     -1.89593259951744      0.05134115301826
  C          -2.45639396177587     -3.01280462908021     -0.85834006852065
  C          -1.88542439054721     -4.17879589727189     -0.06908834354231
  C          -3.84068897472160     -3.30280341462175     -1.41045421393275
  O          -1.65046762233528     -2.68548432298330     -1.98439419577251
  C          -0.43273013470436     -2.00447422283886     -1.68426453253022
  C          -0.71347602497505     -0.71504598642409     -0.90923113985700
  H          -0.14452545740967     -0.71296900273559      0.02994043939509
  O          -0.37746815678367      0.44260426174684     -1.66334500285107
  C          -0.53266057436325      1.61032539706324     -0.86026385364963
  H           0.14949158253730      1.53297810265498      0.00420497116767
  O          -0.21465111116598      2.71380312318167     -1.63395210369841
  C           1.18455717551980      2.84576366094415     -1.88565686865071
  C          -1.97931356382882      1.77276807544492     -0.36544613383430
  H          -2.60799744728700      1.97997874555172     -1.23601595262881
  O          -2.09329711230480      2.90385528602664      0.48235639183663
  H          -4.18655064103957     -0.16027125167129      0.97637557791364
  H          -2.52122634015092     -4.37992044613706      0.79521026317515
  H          -0.87987628178107     -3.95070110019392      0.28806991909998
  H          -1.85162416264473     -5.06959035130397     -0.69901986783033
  H          -4.51064944929840     -3.57703696034811     -0.59388252547408
  H          -3.79449851460989     -4.12691615265628     -2.12504817299196
  H          -4.23311515915360     -2.41722376630010     -1.91470496993559
  H           0.02279515137856     -1.76887998182586     -2.64661324965904
  H           0.24622176228816     -2.65341521712700     -1.12519865639811
  H           1.74129203293557      2.87307929855802     -0.94250494974295
  H           1.32020594516164      3.78786293484790     -2.41594235089519
  H           1.55362643883052      2.02277382267809     -2.50287759613166
  H          -1.62176729876616      2.71803094231187      1.30412507832872
