34
Coordinates from ORCA-job goat_0_6 E -843.854494783959
  O          -3.59666966877619      0.84171010905239      0.45168017371488
  C          -2.21823514598957      0.49729110252623      0.37048934180372
  H          -1.81775045333767      0.30451932320620      1.37398327872296
  C          -1.96302143018402     -0.70697407303513     -0.51046923843221
  H          -2.39477453966523     -0.51316309404908     -1.49966487395920
  O          -2.54005146551509     -1.86410458229001      0.07445808949027
  C          -2.29450673601507     -3.06047195240645     -0.67030746242245
  C          -2.74350796324249     -4.20136038067145      0.22074523641141
  C          -3.05065483927317     -3.05965603963859     -1.99693222866843
  O          -0.89385675177064     -3.24285818833733     -0.86474442284820
  C          -0.21832348223045     -2.15038747465163     -1.48445307549727
  C          -0.46128022306955     -0.90800873604760     -0.65019448832745
  H          -0.02781929707597     -1.05818951758010      0.34839323534291
  O           0.12304824193221      0.22582722206232     -1.26923440582483
  C          -0.01343504085064      1.38099389179042     -0.44472678933118
  H           0.45312260997237      1.18698783060304      0.52936649548306
  O           0.71789139525993      2.41642895517896     -1.00991684851593
  C           0.19619299459123      2.95923296449092     -2.22641101918586
  C          -1.49917764911910      1.69696309979706     -0.23722937743915
  H          -1.96233915220235      1.90723157847309     -1.20880461906453
  O          -1.58170673491075      2.83119222907698      0.61004008795538
  H          -4.03951296071448      0.17873037439451      0.99368990343291
  H          -2.55525451317688     -5.15436762187553     -0.27581264610918
  H          -3.81146927665258     -4.11188961201859      0.42582693294661
  H          -2.19130500351283     -4.16936872732117      1.16150930265367
  H          -2.72328109428095     -2.27290244465657     -2.67562598524541
  H          -4.11611712143079     -2.92541470393561     -1.80201551026763
  H          -2.90046485695283     -4.02115920732885     -2.49100671148248
  H          -0.56383906780829     -1.98920813354690     -2.51161271925072
  H           0.83946410020296     -2.41441462036448     -1.50781743776071
  H          -0.06377534915154      2.16928767426148     -2.93473937338494
  H           0.99109186942514      3.57307673389464     -2.64879266276276
  H          -0.67767615466898      3.58723240265456     -2.03293244015692
  H          -2.51373523980576      2.94797361829241      0.83372225797969
