34
Coordinates from ORCA-job goat_0_20 E -843.854603507060
  O          -3.77548262751552      0.53843391214734      0.87913630923628
  C          -2.43059481721271      0.44909022234958      0.43549482539064
  H          -1.83059775635228      0.30667516363457      1.34159861600226
  C          -2.19805050357824     -0.73200502700711     -0.48941622450625
  H          -2.85674777978220     -0.62703174891616     -1.36188335697389
  O          -2.46252923006341     -1.94408310540361      0.19900379953411
  C          -2.22806412075352     -3.11269343539296     -0.58862751531106
  C          -2.31302474039247     -4.28165958021334      0.37291928762035
  C          -3.24973516367823     -3.24625658435996     -1.71586127359837
  O          -0.89246536880460     -3.11352870602106     -1.08915295959677
  C          -0.52756133102499     -1.95468788299361     -1.83420351606546
  C          -0.75239307585981     -0.73332662601052     -0.96403036699486
  H          -0.08887031946843     -0.78936175623805     -0.08968896243965
  O          -0.49507005582073      0.44702631138782     -1.70299190384032
  C          -0.57286054903302      1.59357487132527     -0.86036039476608
  H           0.17025753982005      1.48575353004444     -0.05141204641781
  O          -0.30150084677785      2.71415843666376     -1.62625074867989
  C           1.07759074519228      2.84321705552003     -1.97400068409270
  C          -1.97835518654103      1.73896678146872     -0.26383708082888
  H          -2.66453405894987      1.95663167995177     -1.08895902020029
  O          -2.04414681701657      2.85438257393180      0.60825820548788
  H          -4.33944009481710      0.67862043025473      0.10775223913747
  H          -1.57838560343752     -4.15332842213799      1.16963125390276
  H          -2.11089209068451     -5.21321355424539     -0.15773661197640
  H          -3.31229748887456     -4.33031353786081      0.80838966258252
  H          -4.25489237403743     -3.24316697879444     -1.29054488339318
  H          -3.08762664649712     -4.19481641792442     -2.23075160945428
  H          -3.18477868550375     -2.44508893238619     -2.45117943246763
  H          -1.10660188733697     -1.86886121555938     -2.76044764651261
  H           0.52616596032312     -2.07052423872732     -2.09036108161980
  H           1.39649898038553      2.02868861033819     -2.62922592603010
  H           1.69960386264108      2.85205138975280     -1.07220553763252
  H           1.18122167605664      3.79332437620247     -2.49708891311642
  H          -1.52656954460425      2.65413240521904      1.39849349762095
