34
Coordinates from ORCA-job goat_0_28 E -843.845211444336
  O          -3.74318520137895      1.01188036762924     -0.27183662578503
  C          -2.53751380471305      0.59778927334707      0.35710790516869
  H          -2.73716864597587      0.26123799427269      1.38174340166684
  C          -1.96455081071503     -0.55566705685264     -0.43220201867465
  H          -2.08589246251504     -0.33716076158481     -1.49510279859239
  O          -2.59216789564220     -1.78462447593708     -0.09876225310245
  C          -2.25719309118898     -2.81636389232819     -1.03981299919998
  C          -2.25927222055836     -4.12350454387011     -0.26483003256730
  C          -3.25236928785846     -2.82347832741293     -2.18783019614432
  O          -0.98321745295549     -2.55152204198933     -1.62363493498437
  C          -0.01957293450800     -2.03957882676476     -0.70523063599938
  C          -0.48763895544452     -0.70870896868125     -0.11101729438592
  H          -0.35658219602042     -0.72940545952012      0.97565661906148
  O           0.26692326179240      0.38708709142388     -0.63722672553123
  C          -0.41298470305347      1.63049503821635     -0.64719127130360
  H           0.36354996672223      2.38633860738275     -0.48249313875935
  O          -1.05356463452881      1.86856471684071     -1.87316667485231
  C          -0.14418903598958      1.98441093721093     -2.96357500826532
  C          -1.48364826715111      1.73525354040356      0.44005787490517
  H          -1.99871971120599      2.69117105107781      0.30378281602601
  O          -0.77925994228568      1.71269294937149      1.67633942233549
  H          -4.20374765869327      1.61456818020193      0.32333249862490
  H          -3.23625046556925     -4.27177679727795      0.19924650929420
  H          -1.50128425974182     -4.10959378894054      0.51989151076388
  H          -2.05986579429660     -4.95441602763189     -0.94390229656542
  H          -4.24856141844775     -3.05518718142609     -1.80712589994353
  H          -2.96760282860305     -3.57963331263987     -2.92206265194981
  H          -3.27376782428024     -1.84772298193152     -2.67700635649468
  H           0.89844578377425     -1.89416708379708     -1.27529043049218
  H           0.17438300051649     -2.76328513394722      0.09103701576589
  H           0.35699275606023      1.03334620987502     -3.16193255294567
  H           0.60840616546857      2.75427052163958     -2.75631902447104
  H          -0.73074551142263      2.27496808668267     -3.83484437558196
  H          -1.41091391959060      1.88250209695795      2.38466062297940
