34
Coordinates from ORCA-job goat_0_3 E -843.857763927142
  O          -3.76637210991732      0.45043651486058      0.83275485013041
  C          -2.39916824321539      0.38475944419044      0.45345400300520
  H          -1.76600601428363      0.24463754044877      1.34017210939663
  C          -2.19412268162420     -0.78195792987323     -0.48734092728005
  H          -2.87472947895783     -0.66368703479062     -1.33908889432731
  O          -2.44009546723549     -2.00509861391295      0.18952053210388
  C          -2.23264048264126     -3.16076169111679     -0.62484822124925
  C          -2.29331297118751     -4.34591079455971      0.31833758277277
  C          -3.28663168234883     -3.27184799607037     -1.72457153525817
  O          -0.91215199763144     -3.15665857897656     -1.16401330386516
  C          -0.56280743107801     -1.98408733341687     -1.89486376172797
  C          -0.75604614271294     -0.78045308978045     -0.99313334888047
  H          -0.07740240540824     -0.86557166931724     -0.13322733872039
  O          -0.49146387614057      0.41360363803737     -1.71050111106704
  C          -0.56521762529319      1.53699960485030     -0.83781167093257
  H           0.17069821455275      1.40862784458060     -0.02766721871145
  O          -0.29915947416967      2.68663700510029     -1.56428910906883
  C           1.08294964927444      2.84963735008773     -1.88890571194649
  C          -1.97279349337040      1.66410691771111     -0.25943994086710
  H          -2.66272123344577      1.85305536913902     -1.09108126801351
  O          -2.03836918377652      2.71361430746515      0.69525654187839
  H          -3.87392100840400      1.24434755125814      1.37112073834707
  H          -3.27928986825670     -4.39846066111977      0.78270601977548
  H          -1.53435304551372     -4.23411119244776      1.09451946398823
  H          -2.11078420753335     -5.26845988661422     -0.23474036389832
  H          -4.27928741830334     -3.27267394782471     -1.27088342884514
  H          -3.14194353712717     -4.21200036724047     -2.25966239865041
  H          -3.23885303034213     -2.45838217369999     -2.44759676289785
  H          -1.16772319980595     -1.87568702600141     -2.80197576428612
  H           0.48262900327005     -2.09862114050244     -2.18335751983866
  H           1.17800053540495      3.81730457391583     -2.38019040621765
  H           1.42127495725380      2.06096334696309     -2.56547619537979
  H           1.69202437379038      2.83811039293367     -0.97878142753276
  H          -1.92293942382178      3.54836972572355      0.22606578806442
