34
Coordinates from ORCA-job goat_0_16 E -843.844170740472
  O          -3.89850266159045      1.03329485096080     -0.21599203619582
  C          -2.65450574087464      0.63821061966399      0.35251310422544
  H          -2.79746435016257      0.32090385019391      1.39243807399598
  C          -2.00611827158115     -0.49308444857207     -0.41414231077140
  H          -2.08253715249459     -0.28543885957671     -1.48201177039761
  O          -2.61225020252204     -1.73819925341438     -0.10237474413501
  C          -2.18559657106572     -2.77090898627099     -1.00903936616728
  C          -2.16228011326607     -4.06266954158366     -0.20968464075866
  C          -3.12729409665931     -2.84096950677280     -2.19864008911732
  O          -0.90248192129548     -2.45353065301287     -1.54159631279607
  C           0.00694562912125     -1.90076895272208     -0.59210778168730
  C          -0.54714701747366     -0.59729804565232     -0.00696279773875
  H          -0.48919411012094     -0.65045810366806      1.08762315022654
  O           0.20322446524251      0.54118413112420     -0.44567774542597
  C          -0.54857894810216      1.73130543316542     -0.62574502920303
  H           0.16879665345354      2.54386599632233     -0.46589130056510
  O          -1.09565005366947      1.82572133157916     -1.91419537135133
  C          -0.10731168759140      1.89698928967282     -2.93847977896103
  C          -1.70668832882704      1.86048606486460      0.37011881308744
  H          -2.28817461645337      2.73723287752053      0.08429496979709
  O          -1.19875169294678      2.13503343518730      1.67004901337232
  H          -4.47810479086393      0.26156807472571     -0.21199073981014
  H          -1.89134956144298     -4.89469292671498     -0.86203092699729
  H          -3.15258482000075     -4.24996879582265      0.20989828375067
  H          -1.44564857618576     -3.99869684004917      0.61054676198306
  H          -4.12920632217531     -3.10706707904018     -1.85756843440371
  H          -2.78013558604958     -3.59735952272195     -2.90519547431719
  H          -3.16584857013962     -1.87510396327790     -2.70623411381271
  H           0.93148178275124     -1.70367632483702     -1.13533384606980
  H           0.21514216145051     -2.61928366247952      0.20508644346873
  H           0.45046436887145      0.95984266746309     -3.01394456718537
  H           0.59031049187846      2.71947529272686     -2.74235807559574
  H          -0.63491451405959      2.08258707693077     -3.87366325932261
  H          -0.59077527515455      1.43225447408791      1.92875189887898
