46
Coordinates from ORCA-job goat_0_164 E -1252.754966929063
  O          -0.99988990943976     -1.26676666061651      2.45478105273125
  C           0.06724899476242     -0.66986055900983      1.73192364895617
  H           0.43277099510887     -1.36125368777303      0.96205177835751
  C          -0.38807417922182      0.61161046739178      1.05101018259172
  H          -0.69905539055160      1.33151811694229      1.81520553517849
  O          -1.52270315728018      0.27669282305806      0.25485222134054
  Si         -1.92585784722844      1.15958653455135     -1.09507218613393
  C          -2.64560158962259      2.82440802024615     -0.63561490737404
  C          -3.26221809873464      3.52014188088386     -1.85753734401756
  C          -3.63952075131233      2.75137699314260      0.53109373494125
  C          -3.00668818110628      0.07249768373593     -2.15816878335119
  C          -2.26999280610137     -1.22742046890278     -2.51254417891219
  C          -4.37013463201697     -0.22398964725898     -1.51920335146706
  O          -0.46323791022425      1.42964122811600     -1.84973357499925
  C           0.68006503010116      0.82004965265593     -1.25656303639521
  C           0.77445422008803      1.20084041713864      0.21651471392105
  H           0.75302692033995      2.29324355682136      0.28802271756642
  O           2.04215659911760      0.71896645443787      0.66927263211172
  C           2.16152199359933      0.66340059435363      2.07759973765084
  H           3.19951096097341      0.36081888132738      2.25517011413755
  O           1.89767666078648      1.90276856275014      2.67495250497313
  C           2.84931107886673      2.90598674564853      2.32247162476114
  C           1.20396269140138     -0.37585573933389      2.69096221286296
  O           1.87552451901583     -1.60334815590165      2.95055068584606
  H          -1.73598307880025     -1.35379360942204      1.83533170697376
  H          -1.78240812791277      3.41787370849698     -0.30512793354604
  H          -4.13450453135957      2.96904382188404     -2.22242653947454
  H          -2.54931067359757      3.60130804994188     -2.68382700803883
  H          -3.59351516466682      4.53188611681173     -1.60164211840060
  H          -4.52977826656682      2.17497102862553      0.26563205932048
  H          -3.97220126797936      3.75618903522484      0.81248538173500
  H          -3.19188370959501      2.28575263499129      1.41308866148695
  H          -3.17616661343052      0.63496518343624     -3.08611788836859
  H          -2.87015866339455     -1.83381535907868     -3.19882449649825
  H          -2.08395831726516     -1.82675135135988     -1.61626275622898
  H          -1.30653642831712     -1.03134980288808     -2.99062094162805
  H          -4.95192737966735     -0.89731340411964     -2.15749749095320
  H          -4.95932129837699      0.68390986214284     -1.37159793478313
  H          -4.25341547269504     -0.71154130955247     -0.54607771422514
  H           1.56858309220050      1.18768377392830     -1.77338265615614
  H           0.64211579286589     -0.26944340943759     -1.36415087064272
  H           2.60898990448478      3.78914128770560      2.91356801584552
  H           2.79221864210852      3.15220968782693      1.25884281827017
  H           3.86435785368455      2.56930933223611      2.56108929956732
  H           0.79142916015546      0.03937149224115      3.61569071598962
  H           2.44306833680401     -1.47841046403978      3.72008995447796
