46
Coordinates from ORCA-job goat_0_155 E -1252.755798381593
  O          -1.31220199702424      0.51231097501523      3.28390596155622
  C          -0.32289435574709      0.34522362939476      2.27433317987996
  H          -0.33262765178856     -0.71867376318749      2.02528006710435
  C          -0.62192478442132      1.15099234745295      1.01885608526036
  H          -0.90146899895594      2.16463026600470      1.32775956722132
  O          -1.71529759805364      0.54601017910664      0.33372020469817
  Si         -2.20720189141441      1.24284983553488     -1.09880099068983
  C          -3.34038569235620      2.71693691298797     -0.90470859369868
  C          -4.78005777212531      2.32011206717279     -0.55169924307011
  C          -2.80402417163158      3.75202394498509      0.09273789984786
  C          -2.97346159976007     -0.11554566920897     -2.13566520096488
  C          -1.93907441322120     -0.91679567521870     -2.93776988311074
  C          -3.83441444909143     -1.06209642438303     -1.28404412374628
  O          -0.77944989001263      1.84304344790922     -1.71982077758109
  C           0.39052241871024      1.12359194153240     -1.33666644328519
  C           0.66090336371111      1.25705861443451      0.15997801072696
  H           1.13313139259505      2.22270370306915      0.36763603060183
  O           1.57697891703046      0.20813904332323      0.47922851797530
  C           2.12232656829990      0.32485467001379      1.77808103397515
  H           2.50540178027993     -0.67359101870205      2.01605068444015
  O           3.15496983765107      1.26927900394263      1.83655162576552
  C           4.31775274692168      0.87009849968840      1.11298983059295
  C           1.05734671719466      0.72688947802621      2.79901883578190
  O           1.34811318050637      0.06747030491081      4.02091859014571
  H          -1.44147054671508      1.45832989638350      3.43141540699749
  H          -3.35154578049736      3.17901481852161     -1.90266940056300
  H          -4.82079754140025      1.79530329068265      0.40834407793840
  H          -5.22374901319441      1.66990689009021     -1.30943777345663
  H          -5.41104035642813      3.21101445121487     -0.46642276433146
  H          -3.41966476570941      4.65733185589432      0.07273403188580
  H          -1.77309071021776      4.04120729437449     -0.12800068210076
  H          -2.83511502074363      3.35940466831411      1.11377948394309
  H          -3.63157556025661      0.39857754521363     -2.84931520330209
  H          -1.31452647169592     -0.27247814130613     -3.56180082304572
  H          -2.44108924723343     -1.63730341213780     -3.59205392134081
  H          -1.28110446455499     -1.48407920181633     -2.27240819745978
  H          -4.33628107505077     -1.79696191637697     -1.92218912883776
  H          -4.60336363337656     -0.53323557499631     -0.71605877263973
  H          -3.21206215677242     -1.60944928733812     -0.57078093637695
  H           1.23539764503463      1.52012321423356     -1.90163269723019
  H           0.29380118955419      0.05940235101251     -1.57249360504917
  H           4.68352351459713     -0.09660362173909      1.47757076891307
  H           5.07532306451106      1.63415669371013      1.28538423710196
  H           4.10984645793405      0.79815229959632      0.04222008866693
  H           1.09779024987216      1.81630129617354      2.94087638082592
  H           0.56178256504675      0.16061827649006      4.57532856003458
