46
Coordinates from ORCA-job goat_0_55 E -1252.763471786136
  O           0.36423560886384      1.54732235127443      3.78107784556233
  C          -0.28310789882538      0.67733665265120      2.86356178004538
  H          -1.18800040207411      0.24919339007192      3.30847742635053
  C          -0.67987139905714      1.43185590299921      1.59154739999093
  H          -1.20759402918255      2.35015212494936      1.87668708865755
  O          -1.54869699025524      0.57921255741066      0.83578650900924
  Si         -1.99999984140937      1.09636785427865     -0.69228727984053
  C          -3.32368482720610      2.40260338239682     -0.47494172147306
  C          -3.48539412519877      3.32649870869883     -1.68843727759430
  C          -4.65959294523274      1.76926586056706     -0.06039846573378
  C          -2.47482214188766     -0.40933402652576     -1.68323187792758
  C          -3.05351188166478     -0.03934543290480     -3.05707663900846
  C          -1.28639037206130     -1.36878752319535     -1.83943520738164
  O          -0.63465598204984      1.76352435894645     -1.35720347864213
  C           0.22503765353663      2.52504865097039     -0.51049418611232
  C           0.56084016286784      1.80372886000843      0.78334491578978
  H           1.17711363348705      2.47376724544854      1.39220695373718
  O           1.29671333837803      0.62649063539682      0.44555923212845
  C           1.78640475103573     -0.08003836525418      1.56863140965778
  H           2.23391827104926     -0.98736849888391      1.14671271674692
  O           2.74697624883942      0.65054828761327      2.27861419185261
  C           3.91842194363241      0.91547476564748      1.51194372118820
  C           0.65934910163048     -0.48192047917787      2.52713947869172
  O          -0.08195744855878     -1.55191624408256      1.95185075089660
  H          -0.29898418088432      2.15520579797827      4.12822565458330
  H          -2.97208174303605      3.01872982227751      0.36437822517030
  H          -4.20790369219368      4.12063818673225     -1.47174338975595
  H          -3.85151891232255      2.78133029888409     -2.56247128550773
  H          -2.53835748895207      3.79839168405343     -1.96266652989376
  H          -5.07190332601153      1.15536536086789     -0.86703860508016
  H          -5.39845201616726      2.54193794377600      0.17614588796980
  H          -4.54939013519720      1.13123791682781      0.82156478869109
  H          -3.25863751767322     -0.91709426252768     -1.10565639380040
  H          -2.33838494826226      0.54647481906936     -3.64346790695908
  H          -3.97444670297144      0.54138558729827     -2.97274206135000
  H          -3.28282006863759     -0.94524370092064     -3.62758133744925
  H          -1.59593612858340     -2.27295916540422     -2.37367480932632
  H          -0.87077517668578     -1.67585311305375     -0.87714417779849
  H          -0.48222114812267     -0.90061110883346     -2.41421713346674
  H          -0.23963223319802      3.48684921968894     -0.26157485428150
  H           1.14592500275110      2.71995949300329     -1.06389427122359
  H           4.32641346594156     -0.01434828571254      1.09845617683016
  H           4.64581419579792      1.36230121763777      2.18942426832748
  H           3.70788301807697      1.60987521660077      0.69383323561897
  H           1.11070762922640     -0.85511720787359      3.44831775199604
  H          -0.70307832155147     -1.15188673967513      1.32415148011434
