46
Coordinates from ORCA-job goat_0_62 E -1252.755812704694
  O          -1.28485649385406     -0.48340746302013      2.98704111044308
  C          -0.15032671333335     -0.19942473133638      2.17913904201572
  H           0.17338281809780     -1.10588227005167      1.65354497413204
  C          -0.45163348258470      0.88199808158168      1.15392444672251
  H          -0.71291564815957      1.80404076497156      1.68270245480807
  O          -1.58912466085372      0.45091577158842      0.41208328424922
  Si         -1.87795509604437      0.85245809929690     -1.17471900155991
  C          -2.77224108276993      2.48271399618024     -1.35337882535165
  C          -4.22421029963867      2.41099124789899     -0.86130173641473
  C          -2.00907077149149      3.60259400432969     -0.63129943118642
  C          -2.71914525808831     -0.62356771699744     -1.95203562050833
  C          -3.85315197739341     -1.21881874325159     -1.10753648732707
  C          -3.18560154614088     -0.30192220386250     -3.37897526790413
  O          -0.35777467838070      1.05991059247876     -1.82492853057723
  C           0.70379978943847      0.46136965383555     -1.08724101651388
  C           0.80816489360016      1.11977366741396      0.28191465172736
  H           0.94834904360395      2.19481407939012      0.13501158416690
  O           1.97736946214935      0.56450558869550      0.89019052563448
  C           2.11226981758829      0.86127179506316      2.26529672742799
  H           3.05930609314529      0.39572584395996      2.55767830192169
  O           2.14473567415663      2.24194250263671      2.50235146891996
  C           3.27730155999055      2.88032851943146      1.91445701679919
  C           0.96483102184316      0.26707185433486      3.09461732621793
  O           1.49437855269857     -0.80596177355785      3.86555271709795
  H          -1.99831422622509     -0.73989796549431      2.38920824873163
  H          -2.78146162774896      2.70899726326630     -2.42812541782265
  H          -4.27027694522769      2.10000219555302      0.18761597833443
  H          -4.82217200305811      1.70828623304587     -1.44565437821783
  H          -4.70171734698566      3.39381348801243     -0.93413758486546
  H          -2.00574708967581      3.43683368609869      0.45059168233157
  H          -2.48685299854394      4.57102138564594     -0.81204615846069
  H          -0.97029213100892      3.67113165485251     -0.96412454185004
  H          -1.92054200335492     -1.37591142872672     -2.01763284656461
  H          -4.23455555798875     -2.13417476382476     -1.57253953127011
  H          -4.69272409987872     -0.52457913678139     -1.01627232611857
  H          -3.51466372679495     -1.46925385605784     -0.09899972654942
  H          -3.98961407782986      0.44033092175783     -3.37295691444142
  H          -3.56962040453444     -1.20077862445228     -3.87225437552040
  H          -2.37139922331457      0.09382977814983     -3.99376581150081
  H           1.63539891679217      0.62255276092712     -1.63252613045657
  H           0.55171247697367     -0.61897222275954     -0.97671270946752
  H           3.22708283718875      2.85110581716758      0.82273866351778
  H           4.20300500906006      2.39740475654258      2.24691995548853
  H           3.26411865452342      3.91634226674582      2.25161775279794
  H           0.57233971473852      1.04867355883982      3.75410978459123
  H           0.76436483531459     -1.18394892951841      4.37111667237227
