46
Coordinates from ORCA-job goat_0_238 E -1252.761320531881
  O           0.17227653204557      1.41926932639389      3.81889937354610
  C          -0.37168887233350      0.55619294518842      2.82378710220110
  H          -1.28087759427382      0.11685942434273      3.23980047164953
  C          -0.75802787036519      1.37080194619904      1.58317233274496
  H          -1.23765517529081      2.29230050766452      1.93568091450168
  O          -1.67656116443738      0.61196996797204      0.80687019807848
  Si         -2.06280418941480      1.11689742881651     -0.72967134900257
  C          -3.32037533257952      2.49954708977514     -0.59249791172987
  C          -3.38279898538206      3.40575688906594     -1.82798350932662
  C          -4.70545233593029      1.94866855967057     -0.22431088183066
  C          -2.58868646590472     -0.38371195836377     -1.70224959959754
  C          -3.04641049597110     -0.02919859248812     -3.12419075055284
  C          -1.46484598477926     -1.42984856013084     -1.73291062942479
  O          -0.64856714910426      1.70130946901603     -1.37883419574350
  C           0.17669277400831      2.47626213072213     -0.51246667792745
  C           0.48957206146432      1.76589471692536      0.79329235850209
  H           1.06865759858009      2.46579714693581      1.40671608998833
  O           1.28894580002883      0.61957593522849      0.48316203353195
  C           1.75672675185638     -0.06335006503154      1.62173445168676
  H           2.34368874215102     -0.90146494785028      1.22819708654861
  O           2.56378034308581      0.75534381444023      2.43842469210414
  C           3.73760191983799      1.23393428731267      1.78198659289755
  C           0.61678137464981     -0.57218279137302      2.51035050508998
  O          -0.07421890825651     -1.63765208385410      1.87722763095826
  H           1.10708961352800      1.55986865500133      3.60930490877320
  H          -2.96895112584494      3.11050267666428      0.25102676920232
  H          -3.74020483774154      2.86175233585048     -2.70660138039652
  H          -2.40166458608321      3.82193991989207     -2.07101625199619
  H          -4.07102286090518      4.24097401094287     -1.65829124027800
  H          -5.11588585600560      1.34154945294110     -1.03725001190826
  H          -5.41081645581199      2.76442111745438     -0.03388443490324
  H          -4.66817163707892      1.32341818919084      0.67288485998798
  H          -3.44418695044073     -0.81035877381245     -1.16189723411382
  H          -3.92103139391038      0.62521731605473     -3.12335553190554
  H          -3.31141806149516     -0.93716158878772     -3.67608023241658
  H          -2.25036675781449      0.47426896115468     -3.68221347418759
  H          -0.59152288520448     -1.04451160267732     -2.26772650093237
  H          -1.80001259280889     -2.33460882164738     -2.25116271871521
  H          -1.14297438027884     -1.71128377326321     -0.72767575022249
  H          -0.30553208612085      3.43332306245752     -0.27736225701938
  H           1.11059480378510      2.68364267620271     -1.03917633298072
  H           4.33557630088811      1.74198353014892      2.53756845633454
  H           3.48486829971581      1.93370336066157      0.98146628095414
  H           4.30507154736719      0.39502105884868      1.36529126691525
  H           1.05289557246195     -0.90629904316848      3.45767991470546
  H           0.51586295611427     -2.40008530668746      1.85454456620951
