46
Coordinates from ORCA-job goat_0_185 E -1252.753987377882
  O          -0.89215895317276     -1.32488599574644      2.25600038876436
  C           0.09557717616487     -0.55714657136909      1.58616973051439
  H           0.31072837149038     -1.00487328414335      0.60587035838890
  C          -0.36206565315799      0.88285545119228      1.39068444128153
  H          -0.40718055901495      1.36540023648795      2.36994584636559
  O          -1.68475365313355      0.91086764937291      0.87343286587539
  Si         -2.11399143782254      1.17865930911611     -0.71148073323204
  C          -3.56846374917205      2.34520311013807     -0.71359370918850
  C          -3.20808142587199      3.65174216536485      0.00774117314225
  C          -4.10166897227591      2.62523132060428     -2.12568340628847
  C          -2.39541402378864     -0.48795876603409     -1.51845573658200
  C          -3.70434053193893     -1.11798949394758     -1.02049464050670
  C          -2.33038315452460     -0.45553859293183     -3.05025609050018
  O          -0.81009110342940      1.95481980991695     -1.38927170110771
  C           0.45283193592790      1.43497163412383     -0.98537522269226
  C           0.66918943191062      1.62262238587129      0.51481203039527
  H           0.62913486627966      2.69279323058438      0.74341866678134
  O           1.99406865605995      1.12807530051604      0.74853122215999
  C           2.24763594041226      0.66029349419740      2.05843636554572
  H           3.30097365552767      0.35977255697732      2.04272310531928
  O           2.03451253822068      1.65390817729732      3.02351633794202
  C           2.92769407707256      2.75878074662683      2.89228048619003
  C           1.37351453792706     -0.55791162367007      2.41453286000959
  O           2.09529396502410     -1.77455462362120      2.27795217664652
  H          -1.73039365281593     -1.13476415767196      1.81343576027042
  H          -4.35921254639878      1.84271769538701     -0.14096849030804
  H          -2.42658874904008      4.19312349190714     -0.53374163585179
  H          -2.84634724251976      3.46815389454075      1.02271463302125
  H          -4.08273648017776      4.30714009813069      0.07299203643552
  H          -4.48304650095983      1.72131170524961     -2.60576245540976
  H          -3.32118613368980      3.04451109272893     -2.76873602395581
  H          -4.92046958906066      3.35110276929134     -2.08587908318033
  H          -1.56656832954705     -1.11472549565391     -1.16191057075383
  H          -3.73965935480568     -1.17169221113764      0.07218633386804
  H          -3.81740845945872     -2.13568321776473     -1.40818913325472
  H          -4.57114664198395     -0.53907562359064     -1.35432006495970
  H          -1.38634691526327     -0.03258212593356     -3.40379103850389
  H          -3.14236266450368      0.14083106999460     -3.47452986879154
  H          -2.42014514537637     -1.46781466457085     -3.45863723245878
  H           1.23512240489929      1.97653908143577     -1.52041253231809
  H           0.54091429204329      0.37327937121765     -1.24624342997154
  H           3.96765814840405      2.41412116173457      2.91353799324265
  H           2.74333955276242      3.41478059783355      3.74245728728273
  H           2.74762102382767      3.30646104715158      1.96340072863234
  H           1.10624630686006     -0.48474813924343      3.47010969352606
  H           2.28410474208994     -1.91187506796026      1.34111027821463
