46
Coordinates from ORCA-job goat_0_207 E -1252.751520348565
  O          -0.81350878019335     -1.46381762836432      2.04946988530641
  C           0.13961957739020     -0.57452504815821      1.49100248172738
  H           0.36207498108303     -0.97723644809873      0.49805991490909
  C          -0.37165684821045      0.86021590054824      1.36602463298489
  H          -0.39726938790651      1.29496674613384      2.36992629293023
  O          -1.69910749439486      0.93039399797465      0.87893087160271
  Si         -2.14549663601420      1.17546469516618     -0.70043069223976
  C          -3.65223329182835      2.27481063994346     -0.68673398288615
  C          -3.35041601532149      3.59041663661577      0.04481105823684
  C          -4.20387304420162      2.54367315126387     -2.09390072767158
  C          -2.35564477651189     -0.48931258459395     -1.53483332855337
  C          -3.64296675113209     -1.17810088994505     -1.05930398009631
  C          -2.28023817796772     -0.42564832295146     -3.06541230763336
  O          -0.88017060116437      2.01391883568130     -1.38216040750672
  C           0.40213305626558      1.52965962788337     -0.99765279112511
  C           0.62666440625573      1.66938391091825      0.50801703188415
  H           0.54647965481748      2.72759277008059      0.77869814064471
  O           1.97295808531339      1.22035807305148      0.70156141061741
  C           2.26340168690343      0.71540109664515      1.98819661427215
  H           3.32511174250183      0.44859960261498      1.94579396953857
  O           2.03731885555832      1.66701982366884      2.99258752620638
  C           2.89474540461416      2.80255002929906      2.88699006653840
  C           1.43147263915213     -0.54088978458400      2.31171735374903
  O           2.19408456428243     -1.72809621115104      2.14741772029309
  H          -1.10335434333746     -1.10408726020614      2.89717526011273
  H          -4.41700783668174      1.73142031140004     -0.11617675699046
  H          -2.97687090184563      3.41505509243641      1.05679302495441
  H          -4.25419855621919      4.20426489616136      0.11816994641104
  H          -2.59664522765266      4.17193717409134     -0.49447795458688
  H          -4.54619913195023      1.62840168689491     -2.58181690773031
  H          -3.44621017974090      3.00430239869681     -2.73598442348292
  H          -5.05466132617103      3.23117329298060     -2.04354498517014
  H          -1.50714123462613     -1.09161440717356     -1.18381229494618
  H          -3.71469962962260     -2.19128856625711     -1.46834519912060
  H          -4.52928232649753     -0.62625725665646     -1.38771904201022
  H          -3.68199100591749     -1.25488979429773      0.03148749763736
  H          -1.34772948449044      0.03432198231508     -3.40283005285307
  H          -3.10737557785764      0.15273817273391     -3.48540333510198
  H          -2.33395879742094     -1.43218623068370     -3.49402490658598
  H           1.16210593293238      2.11828935477127     -1.51504673859420
  H           0.52956843503878      0.48189144166065     -1.29622759233779
  H           2.68264038776609      3.37687677274061      1.98127070121717
  H           3.94477885487563      2.48915183004732      2.87945580955325
  H           2.70520968937943      3.42218934138544      3.76293625614964
  H           1.17009725983481     -0.50050101224239      3.37197878533995
  H           2.38339215091360     -1.84173784044067      1.20762615440609
