46
Coordinates from ORCA-job goat_0_179 E -1252.759380930090
  O          -1.18899619600691      1.25761190405135      3.67849185200938
  C          -0.47650654653616      0.82948936936730      2.52596703864021
  H          -0.82422827333127     -0.16432252319381      2.21824737067302
  C          -0.76163495743156      1.80089785388760      1.38111872209396
  H          -0.92443039204090      2.79615615824984      1.80881150744535
  O          -1.96574452292767      1.40377238508745      0.73790452087611
  Si         -2.21081185248319      1.17678304601976     -0.88448545543292
  C          -3.58004697449026      2.33218776899596     -1.42385975799614
  C          -4.91067630926579      1.95883278848466     -0.75460566192547
  C          -3.21600318162021      3.79631434419992     -1.14416570841619
  C          -2.61400062043266     -0.60944752620038     -1.25442630931046
  C          -2.97680910444185     -0.79940402893769     -2.73484381888299
  C          -1.48086324140900     -1.55533103454900     -0.83967763830234
  O          -0.77553007397443      1.56003407115819     -1.62693720683555
  C           0.15488189168370      2.38589239077535     -0.93535272149456
  C           0.46347551364341      1.88212785026987      0.46040520044386
  H           1.17072041304516      2.59352788245688      0.90242366837159
  O           1.08029761040654      0.59717501457764      0.36012841084343
  C           1.73483631333982      0.22053465661137      1.55497417879568
  H           1.72972171994253     -0.87553610157709      1.56013696507842
  O           3.05289006225267      0.69740140194153      1.60571903106613
  C           3.91480187774829      0.06222808259369      0.66352128922858
  C           1.01621399619713      0.74884528395032      2.79976777743833
  O           1.20662366722535     -0.12638836277329      3.90448546219336
  H          -0.91596733653391      0.68098225740836      4.40372332495658
  H          -3.69220707189380      2.20699136318439     -2.50851930768858
  H          -5.21988492456564      0.93884571224455     -0.99972949835443
  H          -5.70893778199222      2.63617448838012     -1.07604369955389
  H          -4.83480463869666      2.03267336879895      0.33517998756537
  H          -3.03246170546650      3.95883004563869     -0.07713458404920
  H          -4.03195050536562      4.46252037874637     -1.44428627981170
  H          -2.31960058215602      4.10270658024716     -1.68992903069463
  H          -3.50023412294101     -0.84934024432579     -0.65189675950230
  H          -2.13837689624972     -0.52455938064245     -3.38338064202144
  H          -3.83819354799791     -0.19237061181540     -3.02627444335009
  H          -3.22164866142819     -1.84676895855066     -2.94032652450100
  H          -1.76538075945332     -2.59760346763809     -1.01980109075226
  H          -1.23173314985277     -1.45179578469842      0.21927717960022
  H          -0.57299526505399     -1.35256663411503     -1.41465855558940
  H          -0.21911906266817      3.41310290850355     -0.85817951165723
  H           1.07922989659673      2.40137797534635     -1.51648841604370
  H           3.60391357580403      0.27909365882054     -0.36189621024020
  H           3.92083710616699     -1.02252195224716      0.81968171259102
  H           4.91575930053264      0.45916752368502      0.83096646997776
  H           1.39965329786967      1.74554386510520      3.04450040498507
  H           2.06987201625262      0.05638423247625      4.29172675753314
