46
Coordinates from ORCA-job goat_0_133 E -1252.759193522983
  O          -1.48336090255385      0.92157170767424      3.65430449821693
  C          -0.67481260312887      0.64108106913890      2.51576745586697
  H          -0.96655303440363     -0.32046665253174      2.08117668654795
  C          -0.80140997743596      1.71392496027916      1.43274182778725
  H          -0.95503983424699      2.68161205255468      1.92184445995280
  O          -1.96487404416374      1.43740310999907      0.66106354293095
  Si         -2.05383293397141      1.23225393083613     -0.98105183025991
  C          -3.29496419755723      2.46740409236843     -1.63964562519990
  C          -4.70486303401849      2.16330852412775     -1.11240925700143
  C          -2.88334812010415      3.90813760964385     -1.31010910470873
  C          -2.51664747775673     -0.52351631658615     -1.42307025205954
  C          -2.76195263515366     -0.66720520215493     -2.93270152419673
  C          -1.47388362886735     -1.53780215600186     -0.93893645502072
  O          -0.52822351412306      1.53627268408648     -1.56196581257189
  C           0.35556991575744      2.32415063931075     -0.77052626035942
  C           0.51133372005123      1.78992694088258      0.63857257126892
  H           1.18339161887261      2.47671022720462      1.16567794821428
  O           1.11602722556574      0.49557921387701      0.57976687486103
  C           1.65199819194691      0.10380325394727      1.82778941194184
  H           1.70357796060767     -0.99022923300393      1.79169069980922
  O           2.92753230350047      0.64326973416806      2.04231904061350
  C           3.91633739646244      0.10039418242658      1.16963938195199
  C           0.76337761579647      0.53982245408301      2.99420810161574
  O           0.90317624839073     -0.42285543125542      4.02748951813486
  H          -2.39629381313784      0.70235863400976      3.43698924187614
  H          -3.30340708292081      2.35374767724783     -2.73130403513977
  H          -5.42962887055318      2.88176170189837     -1.50969940536601
  H          -4.73776601970815      2.23202437850400     -0.02012739872872
  H          -5.03991130496372      1.16111406827899     -1.39430093681542
  H          -3.63016425000324      4.61824029073922     -1.68122908600105
  H          -1.92348473020788      4.16918254964845     -1.76365971444345
  H          -2.79643054353111      4.05505230307344     -0.22871211683829
  H          -3.46222930098425     -0.72663736795862     -0.90283064733861
  H          -1.85896520969317     -0.42467804176853     -3.50281865108787
  H          -3.56411397469288     -0.01168687522648     -3.28186524197048
  H          -3.04006376340334     -1.69690598864404     -3.18059634746349
  H          -1.31717936174357     -1.47761279206667      0.14065886857637
  H          -0.50859856190818     -1.36679116716572     -1.42375982780569
  H          -1.79166476319817     -2.55869149613895     -1.17637168555529
  H           0.00612704920276      3.36096902674911     -0.71091979433966
  H           1.33145062049087      2.31992112882280     -1.26019134802718
  H           3.96314040666650     -0.98968217311262      1.27340640214205
  H           4.87138980269696      0.53471959360923      1.46410425726080
  H           3.70532239629610      0.35625416981357      0.12792101844226
  H           1.09781783340843      1.52298645286069      3.35090391755024
  H           0.22004718242121     -0.22394746824840      4.68102663273720
