46
Coordinates from ORCA-job goat_0_117 E -1252.751232544709
  O          -1.17163168822506     -1.20929174640538      2.06343487667043
  C          -0.05836473494194     -0.49532514340505      1.54673480398316
  H           0.16982080623115     -0.96888941047613      0.58877190149568
  C          -0.31049382993817      0.99776183173495      1.35533825503162
  H          -0.29773639544450      1.46926235738789      2.34320221227581
  O          -1.58443571179921      1.28478000587461      0.80827535411393
  Si         -1.90954131295849      1.50576957011563     -0.80440160912847
  C          -3.20088683727371      2.84628616790827     -0.93989333705197
  C          -3.71547693294054      3.03512604677770     -2.37321226788480
  C          -4.36308221455069      2.66327141728767      0.04610221051666
  C          -2.29731883018000     -0.15560872869991     -1.58208092147126
  C          -3.65974105711229     -0.70087189419748     -1.13239014072488
  C          -2.17351722849474     -0.15471926881483     -3.11131728220212
  O          -0.49339252576277      2.10587934000266     -1.44337222146683
  C           0.67452177928282      1.43138866374048     -0.98785955617702
  C           0.85729233867755      1.57702423486276      0.52353454612675
  H           0.97137181992602      2.63891821094954      0.76543225710539
  O           2.08302545730768      0.88393577149694      0.78807935084004
  C           2.23835162115288      0.39135273128320      2.10171334806600
  H           3.21904641258702     -0.09616046394670      2.09746607080454
  O           2.20396739426879      1.41804712719191      3.05603424041968
  C           3.28009379062178      2.34386414752036      2.91288150526497
  C           1.15464173619586     -0.63462257271033      2.46349457031298
  O           1.73353312509940     -1.93010962359190      2.37148045205268
  H          -1.47397232893921     -0.76434172436292      2.86547872638688
  H          -2.65630670780182      3.75573174614515     -0.65123753128285
  H          -2.89964370925902      3.16896499524904     -3.08949771694351
  H          -4.36156779034167      3.91711323226017     -2.43329928760935
  H          -4.30629957269858      2.17286859511243     -2.69481619814167
  H          -4.95817956932663      1.77952602862071     -0.19869008351328
  H          -5.03188549083988      3.52966792186709      0.00862148048243
  H          -4.00839177864092      2.55547257722409      1.07396920218934
  H          -1.52619146672180     -0.83048440607177     -1.18720502306516
  H          -3.75850606506292     -0.70520553474146     -0.04294877411560
  H          -3.79822900376767     -1.72835399273832     -1.48500895088599
  H          -4.47767160626155     -0.10085698429308     -1.54166291961867
  H          -2.92571311604508      0.49041498337317     -3.57287042943149
  H          -2.32096504104172     -1.16526036942410     -3.50729923755123
  H          -1.18964067108411      0.19363338446667     -3.43637590211656
  H           1.54180199025921      1.87241278185156     -1.48303067298339
  H           0.64231645624304      0.36837689216908     -1.25563240000654
  H           3.19712220637685      2.90644514171030      1.97935197275393
  H           4.24161686700822      1.81864547102945      2.93507418508706
  H           3.21921055571820      3.02949822842836      3.75748407343472
  H           0.83292979795874     -0.43599089057921      3.49314115479511
  H           1.03206906253949     -2.56909684918339      2.54926571316283
