46
Coordinates from ORCA-job goat_0_201 E -1252.756073074840
  O          -1.53412587131213      0.39758285555850      3.17107393048927
  C          -0.45413311158095      0.29714855132878      2.24997153726740
  H          -0.35289767510260     -0.76808772143007      2.02834120240909
  C          -0.71415381782675      1.04847162109164      0.95335837269297
  H          -1.11911812239548      2.03612378254860      1.21156771471721
  O          -1.67122489148751      0.33022491568221      0.17977809029864
  Si         -2.13719366107755      1.08202572643482     -1.23521025799569
  C          -3.35697215103491      2.47933264995985     -0.94346563527483
  C          -4.18989977404315      2.22584023691719      0.32384933617125
  C          -2.70176754132699      3.86592858801611     -0.89264923302243
  C          -2.82355266629137     -0.23382681873255     -2.36634339578085
  C          -1.79852312687273     -1.32826348965750     -2.68853432152098
  C          -4.11654794288563     -0.83768861842359     -1.79743903107714
  O          -0.70217799794184      1.72932493041126     -1.78791940167739
  C           0.48017523297742      1.09442346166708     -1.30565755161639
  C           0.62199574399647      1.26601398753266      0.20472892348193
  H           0.98730508057998      2.27257246132198      0.43286874082824
  O           1.59591459667160      0.30551315626887      0.61560124005274
  C           2.01733590893754      0.48307118858328      1.95335510953146
  H           2.45981819809937     -0.47673912875614      2.24193717309402
  O           2.95959261050290      1.51143582192846      2.07971873280580
  C           4.20868881501210      1.20246105020731      1.46389162928797
  C           0.84037010621155      0.80744338635001      2.87422457215586
  O           1.08479896459809      0.19775462969772      4.13137825311333
  H          -1.75817406847388      1.33129385357924      3.27803421599530
  H          -4.03934336906955      2.45814106875161     -1.80369612467962
  H          -3.56189126033102      2.26152412640570      1.21883701325106
  H          -4.68423688511369      1.25124338766989      0.30848328899930
  H          -4.96412728338019      2.99271313209363      0.43049797512335
  H          -2.00059825128512      3.94245647999931     -0.05618926350817
  H          -3.46328726943744      4.64166991138892     -0.75791535828683
  H          -2.14907370028206      4.08802094978830     -1.80809296072218
  H          -3.07486511597089      0.28851820553715     -3.29981349950787
  H          -1.47445262948430     -1.84498400319578     -1.78009254497987
  H          -0.91100757725425     -0.92082327237937     -3.17966743994749
  H          -2.23572399234273     -2.07689680252842     -3.35773340714274
  H          -4.89023787153208     -0.08031736958192     -1.64681845638785
  H          -3.93318672061025     -1.32768689037459     -0.83596375224126
  H          -4.51873211727972     -1.59218328248509     -2.48148296787282
  H           1.33712434601789      1.54201023519269     -1.81126309937839
  H           0.47231809049657      0.02314638393270     -1.52952379450298
  H           4.62088900740005      0.27461773003214      1.87660593524038
  H           4.88302046792105      2.02960641952330      1.68416111085847
  H           4.09912561314478      1.09991310176784      0.38109007608544
  H           0.77441414137408      1.89855058269018      2.99151999106398
  H           0.25228953908526      0.23762882768619      4.62085733210947
