46
Coordinates from ORCA-job goat_0_24 E -1252.764214908460
  O           0.47969658604760      2.44047249949154      3.28760817716919
  C          -0.28317339214787      1.40363712997664      2.68965683983179
  H          -1.21007746318045      1.23051898266155      3.24921524557580
  C          -0.64755732386990      1.88654527681508      1.28791273029561
  H          -1.04083633701347      2.90562046937330      1.35956693452039
  O          -1.64875286328679      1.00095488659217      0.77837363749290
  Si         -2.06756667414686      1.02582581805853     -0.84061925334648
  C          -3.53456145694469      2.15919493188902     -1.08833321781719
  C          -4.77943171747801      1.61125389992524     -0.37545323707029
  C          -3.23829399546489      3.59667468541671     -0.64041431259698
  C          -2.42317341037967     -0.72212447573058     -1.39409742918704
  C          -3.04564134331460     -0.73683195462050     -2.79927862397165
  C          -1.17531762973308     -1.61306768947956     -1.34786402224098
  O          -0.74317580241453      1.59791056230409     -1.65460172122928
  C           0.28263156605905      2.35481084130762     -1.01836400614286
  C           0.58690339910193      1.89026123986921      0.39310008688288
  H           1.31935889363790      2.58218818948103      0.82130959941860
  O           1.13667873730870      0.57427346564908      0.31567311716804
  C           1.58348417737751      0.06959166559546      1.55817597188199
  H           1.87204688424849     -0.96614551558491      1.34443453588604
  O           2.67824535135681      0.78571391470742      2.06035100710178
  C           3.82866782273463      0.69920614014478      1.22386018783218
  C           0.47464698739584      0.06978564762356      2.61756673291739
  O          -0.43559958524885     -0.99169435829690      2.35691887556392
  H           0.80796491045986      2.12541851138297      4.13735773079609
  H          -3.73135765232095      2.17263448151828     -2.16837539429033
  H          -5.64047079939312      2.26697786218195     -0.54199704032305
  H          -4.61439341201575      1.55164645472999      0.70527902834446
  H          -5.04887555690468      0.61166301703636     -0.72749052739321
  H          -3.06008659280619      3.64330100316023      0.43830078631944
  H          -4.08961993250546      4.25041981284804     -0.85766259390193
  H          -2.36239128461223      4.01184529676708     -1.14632316954415
  H          -3.16266356723800     -1.12177762786012     -0.68736067007309
  H          -3.25288068621782     -1.76463439068315     -3.11440191708700
  H          -2.36327629839177     -0.29899267214632     -3.53541526872164
  H          -3.98449297384705     -0.17909883449726     -2.84081865925358
  H          -0.41309081803540     -1.24836467048686     -2.04241483309133
  H          -1.42821949286527     -2.63849829579757     -1.63729325938261
  H          -0.72558078260752     -1.64424072279198     -0.35350126146289
  H          -0.00221044235293      3.41188369295918     -0.97769102128245
  H           1.18559130239796      2.26349548070126     -1.62634317257537
  H           3.66859006181433      1.21894206912647      0.27522638237674
  H           4.08038312633593     -0.34870889401528      1.02259072984034
  H           4.64839659199549      1.17311653622735      1.76352445487121
  H           0.93725265180253     -0.13680979401297      3.58638598930137
  H          -1.05381976333696     -0.66854456951711      1.68398583059721
