46
Coordinates from ORCA-job goat_0_241 E -1252.757234948838
  O          -1.41539290806520     -0.01455243723890      3.57250856995700
  C          -0.55119611823689      0.13603728395303      2.45103220307200
  H          -0.76711621337683     -0.71266116734986      1.79916189442473
  C          -0.81285577688103      1.42282374409969      1.66883800648264
  H          -1.01902849336252      2.23165677992251      2.38092911753170
  O          -1.97844540046746      1.25386914415611      0.87486154957539
  Si         -2.11508503943279      1.44559390328130     -0.76607405436117
  C          -3.37324467793989      2.80175048474013     -1.04563602030827
  C          -3.60814723922118      3.10028718541611     -2.53165294299542
  C          -4.69741252327242      2.49537311989890     -0.33221849461693
  C          -2.53542922605449     -0.16974334449394     -1.61411598044014
  C          -2.07882424398048     -0.16580576294132     -3.08220441209417
  C          -1.93665639219217     -1.37179958551707     -0.87158174532351
  O          -0.61044549683833      1.91800350416343     -1.29022573512814
  C           0.19345326445679      2.62656403686948     -0.35244211106941
  C           0.46033145872128      1.80774267849347      0.89469531168911
  H           1.08697364119539      2.41730006594863      1.55542692910322
  O           1.17809993513639      0.62860215167233      0.52107892513103
  C           1.79647343168520      0.00797504339491      1.63115246161405
  H           1.95112465511260     -1.03476562676888      1.33209290374357
  O           3.02147817966383      0.60808133461103      1.95197958199117
  C           4.02354306246491      0.39575579403363      0.95950886160630
  C           0.91043720319616      0.06393737930558      2.87601310351853
  O           1.16735295186362     -1.09865271420324      3.64786854294548
  H          -1.35206504001382      0.78344520615486      4.11330849514680
  H          -2.93284449898399      3.69515128752263     -0.58091859265859
  H          -4.25775221532628      3.97383805631381     -2.65155947603778
  H          -4.10033711813312      2.25759581807535     -3.02667766947024
  H          -2.67328629491711      3.30212780635310     -3.06253082502621
  H          -5.40375337238680      3.32357372176836     -0.45386154464144
  H          -4.55252307082527      2.33014592659940      0.73847797701702
  H          -5.16925617446135      1.59936000958644     -0.74921420341524
  H          -3.62917854352082     -0.26148800572043     -1.59582146394508
  H          -0.98933362775362     -0.09732295084429     -3.14735363036219
  H          -2.49873453400444      0.66845815258664     -3.64890035218951
  H          -2.38470676277067     -1.09331687682860     -3.57745419210279
  H          -2.33299615727761     -1.45938850626113      0.14232997890583
  H          -0.84757464477292     -1.28564646222629     -0.79826726421508
  H          -2.16061043061921     -2.30185494988996     -1.40499994150091
  H          -0.28456584033193      3.56958014838494     -0.05906651440756
  H           1.14349386464891      2.86064840898605     -0.83658727308492
  H           3.75129680093373      0.87612649625247      0.01598378280787
  H           4.17500776407099     -0.67646033621327      0.79039338184162
  H           4.94432784683091      0.83751012410848      1.33963866433348
  H           1.16712864346518      0.96176637230057      3.45543369367305
  H           0.46222537197480     -1.15097244245607      4.30691050328306
