46
Coordinates from ORCA-job goat_0_171 E -1252.758607662151
  O          -1.42527927595546      0.10254729346032      3.62528249631334
  C          -0.61495362521287      0.20229537648383      2.46271971132421
  H          -0.89584834922464     -0.57819538870304      1.74333561620601
  C          -0.85657099384063      1.56350942524835      1.81619216577357
  H          -1.01096760706607      2.29430766450280      2.61601163137383
  O          -2.05456128236185      1.53908862042721      1.04774088129222
  Si         -2.08309297812205      1.43169570721182     -0.61012921280325
  C          -3.64805003283918      2.30459814796518     -1.14152640849610
  C          -3.62637838556914      3.76096063463775     -0.65492104390149
  C          -3.87241889073840      2.24221304537883     -2.65853115774603
  C          -1.92771211424665     -0.34767716345801     -1.16933375822554
  C          -3.20890716638868     -1.13599516651963     -0.86483630030912
  C          -1.49959717314159     -0.50696334731521     -2.63394957385664
  O          -0.74312584855922      2.27128837034536     -1.12553814438579
  C           0.06892345250409      2.90828177555033     -0.14437582213530
  C           0.38921423546106      1.98958309515580      1.02049263129875
  H           1.06415737857909      2.53048843749419      1.69281491843917
  O           1.05659688959542      0.83352266902275      0.50501145454488
  C           1.69481461605599      0.08432279380405      1.51963068143455
  H           1.80270698177678     -0.92475773907836      1.10157547399546
  O           2.95163075805802      0.60623617007956      1.84816916230014
  C           3.90874543844383      0.46172249130943      0.80020983832949
  C           0.86098599621402      0.03817424758768      2.80471300817715
  O           1.09637015441321     -1.15633078330499      3.53814482348970
  H          -1.15261995575889     -0.69877987417191      4.09075043529236
  H          -4.48001713016736      1.78579861721602     -0.64734691231529
  H          -2.80462351428628      4.31379783561837     -1.12143745869326
  H          -3.50082589266265      3.82577780507343      0.42879527193616
  H          -4.55930368109239      4.26970403546881     -0.91966676723844
  H          -3.02060398135074      2.66308159933199     -3.20310472829983
  H          -4.75899133199779      2.82139274767356     -2.93787867655901
  H          -4.02163346615959      1.21865416966890     -3.00889268998456
  H          -1.12034624776764     -0.75358824127331     -0.54646540090720
  H          -3.49197651245028     -1.05748128778497      0.18936638581349
  H          -3.07616759075370     -2.19794361684991     -1.09699375994890
  H          -4.04878315466025     -0.77033369289917     -1.46386065471908
  H          -1.32418949462911     -1.56290782481339     -2.86669090993212
  H          -0.57767821780354      0.04114310628292     -2.84444270119843
  H          -2.26867474177873     -0.14584701857942     -3.32152323411093
  H          -0.42461499328103      3.80681891921647      0.24334498583678
  H           1.00048607684283      3.20705655444610     -0.62927387402766
  H           4.85725654281419      0.83622265864253      1.18416427662254
  H           3.61806099877778      1.04002914820033     -0.08072722068469
  H           4.01707830087849     -0.59306827773931      0.52302341981851
  H           1.17363944360207      0.85187939385269      3.46474375580677
  H           0.90179636584950     -1.91007313386676      2.96547338505956
