46
Coordinates from ORCA-job goat_0_192 E -1252.757411651236
  O          -1.61296382925876     -0.46631470235665      3.10226087168075
  C          -0.64191622112719     -0.07019832941184      2.14036252002007
  H          -0.76611383280406     -0.75758744228067      1.30050106214164
  C          -0.84607505855303      1.35909986717808      1.64658043691468
  H          -1.05292715105633      1.99729949105624      2.51396951974646
  O          -1.99401023172735      1.42957777398515      0.81380633258120
  Si         -2.00319625323800      1.61898490625278     -0.83460584398608
  C          -3.28563520265044      2.92480036880018     -1.21993399347890
  C          -3.24153058925457      3.33007557207877     -2.69973595897404
  C          -4.70651079954975      2.52484537426638     -0.80280298821374
  C          -2.29367419469041      0.00041371056873     -1.73495278529227
  C          -0.99780947253775     -0.77034393017948     -2.01834443040341
  C          -3.28872584679188     -0.88422993985669     -0.96582068940504
  O          -0.48946592428819      2.19384932375399     -1.21099754052205
  C           0.23194439760266      2.81953667633660     -0.15356633201310
  C           0.46354916072227      1.86688890224711      1.00342109371272
  H           1.03740617126303      2.40308444777426      1.76717290174290
  O           1.23978709064587      0.76765644203314      0.51924589886877
  C           1.77631322621255     -0.02110660858264      1.56140507339939
  H           2.00763938547342     -0.98784859365004      1.10028887225412
  O           2.93486579461022      0.54576236103642      2.10929085751391
  C           4.04052630172948      0.53621514617415      1.20840532700220
  C           0.76972607627262     -0.21847331317668      2.69478467137303
  O           0.97898684807196     -1.50699431372660      3.24997409234973
  H          -1.64336995045908      0.20252741714276      3.79872861234591
  H          -2.98322910646002      3.79331221754080     -0.61825439828241
  H          -3.93188109845069      4.15765744543900     -2.89439213021562
  H          -3.53929982563598      2.49730338876985     -3.34497526839582
  H          -2.24093965612084      3.64894788617661     -3.00458657039162
  H          -5.39879599002347      3.36227394294130     -0.94075190177038
  H          -4.75509965682307      2.21800331185723      0.24574784183634
  H          -5.07382406246270      1.69474011603452     -1.41376880995957
  H          -2.75068414298337      0.26581603996065     -2.69730950804100
  H          -0.30187777741659     -0.18536296508453     -2.62355472734344
  H          -1.21721624155472     -1.70109527838142     -2.55270705661954
  H          -0.48438612521817     -1.03508522013218     -1.08930183047005
  H          -3.51121359404095     -1.79198212280938     -1.53641011080883
  H          -4.23510993491695     -0.37472017316731     -0.76865198435174
  H          -2.87146560266414     -1.19026854639725     -0.00228989173224
  H          -0.29918645675986      3.70495965865255      0.21626012950629
  H           1.19669752477290      3.13923601666475     -0.55189724604947
  H           3.84445675366141      1.16651858220750      0.33694137572275
  H           4.25557873152599     -0.48580440171101      0.87610623157698
  H           4.89771634572523      0.92871303087593      1.75486866418738
  H           0.93993569913008      0.55226194126171      3.45993564305509
  H           0.20695432209861     -1.69669547816271      3.79981396718802
