46
Coordinates from ORCA-job goat_0_7 E -1252.765833399459
  O           0.21771644791083      1.92493709460562      3.64216793300183
  C          -0.45071944653947      1.04592902773248      2.74790763436593
  H          -1.42953964042772      0.82606177164457      3.18070430669544
  C          -0.66471562597506      1.72515289531947      1.38931652359636
  H          -1.07572969210228      2.72497928976485      1.55970293893757
  O          -1.59902422362826      0.92639818568644      0.65482588446255
  Si         -1.80123618761891      1.09157364964415     -0.99562946820941
  C          -3.22012325413962      2.25567420307980     -1.36088402802736
  C          -4.58343836619965      1.68448368924791     -0.94840611600638
  C          -2.98908113048423      3.62578765906638     -0.70609498731000
  C          -1.96184483905388     -0.62043241827933     -1.72490509213262
  C          -2.97370833410809     -1.53054728493130     -1.01508959229275
  C          -2.25225284026595     -0.54441109438586     -3.23131758788453
  O          -0.39095397959931      1.74768255515620     -1.57191176637491
  C           0.51353902992330      2.46106540012288     -0.73607440427130
  C           0.66093226448390      1.85585751978791      0.64645536767921
  H           1.31126227073360      2.52498063367993      1.22071714290780
  O           1.28153971551242      0.57393276514401      0.50019673948815
  C           1.57499782698250     -0.05507738948268      1.72959061696261
  H           2.02368160778305     -1.01560341607637      1.45657931085039
  O           2.46861084638948      0.70211601560963      2.51195557639246
  C           3.74057611395798      0.90302318203000      1.89435264845099
  C           0.31478945368742     -0.27300348521802      2.57211441687244
  O          -0.49646875124356     -1.27118926762308      1.97349481996618
  H           1.16819459066422      1.85863181133027      3.46618996956691
  H          -3.21967649312917      2.39408492700972     -2.45043810403940
  H          -4.59685180165222      1.41526282813955      0.11287803786117
  H          -4.84476808860644      0.79457738875947     -1.52452211507526
  H          -5.37214459777380      2.42704771977286     -1.10968932390306
  H          -2.98954071364162      3.54402662067371      0.38527426576233
  H          -3.78947712070698      4.32031156266498     -0.98170400764157
  H          -2.04034063384450      4.07440641910617     -1.01150480382188
  H          -0.96257250033351     -1.05644758864736     -1.58965161687411
  H          -2.81102439763894     -1.57532077177257      0.06486514527065
  H          -2.90040689829424     -2.55127175795735     -1.40445244460499
  H          -3.99903486170827     -1.19188362244789     -1.17998162323619
  H          -1.51399385192486      0.06659875226327     -3.75894726188636
  H          -3.24031880981978     -0.11148139549596     -3.41699546561692
  H          -2.24017789024510     -1.54395700658145     -3.67789517092780
  H           0.18511527627988      3.49980435462570     -0.62188477237315
  H           1.48876294809031      2.46122412659529     -1.22820070611250
  H           4.17264883772406     -0.05933642952538      1.60078677377082
  H           4.37834235561264      1.38089818564969      2.63684170835503
  H           3.65408701386259      1.54595399900040      1.01494822815049
  H           0.61825755987346     -0.64306733470999      3.55385616434042
  H          -0.99993918876630     -0.83318396977884      1.27071830491448
