46
Coordinates from ORCA-job goat_0_12 E -1252.767234210801
  O          -0.08602212333707      1.12202649580652      3.80412499524748
  C          -0.57650766332293      0.39555574902817      2.68593632101787
  H          -1.53078427364457     -0.04763181023255      2.98054299170544
  C          -0.82875178294418      1.33512983936015      1.50138277185354
  H          -1.39211645235892      2.20452558549515      1.85776443968871
  O          -1.59979729174355      0.60815815329183      0.53714469502511
  Si         -1.86665097855859      1.31366969006197     -0.95566684950841
  C          -3.16069527194973      2.65268220586572     -0.77555192933675
  C          -3.37676766334536      3.39461639580197     -2.10179272609981
  C          -4.48907707449151      2.15205756125034     -0.19525639399579
  C          -2.23931625431191     -0.05120874022194     -2.17150395841177
  C          -0.95877688422638     -0.77745995249028     -2.60795480527203
  C          -3.25721694253336     -1.05094297876419     -1.59875823766890
  O          -0.42231571674058      2.02337787218629     -1.36473786994030
  C           0.31102231257530      2.67912822235946     -0.33263661723968
  C           0.49310124950554      1.81382130986089      0.90305335586456
  H           1.00748188582304      2.42549570708924      1.65293594511634
  O           1.31192991088502      0.69906635502409      0.53374400684127
  C           1.63428413622685     -0.15354499340629      1.61032020452621
  H           2.23594855483646     -0.95395196256445      1.16758323002245
  O           2.36458461576150      0.51293630920332      2.61446131236700
  C           3.62051812344759      1.02263746784044      2.16492617234927
  C           0.38136928164703     -0.73132845597447      2.27566506581456
  O          -0.24610013700785     -1.65682523731710      1.40218469102229
  H           0.87104652085731      1.22430628494291      3.69238570592290
  H          -2.72735426232505      3.36380251258031     -0.05792853492811
  H          -2.43935656998343      3.78879238533949     -2.50398063848578
  H          -4.06496730661851      4.23569971908820     -1.96760578749693
  H          -3.81225124169950      2.73075920168170     -2.85558831436263
  H          -5.00707414718252      1.50018201303548     -0.90452556350150
  H          -5.15577737406013      2.99366894201697      0.02003492565491
  H          -4.34411319149457      1.59176069059268      0.73257847908739
  H          -2.68531631678513      0.42617496353727     -3.05331940620501
  H          -1.19855927067900     -1.57448762767409     -3.31952996741588
  H          -0.45745577001316     -1.23942581963881     -1.75151685104419
  H          -0.24793214808113     -0.09803966109887     -3.08267196275247
  H          -4.19832164609745     -0.57317202741996     -1.31786924632804
  H          -2.85745027191865     -1.54958384321999     -0.71079055824619
  H          -3.48376727931745     -1.82499640140154     -2.33896919896814
  H          -0.19210820427286      3.60636164744886     -0.03372849926361
  H           1.29282564760483      2.93559541106498     -0.73592431407765
  H           4.20632199569059      0.22296904252228      1.69976826605691
  H           4.14195207472419      1.39512922817363      3.04575034421327
  H           3.48208756567607      1.83586068886521      1.44812682154456
  H           0.69003718877330     -1.28043919582878      3.16791816911220
  H          -0.77785955298969     -1.13665894316229      0.77973532049529
