46
Coordinates from ORCA-job goat_0_167 E -1252.752557735706
  O          -0.86156335807783     -1.39923769470848      2.69403599428034
  C           0.12765600194218     -0.68769521056234      1.96729452113728
  H           0.50353779882664     -1.39095229215009      1.21732500277809
  C          -0.44257519628988      0.52766078243246      1.24296247419004
  H          -0.78333304601880      1.25342511609693      1.99156097440138
  O          -1.56238516504079      0.11078498245160      0.47202676549168
  Si         -2.06542468909549      0.96277486091843     -0.86251383304228
  C          -2.89646196836830      2.55654563401963     -0.34727271309343
  C          -2.92349267269054      3.62862284461905     -1.44415763157902
  C          -4.29847519728531      2.29114523197303      0.21858984734767
  C          -3.10875158530083     -0.21476687167053     -1.86635280117883
  C          -3.66428289457769      0.44814885638870     -3.13469453170951
  C          -2.30229808416545     -1.47359883728782     -2.21667886242623
  O          -0.64897627535124      1.33915397308891     -1.65764477339049
  C           0.54039128905429      0.78517966967940     -1.10180664271748
  C           0.66290596414854      1.17625038452934      0.36623998947266
  H           0.58088385295315      2.26597850479764      0.43350652297046
  O           1.97239339964574      0.77220533940342      0.76881950815687
  C           2.16428558295540      0.79079795512786      2.16930904494606
  H           3.22119703109830      0.53996214817881      2.31085128982347
  O           1.87595286488418      2.04554866178541      2.72210704662528
  C           2.76439013297401      3.06884241435670      2.27451430624097
  C           1.28194534676668     -0.25731034912956      2.87084922100358
  O           2.04599112441732     -1.37082267038164      3.31286033752894
  H          -1.24486521964915     -0.80020887010305      3.34710779960805
  H          -2.26557148169933      2.93342933498735      0.47069533845522
  H          -3.33130265597188      4.56654924667781     -1.05227124279771
  H          -3.55260940988605      3.32568177140673     -2.28544402892490
  H          -1.92214842751110      3.83218100531905     -1.83165697417417
  H          -4.97327695172178      1.92276886941180     -0.56032741626487
  H          -4.73369062928934      3.21035491372896      0.62428453439262
  H          -4.27892880981190      1.54781547769725      1.02133577970377
  H          -3.95413781906435     -0.50876576273055     -1.23083725318905
  H          -2.85715508947164      0.83870073684731     -3.76328103590848
  H          -4.33897943188984      1.27526833662047     -2.90276024595857
  H          -4.22324653590052     -0.27957781863237     -3.73222562950417
  H          -2.92071085138164     -2.18187426698974     -2.77799302694832
  H          -1.93247724967591     -1.98096930317033     -1.32231102197191
  H          -1.43893191842695     -1.22192315037013     -2.84097790857133
  H           1.39340032502741      1.19438509613224     -1.64638902877413
  H           0.55205481608662     -0.30526890244896     -1.20659595295770
  H           2.65122020222511      3.25260128776461      1.20272285060060
  H           3.80298640407287      2.79119645206938      2.48604158613261
  H           2.50780548856050      3.97204653555523      2.82722108370275
  H           0.87267049263615      0.19905140920617      3.77564987805713
  H           2.36833449533812     -1.84583583293595      2.53654085803505
