46
Coordinates from ORCA-job goat_0_105 E -1252.757207324917
  O          -1.58544844158353     -0.44940043577709      3.20293937139741
  C          -0.63100649639887     -0.03587419470378      2.23193312578418
  H          -0.80009475022216     -0.67951750887049      1.36595285659942
  C          -0.80319380159172      1.42265467288840      1.81481126236435
  H          -0.97777493555209      2.02267822486984      2.71527706526637
  O          -1.95892978354161      1.57906301615477      1.00162313778636
  Si         -1.91106486483714      1.64420420681177     -0.65880790868552
  C          -3.34586210759189      2.73321112745659     -1.16177274724858
  C          -3.23172583048340      3.25388577052765     -2.60102461949100
  C          -4.71661981419516      2.09036763950555     -0.91441922994279
  C          -1.82210909523342     -0.07525248598739     -1.39489726532378
  C          -2.90192102295720     -1.02695379028381     -0.86264112812936
  C          -1.80339761780755     -0.06677252233176     -2.92954099130601
  O          -0.47564387798784      2.40982347511242     -1.01456258263702
  C           0.27012887478229      2.95045980126730      0.07187543987124
  C           0.50488134493389      1.92651118514922      1.16684034140346
  H           1.11883610566019      2.39895470738520      1.94114558447013
  O           1.22658141168571      0.83060558167472      0.59694561305523
  C           1.76892694987330     -0.02997215443053      1.57856025126129
  H           1.95354463516553     -0.97724824004227      1.05973339992949
  O           2.96155561431603      0.47051350595614      2.11668654182224
  C           4.03784290803173      0.47502185035787      1.18082455771610
  C           0.79181482549085     -0.25525109486854      2.73268280273549
  O           0.97665534360190     -1.57676459375065      3.21386163878438
  H          -1.57412013956479      0.18419530135982      3.93221566213503
  H          -3.24874938035637      3.59551804700049     -0.48680335419365
  H          -4.00722004543510      4.00169664075863     -2.79810940766178
  H          -3.36384067113409      2.44754619755766     -3.32711706612553
  H          -2.26086908040039      3.71961269984839     -2.78922601165441
  H          -5.51688008892744      2.82285888993453     -1.06391553827997
  H          -4.80949889309171      1.69583671149324      0.10157647596941
  H          -4.89258535430885      1.26664349082285     -1.61177465553973
  H          -0.84641710285994     -0.44448582432570     -1.05033090045696
  H          -2.70984824863594     -2.05023765904151     -1.20250152445337
  H          -3.89361744520939     -0.74352364513136     -1.22425613519270
  H          -2.93691058450868     -1.03819521548192      0.23002825561746
  H          -2.77524296534822      0.23340878489819     -3.33131708557642
  H          -1.58444188596835     -1.06757553540564     -3.31660071191470
  H          -1.04898387327570      0.61782391370684     -3.32812885928874
  H          -0.24295675377579      3.81755651858275      0.50361631384820
  H           1.23437807835935      3.27993759013743     -0.32015986678548
  H           4.92372855951688      0.81106605915232      1.71903801554433
  H           3.83531001897043      1.15681275665993      0.35059546314903
  H           4.20900580224360     -0.53394903357892      0.78864803078488
  H           1.00990009381956      0.46906297396072      3.53028087521681
  H           0.21783438633308     -1.77030740697986      3.78047550737527
