46
Coordinates from ORCA-job goat_0_199 E -1252.757052276638
  O          -1.58106609735236     -0.20894253901961      3.31979458488741
  C          -0.64187889629383      0.05713191115641      2.28850298734105
  H          -0.82865677242406     -0.60317481096407      1.43188516507895
  C          -0.80967440851981      1.50370560325852      1.83857809336574
  H          -0.97912337463232      2.11446066445986      2.73040557662277
  O          -1.97191292580473      1.64597153343034      1.02858353227537
  Si         -1.93313371326178      1.67163210488971     -0.63245863574062
  C          -3.37689286265224      2.73852602415766     -1.15774985088417
  C          -3.25791314213110      3.24058715552936     -2.60349417344487
  C          -4.74163659708492      2.08200530245542     -0.91272914402421
  C          -1.84060997197110     -0.06464520458110     -1.32777819374796
  C          -2.90502356979443     -1.01041599002372     -0.75481948724916
  C          -1.84715499062228     -0.09409073069694     -2.86224203083388
  O          -0.50514787457938      2.43914090840998     -1.01368622339941
  C           0.24943629470453      2.99710634777559      0.05833460038089
  C           0.49152115706078      1.99150555122688      1.16866861194972
  H           1.11486243182619      2.47587438781135      1.92812595839406
  O           1.20608868491560      0.88508476935499      0.60873304567826
  C           1.75379204260016      0.03745613492543      1.59767202100446
  H           1.93205658799210     -0.91559285498342      1.08339238781737
  O           2.95502013082942      0.53545042130724      2.11654938964062
  C           4.02193501672076      0.52155855837723      1.16980474394145
  C           0.78709475434115     -0.16486193842420      2.76960378031468
  O           0.94619256068634     -1.44338571724910      3.36994476147256
  H          -1.34601000887721     -1.06570462469986      3.69917877330601
  H          -3.29562223468566      3.61095635885762     -0.49404301599721
  H          -4.04325249845098      3.97322262669641     -2.81799953186323
  H          -3.37068316727843      2.42226664824584     -3.31939951385411
  H          -2.29278650811040      3.71883897448650     -2.78945032076017
  H          -4.90115968278772      1.24630813330229     -1.59978989658990
  H          -5.54959104104503      2.80219872333877     -1.07984079028675
  H          -4.83833176269161      1.70117137982340      0.10812734687576
  H          -0.85693113556978     -0.41786155351901     -0.98959608816664
  H          -2.70864960246511     -2.04100041903314     -1.06950535769607
  H          -3.90391201497643     -0.74536563678534     -1.11036642328691
  H          -2.92533832083935     -0.99213078225808      0.33806677440341
  H          -2.82665879092201      0.19274971509061     -3.25516705028070
  H          -1.63072982602545     -1.10347492242039     -3.22802143316443
  H          -1.10202643680239      0.58318864429752     -3.28980856819297
  H          -0.25982351401931      3.87155159613852      0.47947501578540
  H           1.21086189382825      3.31925250704074     -0.34644626340939
  H           4.91643176505142      0.85344012804833      1.69613851814901
  H           3.81744087967615      1.19796909161155      0.33571338577706
  H           4.17919703059357     -0.49243976817126      0.78476201419731
  H           1.02094721727036      0.55784185815337      3.55633731987157
  H           0.83240329457449     -2.11881627082834      2.68827360434184
