46
Coordinates from ORCA-job goat_0_180 E -1252.757120808619
  O          -1.21147575091453      1.51186458608754      4.01152654578515
  C          -0.80278200487277      0.78627009398934      2.85605929954446
  H          -1.38642880306544     -0.13531595670943      2.75770351966426
  C          -1.08242133519843      1.64858017830931      1.61941738967379
  H          -1.72623297804997      2.47809883397452      1.92936711230149
  O          -1.74308682174011      0.84224380544680      0.64982303953965
  Si         -1.91096851446186      1.33732318423290     -0.93064462266113
  C          -3.57259559369259      2.16519433758643     -1.16884039954513
  C          -3.74095890937243      3.37717278668607     -0.24268584369352
  C          -3.78407028964898      2.56439815141717     -2.63628099599637
  C          -1.69464040134398     -0.13432975343571     -2.05903642772730
  C          -0.35886061500596     -0.85102125241214     -1.82935026756512
  C          -2.87209545941861     -1.11279061098002     -1.93503313433256
  O          -0.68991703459973      2.42322929946606     -1.21973876699349
  C          -0.01636418268835      3.09922946027517     -0.16406961989768
  C           0.21335925342437      2.22630841841445      1.05712490604580
  H           0.66740830817155      2.86182927826420      1.82828983450228
  O           1.10815007291096      1.18195411449630      0.67220598427700
  C           1.23085411576086      0.08971605049705      1.56793534624883
  H           0.71182771925567     -0.77629104476716      1.13448501943692
  O           2.58271759928169     -0.22064946939692      1.74354001097710
  C           3.16877476176466     -0.84866368442351      0.60423069500972
  C           0.66901141163432      0.41510489724189      2.94467188262398
  O           0.78439906374989     -0.69903500486030      3.81614261517786
  H          -0.99342523564204      0.97550027027554      4.78387663479903
  H          -4.33357956492688      1.42095780084965     -0.90001282302037
  H          -2.98701035769697      4.14234328511000     -0.45326631420318
  H          -3.65552372287624      3.10015543420944      0.81137691516144
  H          -4.72398930367029      3.83859041496840     -0.38564594934013
  H          -3.74393064974514      1.70096554402540     -3.30609432706598
  H          -3.01848997430448      3.27618014061822     -2.96228225999523
  H          -4.75895755629137      3.04522212987917     -2.76965358204604
  H          -1.69516757020634      0.27409503091201     -3.07864551764670
  H          -0.32868533769976     -1.30307875002206     -0.83416457233892
  H           0.48978880683884     -0.16789885200137     -1.90982519078268
  H          -0.22270136222695     -1.65366257614922     -2.56205987444366
  H          -2.73902321978964     -1.96221431168459     -2.61309817955593
  H          -3.82705361216577     -0.63908097433553     -2.17732983639932
  H          -2.94454708118561     -1.51211068798899     -0.91799767146393
  H          -0.58797643969274      3.98046877504036      0.14756324913978
  H           0.94984092780497      3.43407371864003     -0.54871093230080
  H           4.18074829182951     -1.13768039179231      0.88670456604653
  H           3.21009934070171     -0.16054737911555     -0.24467997999470
  H           2.59798617381092     -1.74025107232321      0.32217456522200
  H           1.22830428615946      1.26918561823957      3.34620416924648
  H           1.72363954909468     -0.90538386675520      3.89898378858622
