46
Coordinates from ORCA-job goat_0_70 E -1252.763768291665
  O          -0.02140600292743      1.37279827889836      3.76487579468837
  C          -0.56574016145803      0.58980950012186      2.71214186429395
  H          -1.53528464843975      0.17012647091357      3.00185273511941
  C          -0.76300130035659      1.43859804903907      1.45332555664784
  H          -1.30159078500077      2.35568825490900      1.72378549417521
  O          -1.54094948769475      0.66604476831377      0.53160910094360
  Si         -1.77938767369276      1.31299684811805     -0.99170703311261
  C          -3.05325629363084      2.68200691381687     -0.88118612316911
  C          -3.53063383387182      3.09724709637771     -2.28037575480931
  C          -4.23388466394955      2.35403142779810      0.04147417820869
  C          -2.16644317782965     -0.07457783225165     -2.17326707283907
  C          -1.00104029139095     -1.06876876431186     -2.27164680477866
  C          -3.47428322110599     -0.79222377593842     -1.80918512321929
  O          -0.31802837884069      1.96842146704015     -1.43058478366732
  C           0.45285765377464      2.63000692666690     -0.42867877633040
  C           0.58694931732987      1.81408442319502      0.84594910373521
  H           1.13430508919877      2.41895951725112      1.57663407915197
  O           1.32646493453850      0.63341341694008      0.52948272230454
  C           1.63719690079968     -0.16303685187332      1.65611793264097
  H           2.10961945147514     -1.05833339798333      1.23574853171706
  O           2.51448303442403      0.48093638347724      2.53726374024811
  C           3.78886329292376      0.74276688020518      1.95617851766038
  C           0.37869557621449     -0.58175346087984      2.42498602271736
  O          -0.30705340928029     -1.58504728545770      1.68476183498066
  H          -0.70251104700250      1.99077285169345      4.05495891666448
  H          -2.51504282164759      3.53440003352912     -0.44370993145191
  H          -4.09574543089316      2.29000116911193     -2.75672716523955
  H          -2.69373409804865      3.35158780312093     -2.93788745529773
  H          -4.18780649042163      3.97105124836602     -2.22246754746496
  H          -4.81733188948251      1.51065945418324     -0.33809887444238
  H          -4.91016577026677      3.21219675958451      0.11756447041154
  H          -3.89805471667774      2.09887321090594      1.04985239913619
  H          -2.29682322142350      0.39849644513891     -3.15551324771965
  H          -0.83492314644651     -1.57894027899136     -1.31838782475373
  H          -0.06816807466710     -0.57477656576365     -2.55266988717338
  H          -1.21914376623835     -1.83692697316552     -3.02079461860465
  H          -3.42268090451452     -1.22102212433707     -0.80329138101674
  H          -3.66514156732470     -1.61278121870196     -2.50842334528717
  H          -4.33420775816957     -0.11938822503151     -1.84416562993155
  H           0.00064458966626      3.59623436476388     -0.17519231024762
  H           1.44622668966739      2.81326456121339     -0.84344312692116
  H           4.21939093965818     -0.17653757219947      1.54200769001230
  H           4.42970601924015      1.11713312204349      2.75427294316010
  H           3.71684590617824      1.49377519864051      1.16453402008098
  H           0.68926993163011     -1.02969891835441      3.37072918894761
  H          -0.81410529402429     -1.12631960013633      0.99755697983153
