46
Coordinates from ORCA-job goat_0_88 E -1252.759104125167
  O          -1.55604089371989      0.56799123496739      3.39218375131181
  C          -0.64927334561341      0.49018101210399      2.30268463057649
  H          -0.91268434514068     -0.35530114381149      1.65530242923625
  C          -0.74453247649587      1.77680050596026      1.49083187139113
  H          -0.85150899480411      2.61027126337019      2.19167593065825
  O          -1.92059233510019      1.77240126844392      0.68836370509056
  Si         -1.92945397379979      1.39393013236949     -0.92742808302542
  C          -3.32849963311456      2.35802971081414     -1.70697790150317
  C          -4.71403863655732      1.94460042758489     -1.19345792457300
  C          -3.10162814738760      3.86458851967278     -1.51394522157281
  C          -1.96361487044820     -0.45350360977438     -1.22396838186815
  C          -3.02865817961243     -1.20095961817273     -0.41101565479930
  C          -2.08907743684922     -0.76749093282525     -2.72182944768141
  O          -0.47722463626562      1.96362316223216     -1.51026614595194
  C           0.34767573555500      2.70874407415370     -0.62001377155465
  C           0.56125913923093      1.98791234685835      0.69792471164863
  H           1.24225131513635      2.59563343971327      1.30394793281683
  O           1.17760978195711      0.72869340871176      0.41312474940126
  C           1.69265987921848      0.10126601622617      1.56970870609284
  H           1.74826572578971     -0.96439400019338      1.31984757569281
  O           2.96233053212082      0.58605802126382      1.91379245090335
  C           3.97179793041358      0.22951150056214      0.97123219392522
  C           0.78063334328195      0.30170141987865      2.78347181461951
  O           0.80939545480273     -0.83450452896646      3.63848725826264
  H          -1.36179457214023     -0.18492385421312      3.96565258721070
  H          -3.28097233769701      2.14058295751201     -2.78251998572018
  H          -4.78180031739626      2.05293078450470     -0.10621037537905
  H          -4.95129680701610      0.90840262196012     -1.44311355147874
  H          -5.49001358542154      2.57816258853658     -1.63627500411610
  H          -2.13633908197650      4.18471560288623     -1.91505874805832
  H          -3.12955068679552      4.13062329992217     -0.45279922307988
  H          -3.88409503085229      4.43930895411172     -2.02057310584923
  H          -0.97653660867643     -0.79522889559292     -0.88510542183448
  H          -2.97830404668117     -0.95834874917361      0.65371868940032
  H          -2.89757490368590     -2.28332197236037     -0.51511228535619
  H          -4.03649398391248     -0.96124569995501     -0.75893208992972
  H          -3.06113658136881     -0.44483305021632     -3.10836298023714
  H          -2.00372580166162     -1.84439963393237     -2.90134957990619
  H          -1.31286652552939     -0.26844249053736     -3.30969367784464
  H          -0.08923001763408      3.69302414203319     -0.41620938695760
  H           1.31379854969186      2.85409393084842     -1.10741114641635
  H           4.91829361740649      0.59850593791773      1.36552836669522
  H           3.77926325707344      0.68723682763478     -0.00261676479304
  H           4.02258898070872     -0.85930523583710      0.85698239358970
  H           1.10090726874437      1.19251540693692      3.33558247251942
  H           1.57377828222280     -0.75958710413003      4.22046163844355
