46
Coordinates from ORCA-job goat_0_28 E -1252.763658348157
  O           0.24134720268325      1.72050616434300      3.71836210869274
  C          -0.33005323833209      0.74603569080107      2.85932191711797
  H          -1.23655696997935      0.31878350697190      3.30430169036956
  C          -0.72081082858220      1.47524800320614      1.57632425511287
  H          -1.26134134351442      2.38934046403162      1.84653596432908
  O          -1.56799018567721      0.60089630847598      0.82315162766461
  Si         -2.01083143450396      1.09146032863688     -0.71623802153350
  C          -3.35186560766912      2.38498366694880     -0.53037595872914
  C          -3.51867329196532      3.28302713270418     -1.76250953927122
  C          -4.68203005062828      1.74371591569666     -0.10971649725395
  C          -2.45679852328532     -0.43574945240934     -1.68744375729205
  C          -3.03585092303422     -0.09684921502853     -3.06910069578376
  C          -1.25224574293907     -1.37808954583425     -1.82385056864483
  O          -0.64646370095058      1.76606411023070     -1.37622544183341
  C           0.19315553509167      2.55080483495318     -0.53069494730659
  C           0.52509201739889      1.85267231829822      0.77705336561392
  H           1.12471839252649      2.54039133148392      1.38237850439561
  O           1.28227694781750      0.68206549016403      0.46396503941056
  C           1.76253653312229     -0.00834960181308      1.60050513896532
  H           2.22817955341654     -0.91341063444644      1.19352661985666
  O           2.70215994712702      0.73929190016712      2.32174714961375
  C           3.88414166358797      1.01272558858405      1.57423068251706
  C           0.62706556261973     -0.41311320485664      2.54658921716634
  O          -0.09802356030669     -1.49787286329600      1.98027772003485
  H           0.60191267446379      1.27154601150407      4.49133715520219
  H          -3.01177066887910      3.02154218101094      0.29838951803040
  H          -2.57561199955867      3.75920072397958     -2.04308493616705
  H          -4.25009036213490      4.07369810666433     -1.56380881023002
  H          -3.87621986243789      2.71689674402534     -2.62672041441314
  H          -5.43152062989790      2.51195476325701      0.10703203072927
  H          -4.56865661720841      1.12543350637718      0.78578137036875
  H          -5.08261651718008      1.10836535394574     -0.90564897110955
  H          -3.23464162752100     -0.94731393691728     -1.10509979036109
  H          -3.96768783642079      0.46796383680733     -2.99734969746763
  H          -3.24598367195018     -1.01532198301811     -3.62680091851910
  H          -2.32899380479048      0.49303108765993     -3.66144160957296
  H          -0.45444595221940     -0.90646937739381     -2.40471510898418
  H          -1.54535317002665     -2.29631628008103     -2.34313765996411
  H          -0.83391638184760     -1.66132878533241     -0.85544686788060
  H          -0.28680809468104      3.50961807962166     -0.30008956271050
  H           1.11768301680829      2.75045212926577     -1.07631469585958
  H           4.31260855701233      0.08445137785408      1.17839768762984
  H           4.59233906120710      1.47682389243455      2.26036275661120
  H           3.67906220567096      1.69555616318090      0.74511123548275
  H           1.07503921768144     -0.77643494411089      3.47535053189270
  H          -0.72151549011303     -1.11167688874829      1.34604118407978
