46
Coordinates from ORCA-job goat_0_159 E -1252.755048320211
  O          -1.18191042147948     -0.51285467011827      2.96909414541674
  C          -0.06595136882625     -0.20821057172616      2.14653807039052
  H           0.22459281831796     -1.09644592824045      1.56817984926715
  C          -0.39853243616616      0.90894812294118      1.16698341899680
  H          -0.61244175704383      1.82223972371353      1.73006698917762
  O          -1.58506656495453      0.52111548851900      0.48161695725293
  Si         -1.91291847704587      0.80751049655453     -1.12139468892423
  C          -2.78268622806918      2.44042841915631     -1.37923264634126
  C          -4.20225375712860      2.43942740133464     -0.79560600187500
  C          -1.95331243395461      3.59086014423792     -0.79044599571487
  C          -2.81454312594190     -0.70077236301895     -1.75650061368364
  C          -3.91083065392554     -1.21715393426151     -0.81566949807035
  C          -3.35194187862798     -0.46775610025242     -3.17554446784966
  O          -0.41458891735790      0.93296960083682     -1.83791809242119
  C           0.67427284762015      0.39660877091803     -1.09229126819745
  C           0.80737902366588      1.14422979230646      0.22833523232153
  H           0.88964902306236      2.21265154293168      0.00657756668434
  O           2.02696031594903      0.68471143361568      0.81889332334049
  C           2.14412525133205      0.97412732019391      2.19924729875588
  H           3.15062103918042      0.63704243447958      2.46992777730709
  O           1.99177682853528      2.34134735422233      2.46285292823183
  C           3.02812759330889      3.13882153816165      1.89140014418731
  C           1.09948448270662      0.20561832704376      3.03006921598131
  O           1.67798409202367     -0.90744152860383      3.69893996034474
  H          -1.93110869561712     -0.64335506502251      2.37276020317557
  H          -2.85434372469722      2.58649854037836     -2.46524505251375
  H          -4.84782708180063      1.70800165569445     -1.28665504669367
  H          -4.66560420546419      3.42444593844877     -0.91502411403573
  H          -4.18849369148650      2.21021447988517      0.27502125641604
  H          -2.43617157696029      4.55328187749315     -0.98905512173694
  H          -0.94601252751613      3.62453184263421     -1.21263815719489
  H          -1.85971755423595      3.48957141120199      0.29570893826187
  H          -2.03187075503367     -1.47051213937863     -1.81188197384083
  H          -3.52188076761612     -1.40916693604098      0.18751972839557
  H          -4.33268376504265     -2.15250029794282     -1.19875964289832
  H          -4.73241033055290     -0.50155089169896     -0.72494020217441
  H          -4.14481507636060      0.28640601351499     -3.17748177680324
  H          -3.77368123765150     -1.39098829085137     -3.58603874767345
  H          -2.56689125599395     -0.12760480312476     -3.85784983605570
  H           1.58838753477721      0.53560331684749     -1.67231371885579
  H           0.54068270316006     -0.67674962774583     -0.91232286718171
  H           2.99604364813484      3.10868405722666      0.79901355920318
  H           4.00917534532104      2.79178677076935      2.23429659842375
  H           2.86254342099845      4.16051649853674      2.23170089404362
  H           0.73203785681822      0.86835287575872      3.81551613827298
  H           1.94059644163894     -1.55724004152995      3.03480933688682
