46
Coordinates from ORCA-job goat_0_108 E -1252.750079787962
  O          -0.69979900621990     -0.75419398878960      2.71290596218526
  C          -0.00498394645368     -0.29632571362003      1.55749426680342
  H          -0.43807449858260     -0.84928735637777      0.72268395307359
  C          -0.24311398767076      1.20165010910585      1.34905624907480
  H          -0.19308336085900      1.68097378579500      2.32836124647481
  O          -1.54870651693830      1.45591630155787      0.84412473922422
  Si         -1.92419558151191      1.45299763409865     -0.77779506219089
  C          -3.21542137354587      2.77570391673260     -1.04198641305581
  C          -3.32433510482283      3.23522638321171     -2.50255846081105
  C          -4.58827288702593      2.38227528867663     -0.47977804836225
  C          -2.35430245293066     -0.29018717473332     -1.32310508228211
  C          -3.29080022131353     -1.02305624463592     -0.35324712794975
  C          -2.90086163398232     -0.33085634579795     -2.75694591812117
  O          -0.53778334549634      1.94020986236525     -1.55889103290328
  C           0.69679763474103      1.46669073243716     -1.01876217736806
  C           0.81902521912627      1.85684925603445      0.45615259188029
  H           0.67853159691265      2.94026725736223      0.52472839190987
  O           2.15752746154213      1.58074979312356      0.88561624999802
  C           2.34524369537061      0.58506751083163      1.86495344871158
  H           3.41267264293668      0.34533086271239      1.80987068712989
  O           2.01142045257200      1.02153675075597      3.15851184536195
  C           2.80578451376457      2.11663077843633      3.60713651940938
  C           1.49799552393105     -0.65022648252243      1.60747643350591
  O           1.96119956526391     -1.20831295456324      0.38426247692583
  H          -0.36451505983822     -0.26170341395990      3.47291647445498
  H          -2.83681771095323      3.62137603721516     -0.45191572725251
  H          -2.35414203305786      3.53583807801932     -2.90594619800058
  H          -4.00192163399064      4.09215301260645     -2.58022251503222
  H          -3.72336713072778      2.44345698572787     -3.14162301083158
  H          -4.52701112513249      2.05623440463131      0.56260959957213
  H          -5.03195521753815      1.56858861506433     -1.06032606645743
  H          -5.27767906872940      3.23186102864951     -0.52464229679669
  H          -1.39136388896905     -0.82036881384002     -1.32405486228797
  H          -4.27979063339678     -0.55736782893585     -0.32953215862818
  H          -2.90012183817273     -1.02566717430731      0.66726917378483
  H          -3.42626825937758     -2.06414681651748     -0.66549139257481
  H          -3.89073910945294      0.13069766234524     -2.81287770136375
  H          -3.00173603545579     -1.36579104840983     -3.10037879789451
  H          -2.24646970701974      0.19265093096798     -3.46006729619312
  H           1.51133117593193      1.93953139144772     -1.57131698632307
  H           0.78694064506295      0.38338099394632     -1.13895754524528
  H           2.54397304353389      2.28978359214892      4.65051769692329
  H           2.59933680739575      3.01779021162653      3.02394808127670
  H           3.87161833726287      1.87274596053378      3.53273450894414
  H           1.65566258467397     -1.34992940738932      2.43360734448422
  H           1.52652146914388     -2.06049436376772      0.26374393681700
