46
Coordinates from ORCA-job goat_0_42 E -1252.762450831108
  O           0.25720539409934      2.02071727939270      3.59901312549763
  C          -0.42560956994082      1.10362406697801      2.75531127992343
  H          -1.39082071377044      0.82191127036012      3.18993522040275
  C          -0.67685967162982      1.72263929675865      1.37711981471237
  H          -1.12948215865779      2.71267685806163      1.50819483437371
  O          -1.58013083572150      0.85847669185208      0.68388631756806
  Si         -1.82119296602290      1.00041152458699     -0.96315611189784
  C          -3.29432806007958      2.11570736855647     -1.28354090132975
  C          -4.43835900272651      1.84438668299063     -0.29499076439146
  C          -2.90090643232006      3.59989288054707     -1.25105412062346
  C          -1.97082252580959     -0.72416389668423     -1.65936670104371
  C          -3.14053118340382     -1.52000121158551     -1.06588698595082
  C          -2.03970187668239     -0.70434829903909     -3.19283013561557
  O          -0.43577761199134      1.66924934928242     -1.58196680122868
  C           0.44186752033201      2.44928235317255     -0.77441219131284
  C           0.63528626615963      1.87157421091101      0.61482448322717
  H           1.28349379536037      2.55192246680927      1.17696067791186
  O           1.26329759261341      0.59602814788941      0.46958066215687
  C           1.62333063191888     -0.00232793832714      1.69963285226850
  H           1.99984740334522     -0.99352423089518      1.42155783374884
  O           2.61386680866322      0.72242145822161      2.37315177404136
  C           3.84146358337347      0.78402208781408      1.65211476806519
  C           0.41308838632380     -0.17259872110283      2.62531769531936
  O          -0.39561535727981     -1.23861734319949      2.13978464943916
  H          -0.35986282826059      2.72549516518823      3.82826885762482
  H          -3.64893942762912      1.87963751688357     -2.29560593504800
  H          -5.30604900419330      2.46867886339226     -0.53297169607517
  H          -4.12823696591763      2.08083535672807      0.72711383837066
  H          -4.76442319719224      0.80179838014576     -0.30897367386768
  H          -3.76893215749301      4.23140713008306     -1.46830507391463
  H          -2.12265276961043      3.83046769242449     -1.98241169343521
  H          -2.52820041522829      3.88769853057653     -0.26242906225868
  H          -1.03471185551248     -1.21635833632602     -1.36242487217608
  H          -3.11894486570133     -1.52918829920517      0.02778271832980
  H          -3.10913301577769     -2.55881825235727     -1.41063960393025
  H          -4.10051298663210     -1.10066756866329     -1.38047901802472
  H          -2.95440210347349     -0.21188624384785     -3.53791035523284
  H          -2.04530543495283     -1.72439855381269     -3.59077788628352
  H          -1.18821190637085     -0.17728616141701     -3.63183165260334
  H           0.05849548748182      3.47092289155878     -0.67561754921679
  H           1.40743282637934      2.48999889595146     -1.28337702350327
  H           4.17950966251105     -0.22282713498338      1.38018523091013
  H           4.57354345268680      1.24743226318254      2.31321386897683
  H           3.73811590980707      1.38537341999610      0.74464400476675
  H           0.77551584814482     -0.46320460166527      3.61309061211503
  H          -0.92275366921859     -0.87822330718404      1.41053468921407
