46
Coordinates from ORCA-job goat_0_47 E -1252.755241283703
  O          -0.87881043160511     -1.25940992578586      2.76263040708765
  C           0.11746584033704     -0.56565382007544      2.02367626762868
  H           0.58540648040791     -1.24085966052819      1.29708864385397
  C          -0.46377617678921      0.62880815171287      1.28389209015252
  H          -0.85848019855959      1.33715861447153      2.01911755311368
  O          -1.54640925517715      0.15275813564255      0.49059336040841
  Si         -2.00395855649633      0.80935991088214     -0.96814077355898
  C          -3.18615734038892      2.23903841457213     -0.74191672681919
  C          -2.60263002389931      3.28692740230098      0.21627041929746
  C          -3.57996082650407      2.88169745480592     -2.07954737102850
  C          -2.67327120876932     -0.61889253428419     -1.97314559930885
  C          -4.09984584195127     -0.98716607005633     -1.54137188005575
  C          -2.59072214240053     -0.38905333095167     -3.48807189991414
  O          -0.58791302243284      1.40924185802586     -1.60482668598810
  C           0.61273160175331      0.91912888546760     -1.01505910280073
  C           0.65885364851851      1.30514714133186      0.45751743626161
  H           0.55812095623013      2.39237169983377      0.53039988955504
  O           1.95554603992841      0.91291990633025      0.91697572434257
  C           2.10335230907279      0.92470279374681      2.32230675608813
  H           3.14670226528592      0.63922822908723      2.49326894115554
  O           1.83924462777999      2.18903179165125      2.86567109040708
  C           2.76036130147940      3.18662486864417      2.42689189423366
  C           1.17071604510306     -0.08635107574298      3.00422604023355
  O           1.96924716976800     -1.16255081934327      3.48410701115826
  H          -1.56025379840708     -1.52621870461309      2.13293883197550
  H          -4.09083065982242      1.82026363465000     -0.28222113624942
  H          -2.39136002980932      2.86594721735062      1.20256016499549
  H          -3.30599793516219      4.11511283967568      0.35219572785959
  H          -1.67108001121616      3.70505950182355     -0.17758287576508
  H          -4.10930883311650      2.18141439084179     -2.72963408053709
  H          -2.69899780455392      3.24292843391415     -2.61981270374691
  H          -4.23815457949944      3.74052241068144     -1.91085304808905
  H          -2.01272895094169     -1.46050577564672     -1.72525910366298
  H          -4.16494011202670     -1.17948758534814     -0.46614960279280
  H          -4.44179073424061     -1.88682559875178     -2.06343341505421
  H          -4.80053053983976     -0.18078563463313     -1.77941080643700
  H          -2.90957403060442     -1.28770502221683     -4.02671041146207
  H          -1.57258492000328     -0.14959448138250     -3.80527201160592
  H          -3.24127478405181      0.42973696763452     -3.80686541133214
  H           1.45900431030707      1.37795103496629     -1.52938757774441
  H           0.69135861851940     -0.16885876282368     -1.12342968637053
  H           3.78961816731267      2.87570569702517      2.63822250950513
  H           2.53071107773552      4.09324282774851      2.98586610989233
  H           2.65456502268441      3.38128882633856      1.35636404861353
  H           0.66860267036518      0.41356524722083      3.83955083278867
  H           1.37368459567992     -1.80071548619454      3.89603015971528
