46
Coordinates from ORCA-job goat_0_195 E -1252.759376984214
  O          -1.52465304728619      1.26455306216326      3.63159210818088
  C          -0.71519844205444      0.81232987295463      2.55476671835963
  H          -1.06342290541637     -0.16937537382649      2.21088638789289
  C          -0.85204708398805      1.79310691032190      1.39118845654716
  H          -1.01910623348448      2.79353557587752      1.80497340792490
  O          -2.00205147001069      1.44112869485522      0.63298594593859
  Si         -2.09615693547936      1.21860494003396     -1.00566065404989
  C          -3.35796506819318      2.42549096888277     -1.67756951074629
  C          -4.76341828152340      2.10537708462904     -1.14860926749806
  C          -2.96781508867569      3.87510665947680     -1.36064744686427
  C          -2.53632995866403     -0.55079299076765     -1.41340336658845
  C          -2.76613951024097     -0.73161482915449     -2.92129812235504
  C          -1.48967325402867     -1.54298966658974     -0.89330931692219
  O          -0.58066810460755      1.54219184808283     -1.60300894731119
  C           0.30542905358991      2.33947074976511     -0.82436503189398
  C           0.45928323622163      1.83000965407199      0.59475497524165
  H           1.14300588272203      2.51854168392942      1.10482033067047
  O           1.04021517389345      0.52529481918896      0.55486529749808
  C           1.56179628498745      0.13086382724284      1.80802066870390
  H           1.52425936596336     -0.96456829283477      1.81017784007198
  O           2.88170902220679      0.56904459517077      1.98949016217618
  C           3.81154707565521     -0.08549528942412      1.12862558949495
  C           0.73894706242493      0.68140678844169      2.97658097767713
  O           0.78537172963330     -0.20112929237407      4.09081530357563
  H          -1.34322627968495      0.68123038499393      4.37980840134811
  H          -3.36335031528787      2.30139653973629     -2.76820374602285
  H          -5.49799214414774      2.81121253451421     -1.55055139176782
  H          -4.79752379402438      2.18049440090598     -0.05677353538999
  H          -5.08430240628649      1.09680154680486     -1.42408470461471
  H          -2.88752567909768      4.03338652196557     -0.28029585747251
  H          -3.72274269985527      4.57135269012822     -1.74150387646441
  H          -2.00965737003411      4.14511400961482     -1.81254946163551
  H          -3.48507605560392     -0.74941064755863     -0.89709607781355
  H          -1.85894214935393     -0.49710755656872     -3.48808235582775
  H          -3.56851970536099     -0.08874756106464     -3.29305095983642
  H          -3.03647864931502     -1.76824515658593     -3.14816880007444
  H          -1.33595415614644     -1.44510463137286      0.18417260012271
  H          -0.52411869484828     -1.38228273966320     -1.38105724062409
  H          -1.80102801797534     -2.57289324221505     -1.09837236893049
  H          -0.03970629578843      3.37873473876336     -0.78368531714422
  H           1.28174397193480      2.32217835975303     -1.31298314393642
  H           3.61055930651035      0.15154543091959      0.08051208672104
  H           3.76675653542065     -1.17132374123224      1.27044014279085
  H           4.80340999941704      0.27594678732778      1.39901024543510
  H           1.12861619915764      1.66459740244243      3.26302921742816
  H           1.61208989672541     -0.05271807172620      4.56307363798449
