46
Coordinates from ORCA-job goat_0_59 E -1252.767407945094
  O           0.08203686719833      1.45928627772875      3.76272030715258
  C          -0.55652270968122      0.66774608267261      2.77024528066958
  H          -1.50554396546110      0.32520467544561      3.18987859343695
  C          -0.85258781858315      1.51137707363300      1.52440702841122
  H          -1.33372246122825      2.44185326229934      1.84099962931076
  O          -1.73667447857143      0.75519772294864      0.68912826976054
  Si         -2.01481968651269      1.18480177898200     -0.90324225167918
  C          -3.53596700896408      2.26925512844846     -1.00592467222256
  C          -3.37457006018525      3.55996502095228     -0.19119306310498
  C          -3.89064461548081      2.58885770301895     -2.46548167066010
  C          -2.18388101130608     -0.36516372831448     -1.92836970821337
  C          -0.88456186786086     -1.17588310757145     -2.00678914198250
  C          -3.35295549418856     -1.22879386963280     -1.43036950490270
  O          -0.66896603745739      2.01424189419318     -1.39788858037356
  C           0.21485885138831      2.64613389532332     -0.47741099257074
  C           0.44120200082647      1.84661770784215      0.79173096083137
  H           1.06059031017142      2.46473448232421      1.45101064548465
  O           1.13911231237487      0.64618361419754      0.44459753960692
  C           1.49944977949275     -0.14229877468885      1.55856247344932
  H           1.99210683725975     -1.02322018635822      1.13435593439909
  O           2.37283811218633      0.54091075899206      2.42840775878893
  C           3.61235532681051      0.90865234053134      1.82250376898207
  C           0.28405993693657     -0.55893286491040      2.39429221303240
  O          -0.48819188464604     -1.52029189430565      1.69322884665427
  H           1.03083253117050      1.47002414413434      3.56669243651086
  H          -4.35959864574660      1.68895413588039     -0.56977165308812
  H          -2.54757782860405      4.16619420603637     -0.57397891271435
  H          -3.18408435767109      3.35739743193355      0.86583412938418
  H          -4.28261550319266      4.16896045520337     -0.25322980022593
  H          -4.10173156533391      1.68509715970095     -3.04308510901406
  H          -3.07129716463080      3.11987925221663     -2.96143236287863
  H          -4.77629593186053      3.23099305523427     -2.51446605719319
  H          -2.42631036437772     -0.01804907451524     -2.94133803343256
  H          -0.59385510054913     -1.56160707891496     -1.02617606621990
  H          -0.05529376284771     -0.57317230529063     -2.38426369117924
  H          -1.01195652447195     -2.03550768608608     -2.67322352304295
  H          -3.47869471786781     -2.10978924167237     -2.06789592531433
  H          -4.29822160218448     -0.67869574667986     -1.43126074135356
  H          -3.17258063618572     -1.58300161645745     -0.41014146879827
  H          -0.17574546123180      3.62982495918825     -0.19487464822413
  H           1.17237129722141      2.78810440711932     -0.98371931084210
  H           4.24297690868240      1.30870597584805      2.61545710811277
  H           3.46438812431767      1.66886235055409      1.05149413083467
  H           4.09031359972275      0.02878650649267      1.37931816945197
  H           0.64902122844034     -1.03517842388354      3.30698460767998
  H          -1.06909575731740     -1.02696785979376      1.09393705728591
