46
Coordinates from ORCA-job goat_0_136 E -1252.751462365813
  O          -0.77337932922420     -0.37774288484087      2.83418974940951
  C          -0.07729603964312     -0.16926822478212      1.60978215165112
  H          -0.54011485697319     -0.85104957048548      0.89377013597387
  C          -0.26241361594060      1.27195420784650      1.12742849318487
  H          -0.17550560641354      1.92440871315321      1.99792724059536
  O          -1.56644173994057      1.47895134764612      0.59804766825311
  Si         -1.97210951073951      1.19536576049543     -0.98928164259690
  C          -3.20074992640008      2.49772123537325     -1.51578189806374
  C          -4.54740923930898      2.36263707251580     -0.79117829857787
  C          -2.61283423061069      3.90215914375030     -1.31844595079425
  C          -2.53127892008219     -0.57871669068407     -1.22062667208428
  C          -3.45583738095455     -1.09302512602342     -0.10985666863844
  C          -3.16055411911634     -0.77298225329681     -2.60818969393491
  O          -0.57849817873884      1.44136790585059     -1.86433434142996
  C           0.64659582454127      1.03634596950140     -1.25387938461188
  C           0.80700770820114      1.70155506011588      0.11483125135229
  H           0.70584050737273      2.78222225819232     -0.02762719902513
  O           2.14117717813303      1.46299766107851      0.57858120619760
  C           2.30791723254051      0.66447323299376      1.72789011427336
  H           3.36497680533456      0.37772552321321      1.71009709849021
  O           2.01066783881112      1.35101825657514      2.91746273539444
  C           2.85179688646009      2.47925971760711      3.14322998569464
  C           1.41300587747524     -0.56406330563233      1.71738195430648
  O           1.84098867235195     -1.36371011943876      0.62205863040495
  H          -0.41322589270246      0.23712945776717      3.48611313176724
  H          -3.37041504771784      2.34187172576218     -2.58929113381329
  H          -4.42059007882083      2.42616077857445      0.29437143030287
  H          -5.04145475774635      1.41485332691324     -1.01630255605118
  H          -5.22419743973218      3.16941910571805     -1.09145505776211
  H          -2.42142607959809      4.09774305275460     -0.25895931669016
  H          -3.31296392135337      4.66437639818442     -1.67615287190663
  H          -1.67059612732527      4.02737571890923     -1.85759084255824
  H          -1.60615405189223     -1.17129945985537     -1.18933968006007
  H          -3.67615699171755     -2.15591647156890     -0.25611352364434
  H          -4.41028552363013     -0.55969125314073     -0.10617632878778
  H          -3.00682075469023     -0.97524059243005      0.87943638429675
  H          -4.10048407433848     -0.21905663035874     -2.69391852198086
  H          -3.38285383816505     -1.82978674185950     -2.78902578777170
  H          -2.49683753792509     -0.42974603562403     -3.40750945099758
  H           1.46838405816602      1.36107466455798     -1.89552814207734
  H           0.69635058806769     -0.05230149171925     -1.16104291336212
  H           2.61241873605677      2.85759821947141      4.13658476678032
  H           2.67006067452081      3.26070539480253      2.40078322994546
  H           3.90660344704947      2.18399446794482      3.10818208617224
  H           1.55622093495099     -1.09738397846919      2.66179958780287
  H           1.37282184140819     -2.20523454705902      0.66791884497136
