46
Coordinates from ORCA-job goat_0_205 E -1252.759344489769
  O          -1.35349536168861      1.02018658562322      3.66111084165532
  C          -0.57762438540903      0.68290990360513      2.51951266371016
  H          -0.89312386456110     -0.29130919246675      2.12635832406930
  C          -0.81957815807143      1.72877377533700      1.43266663331443
  H          -1.00190090888839      2.69255375595283      1.92026316734458
  O          -1.99724807298402      1.37928154513022      0.71693915043839
  Si         -2.16893748038317      1.22291880062305     -0.92305371904081
  C          -3.51970165521418      2.39593550683006     -1.47051089717694
  C          -4.87618420181072      1.98867996081478     -0.87697756160894
  C          -3.17716705824845      3.84839928622170     -1.11391496259680
  C          -2.54871879713804     -0.54564690880041     -1.39044930217855
  C          -2.85644674661189     -0.66943638838181     -2.89016876778432
  C          -1.42835191073534     -1.50741718894453     -0.97762803346359
  O          -0.70359351293105      1.64574931454613     -1.58065020323558
  C           0.18374905737396      2.44820905457220     -0.80861470237768
  C           0.44230964119100      1.87383673025394      0.56988958615526
  H           1.12035528553340      2.56776519627126      1.08007683488472
  O           1.08227325491666      0.60460912998820      0.42448436782295
  C           1.68835411269768      0.16693230562707      1.62381250709484
  H           1.70635663459184     -0.92721314565530      1.56111339462264
  O           2.99218784205882      0.66378822293277      1.76715013094355
  C           3.90972558427068      0.10777534852750      0.82732167552297
  C           0.90072224652899      0.60310899007095      2.86252631335637
  O           1.04811463778295     -0.34052827404836      3.91622816239445
  H          -1.10073711772095      0.40349463444872      4.36027533064904
  H          -3.58353403957988      2.31621147591885     -2.56338298297447
  H          -4.84884958657529      2.01691994829038      0.21722644981701
  H          -5.16776303144277      0.97854448696793     -1.17804233122070
  H          -5.66367688390511      2.67548639015141     -1.20483418766773
  H          -2.26037715917566      4.18136741017808     -1.60767516438406
  H          -3.04038594367538      3.96636586497555     -0.03412840773798
  H          -3.98387643611121      4.52286694457965     -1.42052523815596
  H          -3.45548040744795     -0.81443136601907     -0.83222463141205
  H          -3.70939762012193     -0.05242032640023     -3.18519866729426
  H          -3.08893021511884     -1.70723678183557     -3.15109377239173
  H          -1.99618471019044     -0.36337938748996     -3.49465150228555
  H          -1.21762375583694     -1.45101033100639      0.09307926193335
  H          -0.50112877517179     -1.27785015882955     -1.51007846944928
  H          -1.70292758845863     -2.54106702067255     -1.21402038301262
  H          -0.21038447995696      3.46418909473477     -0.69323588700506
  H           1.13066605989084      2.50808182520013     -1.34898431225165
  H           3.92942862007306     -0.98481134753576      0.91085279047087
  H           4.89380460686586      0.50868941871164      1.06891893869166
  H           3.64318826914183      0.38823923690323     -0.19514815956677
  H           1.25540047647486      1.58656189921789      3.19076986183028
  H           1.89064353577229     -0.17842422511984      4.35487585955120
