46
Coordinates from ORCA-job goat_0_144 E -1252.756720730605
  O          -0.77495380492316     -1.49698742402831      2.25964230307093
  C           0.17510009363940     -0.70364427422638      1.56296089745458
  H           0.54911102331774     -1.24896002456541      0.68713376843329
  C          -0.44708317889349      0.60368330751433      1.09405702259010
  H          -0.73738510096588      1.19149495652417      1.96985306216075
  O          -1.62785437547844      0.27280844249212      0.37037813668708
  Si         -2.17364553209371      1.06250357575465     -0.98561863011620
  C          -3.26249463150520      2.51964419685459     -0.56429132075453
  C          -2.54909572351209      3.50741085164107      0.36796544627983
  C          -3.76142070128951      3.22110964969574     -1.83609065228486
  C          -3.03351222583872     -0.21678388908846     -2.03810357517810
  C          -2.08490901587863     -1.36567733158829     -2.40480460633396
  C          -4.30345546970252     -0.74215539263521     -1.35315025059898
  O          -0.79363616576491      1.63683996319724     -1.71725617580507
  C           0.44729024984583      1.12600167066308     -1.23861714231238
  C           0.58381461608024      1.39181196523757      0.25534294501971
  H           0.44545238831375      2.46408969570748      0.42638799738733
  O           1.92455824865883      1.02384499694438      0.59337960760010
  C           2.13332421386491      0.80573957696806      1.97486628806274
  H           3.20869064680109      0.61573942525897      2.06443240697841
  O           1.76182197082041      1.91714284614592      2.74277949828668
  C           2.56477753095804      3.06768341643658      2.48240120674389
  C           1.34469856970097     -0.41532981471725      2.48414375634214
  O           2.16412247273929     -1.57831886090429      2.51782288926565
  H          -1.55292472684650     -1.55253313101197      1.68934340701658
  H          -4.13152148242361      2.11086742509869     -0.03260594560871
  H          -1.65811364197689      3.92500403143362     -0.11076688275057
  H          -2.23730305027034      3.03391293613370      1.30308361611539
  H          -3.20999205520908      4.34260810075305      0.62268682362921
  H          -2.92372155577810      3.61860374040250     -2.41835555554196
  H          -4.41470928845002      4.06227055522728     -1.58188834526185
  H          -4.32637194959973      2.54328829285050     -2.48204385775793
  H          -3.32835622799633      0.29473281429913     -2.96374064898450
  H          -1.74351331272742     -1.89265388458988     -1.50848765062966
  H          -1.20145384091114     -1.00656692734374     -2.93974679551572
  H          -2.59148815504000     -2.09446811352728     -3.04624917028409
  H          -5.01639341753964      0.05986243306280     -1.14277746058768
  H          -4.06269945111084     -1.23361066635389     -0.40485625600640
  H          -4.80701459418212     -1.47880667729651     -1.98773175778008
  H           1.25272565429767      1.64294571913880     -1.76362066082213
  H           0.53556478642019      0.05338595949298     -1.44295620543917
  H           2.26213875343732      3.83130386994448      3.19822631910217
  H           2.40935833812352      3.43866052798822      1.46583403476007
  H           3.62555345922215      2.83203521112886      2.62301306423533
  H           0.96212139422694     -0.18602605519557      3.48345340127679
  H           2.76874826543976     -1.49825768691828      3.26483164785575
