46
Coordinates from ORCA-job goat_0_51 E -1252.759215309342
  O          -1.44597241709055      0.34123899843195      3.35470873879674
  C          -0.55890103830603      0.40495727737216      2.24390732697125
  H          -0.76330648184696     -0.42313496294729      1.55718250142514
  C          -0.68169847158163      1.72454710319655      1.48756760980148
  H          -0.79211845986434      2.52733989319847      2.22229629919657
  O          -1.87525241677295      1.72848819532487      0.70865192249371
  Si         -1.90997822635242      1.33805514072884     -0.90556381147869
  C          -3.31520886172889      2.30935190447056     -1.66492759295937
  C          -4.68541734068686      1.94783404759071     -1.07547377746886
  C          -3.04690364186212      3.81591050590102     -1.53410308935234
  C          -1.96226092164165     -0.51062090646221     -1.19309301309480
  C          -3.02680217351868     -1.24656571234117     -0.36917749859012
  C          -2.10381801352128     -0.82874426869778     -2.68891706784621
  O          -0.45675429428186      1.88401432304471     -1.50694951481746
  C           0.36308467759617      2.66828707711047     -0.64542091455169
  C           0.61090131678385      1.98179849165559      0.68425835998367
  H           1.26675138979392      2.62786117596460      1.27771406186806
  O           1.28350797279456      0.74577092244721      0.42231525822391
  C           1.82141319906465      0.16112310161238      1.59090003396651
  H           1.98337107498329     -0.89197679069595      1.33521410425666
  O           3.02890681141942      0.76013403292176      1.97287588629713
  C           4.08884170737938      0.51637746175394      1.05009276183072
  C           0.85652690584830      0.25958891611076      2.77436650241820
  O           1.00888400048179     -0.91314200553089      3.55855557679699
  H          -2.33571357076726      0.18271504808916      3.01938191193844
  H          -3.32104823167599      2.05452900599355     -2.73301767081688
  H          -5.46678072102882      2.57926227807884     -1.51172435032288
  H          -4.70286601262596      2.10378071186949      0.00786291398391
  H          -4.95492379353118      0.90757401967704     -1.26914272154016
  H          -2.09698189383748      4.10088898812439     -1.99387581994639
  H          -3.01533209168664      4.11716193963789     -0.48241333821581
  H          -3.84220131360766      4.39102674367034     -2.01984764526093
  H          -0.97495308679923     -0.86151712072979     -0.86397824461047
  H          -2.96757573138623     -1.00159304761551      0.69486267052503
  H          -2.90524627851574     -2.33021952838874     -0.47033778822090
  H          -4.03506065448843     -0.99961209199613     -0.71076896511568
  H          -1.33036596843360     -0.33625857548095     -3.28578892580788
  H          -3.07766333679626     -0.50203894426370     -3.06732052087539
  H          -2.02618874187767     -1.90677293627270     -2.86483245291796
  H          -0.09305870231207      3.64662117459881     -0.45653379686596
  H           1.31890576864587      2.82516770143306     -1.14923075900644
  H           4.23810633866212     -0.56070588986832      0.91289754192499
  H           4.98877034372786      0.95660542284855      1.47876321122244
  H           3.88211339066874      0.97922513674151      0.08157458048353
  H           1.11090545583631      1.14628942565777      3.37024077179455
  H           0.28331253474006     -0.91437338396585      4.19650873348362
