46
Coordinates from ORCA-job goat_0_212 E -1252.756691606256
  O          -1.55219999450540     -0.88746695147335      2.45319697357943
  C          -0.50853358903125     -0.19873341446592      1.77849313875706
  H          -0.34525326416812     -0.65148725813349      0.79192299312968
  C          -0.91884406728827      1.25802759552928      1.61907842513414
  H          -1.15322615211807      1.64442119927559      2.61615123976703
  O          -2.09628173840640      1.37933110151645      0.83774826976921
  Si         -2.14826997574189      1.66574021414243     -0.79805977011258
  C          -3.41474772501762      2.99759430648889     -1.12359173361330
  C          -3.31990464482217      3.52147987164994     -2.56357589370467
  C          -4.84084766955754      2.53000573768042     -0.80293763904686
  C          -2.51434306971488      0.08215695499693     -1.74284921561246
  C          -1.25801897068163     -0.63895416478385     -2.24926520998288
  C          -3.39382920597845     -0.87682116187231     -0.92615522381571
  O          -0.65938777224840      2.29167197416337     -1.19836051507209
  C           0.47894060489170      1.87500123199077     -0.44842758746559
  C           0.23081408805323      2.10341911236724      1.04586431569530
  H          -0.03625994818483      3.15570341279510      1.16843527774886
  O           1.41402213725088      1.92333696851924      1.81803563261736
  C           1.86183337608208      0.57492819297826      1.91351827858990
  H           2.11267526794444      0.18516093727500      0.91663019455254
  O           2.98400918117828      0.55143305403862      2.72959807910689
  C           4.16444435262033      1.04008659491842      2.09010761974523
  C           0.78841105927468     -0.28261674409548      2.56716854032015
  O           1.17144515462606     -1.65005904908997      2.60039191610769
  H          -1.23988826773897     -1.78706478043173      2.61127155145514
  H          -3.15580638891246      3.81651874536305     -0.43982291443354
  H          -2.32135288091727      3.90315439627142     -2.79190800549112
  H          -4.03669553996450      4.33365054826358     -2.72441871826794
  H          -3.55201965451655      2.73279801949221     -3.28674342681001
  H          -5.15008330627154      1.72567265350794     -1.47772677957080
  H          -5.55199675136196      3.35337065792082     -0.92703837364147
  H          -4.93022568581198      2.16085283577053      0.22278830773013
  H          -3.08872348870163      0.40359020486809     -2.62250882072425
  H          -0.61425746311504      0.02305285604784     -2.83361048114302
  H          -1.53519456426327     -1.48834695907060     -2.88270669692712
  H          -0.66602918684123     -1.03633816970278     -1.41902765178166
  H          -2.85630639763845     -1.23489924952149     -0.04395639040323
  H          -3.67239741434433     -1.74785829783265     -1.52900827348771
  H          -4.31573108947816     -0.40194898655644     -0.58029580989187
  H           1.33111695170957      2.48552353644010     -0.75490413863177
  H           0.71444381122915      0.83061109361005     -0.67300471532505
  H           4.06949920367608      2.10262885219350      1.85263756841673
  H           4.36257491200468      0.47583918653702      1.17253356824110
  H           4.98480274399012      0.89536716895646      2.79216462654451
  H           0.61955732572894      0.09874355927288      3.58187314054411
  H           1.92201569708207     -1.73202758781138      3.20055432740451
