46
Coordinates from ORCA-job goat_0_139 E -1252.757592456704
  O          -1.64631671278823      0.08447871890235      3.56177351333640
  C          -0.74197997980818      0.10783617707687      2.46608103744377
  H          -0.95804063597314     -0.72112978689410      1.78206889573148
  C          -0.93220806804571      1.41568273042237      1.70222085051734
  H          -1.17456588243683      2.19935642109382      2.42806650830616
  O          -2.04729731030386      1.28633734402470      0.82949092381661
  Si         -2.08260255197086      1.54600206958505     -0.80647695167785
  C          -3.33466205083972      2.90249244789134     -1.11149746397172
  C          -3.48726924422789      3.24384149702741     -2.59901612516872
  C          -4.69434751318402      2.56358062538873     -0.48492321062053
  C          -2.43633796564645     -0.03120729173047     -1.75320573245148
  C          -1.85672370099890      0.03198658035789     -3.17593408121560
  C          -1.90745694342484     -1.26850009240129     -1.01581504496486
  O          -0.55258638191958      2.04897900666448     -1.21604093191558
  C           0.20190544761855      2.69581190034424     -0.19671206881661
  C           0.38710734784936      1.80763815192267      1.01781304430324
  H           0.99049115671026      2.36819825905608      1.74094466034783
  O           1.09868032925499      0.63411828032279      0.61595813068529
  C           1.62423877541283     -0.07789235691318      1.71808252814725
  H           1.72355068841042     -1.11441110221941      1.37602372635128
  O           2.87189050125747      0.42015137471392      2.12065825630238
  C           3.90392505373393      0.18235612282334      1.16538192392119
  C           0.69778184094282     -0.01951410937622      2.93610190425279
  O           0.79921120591520     -1.20867266743399      3.70993120197068
  H          -1.42983211419087     -0.69843961862299      4.08433635961001
  H          -2.93046119064009      3.78457164032271     -0.59530829381296
  H          -3.93367997123027      2.40904925108330     -3.14809729154078
  H          -2.52661573310898      3.47786567476179     -3.06698222462792
  H          -4.14448417553352      4.10998054295744     -2.73082876342304
  H          -5.13241853547337      1.67582849604360     -0.95344939421527
  H          -5.40123924571956      3.38863409343767     -0.62376884682536
  H          -4.60941137288566      2.36904412979674      0.58721674298106
  H          -3.52802884727923     -0.11579459441676     -1.83152167717764
  H          -2.22250698613647      0.89382603170145     -3.73907752395964
  H          -2.12401173048318     -0.87043569077217     -3.73576840337848
  H          -0.76540159229703      0.09423785074012     -3.14474236231491
  H          -2.38880640276250     -1.39659529213182     -0.04380728177373
  H          -0.82848246369263     -1.19330388538641     -0.84601974876040
  H          -2.08873844341083     -2.17306842632773     -1.60636928390770
  H          -0.28272617509263      3.62808334423997      0.11919825943560
  H           1.18077909531808      2.94261223728093     -0.61233706706878
  H           4.83247027697979      0.54683423541330      1.60413120204738
  H           3.70689496451714      0.71743241445151      0.23268773840040
  H           3.99407241674419     -0.88981952371349      0.95683823824936
  H           0.96106124650977      0.84833719279453      3.55111094156117
  H           1.57912957433010     -1.14015040430329      4.27184318587053
