46
Coordinates from ORCA-job goat_0_170 E -1252.757226962322
  O          -1.50870794618442      0.15732192093380      3.51705262765513
  C          -0.63091298930514      0.25459728753267      2.40464822217938
  H          -0.91302370776126     -0.48131903883460      1.64013310940124
  C          -0.75885894583447      1.65117098900689      1.80463772321590
  H          -0.89269217895924      2.35946646127658      2.62793068428681
  O          -1.92908526779299      1.73937173834706      0.99894432338847
  Si         -1.91360925609983      1.66744054967692     -0.66086929566051
  C          -3.36727410103347      2.70542836932736     -1.21696085514256
  C          -3.57924911854241      2.66278389595016     -2.73617798885007
  C          -4.66993250666246      2.38974877598690     -0.46903678440025
  C          -1.84542352964689     -0.10169456277656     -1.27026703934820
  C          -3.14080885873577     -0.87272172578475     -0.98699562325000
  C          -1.43502161573401     -0.22264624262880     -2.74435681464727
  O          -0.48825955481167      2.39913106854217     -1.11351732128485
  C           0.31701171307048      2.97689504962912     -0.09101115751214
  C           0.54096314229566      2.02224674394860      1.06775497726662
  H           1.21587441953596      2.51318009593829      1.77732593938672
  O           1.16754900042342      0.84185612661780      0.55590618807434
  C           1.71502524782650      0.03559412313717      1.57957234459182
  H           1.79504089455104     -0.96635231165662      1.13855385139459
  O           2.97714257453760      0.48479407739032      1.98658023159215
  C           3.97864429994186      0.32449340405445      0.98340707756472
  C           0.81339173619734     -0.00142202305363      2.81818341434123
  O           0.94586524752494     -1.22607357450731      3.52713272042323
  H          -1.30590837643527     -0.67459963804911      3.96412351041929
  H          -3.06431242400949      3.72681185348364     -0.94579615899210
  H          -3.94102568563135      1.68035253088868     -3.05281413377252
  H          -2.65797686635794      2.87448888134793     -3.28713237971528
  H          -4.32788440951909      3.40198145892474     -3.04008393775602
  H          -5.03664207060303      1.38936948419494     -0.71398464561085
  H          -5.45244691042820      3.10303991790754     -0.74963551806613
  H          -4.53779264961925      2.44313937472681      0.61425118608896
  H          -1.04299952899074     -0.54933319923343     -0.66920993567248
  H          -3.01646625288742     -1.93531097575835     -1.22139512037469
  H          -3.96368397641671     -0.49571988199389     -1.60118436322994
  H          -3.44233302050780     -0.79455715590722      0.06194407721436
  H          -2.20337098937254      0.18171187515051     -3.40827997986128
  H          -1.28982287126666     -1.27434430900165     -3.01411227188510
  H          -0.50164689663533      0.30839003756678     -2.94796845950407
  H          -0.14147888691704      3.89492821295538      0.29476481600977
  H           1.28142798781390      3.23281760067284     -0.53427494891808
  H           4.92343283864648      0.63756658606814      1.42692139475627
  H           3.76307050832237      0.94444515261358      0.10924413290802
  H           4.04887278598803     -0.72512688513618      0.67600506693104
  H           1.13291533633793      0.77608831558986      3.51751660267877
  H           0.74637365968841     -1.95318043506572      2.92279051168551
