46
Coordinates from ORCA-job goat_0_102 E -1252.754991799550
  O          -0.82298524257157     -1.40647488046531      2.62467137133314
  C           0.16747803530655     -0.69996292312544      1.89347097846654
  H           0.56224426458556     -1.33520437893844      1.08823091331649
  C          -0.41167319271701      0.55803346544441      1.26360731091504
  H          -0.75245344460841      1.23001648021054      2.05793674647599
  O          -1.54248682969838      0.15458730529010      0.49469980370197
  Si         -2.05387651312310      1.01023539054207     -0.83735530470328
  C          -2.94952051053109      2.56317974457250     -0.30950147027495
  C          -3.00678688317842      3.64879504586165     -1.39185336706572
  C          -4.34607110778543      2.23727515571498      0.23795870382503
  C          -3.03987250116028     -0.19170642082585     -1.86979241572636
  C          -3.60668868388053      0.46539915165466     -3.13600010966249
  C          -2.18252758525487     -1.41457875470432     -2.22735352292975
  O          -0.64093462876611      1.45163295718953     -1.60138681619906
  C           0.56472833348916      0.91193252373285     -1.06619431186183
  C           0.67568378579331      1.25825172063495      0.41354023701408
  H           0.57252457674238      2.34338074664576      0.51664815271059
  O           1.99019157049034      0.86411055424739      0.81509247495712
  C           2.16137167257190      0.78647211160130      2.21794004439258
  H           3.22350164074699      0.55714182229056      2.35626246625374
  O           1.82728267777458      1.98897248396997      2.85350848232922
  C           2.69188555921101      3.06745444505537      2.49828153795505
  C           1.30414028837345     -0.33530998107681      2.83439668731753
  O           2.09115574171638     -1.46789063654251      3.17860287879959
  H          -1.56885458246181     -1.53246608041964      2.02375773309570
  H          -2.34158404916433      2.95190839602107      0.52023498391337
  H          -3.45232769637989      4.56519763100191     -0.99040027748334
  H          -3.61750604037195      3.33490717561614     -2.24255574522232
  H          -2.01062572112030      3.89525139101076     -1.76756082088168
  H          -4.99855624520266      1.85368001109665     -0.55252467240515
  H          -4.81996702349215      3.13390707547383      0.65058584039629
  H          -4.30621501968208      1.48504166268808      1.03159361253507
  H          -3.88018136531113     -0.52595347747516     -1.24747439215747
  H          -4.13193361646788     -0.27541173369248     -3.74780607022194
  H          -2.80815142780544      0.89288486195176     -3.75129420327780
  H          -4.31418129161625      1.26397491902799     -2.90197341368075
  H          -2.76857544417647     -2.13994890595705     -2.80127586253334
  H          -1.79970855269092     -1.91784523341910     -1.33606507955951
  H          -1.32520878460858     -1.12265077748931     -2.84235174249811
  H           1.40460072778669      1.36178942021615     -1.59893744647319
  H           0.60506157441888     -0.17353660472200     -1.20748935898922
  H           3.73525009623075      2.80225794661764      2.70194640633300
  H           2.40379082240547      3.91762179577760      3.11578149447098
  H           2.58578380460298      3.33130620332636      1.44265038288922
  H           0.88411432586946      0.03210631914894      3.77240048930986
  H           2.41261448571090     -1.87351512477991      2.36360667110003
