46
Coordinates from ORCA-job goat_0_183 E -1252.752135356840
  O          -1.04321337531109     -1.41988257321104      2.39493849286581
  C           0.01360025950727     -0.71790261355915      1.75960796328592
  H           0.38435469374295     -1.38961989816902      0.97867198960728
  C          -0.46050985015063      0.57184809616668      1.09765210243385
  H          -0.80035413399809      1.26189793928098      1.87977684603410
  O          -1.56330286630953      0.26382551074735      0.25555484850938
  Si         -1.97644877493307      1.20954933625903     -1.04404322166790
  C          -2.77600099772505      2.81570307950070     -0.52030010849604
  C          -3.00904168688999      3.73899488068498     -1.72449631909571
  C          -4.06377404873054      2.62702243235869      0.29070653513281
  C          -2.98127446927989      0.12157935726225     -2.18428776655105
  C          -2.06966245693504     -0.88513373929367     -2.90169253242528
  C          -4.11049615651856     -0.61025581442609     -1.44332000048711
  O          -0.50957634236743      1.61234578837071     -1.72962494599744
  C           0.63014159648062      0.95638772864149     -1.18218268455285
  C           0.71447519698875      1.22026111891775      0.31646788238622
  H           0.69279200311758      2.30380905567934      0.47050743940557
  O           1.98099714213924      0.70606967714621      0.73107975407123
  C           2.12331576849445      0.61614213553837      2.13443519559038
  H           3.15544217580804      0.28400649477947      2.29059980930798
  O           1.90014778001478      1.84755858041576      2.76468736023474
  C           2.86858845561909      2.83608662624940      2.41599401787567
  C           1.14855352419357     -0.41299826740544      2.73534500340848
  O           1.82267306376801     -1.59588837315999      3.14229970969317
  H          -1.42806466559848     -0.84282536978726      3.06659066106299
  H          -2.02842535285841      3.28886438257723      0.13212512737503
  H          -2.08661956930103      3.91862910844457     -2.28362151691891
  H          -3.39915589656292      4.70917951826440     -1.39916791575622
  H          -3.74069837561492      3.30525822763201     -2.41384109342996
  H          -4.86990673691716      2.23611406587392     -0.33637650532225
  H          -4.40392547050314      3.58474008267446      0.69854012595075
  H          -3.92357303243015      1.93627927027155      1.12720242562290
  H          -3.43066839352018      0.78005711856822     -2.93902565581912
  H          -1.57896806542787     -1.54868372838990     -2.18212255921502
  H          -1.29011965676060     -0.38585449195617     -3.48205604447847
  H          -2.65284094029165     -1.51237345731683     -3.58411919268999
  H          -4.81300288936665      0.07883680165552     -0.96989917753388
  H          -3.70471466484477     -1.26160273937229     -0.66372884887212
  H          -4.67712008798872     -1.23816412584535     -2.13899004894955
  H           1.52161020166014      1.36557528670844     -1.66131731647746
  H           0.59602726160714     -0.12136624941190     -1.37651373408919
  H           2.79655670265427      3.10802123760063      1.35948283885931
  H           3.87969035594504      2.47029800779376      2.62668156748034
  H           2.66074198207053      3.71077080551470      3.03151233834415
  H           0.72662224601666      0.01589449667073      3.64770857025607
  H           2.13907854730740     -2.05280480694539      2.35281858403117
