46
Coordinates from ORCA-job goat_0_96 E -1252.754966881843
  O          -0.89352906318113     -1.14261719293218      2.77527893922935
  C           0.06147045159975     -0.49467911155154      1.94623384994871
  H           0.41124494063501     -1.18444371045305      1.16845430460148
  C          -0.52062140227282      0.74323483523243      1.28213033149114
  H          -0.77125792013400      1.47525038310591      2.05627127157639
  O          -1.72377999382134      0.35268143367337      0.63139951196002
  Si         -2.27232796029603      0.94284858675206     -0.82066770085319
  C          -3.34015347166620      2.45582421187277     -0.57464914984764
  C          -2.57653441644174      3.55302359739673      0.17940814786576
  C          -3.91643186518601      2.99348162974666     -1.89182576868136
  C          -3.15014070660960     -0.46014046296663     -1.70157625310040
  C          -3.02967515264930     -0.31044650522970     -3.22686267870809
  C          -2.63649109446567     -1.83797478110852     -1.26095083660632
  O          -0.88995127767834      1.40648252481820     -1.62356940254519
  C           0.33711779864162      0.88949326849869     -1.11857743878658
  C           0.53742065432309      1.33913712358022      0.32311504803276
  H           0.48068095251620      2.43177006874244      0.35325065410969
  O           1.85867775819837      0.91710828113330      0.67591325903840
  C           2.12218270572885      0.91727746539995      2.06462247859307
  H           3.17311743114873      0.62089741143379      2.14752151546315
  O           1.91541677508947      2.18020858362707      2.63531066915353
  C           2.81287935023091      3.17033892454861      2.13484657742409
  C           1.23927271949228     -0.09097337088988      2.81353543159056
  O           2.05137500635788     -1.20942671169054      3.15379758845244
  H          -1.66361907621063     -1.32546548912125      2.22171670571324
  H          -4.17769382635863      2.12348305973172      0.05407848504853
  H          -3.22386130913206      4.41771015066293      0.35939233159533
  H          -1.71516663911774      3.89819837829253     -0.40023460433259
  H          -2.21069213760974      3.20457654427190      1.14913452651720
  H          -3.11910399169670      3.27053664474958     -2.58911220121954
  H          -4.51917592679219      3.88913564942956     -1.70800593955637
  H          -4.55635934356398      2.25896682783740     -2.38708760053328
  H          -4.21182357546310     -0.38386790969717     -1.43178256736260
  H          -1.98685215526535     -0.41027809317569     -3.54132040106858
  H          -3.39086094282181      0.65723306490464     -3.58367335926384
  H          -3.60765405818401     -1.09022166358737     -3.73349515988954
  H          -2.77357830579724     -2.00047018067655     -0.18973654756440
  H          -1.56898894763414     -1.94632101929426     -1.47865793350561
  H          -3.16521828252883     -2.63255281013916     -1.79836512877171
  H           1.15154686311438      1.28482061737039     -1.72846032895594
  H           0.36005939438790     -0.20443015496198     -1.18123683995653
  H           2.63345372099497      3.36948963505083      1.07500389326505
  H           3.85132879168274      2.84859044998142      2.27182529020489
  H           2.63265102610637      4.07739782758052      2.71091559317944
  H           0.85715903290575      0.39036345735429      3.72007117005016
  H           1.48843746942410     -1.84900146930415      3.60688026700495
