46
Coordinates from ORCA-job goat_0_1 E -1252.766050007990
  O           0.10797019693455      1.54175527713417      3.83910454162994
  C          -0.41109224504136      0.67396925917176      2.84090630521039
  H          -1.36116867219704      0.28320454507171      3.21320887968221
  C          -0.68431025018118      1.44388059335499      1.54360285011152
  H          -1.23735779351788      2.35838708555977      1.78601335528044
  O          -1.47561503959875      0.59396696470862      0.70565432983504
  Si         -1.76271670763677      1.07027900293411     -0.87211860178094
  C          -3.06809317456608      2.41254415702644     -0.85423248624196
  C          -3.52613494356934      2.78992647837152     -2.26971716155772
  C          -4.26293133816025      2.08696118531047      0.05155194545045
  C          -2.09006237105264     -0.48263676396895     -1.84926517523441
  C          -3.45697262995600     -1.10272497768164     -1.52925483372979
  C          -1.90574458112676     -0.29093995584395     -3.36115952322646
  O          -0.32643504192487      1.71540775539662     -1.40273631590072
  C           0.42287103380910      2.50888031460141     -0.48455782940469
  C           0.62674919445070      1.82647532123464      0.85785553449324
  H           1.15717415795150      2.53538132134636      1.50366679994057
  O           1.43608660921302      0.66798273241310      0.63105405490971
  C           1.77387020078637     -0.03397961687471      1.80684605780690
  H           2.36188103101745     -0.89195866323427      1.46513309075120
  O           2.52784512434541      0.75543399933672      2.69804237089352
  C           3.77997747112406      1.18496703844535      2.16249899551929
  C           0.53095109222417     -0.50662828274134      2.56676610085627
  O          -0.11885064537964     -1.53489615340603      1.83643653526921
  H           1.06356549980257      1.61706955944538      3.69681913615177
  H          -2.55462375760504      3.28490624701520     -0.42529917288076
  H          -4.09250029976154      1.97380207623417     -2.72782101471229
  H          -2.68190174557331      3.02163640462404     -2.92577212111950
  H          -4.17944317691798      3.66819402168778     -2.24192974122772
  H          -4.82874874128503      1.23146617900791     -0.32714841033122
  H          -4.94939159861177      2.93903584893262      0.09941262489020
  H          -3.94471086429484      1.85290595334089      1.07066708314750
  H          -1.31082622422058     -1.17423133339600     -1.49993836179640
  H          -4.26962858008583     -0.46987031754505     -1.89694241486478
  H          -3.60215467253150     -1.24614752469123     -0.45458516766181
  H          -3.55546850171880     -2.07952747192047     -2.01379791922415
  H          -0.92621623773530      0.13085161025847     -3.59947428180912
  H          -2.66863913973926      0.37455637674592     -3.77380486563734
  H          -1.99408471906984     -1.25221956865458     -3.87801654719667
  H          -0.07608614307942      3.46966810239767     -0.31124031663009
  H           1.39751922840763      2.70489019835189     -0.93610914435201
  H           3.63568647212820      1.88913020683576      1.33935053618417
  H           4.35295068224972      0.32198169912084      1.80746620483556
  H           4.31766064545612      1.67420550605096      2.97369989977078
  H           0.85399083570546     -0.93420017208484      3.51854983707644
  H          -0.66088963946752     -1.09749221942410      1.16087433682426
