46
Coordinates from ORCA-job goat_0_218 E -1252.750386773734
  O          -1.10461897811684     -1.21120510509334      2.07697233150985
  C          -0.00946373901769     -0.51309606569560      1.50806322763139
  H           0.14407922185069     -0.97094225992515      0.52619358873687
  C          -0.26437026181072      0.98471985327522      1.34733248514762
  H          -0.21335247433315      1.44151607795287      2.34010713566514
  O          -1.55966535488639      1.27745617262751      0.85462395630251
  Si         -1.95252312294324      1.49102042971060     -0.74382877491231
  C          -3.25026298137995      2.82988108342989     -0.82960803057406
  C          -3.82476793260571      3.01283129297380     -2.24088696471199
  C          -4.37048865119430      2.64842534230168      0.20433389887687
  C          -2.37038445112066     -0.17387552042252     -1.49813383522674
  C          -3.71069971220892     -0.72048021618798     -0.98773947707642
  C          -2.31219726718597     -0.17864771193484     -3.03121096886546
  O          -0.56592620928908      2.08985982018353     -1.44596354643053
  C           0.62544573291660      1.43127443207020     -1.02967633815009
  C           0.85938522774889      1.58552342058180      0.47390828508978
  H           0.95477114816687      2.65115168685430      0.70796139894353
  O           2.11154087738780      0.92719775159918      0.69993224890970
  C           2.29891023606766      0.40937313414862      2.00060353610597
  H           3.30253937547356     -0.02930876393597      1.97973583959762
  O           2.22207067678290      1.40657387837036      2.98300354170365
  C           3.25480889747952      2.38395432409411      2.86348990671798
  C           1.26810773318934     -0.68619169410338      2.33457297420606
  O           1.82311887635867     -1.98499428082071      2.18198063357959
  H          -1.33703453021105     -0.78533601210354      2.91154692416572
  H          -2.69572936464742      3.74118232491517     -0.56711398652975
  H          -3.04005866851470      3.14563321955105     -2.99135338642884
  H          -4.47459745639885      3.89339395796802     -2.27669708494225
  H          -4.42700257024851      2.14842339348325     -2.53431693862459
  H          -3.97362094415237      2.54591828109173      1.21718548119688
  H          -4.97272719257263      1.76219481402295     -0.01228238693126
  H          -5.04242250121277      3.51309591157741      0.19050424590120
  H          -1.58095888131604     -0.84490261674674     -1.13400539993849
  H          -3.76272761103579     -0.71907463095092      0.10490692495512
  H          -3.86115255565635     -1.75017495485739     -1.32880571762539
  H          -4.54694162466202     -0.12475264125299     -1.36500092833411
  H          -2.47420072022470     -1.19107285298087     -3.41662980383253
  H          -1.34391490875381      0.17060489255344     -3.39932116139308
  H          -3.08493180316499      0.46307911897594     -3.46265459174794
  H           1.46908572180268      1.88166301785686     -1.55636239655540
  H           0.59762960137469      0.36720861262766     -1.29411658622046
  H           4.23926746388494      1.90275019172861      2.87507200128433
  H           3.16224198092189      3.04634121094324      3.72360127290839
  H           3.14686838230731      2.96371028354296      1.94306299563458
  H           1.01592337419141     -0.59257285261818      3.39373047021549
  H           1.99489794095941     -2.13307975138212      1.24354300006581
