46
Coordinates from ORCA-job goat_0_20 E -1252.762589576002
  O           0.20921569390616      2.17593509594443      3.52306302936429
  C          -0.45538646384497      1.19859966574396      2.73728075198306
  H          -1.44078807649974      0.96492020855858      3.15715168812612
  C          -0.65601788385700      1.81646467181190      1.35448025656289
  H          -1.05718718918417      2.82758288901021      1.47716706873133
  O          -1.59378836270172      0.99409373408926      0.65483912597010
  Si         -1.78754866712639      1.09919162833822     -1.00127354432931
  C          -3.21490575908375      2.23714609142165     -1.41350350532274
  C          -4.57666745362594      1.67101893658908     -0.98999255283809
  C          -2.99541022096623      3.62929837372792     -0.80266223933075
  C          -1.93158857289577     -0.63889881815161     -1.67032967860852
  C          -2.93493258444577     -1.53234686342925     -0.92815976414942
  C          -2.22273022243126     -0.62015508475235     -3.17827894036225
  O          -0.38675022530535      1.75605992806036     -1.59899261065669
  C           0.53337305749401      2.47414403336031     -0.78307521144892
  C           0.67367476942486      1.89622398955773      0.61136394923518
  H           1.34309338452037      2.55056096708498      1.17898010045593
  O           1.24701173373319      0.59265865745126      0.48715485097856
  C           1.56333975172237     -0.00495700472642      1.73014095086863
  H           1.90832862496065     -1.01212234116234      1.46919609415591
  O           2.56522801816190      0.69147218188886      2.41653399575160
  C           3.81278241226655      0.69086048030389      1.72743954671252
  C           0.33072060744119     -0.11731140448978      2.63260624909126
  O          -0.51446611100727     -1.15168805399950      2.14331955324583
  H           0.41796102074267      1.78709008585470      4.38010452329180
  H          -3.20875778118982      2.33953748731712     -2.50703686493279
  H          -4.59483429006713      1.43881897870494      0.07992654438065
  H          -4.82780069614311      0.75955453034129     -1.53627433342797
  H          -5.36989987435256      2.40147212980158     -1.18172233464755
  H          -3.00504784195414      3.58307952978766      0.29077605381337
  H          -3.79562159408058      4.31155281099617     -1.10787411108271
  H          -2.04521401819793      4.07092673524837     -1.11411412499614
  H          -0.92819250347495     -1.05991899440988     -1.51938491705411
  H          -3.96325612736283     -1.20706624883705     -1.10137259714942
  H          -2.76918283224562     -1.53975424901898      0.15213173635195
  H          -2.85511770799237     -2.56502067648087     -1.28328931669213
  H          -2.20295253250040     -1.63515189459786     -3.58823278875983
  H          -1.48933280026977     -0.02293144062174     -3.72799102880543
  H          -3.21410433768979     -0.20191916104446     -3.37928460512174
  H           0.22082633000855      3.52030020133112     -0.69344275904292
  H           1.50601946885223      2.44679425351616     -1.27962481874774
  H           3.75425943311238      1.27129346361238      0.80250681767122
  H           4.12136954916711     -0.33415349355455      1.49083304143679
  H           4.54349752826181      1.14579641590415      2.39581553803742
  H           0.66469928314363     -0.42102672555097      3.62819779254274
  H          -1.01396793642333     -0.77177570053070      1.40516338874800
