46
Coordinates from ORCA-job goat_0_163 E -1252.757377255919
  O          -1.21534711966810     -0.91259901452105      2.73202029842570
  C          -0.30838654096126     -0.13745381754918      1.95694070411648
  H          -0.11935724702021     -0.64478946215643      1.00313033003898
  C          -0.84851180773154      1.26250350462350      1.70466245416871
  H          -1.07016221105622      1.71804431148899      2.67472723010714
  O          -2.07310077845034      1.19647542715047      0.98527708003099
  Si         -2.17668029827658      1.26260152794589     -0.67680667027427
  C          -3.65331073301747      2.32693940797717     -1.08723719148120
  C          -3.48933417055797      3.72526825848362     -0.47434083115206
  C          -3.93056084326641      2.41786712346063     -2.59409934898259
  C          -2.22119612125095     -0.48642139727255     -1.34739395102022
  C          -3.56237089971973     -1.16051052173673     -1.02459207112139
  C          -1.88461235126572     -0.58296989457892     -2.84094277069957
  O          -0.80240921001066      2.04808694304830     -1.18764756549858
  C           0.40573907533581      1.78705598533978     -0.47486418966729
  C           0.20373023889711      2.13278519442450      1.00344063333699
  H          -0.12976280944551      3.17239017061194      1.04425693505215
  O           1.41906024658465      2.10006795009776      1.74529531455819
  C           1.98138743829975      0.80621540213966      1.95653530729687
  H           2.22814386711653      0.34069270071129      0.99126069533496
  O           3.12855595659416      0.96969945335678      2.71589492550343
  C           4.22569231426728      1.50499061841220      1.97462461596947
  C           1.00093817784574     -0.06930271133993      2.72415992412809
  O           1.57225587130778     -1.36043525711698      2.86831965811060
  H          -2.02341137833341     -1.01640565942977      2.21462868047897
  H          -4.51394846373539      1.84082702157674     -0.60863326732633
  H          -2.64695430509236      4.25352952902278     -0.93078873907666
  H          -3.31103905537412      3.67795406139053      0.60296541966973
  H          -4.38956955647430      4.32517430803468     -0.64315980482037
  H          -3.06179247502179      2.80600441832223     -3.13554721356282
  H          -4.76805445742690      3.09678726198073     -2.78581619845155
  H          -4.18702402226881      1.44646053424700     -3.02222066020397
  H          -1.43635005173416     -1.02275613816867     -0.79801308700562
  H          -4.38547864441688     -0.67118741492794     -1.55481371965518
  H          -3.78672812593058     -1.12512539243665      0.04603181988542
  H          -3.55177746708451     -2.21205008518910     -1.32948663354250
  H          -0.91831170564888     -0.12382882448628     -3.06539247915569
  H          -2.64011105443762     -0.08864155215449     -3.45685331479845
  H          -1.84087057607245     -1.63113763523480     -3.15553459144492
  H           1.18943658665579      2.42947914121898     -0.88158239436467
  H           0.71266913517967      0.74607410676553     -0.62135943837556
  H           4.01648713773878      2.52539009066143      1.64363824175185
  H           4.44203999038007      0.87530818940910      1.10468938467924
  H           5.08483973456323      1.50813698611488      2.64457159825146
  H           0.82611537856828      0.39040110822478      3.70573740254375
  H           0.87338333141625     -1.94134595794243      3.19457747824231
