46
Coordinates from ORCA-job goat_0_211 E -1252.750411837553
  O          -1.23540263193174     -1.08964206578988      2.18219643214782
  C          -0.10192929248274     -0.46559287586785      1.60215142581325
  H           0.05162313011073     -0.97750916030387      0.64749696826647
  C          -0.29311934462526      1.03090787559054      1.36273096622631
  H          -0.24730168765752      1.53356226033246      2.33328300142701
  O          -1.56443486024402      1.34776131113784      0.82389491932872
  Si         -1.91028422896566      1.48666368816304     -0.79394812628056
  C          -3.16257489217737      2.85794589188138     -0.98238507096261
  C          -3.69336825886007      2.98520386031674     -2.41686637011663
  C          -4.31490786761987      2.76255137760516      0.02761851580136
  C          -2.36263233557758     -0.20076323699815     -1.47513939540455
  C          -3.73525535923852     -0.67581716544692     -0.97890089054832
  C          -2.26141998087685     -0.28348658971276     -3.00383888223353
  O          -0.48761951619056      2.00505348566802     -1.48832714379579
  C           0.66803444142402      1.32487799078900     -1.00996901597941
  C           0.87280239799481      1.54576873149631      0.48959752734568
  H           1.00299805806167      2.61745499663007      0.67381629539881
  O           2.09365811459714      0.85410622153150      0.77833139379390
  C           2.23029577709721      0.39067517099283      2.10553368469741
  H           3.21693539697030     -0.08472233183613      2.13042466969451
  O           2.16720153021489      1.43449103397110      3.03937328087469
  C           3.23843469778787      2.36705706713374      2.90284001832933
  C           1.15168432138852     -0.64978311039740      2.46251491186302
  O           1.65952108250999     -1.97368486331544      2.37542998340779
  H          -1.47518041564379     -0.60312998897618      2.98090133528257
  H          -2.58707843854563      3.76450862751104     -0.75059198875195
  H          -4.31780996594440      2.12716863607327     -2.68128535623116
  H          -2.88515148079990      3.05095890346586     -3.15106620587762
  H          -4.31059233633271      3.88407690274689     -2.51690747452494
  H          -4.93909352620175      1.88558512722387     -0.16268001397911
  H          -4.95812842230000      3.64573937788221     -0.04703137823824
  H          -3.94817971855354      2.69793628367078      1.05489033740222
  H          -1.60834570512527     -0.87924620833918     -1.05513440432444
  H          -4.53914839169321     -0.07150666080829     -1.40906325707227
  H          -3.81775752005436     -0.61887642661669      0.11040576404321
  H          -3.91198760613863     -1.71545567305461     -1.27411986392785
  H          -1.27300133535905      0.01889302506305     -3.35972997542523
  H          -3.00166291960725      0.35862776594056     -3.48837969610626
  H          -2.44336038198709     -1.30857773605049     -3.34424502650439
  H           1.54035303758616      1.71583466623283     -1.53732289021044
  H           0.60483355531705      0.25039625992484     -1.22062316662087
  H           4.20362197925719      1.85127596838383      2.95985941809965
  H           3.15100698572721      3.07025281772039      3.73050386991757
  H           3.17377037876446      2.90871788843804      1.95551105043735
  H           0.88194104133509     -0.50199564630490      3.51101345866621
  H           1.84196249459003     -2.16801347369841      1.44749636485151
