46
Coordinates from ORCA-job goat_0_156
  O          -0.53714600359591     -0.95908855823682      2.71629702010011
  C           0.11553415952240     -0.46724827520446      1.54960476497630
  H          -0.23045056708526     -1.10495063236191      0.73569292507527
  C          -0.30028687080594      0.97384672515777      1.26535581166702
  H          -0.24528911524885      1.53468969872010      2.20099949417220
  O          -1.65277544548910      1.02649496808936      0.83080102800655
  Si         -2.17161736447291      1.23948713831937     -0.73371431521247
  C          -3.04261204494803      2.89064883517741     -0.81540817881780
  C          -3.49194328210273      3.28468709673282     -2.22751732195618
  C          -4.21742843427619      2.95530241826764      0.17013404161282
  C          -3.24992957689301     -0.20428510823313     -1.24540598804876
  C          -3.34594716545658     -0.32131525528880     -2.77456278848095
  C          -2.75409991814701     -1.52762668572246     -0.64741810495654
  O          -0.81294750563479      1.28994843354954     -1.68394220397408
  C           0.49361624717926      1.07152628099650     -1.15777155780287
  C           0.62703600410343      1.64812958887172      0.25100696177872
  H           0.35907867232389      2.70947970013267      0.20937657556094
  O           2.00597432161728      1.58249119541973      0.63010824499715
  C           2.35553074180713      0.72370178819047      1.69269273462381
  H           3.44051413354940      0.59635170264690      1.59133812467229
  O           2.05308437048445      1.26839481485923      2.95240030190621
  C           2.77819073814203      2.46189401349717      3.23849396833051
  C           1.64580764672824     -0.62524822694562      1.62523814435368
  O           2.06436896191159     -1.35188719663602      0.47405101471863
  H          -0.29990123568895     -0.38315621243180      3.45397260065876
  H          -2.28058699696595      3.61113568310463     -0.48650756444328
  H          -4.30870645779386      2.64507882217745     -2.57346708169539
  H          -2.67769011542785      3.21317869468024     -2.95396209117809
  H          -3.86109801945410      4.31574541678837     -2.23918601633472
  H          -5.00731071117875      2.25254676807185     -0.11279389217089
  H          -4.65983228983306      3.95715582368041      0.17918170467418
  H          -3.90700400274694      2.71788631824023      1.19104261933628
  H          -4.25416794788439     -0.00256941208686     -0.85118988580316
  H          -3.73385119603990      0.58572472375842     -3.24273205889154
  H          -4.00894673251082     -1.14754813801624     -3.05243137840937
  H          -2.36317818250145     -0.52574718726348     -3.20855682189846
  H          -1.74641321483475     -1.76455033192225     -1.00522681395487
  H          -3.40835500367676     -2.35334933469527     -0.94723707465654
  H          -2.72317972521721     -1.49844493676164      0.44371482060409
  H           1.20870085337999      1.58323018231712     -1.80619423331176
  H           0.72854069477587      0.00458001471930     -1.16234158911422
  H           2.51125565059233      3.26112070073940      2.54241061821456
  H           3.85687519642901      2.27623377950248      3.18371783671892
  H           2.51143745017565      2.75969319368674      4.25205536222501
  H           1.88952175832781     -1.17811145653564      2.53731480950990
  H           3.01157752486129     -1.51900757175263      0.55082543261814
