46
Coordinates from ORCA-job goat_0_197 E -1252.754539657939
  O          -1.18242795698092     -1.22087526394391      2.53475200363314
  C          -0.07646657894903     -0.63946273640124      1.86112592009319
  H           0.29983752653539     -1.33042392483785      1.09369801180537
  C          -0.47683074837409      0.65704217876988      1.17253545314704
  H          -0.80367022146211      1.37654852508002      1.93022254820514
  O          -1.58630462540643      0.34999976833279      0.33134819108828
  Si         -1.92781036592071      1.21385243434238     -1.04757981886131
  C          -2.72101630656922      2.86148650934033     -0.66737833113442
  C          -2.80196899103752      3.74160976565474     -1.92283480152733
  C          -4.09379644585173      2.73127520592646      0.00361243824607
  C          -2.91941542881551      0.07172383911741     -2.14658982655969
  C          -1.99979643390109     -0.94870741783916     -2.83342967661763
  C          -4.03533231498818     -0.64855525313079     -1.37409434719819
  O          -0.42761890269229      1.54282833000775     -1.69593611152073
  C           0.68115603954087      0.88535218514447     -1.08957055030829
  C           0.73363663680164      1.22715845115783      0.39421212472444
  H           0.74437379049262      2.31752626763980      0.49071170906665
  O           1.96800588974914      0.69423440937773      0.88096536101860
  C           2.04454050023123      0.62723154638072      2.29240903319177
  H           3.06293275967590      0.28127711615881      2.49991631603253
  O           1.81354225619898      1.87334412050169      2.88883464754535
  C           2.81376564478427      2.83949901665839      2.56820264868091
  C           1.02834143844844     -0.37583129577788      2.87076547373751
  O           1.65966645814296     -1.57812205741046      3.29092612254960
  H          -1.89809487856103     -1.27758483865142      1.88821570793996
  H          -2.03461545919105      3.34223307299395      0.04381822261457
  H          -3.20909206387615      4.72806981947994     -1.67725877846094
  H          -3.46030429542567      3.29304578934317     -2.67408945034102
  H          -1.82023010129479      3.88755143370469     -2.38092205911623
  H          -4.45799530316601      3.71231370923784      0.32609655786603
  H          -4.06164815732310      2.07950556258049      0.88151739296727
  H          -4.83205071482189      2.32211470188635     -0.69218159613488
  H          -3.38177347996330      0.69821492764181     -2.92056243797129
  H          -2.57920958071848     -1.60881573823767     -3.48742473465851
  H          -1.49531303070301     -1.57881548071254     -2.09338699548407
  H          -1.23063692181816     -0.46146166103841     -3.43718902975893
  H          -3.61403425291973     -1.28156932693202     -0.58767875360422
  H          -4.60888374474565     -1.29337564098970     -2.04812523428401
  H          -4.73389851348614      0.04672221411113     -0.90363004435159
  H           1.59399202720816      1.24438691124671     -1.56855168579150
  H           0.62050159465662     -0.19967126572379     -1.22832928655604
  H           2.59030774219790      3.72975003898145      3.15523180577258
  H           2.79740041797831      3.09039237500616      1.50422044918896
  H           3.80722802954252      2.46266959503857      2.83561431858603
  H           0.59024194656065      0.06100547237659      3.76997472675654
  H           1.98471512021725     -2.04044339159314      2.50807636578329
