46
Coordinates from ORCA-job goat_0_89 E -1252.755790286610
  O          -1.35444007233642     -0.53454034962654      2.80399782412178
  C          -0.23603677773007     -0.26491563536918      1.96959448716885
  H           0.00303275296657     -1.14832571983590      1.36495881713651
  C          -0.50226498464100      0.90867572070941      1.04050496506607
  H          -0.65857801254342      1.80851052639307      1.64366114012500
  O          -1.70827001599774      0.62415750420197      0.33910813055379
  Si         -2.03739784017501      1.11055538603751     -1.21552837842908
  C          -2.75260901205741      2.83392553402919     -1.31673294098850
  C          -4.23087957262122      2.89989627261915     -0.91256959680532
  C          -1.91633523068961      3.82718620114790     -0.49797666528527
  C          -3.12465033287903     -0.22034889007449     -1.95719199268026
  C          -2.28813460655427     -1.41371483504047     -2.44108064247645
  C          -4.20781725648309     -0.69519425786941     -0.97625335961936
  O          -0.53897526425287      1.18090680552852     -1.93941714130351
  C           0.51791637083171      0.50279463704505     -1.26698419781165
  C           0.72439111157169      1.10697966487566      0.11565695445113
  H           0.92104482005658      2.17683074289738     -0.00156766337438
  O           1.88731167398705      0.46314704267077      0.64505590475090
  C           2.08465037472423      0.66307054750757      2.03005724645125
  H           3.02263104108699      0.14413730385815      2.25393705190658
  O           2.18040656482274      2.02303384780156      2.35371452300476
  C           3.31645104402328      2.65551230267831      1.76598426860627
  C           0.94590644659780      0.05811047870205      2.86352463349258
  O           1.44952928664223     -1.10547846697083      3.51045816626130
  H          -2.11107783215214     -0.67326313852250      2.22005056377841
  H          -2.67565860882675      3.11220580032912     -2.37734397362645
  H          -4.37338460730091      2.57100940146994      0.12205186647360
  H          -4.85759454200899      2.27479267849142     -1.55336847916201
  H          -4.60105038036007      3.92796171323703     -0.98457321349872
  H          -1.97457974683803      3.59764829686414      0.57062246739143
  H          -2.28774184210117      4.84802091577351     -0.63503360700629
  H          -0.86258551577193      3.81205516229454     -0.78854092987363
  H          -3.61917931782232      0.23104558693079     -2.82782192329524
  H          -2.93119449579725     -2.17156140977842     -2.90082276583027
  H          -1.76758440515768     -1.88981444181873     -1.60364440608832
  H          -1.53689135125047     -1.11496046116209     -3.17607560085625
  H          -4.85734402120929     -1.43483332424036     -1.45602715255591
  H          -4.83917003226876      0.12175014866707     -0.61989663060730
  H          -3.75281578938786     -1.16990431622489     -0.10211654190367
  H           1.43166586976544      0.63102512128687     -1.85008126162444
  H           0.31099592716841     -0.56955067986893     -1.18206405997196
  H           3.35296233226581      3.66883995286297      2.16469403293844
  H           3.22974610480793      2.69481571078116      0.67689705247556
  H           4.23362556096733      2.12075326459310      2.03683257942043
  H           0.62984248666735      0.79770017940472      3.60696566403202
  H           0.72608169826166     -1.48439852528693      4.02464478506765
