46
Coordinates from ORCA-job goat_0_178 E -1252.761134425192
  O          -0.09251978800628      1.13824114809523      3.78938816402603
  C          -0.56465421092055      0.40063672679047      2.66547576078854
  H          -1.51522013935360     -0.05299857676889      2.95405914899519
  C          -0.82541316963965      1.34981522726128      1.48947532873101
  H          -1.32010050772340      2.24217703683516      1.89225733113187
  O          -1.68428622430793      0.69612719779630      0.56387842589144
  Si         -1.92217082843608      1.34027759825286     -0.94827190869501
  C          -3.16138639944778      2.74079000119217     -0.84636642946338
  C          -3.30258810622320      3.46309178257783     -2.19297561630605
  C          -4.52946972777895      2.30887772825698     -0.30414141225145
  C          -2.35490086785517     -0.05718914183196     -2.10899976859314
  C          -1.10211907786039     -0.84958481983140     -2.50974135716131
  C          -3.40508728618947     -0.99458852543546     -1.49159535121431
  O          -0.45310846286883      1.97464770801142     -1.40197597640054
  C           0.30586563071500      2.63660566311590     -0.39397845715749
  C           0.49285672053383      1.79072948776283      0.85388748657402
  H           1.02827441046432      2.40964419096944      1.58308759875245
  O           1.29703352133830      0.66173230874983      0.49564043422720
  C           1.64890434937363     -0.14902627526229      1.59099123234774
  H           2.25473043199553     -0.95629711116835      1.16334334031694
  O           2.39265932709587      0.55764477883760      2.55824641718952
  C           3.62888454659855      1.07250956960126      2.06365858053747
  C           0.42453450092794     -0.71700612253024      2.31671610151245
  O          -0.22690347233030     -1.68854444695393      1.51220199527733
  H           0.85922275083226      1.27460954569877      3.67425335947341
  H          -2.72292441735206      3.44739481445225     -0.12703908485074
  H          -2.33806781054854      3.81797609474488     -2.56616031180157
  H          -3.96749394800962      4.32860845566240     -2.10182647231435
  H          -3.73109081413170      2.79893778792258     -2.95077791055283
  H          -5.16740224268130      3.18154977578440     -0.12813527645270
  H          -4.44163723275178      1.76086154694652      0.63822343295198
  H          -5.04930540611273      1.66531227004107     -1.01982757710686
  H          -2.78451335732446      0.39635372059989     -3.01139747038662
  H          -0.36741249981413     -0.21976253888045     -3.01573098133643
  H          -1.36967455772488     -1.67168400723890     -3.18212786040207
  H          -0.61846441375596     -1.28434812856367     -1.62919022828748
  H          -4.32924672191237     -0.47354547008076     -1.23192332363929
  H          -3.01806686240203     -1.46263516398251     -0.58187357927245
  H          -3.65934453490673     -1.79438991139739     -2.19487680213959
  H          -0.17664549672376      3.57784098646759     -0.10334584515019
  H           1.28582472636039      2.87075328812642     -0.81550444871783
  H           4.16529344299183      1.47850974434135      2.92041879098313
  H           3.46171217727329      1.86224513530683      1.32683778641718
  H           4.21653463188808      0.26870793029090      1.60767091126227
  H           0.76703274359842     -1.16427770697825      3.25556682257820
  H           0.33580467310623     -2.47108130358757      1.48276499968865
