46
Coordinates from ORCA-job goat_0_176 E -1252.753267057603
  O          -0.76265304230444     -0.54044125785686      2.83367649233888
  C           0.16479423062933     -0.20369175658480      1.81039504701958
  H           0.36023899067519     -1.07868885277483      1.17870834365911
  C          -0.35192125820234      0.92946302655550      0.93874531356739
  H          -0.45883781519214      1.82808171519696      1.55452463329868
  O          -1.64225485921762      0.55205672726461      0.46978803085106
  Si         -2.26306507515636      0.95676143538051     -1.01759189733098
  C          -3.10712446257655      2.62183520317215     -1.00100201623653
  C          -4.38972578369437      2.57670397057814     -0.15793948039651
  C          -2.16267635050473      3.72535302070554     -0.50611939505483
  C          -3.39158485566787     -0.43991784699682     -1.52699309567250
  C          -4.08092511145013     -0.12631966477576     -2.86292794048115
  C          -2.62815556624328     -1.76906964178577     -1.60213388995171
  O          -0.92793681434069      1.05779359659789     -2.00663393198345
  C           0.28108507233724      0.50183408549298     -1.49861090771516
  C           0.66622250804273      1.19325174531455     -0.19690063176165
  H           0.73692673520202      2.26830856861121     -0.38342380839180
  O           1.96355574875606      0.68399190062611      0.13545760526218
  C           2.37377052028328      0.92559751310734      1.45209123811011
  H           3.38228180844544      0.50557407897450      1.53327015505460
  O           2.40968999125731      2.32218854324895      1.65018412937247
  C           3.25121605756871      2.70357516883177      2.73289333551944
  C           1.45810108523624      0.22544533512214      2.47623144877390
  O           2.17138846776450     -0.88437171917700      3.01066378732227
  H          -1.59691198046607     -0.75325645796822      2.39638148765991
  H          -3.38248937916113      2.84273939824795     -2.04068501944574
  H          -4.16386299682310      2.32121665238120      0.88266591119374
  H          -5.10362022753370      1.83959807355751     -0.53535616739395
  H          -4.88578218135757      3.55275754903193     -0.15736184619803
  H          -2.65523066641817      4.70236525787440     -0.54909156800049
  H          -1.25148344489257      3.78116543337160     -1.10720753679826
  H          -1.86995596310681      3.55278353520681      0.53445610931245
  H          -4.16236340421967     -0.52481090752703     -0.74997978054143
  H          -4.68690257044380      0.78211888080961     -2.80930969439016
  H          -4.73850382068721     -0.94979478436334     -3.15999138232703
  H          -3.34376701273230      0.00993437338905     -3.66128034274374
  H          -3.30642898957394     -2.58957651859120     -1.85870578382944
  H          -2.14484613976849     -2.01484456879782     -0.65288165012708
  H          -1.85309897620769     -1.72937554183899     -2.37409548312013
  H           1.06953205160119      0.66956516661081     -2.23454780663225
  H           0.18357946387472     -0.57740558138059     -1.33787542211428
  H           4.27720095827878      2.35731570412080      2.56315588852573
  H           2.89150648149637      2.30187704684288      3.68639479330002
  H           3.23572556342098      3.79203222657945      2.77753906053968
  H           1.21113879387219      0.93438146378904      3.27437191068484
  H           1.58810421920058     -1.32985129617480      3.63731175727235
