46
Coordinates from ORCA-job goat_0_182 E -1252.758628983490
  O          -1.23781290078493     -1.10531684220827      2.56386929189574
  C          -0.32256740998696     -0.29375094451660      1.83716585266253
  H          -0.03441647088491     -0.80877683526789      0.91256340757329
  C          -0.92814256453719      1.05901492481323      1.49653100609091
  H          -1.26388143596121      1.53061086481613      2.42565674340900
  O          -2.07132792478991      0.86114868899998      0.67520699852893
  Si         -2.19045422041110      1.23459022317173     -0.94010220426245
  C          -3.40877386610628      2.63104745863352     -1.17130489754409
  C          -2.98740591597992      3.87279486484338     -0.37543457268050
  C          -3.60418227811428      2.96352186884078     -2.65737599492576
  C          -2.67766098558733     -0.30727321246476     -1.87611629151710
  C          -1.68679720227658     -1.45305224310341     -1.63495984311538
  C          -4.11130057131888     -0.73951469608530     -1.53671949215097
  O          -0.69121647610197      1.76852130078146     -1.41759762967409
  C           0.45479758914753      1.57796270067587     -0.59298133543469
  C           0.12220750351891      1.96910174587732      0.84850158031452
  H          -0.27036525358024      2.98843108401254      0.82096720458194
  O           1.27423794054280      2.03762242370045      1.68155201306452
  C           1.89889550204530      0.79118580720252      1.98249926582865
  H           2.25638927293833      0.31577755093387      1.05751184977903
  O           2.96575779592033      1.05410340857297      2.82691464000298
  C           4.08107176905733      1.64716616546012      2.16058205874726
  C           0.91627930110992     -0.12396592155450      2.69893095545237
  O           1.55171655011216     -1.37263789941484      2.92571673305731
  H          -1.99631143857392     -1.26839500540103      1.98976976259209
  H          -4.36550523652145      2.27313406891901     -0.76891240713380
  H          -2.03517937546737      4.26765649093840     -0.74300791669274
  H          -2.86923915637235      3.65121868730830      0.68910008178365
  H          -3.73524143244210      4.66681499495188     -0.47230565648718
  H          -2.66316216246479      3.28825536323449     -3.11331654467311
  H          -4.32736776708743      3.77653265135592     -2.77995734498652
  H          -3.97071578310043      2.10272605762253     -3.22356566833070
  H          -2.64089129243673     -0.03810888144945     -2.94008003703919
  H          -1.71067063296121     -1.77487034363075     -0.58923797062868
  H          -0.65955356707527     -1.16372733318731     -1.87466425853588
  H          -1.94226776088833     -2.32119254828557     -2.25153239971182
  H          -4.38521167511574     -1.64127339552715     -2.09434533918631
  H          -4.84093091035832      0.03765748764645     -1.77959535296918
  H          -4.20889457273564     -0.96944022474912     -0.47047260317266
  H           1.24985226444818      2.23181345776357     -0.95836470553034
  H           0.80206481508432      0.54372916408887     -0.67296186740660
  H           4.88419499333554      1.71557000791531      2.89357414432284
  H           3.83462670791236      2.64679269654275      1.79384822428343
  H           4.40282779584366      1.01942924554249      1.32242329251674
  H           0.63910617457440      0.34940733934060      3.64996471446296
  H           0.86737226443175     -1.98579246766054      3.22232251283908
