46
Coordinates from ORCA-job goat_0_151 E -1252.753879196287
  O          -0.70213650652715     -1.63732302422037      2.27154588959916
  C           0.29730314811997     -0.81739073186075      1.68243138374561
  H           0.77149956710901     -1.34574348333891      0.84555054552779
  C          -0.30554621329526      0.47540261635846      1.15331166945770
  H          -0.73892606237416      1.03539286310006      1.98818739911902
  O          -1.35525964627389      0.10054595898089      0.26437870294454
  Si         -1.83472331307777      1.05307318143147     -1.01236212381166
  C          -2.90404814978038      2.46867421598218     -0.42341999594716
  C          -3.00056255638691      3.61889042562072     -1.43479660689565
  C          -4.29514161042879      2.00757256283145      0.03039389511259
  C          -2.55784633337167     -0.12291496897576     -2.27099848576570
  C          -3.56087925546773     -1.11940894284523     -1.67410469379273
  C          -3.15513145589164      0.61076921190808     -3.47945076257325
  O          -0.41416951309525      1.71618611942010     -1.57938353531491
  C           0.78705788183263      1.16402857650645     -1.04726551703856
  C           0.79345873988244      1.32313392108130      0.46782060426239
  H           0.62733525540540      2.38085995447943      0.69606217256744
  O           2.10033317675272      0.94195618263632      0.90449554108951
  C           2.18876035857721      0.70775633128183      2.29636423929782
  H           3.25225259458197      0.51727659694679      2.47830485496534
  O           1.74893875553422      1.80928726980963      3.04222634865346
  C           2.57209728984130      2.96217625591575      2.87164944256498
  C           1.35950059437241     -0.51829798861569      2.72176379135838
  O           2.17863254349231     -1.67586349607287      2.84217156751647
  H          -1.40552571053710     -1.72515901087748      1.61511208647325
  H          -2.36624101386355      2.84462651629460      0.45942505761012
  H          -2.01257520235431      3.97285593689324     -1.73936275606923
  H          -3.54313465872814      4.46505144268109     -0.99979630390208
  H          -3.53989801221826      3.31220602182665     -2.33506398099123
  H          -4.89176528513023      1.66706536680532     -0.82078022131381
  H          -4.83824048141637      2.83248290882980      0.50328511001342
  H          -4.24019051697388      1.18639958943149      0.75118838372594
  H          -1.68412184739966     -0.69262704504196     -2.61802305199853
  H          -3.86745033439357     -1.84964538061205     -2.43063388319918
  H          -4.46379240725262     -0.61290538021168     -1.32288575729285
  H          -3.13303016529931     -1.66730329136526     -0.83093015900001
  H          -4.05967621887596      1.15775809198243     -3.19830613133105
  H          -3.43237753942180     -0.10277766052963     -4.26230702014353
  H          -2.45194720389871      1.32715427844487     -3.91467114118846
  H           1.63106521025135      1.71510869082162     -1.46608027903659
  H           0.89212712169230      0.10807419785186     -1.32118117008522
  H           2.51845631797886      3.34086196303679      1.84744291332816
  H           3.61387817044341      2.72585445964024      3.11542103319852
  H           2.19875875560058      3.72023716618498      3.55947594397509
  H           0.87259716978771     -0.29163124518722      3.67530061988129
  H           2.71423456247836     -1.58347722526096      3.63875438070337
