46
Coordinates from ORCA-job goat_0_234 E -1252.756887356595
  O          -1.59238438953845      0.39937949074897      3.35283778185838
  C          -0.63144338711878      0.44774423156613      2.31088748395410
  H          -0.87544124027052     -0.39049695113899      1.65191920250183
  C          -0.72845856483643      1.74600654197975      1.50527380613182
  H          -0.83817064004059      2.57659600586678      2.21135432953177
  O          -1.90518127823948      1.74299809260994      0.70541472363290
  Si         -1.91668244850409      1.36528564845601     -0.91049640597762
  C          -3.32336524505849      2.32703720795769     -1.67901332664203
  C          -4.70011438607134      1.92767048643118     -1.13097967694979
  C          -3.08491745323152      3.83450835113316     -1.50748398131414
  C          -1.94151020157492     -0.48151157411659     -1.21203503326626
  C          -3.01183742084165     -1.23730286786685     -0.41408965589343
  C          -2.04897292973783     -0.78996080755848     -2.71261806430781
  O          -0.46578150903303      1.93669654727334     -1.49535104667469
  C           0.35446332543992      2.68949330728350     -0.60712252310112
  C           0.57389455809663      1.97330186129625      0.71235801690458
  H           1.24894861049974      2.58866355199912      1.31712829284756
  O           1.20090927085587      0.71820541203607      0.43480898820911
  C           1.73237329957514      0.11778070809688      1.59818042002822
  H           1.83596715101818     -0.94527090296410      1.34716823380739
  O           2.97798488480972      0.65591205936216      1.94595590393054
  C           4.00436432194025      0.34344219835617      1.00632237985383
  C           0.80281835599513      0.27653557749367      2.81020346521976
  O           0.96322831773318     -0.80347004902966      3.71336225898694
  H          -1.38732491270158      1.09697334544664      3.98820666437569
  H          -3.29942388659689      2.09686986481321     -2.75253005166151
  H          -4.94709224508568      0.88873428172453     -1.35857947083933
  H          -5.48217808565273      2.55757784234282     -1.56827543438135
  H          -4.74494004107299      2.05388216774195     -0.04454121911372
  H          -2.12670260665450      4.14508640223521     -1.93226649828715
  H          -3.08931515981254      4.11220429891014     -0.44892125311451
  H          -3.87528611888613      4.40737588420090     -2.00384588327995
  H          -0.95625494172892     -0.82000759885660     -0.86450707931810
  H          -2.97895224106288     -0.99481785520614      0.65144574905650
  H          -2.87105270686123     -2.31857883635387     -0.51677659925700
  H          -4.01627193324452     -1.00524422076132     -0.77674702298784
  H          -3.01836807982202     -0.47054272755911     -3.10836975391137
  H          -1.95631204928403     -1.86574245833486     -2.89522825965466
  H          -1.26879994735186     -0.28471443411355     -3.28978626839433
  H          -0.08897356268784      3.67114997283391     -0.40466677020495
  H           1.31929056695361      2.84089042770870     -1.09529235811547
  H           4.10193579941936     -0.74218542662117      0.89144916516856
  H           4.93300661201059      0.75181299893364      1.40425697888265
  H           3.79635774507036      0.79315661108671      0.03186989982871
  H           1.10268201962609      1.16965606607436      3.36833172193464
  H           0.58723477355978     -1.59653073351807      3.31104817000262
