46
Coordinates from ORCA-job goat_0_100 E -1252.756670215792
  O          -1.66212432547440      0.59557761553111      3.15944779499653
  C          -0.55753622468360      0.38130887603861      2.28814344939907
  H          -0.43012443337494     -0.69044957214647      2.09928126509687
  C          -0.73625598357610      1.09845890177213      0.95949804800334
  H          -1.13868313689188      2.09487693944243      1.17428616633182
  O          -1.67759592494049      0.36518670082320      0.17566523262692
  Si         -2.04941337431824      1.04378895317242     -1.30290824901037
  C          -3.23335327066096      2.49284782851188     -1.15404291144950
  C          -4.14553946128478      2.33293094809164      0.07343020130643
  C          -2.52980504136891      3.85643152812695     -1.13226225149585
  C          -2.72040300475409     -0.31722222144145     -2.38929146697179
  C          -1.71133227224850     -1.45341087073572     -2.59779610212439
  C          -4.05554622693431     -0.85526735767979     -1.85317118700851
  O          -0.56928625117913      1.61138748209778     -1.82216366296575
  C           0.56878334994710      0.98372922977525     -1.23460656620478
  C           0.63471932530514      1.26395982084501      0.26386960114945
  H           0.98962992740412      2.28516401712258      0.43638788664718
  O           1.58718256223282      0.33896020068465      0.79199539326783
  C           1.91831974906364      0.59145400364560      2.14250929638654
  H           2.36641805715109     -0.34123140327364      2.50269958573539
  O           2.82486948568675      1.65037342386467      2.27739530333480
  C           4.11660989052134      1.34855499770075      1.75297254938215
  C           0.68148296145733      0.92338338394667      2.98063553217907
  O           0.86300733837354      0.34952476196647      4.26567734836876
  H          -2.40938549893680      0.08702861427104      2.82439445103961
  H          -3.86612617015469      2.45204321375305     -2.05071352931345
  H          -3.56760997236462      2.38842248914437      1.00052567341294
  H          -4.67752746106537      1.37816472138525      0.07448707285089
  H          -4.89283257983648      3.13276480561197      0.09888312854018
  H          -1.91820587233135      4.01204027384636     -2.02364104001369
  H          -1.87400264832393      3.95009210408909     -0.26140763373322
  H          -3.26752866868724      4.66435312754325     -1.07927870994573
  H          -2.91150420832814      0.15645651885826     -3.36218947770108
  H          -2.13488076673201     -2.22716092690053     -3.24691874891875
  H          -1.44841852383074     -1.92636775948103     -1.64672369547198
  H          -0.78903012738281     -1.09662513707034     -3.06350610958523
  H          -4.81520604787559     -0.07213892964018     -1.78651159833841
  H          -3.93332815625024     -1.29161514656855     -0.85674999203858
  H          -4.44338641344433     -1.63925023536700     -2.51186931024473
  H           1.46271157990965      1.37254053920965     -1.72458895199677
  H           0.54161043550136     -0.10052985264744     -1.38146826926702
  H           4.75549663543176      2.20286095310971      1.97516948773483
  H           4.07651015073278      1.19480951816807      0.67145134910422
  H           4.52510877293220      0.45162670789388      2.23234621287055
  H           0.59186742080378      2.01467386482425      3.06484773595594
  H           0.02559440478018      0.45174234808445      4.73606969807840
