46
Coordinates from ORCA-job goat_0_224 E -1252.757653787894
  O          -1.37556493819849     -0.80298929879428      2.67932084355402
  C          -0.40109834359889     -0.11992938202203      1.90235800527107
  H          -0.24909481630309     -0.64927996115288      0.95300012791157
  C          -0.90378417066921      1.29211843540498      1.63777391647172
  H          -1.11921954032512      1.75196677699728      2.60745185065554
  O          -2.11840432198152      1.28686724980105      0.90372497400779
  Si         -2.19981466241507      1.28969807851427     -0.75652491024950
  C          -3.67387128288301      2.31059709618985     -1.28630686161943
  C          -3.97124263243949      3.43472061177192     -0.28436347039870
  C          -3.47348944781052      2.89136480956658     -2.69571081442221
  C          -2.21430032181806     -0.47565836956488     -1.38168371736727
  C          -3.28866090383738     -1.31042204204474     -0.67083965133940
  C          -2.37558357928590     -0.55662137356818     -2.90545886687096
  O          -0.81992875719049      2.07130849223489     -1.26609650049342
  C           0.37472194708260      1.79760219064372     -0.53655567706399
  C           0.16969212598298      2.14586362160931      0.94163905351246
  H          -0.15679984630461      3.18757738279514      0.98171733754352
  O           1.38966110154752      2.10453837781832      1.67627976594203
  C           1.92131491929158      0.79766112593210      1.86646661413838
  H           2.15559218776573      0.33720834118622      0.89614291322359
  O           3.07439931149525      0.90917785457431      2.63095755661251
  C           4.19541472130044      1.40994555751348      1.90024635725580
  C           0.92871199799501     -0.06048523598399      2.63699662022930
  O           1.39564755269807     -1.39595117545602      2.76602845221450
  H          -1.00717590965535     -1.66818403743673      2.89731148955383
  H          -4.53616335404454      1.63204674491309     -1.31398749385514
  H          -4.82608068506747      4.03054750863243     -0.62152096625901
  H          -3.11425178769568      4.10968817156879     -0.19000817461210
  H          -4.19775134174374      3.04413064485660      0.70977878352309
  H          -3.28143333505155      2.11898091859797     -3.44368696558228
  H          -2.62927564298699      3.58640006001373     -2.71006907613641
  H          -4.36562904498100      3.44413052966757     -3.00766096410607
  H          -1.23222566044612     -0.89402874648032     -1.12413679242986
  H          -3.14025921407963     -1.32263168054008      0.41143596843508
  H          -3.27130387271281     -2.34589513229072     -1.02725438800102
  H          -4.28989091890715     -0.91328167776930     -0.86942057842064
  H          -3.36628346887704     -0.20886775473129     -3.21346542291651
  H          -2.27162212740051     -1.59145236144906     -3.24816436075920
  H          -1.62944143961113      0.04708045062899     -3.43011259313846
  H           1.17189369131620      2.42896783884556     -0.93472196834830
  H           0.66945588029502      0.75255733486406     -0.67852724276705
  H           4.39314204978199      0.77986705646055      1.02647267329855
  H           5.05013491979142      1.37750660500592      2.57493332001999
  H           4.02310367552427      2.43971368590094      1.57733798648140
  H           0.77720836712173      0.39589943792498      3.62308146871755
  H           2.17350091933159     -1.38380476114980      3.33608137858381
