46
Coordinates from ORCA-job goat_0_9 E -1252.767193223347
  O          -0.03297921486810      0.94960282833461      3.79760138155483
  C          -0.50993069085511      0.26672681334891      2.64659742098883
  H          -1.43738653100131     -0.23694437776023      2.92932745302591
  C          -0.82513519728721      1.26031810996111      1.52274950899516
  H          -1.42218281051856      2.08042803822051      1.93657023173515
  O          -1.57670119504744      0.55484247651342      0.52782304591949
  Si         -1.90072804415190      1.33060978416026     -0.91768498622813
  C          -3.25760933997133      2.58939757958639     -0.64332863715211
  C          -3.52869802056921      3.39957552525470     -1.91846895580193
  C          -4.55143739753747      1.98672856369816     -0.08219877075094
  C          -2.22446496972931      0.02103234120892     -2.20640697435354
  C          -0.91706746910382     -0.61343189381980     -2.70264834930920
  C          -3.18187843318136     -1.06036358633242     -1.67988283501798
  O          -0.49981162988129      2.13475003797104     -1.30353190028508
  C           0.21920472759150      2.76177240826268     -0.24396373533384
  C           0.46281017433352      1.83466974004664      0.93510220157964
  H           0.96122203783534      2.42538442881227      1.71207744015380
  O           1.32588542383735      0.78353266432078      0.48882101083585
  C           1.70536056680245     -0.11435386687578      1.50856011455102
  H           2.33501028225936     -0.85886127541250      1.01068482625742
  O           2.42225516905751      0.52562891997411      2.53924269922865
  C           3.64709374299001      1.11559896064565      2.10220269855363
  C           0.49171145022646     -0.78810186828817      2.15631590797269
  O          -0.10673068308283     -1.68908928649900      1.23797792904689
  H           0.91533600921998      1.10637570423253      3.67471671759471
  H          -2.85182373315275      3.27643344503938      0.11291780148797
  H          -2.61850160774170      3.86763426394568     -2.30357856366727
  H          -4.25859841252478      4.19280468572973     -1.72573300616141
  H          -3.93783921755790      2.76160026303636     -2.70850716182874
  H          -5.04560719905722      1.35483070939042     -0.82571274221451
  H          -5.25661257771875      2.77830015272760      0.19227905785485
  H          -4.36663880657170      1.37789502535235      0.80718594376142
  H          -2.70821794258299      0.52599681947886     -3.05225807453615
  H          -1.12945971217628     -1.38041296547613     -3.45479081773798
  H          -0.37819373508306     -1.09675390637756     -1.88149464511657
  H          -0.24968973283647      0.12666032233901     -3.14879701150932
  H          -4.13984730182587     -0.64734782640841     -1.35672029113781
  H          -2.74244858870172     -1.59038250775138     -0.82963948052783
  H          -3.38374012707740     -1.79949237316825     -2.46178543286750
  H          -0.32205749508727      3.64419038542067      0.11740512563371
  H           1.18092069574631      3.08861832806523     -0.64478342303896
  H           4.16680909401795      1.45934914936113      2.99564968482363
  H           3.46135776559281      1.96192466956646      1.43624889268204
  H           4.25896926688901      0.37075063632032      1.58281170381841
  H           0.84035514329239     -1.37391833700403      3.00962884107261
  H          -0.66833373320992     -1.15825970915239      0.65167815544841
