46
Coordinates from ORCA-job goat_0_129 E -1252.753336694944
  O          -0.95534329720741     -1.26168289668986      2.74288659840109
  C           0.11478746312073     -0.62171458075033      2.06440032583025
  H           0.61520681624874     -1.33608621522010      1.39575911562593
  C          -0.38932495063648      0.54140058061363      1.22401405143099
  H          -0.84773735843589      1.28561698463114      1.88408570300077
  O          -1.39489076316249      0.02227053915256      0.35432360682092
  Si         -1.76021026547678      0.81873626847908     -1.06204163864038
  C          -2.58462981956756      2.45645014214216     -0.68538687931665
  C          -3.05865131435906      3.18409027661243     -1.95059959348668
  C          -3.71394881380479      2.33894397616979      0.34711177239779
  C          -2.68677729995765     -0.40021881484672     -2.12978615187880
  C          -4.12917939646985     -0.63396817519746     -1.66205392056071
  C          -2.64038963865132     -0.03368472057542     -3.62009957568890
  O          -0.26545920144763      1.14643128326600     -1.72628950975841
  C           0.86906869965682      0.69499651178199     -0.99099778584683
  C           0.79268273028277      1.17893879975151      0.45270433677802
  H           0.67215708400733      2.26696392600641      0.44183679034074
  O           2.04858283587264      0.84602011796899      1.04853676402784
  C           2.04791909218454      0.92729359822493      2.46162299838523
  H           3.08449808020323      0.72551484424969      2.75235212103407
  O           1.64409866743449      2.19014076787055      2.91301652942124
  C           2.55042604231419      3.22963262579665      2.54582378508367
  C           1.11827135249210     -0.12664661936007      3.09273670037127
  O           1.85524784804331     -1.19669439117086      3.66900740805924
  H          -1.61172613405729     -1.48719510176099      2.07113636871969
  H          -1.78062776871694      3.05539009285559     -0.23479505383410
  H          -2.26162882696932      3.27561245639153     -2.69449756105564
  H          -3.40604632524067      4.19356414307200     -1.70688375779368
  H          -3.89343061928095      2.65324108041222     -2.41738324605268
  H          -3.37745662794699      1.84110673447259      1.26044851697025
  H          -4.56073569761760      1.77308725016007     -0.04975114554199
  H          -4.08377159672586      3.33247998432174      0.62216920773694
  H          -2.12797385398920     -1.33703401662280     -1.99738067510903
  H          -4.58668211311163     -1.45216342185002     -2.22792216302760
  H          -4.74123271331838      0.25810412958249     -1.82243497417023
  H          -4.18130677669353     -0.89089548045047     -0.60014461689061
  H          -1.61543631841581      0.11428949881024     -3.96924107815214
  H          -3.20004096497909      0.88355194364061     -3.82226372197178
  H          -3.08986641473719     -0.83107560377990     -4.22111101930071
  H           1.76368002389430      1.11335656856561     -1.45615869097302
  H           0.94176255019364     -0.39770482201276     -1.01953125122132
  H           2.19474575537686      4.14080824111230      3.02578398956800
  H           2.57302054670967      3.37310306063894      1.46219556161326
  H           3.56052935509817      2.99743917100360      2.90111571566134
  H           0.57923422064360      0.34267752475005      3.91764945241425
  H           2.28253570720027     -1.68823826221942      2.95629659057889
