46
Coordinates from ORCA-job goat_0_2 E -1252.767402700399
  O           0.48979472411109      2.22795288569069      3.42093771563876
  C          -0.29897712417039      1.27952784482376      2.71577142243945
  H          -1.22576452794062      1.14584456194584      3.27897080778963
  C          -0.65012507010507      1.80913612304602      1.32041713741878
  H          -1.03069428799250      2.83019225401932      1.42075743079051
  O          -1.66118673606516      0.95299362323084      0.77552655187569
  Si         -2.06963854832999      1.02216756314014     -0.84543410544678
  C          -3.50099159827569      2.20239525580634     -1.07888961284187
  C          -4.75369027934015      1.68989129789814     -0.35306426615305
  C          -3.15953198743255      3.63104125343323     -0.63499703649412
  C          -2.46747652079078     -0.70510183623290     -1.43437321653696
  C          -3.11920341154281     -0.67794360190074     -2.82593439130783
  C          -1.23144553218567     -1.61432420376638     -1.43656471227495
  O          -0.71787577159341      1.56256431755509     -1.63556701909458
  C           0.30378963792192      2.30440215036427     -0.97758392146449
  C           0.58941392451113      1.82600910257282      0.43350344928224
  H           1.31371212753504      2.52567905905645      0.86520486211913
  O           1.15885736231832      0.51557967748919      0.35436143989635
  C           1.56469277970799     -0.00236428883436      1.60282494848419
  H           1.94524080290802     -1.00508942740484      1.38298822984020
  O           2.56900690353504      0.78598576896906      2.20005043642217
  C           3.76574869592945      0.86872693475315      1.42541484414586
  C           0.40827402412310     -0.07746026560898      2.60650872633457
  O          -0.49661293580286     -1.10547946105327      2.23673856786292
  H           1.41273532782211      2.10013509752462      3.15548906973078
  H          -3.70849419609895      2.22146580803202     -2.15677030194440
  H          -5.05155590621995      0.69535868697707     -0.69682763694106
  H          -5.59901388865079      2.36635535551288     -0.51673214953848
  H          -4.58112938383075      1.63219422669015      0.72649773204575
  H          -3.99716283329809      4.30664401554081     -0.83809635704893
  H          -2.28191567905989      4.02336646201274     -1.15572223471317
  H          -2.96213679796175      3.67325180044942      0.44047787876824
  H          -3.19753763934036     -1.11104787305237     -0.72147661362779
  H          -4.05284643464706     -0.11019002293552     -2.83375133089185
  H          -3.34379320868447     -1.69552458340081     -3.16169441524168
  H          -2.44785839044989     -0.22914439009754     -3.56561078878910
  H          -0.48320743242209     -1.24788788739617     -2.14521314920014
  H          -1.50658551925134     -2.63075788419984     -1.73693837092375
  H          -0.75571389377396     -1.67060816012114     -0.45537890362436
  H           0.02704063854969      3.36314695765100     -0.92757576569673
  H           1.21448467003868      2.21383833072714     -1.57398464097771
  H           4.50133672190960      1.38821350343044      2.03824642699020
  H           3.59852447529374      1.42554939139717      0.50014140471407
  H           4.12873617137704     -0.13609884536706      1.18519201242550
  H           0.82404012627960     -0.34224887182323      3.58123923739572
  H          -1.09931357861432     -0.72208770654497      1.58118060836307
