46
Coordinates from ORCA-job goat_0_38 E -1252.759047734394
  O          -1.34036575187616     -0.05867788333451      3.59135592663982
  C          -0.56762077352210      0.15675836052725      2.41452327898425
  H          -0.79683206506416     -0.61818691414867      1.67562528848046
  C          -0.83183409994156      1.52787390388563      1.79295216310499
  H          -1.00177699847187      2.24230904267175      2.60411189791401
  O          -2.03250525087755      1.48761667218213      1.02716349663608
  Si         -2.06012615406959      1.37620860817077     -0.63141772460888
  C          -3.63141638758316      2.23862456185541     -1.16130928291441
  C          -3.61636403911150      3.69642054735521     -0.67835371143994
  C          -3.86023819194142      2.17176395909401     -2.67733572164874
  C          -1.89161372139353     -0.40160362410628     -1.19080419965477
  C          -3.16363685826348     -1.20254055672231     -0.88135592494127
  C          -1.46895859802123     -0.55572152852142     -2.65764409234176
  O          -0.72336062046909      2.21926942954815     -1.14809621887764
  C           0.07060918005871      2.88586593310198     -0.17155253053265
  C           0.40727369278040      1.98867187217606      1.00475982544255
  H           1.05682848138311      2.55732589066257      1.67911258107243
  O           1.11885978675401      0.84935768502736      0.51133022722041
  C           1.75917603740430      0.12666230964997      1.54396163255156
  H           1.91669626855465     -0.87869425789637      1.13755710986884
  O           2.98443421372226      0.70201288237165      1.90491809784672
  C           3.97395406282117      0.59140788502169      0.88364884485773
  C           0.89627947814031      0.04325491784409      2.80423367111059
  O           1.17683168375304     -1.19398027016429      3.43949005253338
  H          -2.24223456925121     -0.27042718203152      3.32560820531738
  H          -4.45926897567389      1.71676604582433     -0.66340702025606
  H          -2.79902309130686      4.25260095004634     -1.14865598733587
  H          -3.48815848035244      3.76494584996400      0.40480938465007
  H          -4.55265020722903      4.19953658091375     -0.94185649373396
  H          -4.00679149817002      1.14681865900828     -3.02467663219417
  H          -3.01181837475381      2.59438776146182     -3.22578871411161
  H          -4.74976454464619      2.74705808644375     -2.95525212417113
  H          -1.07728979017092     -0.80133653679382     -0.57283757081997
  H          -4.00944643190375     -0.84436677269733     -1.47654130023829
  H          -3.44321763681601     -1.12763050893438      0.17407614530371
  H          -3.02187147117742     -2.26297246386399     -1.11476657924539
  H          -0.55429476587031      0.00263922575382     -2.87261012334611
  H          -2.24557689544870     -0.20302328045584     -3.34102343594992
  H          -1.28295901743778     -1.60952366849520     -2.89151607871195
  H          -0.44493861776015      3.77715336671159      0.20396363506458
  H           0.99649960638164      3.20053516893883     -0.65727728525573
  H           4.13131489920318     -0.45927893312447      0.61451153782655
  H           4.89650342327616      1.00470891022295      1.29048024664071
  H           3.68440417062917      1.15428601451735     -0.00767393747963
  H           1.15755966670441      0.87545359270993      3.47135284266090
  H           0.51267922700840     -1.30408029237215      4.13246659808216
