46
Coordinates from ORCA-job goat_0_111 E -1252.760551097251
  O           0.25669617098097      2.08238790553029      3.57076448858686
  C          -0.42765043304343      1.17999971415958      2.70554262811950
  H          -1.40678581944781      0.98814504504478      3.14944696329198
  C          -0.64193725908713      1.83583637008803      1.33509729261221
  H          -0.94920194725116      2.87294148150575      1.51290188478797
  O          -1.67811067314999      1.14310803484215      0.65592153044115
  Si         -1.84814936550467      1.09574440632246     -0.99252272245000
  C          -3.23620372317109      2.24244513311830     -1.50965367559923
  C          -4.60441469645602      1.79154544059273     -0.98108085535863
  C          -2.93183112341148      3.68186787927198     -1.06924608810634
  C          -2.05765951244209     -0.67953607680820     -1.54197187312925
  C          -3.03773014828804     -1.49148875630099     -0.68496236662954
  C          -2.42442050690844     -0.75846730531393     -3.03088041797757
  O          -0.42094543282617      1.64855369299032     -1.64104000826159
  C           0.50172547787648      2.39892702072770     -0.86067624423190
  C           0.66455169586583      1.86381819184892      0.54864082392269
  H           1.35731498524419      2.53550178058221      1.06790370610881
  O           1.23628764173864      0.55455577542949      0.45389984937609
  C           1.55929349217377     -0.00722219288869      1.70446387699259
  H           1.98299250150436     -0.99107416854991      1.47204153365434
  O           2.49750388424089      0.77282213388705      2.41027690012409
  C           3.74541162539217      0.91627723198698      1.73194747683389
  C           0.33656537160118     -0.14562571083430      2.61760996358765
  O          -0.53379346131519     -1.15851663089050      2.13740382639033
  H           1.20350752108409      2.01465580004541      3.37999517523204
  H          -3.26549321141673      2.21901368810041     -2.60709489624751
  H          -5.37750661936348      2.52097431740669     -1.24596137486473
  H          -4.59709971638165      1.70136101992619      0.11015262497297
  H          -4.90449928168083      0.82648302850526     -1.39528739304634
  H          -3.73192807876595      4.35931398282618     -1.38621050853197
  H          -1.99556461075551      4.05035105705093     -1.49650994136817
  H          -2.85545917046946      3.75166535452190      0.02079925761951
  H          -1.05782063214232     -1.11488942065295     -1.41087713034985
  H          -3.02600204997503     -2.54384638056397     -0.98908338983858
  H          -4.06356329417794     -1.13216226338949     -0.79963295290688
  H          -2.78040881828300     -1.44439596005659      0.37536764941938
  H          -2.43799008205413     -1.79897962597404     -3.37201897943067
  H          -1.71333972033127     -0.21102253389879     -3.65700643006239
  H          -3.41949144013919     -0.33947152602935     -3.21111540688183
  H           0.18447561671741      3.44579450709540     -0.79453490380430
  H           1.46867256733221      2.36459561199369     -1.36813583597218
  H           3.63417852285933      1.51175360359550      0.82232180141452
  H           4.15001463283370     -0.06831416497770      1.47453663487661
  H           4.42112898508651      1.42202927912132      2.42055469493607
  H           0.69371633314282     -0.39169776925024      3.62302312060075
  H          -0.10508619743500     -2.00950800173811      2.28514969114767
