46
Coordinates from ORCA-job goat_0_187 E -1252.749060943144
  O          -0.66841618596046     -0.40618829326333      2.94714493444615
  C          -0.03940930862250     -0.30660631689482      1.67288884334480
  H          -0.47996457442372     -1.09861587585702      1.06526458947636
  C          -0.36375744300044      1.04311912447146      1.02541153582988
  H          -0.34169677115878      1.80104452562803      1.81121321501450
  O          -1.68585976679988      1.02195480737272      0.50280136772129
  Si         -2.14082307935003      1.05092599576234     -1.09295424821413
  C          -3.02035116568039      2.66455404425230     -1.47303701106451
  C          -3.91825746572318      3.10377575331227     -0.30516940899225
  C          -2.03966920887027      3.78809647256657     -1.83423740257967
  C          -3.19158904379049     -0.44866732194333     -1.47971096459860
  C          -2.46787415910618     -1.74946357132702     -1.10851353132181
  C          -4.58941128638795     -0.40292654956444     -0.84957174606329
  O          -0.73838552686359      0.96710291206488     -1.98041026725671
  C           0.49554455814895      0.64814410706938     -1.34151726212642
  C           0.64941646889672      1.45071057804632     -0.05004417365902
  H           0.46826982253713      2.50262759387241     -0.29422008203349
  O           2.00859389618145      1.35980621323521      0.39075412073652
  C           2.26588597432677      0.71285275995247      1.61520129248030
  H           3.34381757813121      0.51861043572678      1.60037206861599
  O           1.92734990281182      1.49854146321644      2.73022292149813
  C           2.65946579651025      2.71920064695047      2.80508177067012
  C           1.47782066759971     -0.57742664747698      1.75934392218798
  O           1.93270874795530     -1.44534793598940      0.72907843367996
  H          -0.31207204252304      0.29839506727195      3.50340999101945
  H          -3.65958602754141      2.47067677006236     -2.34495149680224
  H          -4.64283226769064      2.33759360847427     -0.02009420909249
  H          -4.47576696949734      4.00796522367105     -0.57145234091118
  H          -3.31420058020340      3.33284662984735      0.57739207963199
  H          -1.36800128681314      4.00524662940263     -0.99695575467832
  H          -2.58275281996543      4.71077843534099     -2.06569027829078
  H          -1.42208926155749      3.52932643701142     -2.69689346866937
  H          -3.30999762179462     -0.42351475844790     -2.57255646664497
  H          -3.03459743546037     -2.61914416375961     -1.45745226113516
  H          -2.36432749508853     -1.83910004530853     -0.02313763500394
  H          -1.46794100967930     -1.80393018211631     -1.54819429409618
  H          -4.52929970778138     -0.34099588429813      0.24195149266349
  H          -5.15094201467238     -1.31017090269701     -1.09733025076552
  H          -5.16905354337560      0.45268878037956     -1.20415461171108
  H           1.30712088022970      0.92310183270998     -2.01888870646786
  H           0.56250205520241     -0.42445059094227     -1.14229072334013
  H           3.73686499605678      2.52332245142080      2.76357896243964
  H           2.40949231968037      3.17895792883073      3.76073902375069
  H           2.38309593237241      3.39443271786758      1.99108521096880
  H           1.69260052571554     -1.00292707190356      2.74417237629356
  H           1.53232494702549     -2.31067383400106      0.87258044304952
