46
Coordinates from ORCA-job goat_0_223 E -1252.749123812627
  O          -0.90695975895507     -0.59831475129481      2.79435257969627
  C          -0.12928549405301     -0.37862965514221      1.62287933565102
  H          -0.46401189235611     -1.13105343144285      0.90843942178260
  C          -0.40562547829444      1.00719249411420      1.04144578572710
  H          -0.37697447016935      1.73150418929640      1.85824031003596
  O          -1.71436782911212      1.05419086552404      0.49029389936988
  Si         -2.12882027415897      1.06389347013300     -1.11688822765470
  C          -2.95717827812047      2.69380672815572     -1.54047406382437
  C          -3.87702453956239      3.17089318798473     -0.40495092488796
  C          -1.93879871540460      3.78787311620679     -1.88752331888063
  C          -3.20688964451298     -0.41337327948724     -1.51405740629470
  C          -2.55113605851151     -1.72450264771410     -1.06240484470154
  C          -4.63558513606319     -0.30139104891973     -0.96691839972437
  O          -0.70754605814802      0.93029502781277     -1.96722606151381
  C           0.51514030887426      0.62650040992299     -1.30374612911298
  C           0.64231241408350      1.41511730090256     -0.00053622583666
  H           0.48778802231953      2.47424807165759     -0.23172583236843
  O           1.98830465027158      1.27892367514766      0.46673728270590
  C           2.19095990586547      0.65200342992296      1.71092001605669
  H           3.26504779212666      0.42806591759088      1.72839451519802
  O           1.85598765861681      1.47321500784611      2.79948538614212
  C           2.63926682054925      2.66205212260500      2.87119614140788
  C           1.37213160206544     -0.62603022800364      1.86135512550695
  O           1.80315285300085     -1.60244205959363      0.91881350873480
  H          -0.67767500588112      0.08383661659831      3.43777754434528
  H          -3.57580014923947      2.50445185558812     -2.42816552918261
  H          -3.29299869257425      3.39614113686300      0.49197221477461
  H          -4.62898333530781      2.42710798665390     -0.13182624882035
  H          -4.40290778143122      4.08533551637140     -0.69898452803375
  H          -2.45181462481495      4.72102355540746     -2.14429035798669
  H          -1.30519680136071      3.50342773243809     -2.73024113398758
  H          -1.28480114864019      3.99844985127014     -1.03474517948705
  H          -3.26354610581100     -0.41960797143946     -2.61215678640725
  H          -1.52690354600380     -1.82263949891173     -1.43396970809432
  H          -3.12211636628404     -2.58627511010621     -1.42359914545530
  H          -2.52011783000713     -1.78469055459117      0.02957407953756
  H          -5.16198650157619      0.56457020474872     -1.37546854597126
  H          -4.63577002692432     -0.21238708381857      0.12439820891193
  H          -5.21508057831334     -1.19457583471367     -1.22413604933484
  H           1.33759939065980      0.91523480744945     -1.96210453564164
  H           0.59270576191342     -0.44771649556125     -1.11181215610883
  H           2.42594766141442      3.32567825286682      2.02912314152320
  H           3.70763909229794      2.41754734256587      2.87842003282810
  H           2.37340580368385      3.15960529580920      3.80341082465759
  H           1.50390040659305     -0.99386363529314      2.88324361475398
  H           2.72856197725580     -1.80844188342036      1.09773836996420
