46
Coordinates from ORCA-job goat_0_37 E -1252.757402126825
  O          -1.10122637900356     -0.59443600327002      3.00216134742622
  C          -0.06399930340925     -0.26059876556393      2.08971819986816
  H           0.19420334668322     -1.13426148153149      1.47889830089353
  C          -0.47189220984300      0.87955642737964      1.17019673695801
  H          -0.64002655723077      1.77684641093679      1.77381857949979
  O          -1.70509367162037      0.51350251663040      0.55882572059095
  Si         -2.15637761582523      0.94288825989438     -0.98190216931392
  C          -2.98064946748453      2.61711978578090     -1.03738090399795
  C          -4.34707907034262      2.57802578234321     -0.33801720632148
  C          -2.08437215074343      3.70563946845071     -0.43192878456265
  C          -3.23839944022341     -0.43465473785565     -1.62658023387591
  C          -3.77833882928150     -0.09858248477434     -3.02433190329019
  C          -2.48601712743204     -1.77216893178762     -1.63607163943047
  O          -0.72099919869567      1.04021797491425     -1.81887824140111
  C           0.41979566342513      0.46566494984298     -1.18777433653760
  C           0.66896719423110      1.13874995155266      0.15586486106422
  H           0.76949643782402      2.21564546274438     -0.01071191437601
  O           1.91371611654013      0.60894143447883      0.62203565069648
  C           2.17532844766895      0.84947251445045      1.98988904793121
  H           3.16973013344615      0.42418111792415      2.16110247799317
  O           2.16161677538082      2.21763142796643      2.29189563159862
  C           3.19769935369955      2.94264347702494      1.63067707880275
  C           1.15156903326302      0.15378568888933      2.89774404207414
  O           1.79295052597360     -0.96773724254473      3.49524336846274
  H          -1.88223248344767     -0.80214688094921      2.47370968919063
  H          -3.14016473456630      2.85127672939513     -2.09819188294016
  H          -4.82995606875096      3.55986218783861     -0.37855660866620
  H          -4.23789193745897      2.30801307659524      0.71761371153342
  H          -5.02402643826027      1.85398204859996     -0.79939121232562
  H          -2.55932092332208      4.68845892830033     -0.51853952489198
  H          -1.11284816692400      3.75633677435465     -0.93010363710498
  H          -1.90824444513316      3.52090832683903      0.63253181968746
  H          -4.08817347435927     -0.51861630774330     -0.93671802969819
  H          -4.37729428505232      0.81605408955796     -3.02463747578178
  H          -4.40866523067924     -0.91125985065775     -3.39980266533312
  H          -2.95878799623432      0.03797605213009     -3.73777261657198
  H          -3.14314484058538     -2.58226459966363     -1.96925594630189
  H          -2.10557372618456     -2.03183792199010     -0.64467541681372
  H          -1.63508930146787     -1.73509862998215     -2.32369148394966
  H           1.28526305011061      0.63121987430289     -1.83192936882725
  H           0.29371085318075     -0.61381495531751     -1.05021181830125
  H           3.04783699791582      2.95060878317262      0.54781740250461
  H           4.17549381331841      2.50311011003330      1.85728110827614
  H           3.15883619065575      3.96297520337596      2.01081639242700
  H           0.83318230850198      0.86367451842426      3.66858870961618
  H           1.14043883174286     -1.41124056049293      4.05088514351974
