46
Coordinates from ORCA-job goat_0_140 E -1252.757773085785
  O          -1.49826530865741      0.31792911946699      3.55726286036741
  C          -0.64589454561985      0.34048587109510      2.42145677018252
  H          -0.96692993162254     -0.41923288931291      1.69803353461482
  C          -0.74481050124362      1.71342515418617      1.76340376109651
  H          -0.85220981372700      2.45925961674205      2.55700376555107
  O          -1.92197665649127      1.79577074415102      0.96704709207590
  Si         -1.92194601450897      1.66528865534082     -0.68936037203863
  C          -3.36970977867510      2.69652085518501     -1.27226484678256
  C          -3.58794423398193      2.60413458646328     -2.78832872385851
  C          -4.67190730664405      2.41698961414974     -0.50956392427269
  C          -1.87701555493527     -0.12548248727820     -1.23458850746733
  C          -3.18002224459114     -0.87156253012525     -0.92141134843448
  C          -1.47090122890478     -0.30525022314293     -2.70381510166644
  O          -0.49521151376131      2.36905256076753     -1.18082210699943
  C           0.33898890572594      2.95163289372570     -0.18454495535600
  C           0.55388786146768      2.02346035480706      0.99740540013343
  H           1.25364406556829      2.51449227998275      1.68262037799874
  O           1.13674431437883      0.81171977032157      0.50910309289165
  C           1.66027934599491      0.00607388496559      1.54563229521590
  H           1.66768011042253     -1.01397201924274      1.14477082329613
  O           2.95775827792110      0.39289605863065      1.91028589710187
  C           3.92450415951728      0.14332400685634      0.89165716038157
  C           0.79724681036103      0.06166735607147      2.80935164873675
  O           0.83126222385995     -1.17804503974199      3.50537634895514
  H          -1.31557850297401     -0.50764195987116      4.02453382747486
  H          -3.05762967907023      3.72402632447980     -1.03698703829108
  H          -3.95711176716092      1.61391808374656     -3.07029953869908
  H          -2.66761031859169      2.79123448881760     -3.34964566082370
  H          -4.33312400954030      3.33739886064912     -3.11430684979251
  H          -4.53493419864434      2.50340894314447      0.57102711944466
  H          -5.04873820297471      1.41285278944000     -0.72129946603702
  H          -5.44909362173055      3.12826501801406     -0.80941235779575
  H          -1.07838449997121     -0.55999505526361     -0.61912563129022
  H          -3.99973948480051     -0.50985789917495     -1.54888973433989
  H          -3.47971532933239     -0.75082395411506      0.12400254497014
  H          -3.06683881619813     -1.94350381058147     -1.11537496896926
  H          -2.23562961957827      0.08344577757798     -3.38128403495475
  H          -1.33840162345243     -1.36770852829299     -2.93518562504016
  H          -0.53175775585488      0.20697426230581     -2.92788041610792
  H          -0.09016134311303      3.89172192153696      0.18128862911257
  H           1.30349580048456      3.16949849759324     -0.64760144699870
  H           4.89690142155299      0.40880553577973      1.30570278367092
  H           3.72732895183611      0.75181661062321      0.00518906718174
  H           3.92290930629551     -0.91647539566443      0.61245248521043
  H           1.15974561855419      0.86537063848061      3.46020443862895
  H           1.62076623241092     -1.19705934329043      4.05744093172229
