46
Coordinates from ORCA-job goat_0_97 E -1252.758765631971
  O          -1.41505322485970     -0.16482054799639      3.53726233124024
  C          -0.58862747697247      0.11781373270218      2.41303483730820
  H          -0.82521370628337     -0.65536645380056      1.67849178475682
  C          -0.87223292945900      1.48792719198932      1.79715459290592
  H          -1.05253296880797      2.20524599466371      2.60609313401505
  O          -2.06364976856124      1.44308848051183      1.02195998192874
  Si         -2.07963136300639      1.36429721134293     -0.63816281828283
  C          -3.66355879017882      2.20594293398582     -1.16287037011272
  C          -3.68292097518994      3.65277603841777     -0.64837085015768
  C          -3.87554993832538      2.16758996417550     -2.68244628324099
  C          -1.87360605794231     -0.39901583006459     -1.22947081626789
  C          -3.13633599973293     -1.22648464346533     -0.95332312883923
  C          -1.42822429776219     -0.51657313613601     -2.69290098966171
  O          -0.75817732020455      2.24587689763088     -1.12996639920020
  C           0.02666481170673      2.89345760602462     -0.13385528729430
  C           0.36742621437235      1.96866956142237      1.02008392533814
  H           1.01665494275643      2.52250996585344      1.70695032068359
  O           1.07784435767808      0.84265067860374      0.49720561999011
  C           1.73249273370335      0.10274304395425      1.50914276896249
  H           1.87967518630356     -0.89755600258813      1.08677699711973
  O           2.96530830016373      0.66938127217301      1.85772887544091
  C           3.93787731244630      0.57007332371933      0.81900502964295
  C           0.88673930872389      0.00878063823667      2.77940696166410
  O           1.17558140709226     -1.23068568979766      3.40587607294581
  H          -1.34015310947722      0.56828030675403      4.16228067452439
  H          -4.48520679041000      1.65627211837012     -0.68515948209753
  H          -2.87245172938259      4.23533624979996     -1.09814661038023
  H          -3.56680170051722      3.70006236091706      0.43728931853893
  H          -4.62667229203241      4.14249040218631     -0.91051205025864
  H          -3.99602305372225      1.14764012769801     -3.05371823057989
  H          -3.03099160761735      2.62059911622872     -3.21230573894552
  H          -4.77454625674939      2.72951975900548     -2.95721863193969
  H          -1.06131522139872     -0.79691657988840     -0.60773447225794
  H          -2.97341630077841     -2.27977087852043     -1.20467967359506
  H          -3.97969901642258     -0.87100606903109     -1.55354540928301
  H          -3.43141698703010     -1.17648571023962      0.09932046975439
  H          -0.51895463549833      0.05937742128540     -2.88278011278555
  H          -2.20007353238776     -0.16048566960059     -3.38001849939397
  H          -1.22353932482955     -1.56246513030587     -2.94594777191230
  H          -0.49760254333847      3.77042247232333      0.26286294099387
  H           0.95170488477301      3.22814259917861     -0.60765484251977
  H           3.63710989125536      1.14873665016899     -0.05836812085384
  H           4.08511138686729     -0.47692581774173      0.53053757468444
  H           4.86907383036240      0.97188899963748      1.21756244944562
  H           1.15677782342642      0.83859548289294      3.44755261144131
  H           0.49208652724765     -1.36538044267765      4.07583731653494
