46
Coordinates from ORCA-job goat_0_186 E -1252.757103583321
  O          -0.89551729594806      1.65812426119801      4.00875964998928
  C          -0.56647330643117      0.89869988784431      2.84966779991819
  H          -1.12630664801409     -0.04260550373106      2.83833508631172
  C          -0.98163721849721      1.70199501128833      1.61111520485818
  H          -1.63179135824427      2.51739474544350      1.94435198832654
  O          -1.68524851671396      0.83510057649802      0.72766011195118
  Si         -2.00341853865748      1.26615605172604     -0.84865150314141
  C          -3.71171862093515      2.02043728520928     -0.97672177928957
  C          -3.85761410738140      3.25603802465902     -0.07836522008327
  C          -4.05287377518612      2.36219839594229     -2.43432993081793
  C          -1.81869325750770     -0.23401670843858     -1.94471770519326
  C          -0.44053285448967     -0.89086893084537     -1.80414107849255
  C          -2.94131145107386     -1.25243408608328     -1.69695260723099
  O          -0.85647038611430      2.38759280363481     -1.27413518305002
  C          -0.12510955719313      3.12591156201683     -0.30193865814899
  C           0.23922719882339      2.30643526823887      0.92338106447953
  H           0.72994689344011      2.98479922513025      1.63311941067869
  O           1.14065113658801      1.28321848703543      0.49854519506942
  C           1.36296379318248      0.21760744897992      1.40733417673387
  H           0.82380517948320     -0.66892046233957      1.04620824337224
  O           2.73087206229520     -0.06389621825668      1.46814547268474
  C           3.22346538258374     -0.71676629143763      0.29869581138957
  C           0.91886523506130      0.57382530344422      2.81878888986188
  O           1.14789443416064     -0.50545471746063      3.71122744324137
  H          -0.59672689699103      1.15796174725588      4.77834449227521
  H          -4.41877455159511      1.25722970522620     -0.62637120055628
  H          -4.86533648386482      3.67700705685840     -0.16169494936345
  H          -3.15096285715930      4.04009829303053     -0.36853869236669
  H          -3.68437422807774      3.01834952376892      0.97446689875267
  H          -5.05454032828454      2.79931799515917     -2.50466955857778
  H          -4.02850916465113      1.47953358934016     -3.07941742741781
  H          -3.34559034230417      3.09275585732868     -2.84064084373091
  H          -1.91741667675138      0.14045594877658     -2.97259883236812
  H           0.37028134688950     -0.17714466313374     -1.96706055270798
  H          -0.32849953198469     -1.70696762997591     -2.52596713430963
  H          -0.31435529569144     -1.31468126455357     -0.80416016095132
  H          -3.93111004528679     -0.82382343953998     -1.87485230309600
  H          -2.91598044752869     -1.62070644670929     -0.66601900945280
  H          -2.82833042500592     -2.11780910459540     -2.35826873186140
  H          -0.70350797844900      3.99642697885618      0.02693903909732
  H           0.79177181594841      3.48190747931217     -0.77757603229939
  H           2.65315544362780     -1.63107262204827      0.10134020463463
  H           4.26514647738944     -0.97109836440919      0.49248076982438
  H           3.16504346740514     -0.05744793165466     -0.57170475155437
  H           1.48462510413319      1.45725386457776      3.14012536201651
  H           2.09496717500176     -0.69186799256693      3.70072153059493
