46
Coordinates from ORCA-job goat_0_118 E -1252.758097964401
  O          -1.52403773064851      0.26381821455866      3.24223801778632
  C          -0.62868471447956      0.32153084273627      2.13799891646123
  H          -0.83105773386723     -0.50714940840909      1.45152984794167
  C          -0.74481429516391      1.63718145671195      1.37472754851725
  H          -0.85393352292946      2.44435754972197      2.10542487122417
  O          -1.93877540920353      1.63412347441387      0.59937671288016
  Si         -2.02494532562184      1.40602672740535     -1.04274780220004
  C          -3.32120370846479      2.58473163615608     -1.69861880342301
  C          -4.73782006703698      2.23854744855366     -1.21987334834670
  C          -2.97050114967001      4.04105051154953     -1.36671989291831
  C          -2.39597859602140     -0.37309717854288     -1.51355753103597
  C          -1.13601376524765     -1.21730920796898     -1.74350107709094
  C          -3.31647836228075     -1.04858312511176     -0.48399071040741
  O          -0.52059131815631      1.82882362107736     -1.60917633439682
  C           0.32807757956308      2.58151067383187     -0.74669684666855
  C           0.55436019046346      1.88543974644795      0.58047617763280
  H           1.20862087877019      2.52541886426238      1.18263263052039
  O           1.22315123822242      0.64679282001832      0.32408594285205
  C           1.75127457395233      0.06142183639498      1.49616893010557
  H           1.90439628785670     -0.99418135674135      1.24481500488490
  O           2.96334181147791      0.65010849779867      1.88046131555526
  C           4.02393976567105      0.39255913823528      0.96234867632097
  C           0.78338792026243      0.17227057463571      2.67612949820474
  O           0.92650270950021     -0.99749212691118      3.46672648878927
  H          -2.41240602388706      0.11525033190107      2.89838313427763
  H          -3.29333729021857      2.46581419548128     -2.79088921441138
  H          -5.04914436335169      1.24442113036345     -1.54995827309291
  H          -5.46165707198443      2.96046529189451     -1.61284215612185
  H          -4.80448453576718      2.26703140444498     -0.12741370070335
  H          -1.99788988067102      4.32787612889770     -1.77524746200292
  H          -2.94168644982298      4.20045363305084     -0.28431731794169
  H          -3.72049475023028      4.72247190887254     -1.78225403824705
  H          -2.94343636208621     -0.31262600586313     -2.46432955560534
  H          -0.53119740678985     -1.28092158681398     -0.83438261189354
  H          -0.50433311886943     -0.79616206759431     -2.52867101420685
  H          -1.40877770545969     -2.23744998236597     -2.03493661282047
  H          -3.60904619819859     -2.04505437560135     -0.83099393879675
  H          -4.23000195717854     -0.47824968647563     -0.29972433275043
  H          -2.80597674507469     -1.16972867255796      0.47541996888135
  H          -0.09038278241932      3.57561162517175     -0.55460252010174
  H           1.28805542675369      2.70468315204664     -1.25190346850306
  H           4.92681689161228      0.82486709620873      1.39288643970045
  H           3.82535355704370      0.85433555466901     -0.00839399403485
  H           4.16266937039719     -0.68646102889916      0.82917535754324
  H           1.04072344283443      1.06017872569151      3.26882665998961
  H           0.20236669642051     -0.98845800334744      4.10617041765282
