46
Coordinates from ORCA-job goat_0_87 E -1252.758144862051
  O          -1.55797837898767     -0.19250730150997      3.37624050389132
  C          -0.62839975044978      0.01008504327192      2.31604449501300
  H          -0.71277780786436     -0.80280260904071      1.58744025495338
  C          -0.85997563244775      1.33299815667661      1.58621051331545
  H          -1.19651995460576      2.07535601398621      2.31766185153967
  O          -1.91552146433194      1.14514730612766      0.64991016360330
  Si         -1.89142515559255      1.50490548292147     -0.96756263159824
  C          -3.10629219289380      2.89454850987585     -1.28462697070293
  C          -3.31032609842329      3.11980213164077     -2.78938747610917
  C          -4.44614959601984      2.73882352039435     -0.55407369869732
  C          -2.16858840412234     -0.03253772269262     -1.99125074606435
  C          -1.09224360513583     -1.08802639770161     -1.70452011733251
  C          -3.57335314929119     -0.61899617632638     -1.79205943023961
  O          -0.35064762455387      2.03893619943917     -1.29131643367374
  C           0.31871897664329      2.70857141573505     -0.22761425628065
  C           0.47180188100066      1.82543805815074      0.99487888900497
  H           0.97898340945807      2.42233707571278      1.76138643427310
  O           1.29478799471641      0.70652071950658      0.65260593224646
  C           1.80054095036784      0.04811748632396      1.79703767240813
  H           2.04984805288079     -0.96506360193742      1.46226526610899
  O           2.93957724038850      0.68433708741591      2.30830474465676
  C           4.07006028482853      0.58329812785695      1.44472465950919
  C           0.76480372310356     -0.02074062679275      2.92058882986468
  O           0.99195554067565     -1.21810957002314      3.64740428239017
  H          -2.39065558819009     -0.49192752341008      2.99478754108268
  H          -2.60636388119090      3.78387658965742     -0.87473969677801
  H          -2.35952695728352      3.25613374700940     -3.31364415092499
  H          -3.92176962191106      4.01020692546299     -2.96954893386656
  H          -3.82442195596702      2.26906986270465     -3.24748711783945
  H          -4.30484748442596      2.60330778931949      0.52102113144076
  H          -5.00929130133547      1.87949274232845     -0.92814967873835
  H          -5.06905147826068      3.62740252108383     -0.70348288957487
  H          -2.07287920726001      0.28183820665724     -3.03921111928583
  H          -1.15555440246327     -1.43742324209166     -0.66949190550239
  H          -0.08478300292636     -0.69659962828573     -1.86326871182878
  H          -1.22654279182525     -1.95850952325785     -2.35531942246403
  H          -3.75023698212860     -0.87151533923879     -0.74138653106910
  H          -3.68962087990294     -1.53842501435439     -2.37548824959708
  H          -4.35651031645848      0.07423356227047     -2.10687836154755
  H          -0.22071094705544      3.61879849094191      0.06369728541106
  H           1.30891183416686      2.99843659740941     -0.58442899287653
  H           3.89895250586865      1.11908113603152      0.50730928559302
  H           4.29363184346716     -0.46725208043213      1.22654412836922
  H           4.91193666292942      1.03224422006722      1.97120591206607
  H           0.89399341299136      0.84774544062246      3.57992925982856
  H           0.22841129981824     -1.33440380950696      4.22799848602223
