46
Coordinates from ORCA-job goat_0_190 E -1252.757048855028
  O          -0.65295095445628      2.51045560742060      3.72817512079178
  C          -0.47120013411498      1.46462617912187      2.77862901248501
  H          -1.14980368473884      0.63188382000318      2.99203713177748
  C          -0.82399947163077      2.00918944050695      1.38969578869941
  H          -1.35644730064502      2.95568523507148      1.52704446164519
  O          -1.65661294465359      1.05867437613713      0.73244955924796
  Si         -1.99171352060982      1.18947444727864     -0.89341305555815
  C          -3.59442915902766      2.12475174445694     -1.14038880691982
  C          -4.80165566816639      1.29840168746791     -0.67472876338076
  C          -3.56776147966778      3.49113219739265     -0.44164318435951
  C          -2.05494885604656     -0.51827957070474     -1.64471145308478
  C          -2.42054909145835     -0.43629566607839     -3.13497654872030
  C          -0.74647094232531     -1.29083622863643     -1.44180499037052
  O          -0.73322084477837      2.03204468984219     -1.57042996365644
  C           0.14337753942743      2.84484502473130     -0.79889953607181
  C           0.43986211494457      2.27549885760610      0.57703361277413
  H           1.04058400386342      3.02183944588632      1.11260782211550
  O           1.18242494901581      1.06956707126684      0.39104019660557
  C           1.30311668663508      0.22026920228155      1.52063662794056
  H           0.64534324211532     -0.64813865007415      1.37770479261092
  O           2.62641063977977     -0.21458233593293      1.63702270293178
  C           2.99479818954768     -1.16914702290440      0.64219417067565
  C           0.95674247537645      0.94177904209069      2.81570796287435
  O           1.07207340826219      0.06932247694958      3.92898914003780
  H          -0.38801461707309      2.17033663905841      4.59167367907744
  H          -3.68773658131720      2.29474988931771     -2.22109683921949
  H          -5.73205934614395      1.85835070223015     -0.81707236110982
  H          -4.72305289152373      1.05631802102942      0.39044856850577
  H          -4.89073724092951      0.35807536828189     -1.22526873505308
  H          -4.48395218984289      4.05193608910281     -0.65509821893694
  H          -2.72092496331386      4.10252239957269     -0.76589929964566
  H          -3.50303633236776      3.37346668823688      0.64445013011643
  H          -2.85810748434064     -1.05597962263806     -1.12413532390446
  H          -3.38525002393764      0.05257641773022     -3.29586517973407
  H          -2.47732902300703     -1.43859995051307     -3.57195541361335
  H          -1.66378028055066      0.12412222470407     -3.69355317517897
  H          -0.81450215926736     -2.28613816287541     -1.89413873313971
  H          -0.51347610834137     -1.41733524855964     -0.38268518827824
  H           0.09421839010121     -0.76881893555738     -1.90781693196535
  H          -0.28555333783470      3.84479007262562     -0.66981483959006
  H           1.07996330664380      2.94208319370964     -1.35303387158306
  H           2.99137298115084     -0.71807227625955     -0.35389638803737
  H           2.30824126856234     -2.02276460015524      0.65722395064313
  H           4.00211888541337     -1.50684727304480      0.88428543708075
  H           1.64389504533408      1.78982606017951      2.92586674500699
  H           1.98868350593772     -0.23050876735668      3.96767018746811
