46
Coordinates from ORCA-job goat_0_83 E -1252.757876661280
  O          -1.04086335224374      0.21418118509430      3.82545570079355
  C          -0.30533139259041      0.18641878730114      2.60555800472989
  H          -0.42045198414365     -0.79010563045199      2.12313848938041
  C          -0.77308145029479      1.25349606364786      1.60949170422115
  H          -1.18047178507361      2.10430620199104      2.16749234909025
  O          -1.81229245591695      0.66777854747084      0.82950268519338
  Si         -2.15164077230851      1.12598820130330     -0.72981256289814
  C          -3.35740505159467      2.55962536235592     -0.67903332689693
  C          -3.34303822706415      3.42645791256236     -1.94387029761058
  C          -4.77475577882490      2.07159550395313     -0.34644062223140
  C          -2.72081199321357     -0.39098684927307     -1.65180161725305
  C          -3.07385028351178     -0.08411528305696     -3.11413592041639
  C          -1.66564868440848     -1.50276345020032     -1.56233764974524
  O          -0.69922924074233      1.61766604566429     -1.37102919477334
  C           0.09230654063264      2.43197122844956     -0.50984127282105
  C           0.43504175874631      1.74574774261412      0.79934086794732
  H           0.96485937483395      2.48854799208286      1.40699763102080
  O           1.30633796755179      0.64148084400538      0.54051339426933
  C           2.01562621651092      0.25341767844612      1.70103987441145
  H           2.29180610949123     -0.79453545792497      1.53923490916542
  O           3.16381372362806      1.03309374513426      1.89610115800483
  C           4.16851199464692      0.80416853125539      0.91027846092277
  C           1.15939836345435      0.37495151645068      2.96322894718447
  O           1.59926444129558     -0.61651773736755      3.87852702209439
  H          -1.89238026845065     -0.21140958136842      3.67594386862387
  H          -3.01297850631231      3.18250449492766      0.15845421258167
  H          -3.68363362262230      2.86516848313360     -2.81832590550284
  H          -2.34079054904949      3.80489969073562     -2.16114989690927
  H          -4.01058585210624      4.28706847835858     -1.82731850008717
  H          -5.17829710905261      1.45677042721635     -1.15702622486728
  H          -5.45434295618235      2.91851126704874     -0.20523540066250
  H          -4.79433794905430      1.47165508227756      0.56851870037432
  H          -3.63060105964685     -0.73589829996994     -1.14303183192499
  H          -3.90086611906615      0.62493067709631     -3.19653230308696
  H          -3.36918216467708     -1.00070329868472     -3.63541485194510
  H          -2.21579431145859      0.33646459250956     -3.64818769245991
  H          -2.02240689316623     -2.41093453793352     -2.05936918050735
  H          -1.42905108106959     -1.75408746067465     -0.52541420975303
  H          -0.73623164117032     -1.19828214091571     -2.05293985382698
  H          -0.42715570514001      3.37172060918237     -0.28293638364198
  H           1.01902566852306      2.67433586093479     -1.03363364820719
  H           3.82491168362429      1.11102085931221     -0.08114604036486
  H           4.44804238702883     -0.25534489194062      0.88586539345557
  H           5.03398833159747      1.40173280032017      1.19549923000633
  H           1.30273980208818      1.37301058468034      3.39687530362807
  H           0.95578387650296     -0.62875237775387      4.59916648129439
