46
Coordinates from ORCA-job goat_0_173 E -1252.754721588448
  O          -1.31242002369909     -0.97383418150057      2.69540623451185
  C          -0.16179179768446     -0.53787974541384      1.98763534067726
  H           0.19595834183912     -1.33747318981620      1.32394756618530
  C          -0.47758618499899      0.68059661969315      1.13337336880545
  H          -0.78855274058790      1.50229644275226      1.78745365537382
  O          -1.57636230455939      0.32573333896102      0.29558018549697
  Si         -1.83693771444527      1.11242428419448     -1.14655567037047
  C          -2.45632263887164      2.85497058901922     -0.86608400610498
  C          -2.92173823404683      3.49948727624518     -2.17956695655007
  C          -3.53576568636695      2.94683653229860      0.22047139021871
  C          -2.92466931865181      0.01311983938990     -2.18919370858557
  C          -2.26690454110750     -1.36153739259295     -2.37817103300452
  C          -4.34761882877525     -0.12713370680283     -1.63189103025712
  O          -0.31598667740908      1.21932333480741     -1.82309566108734
  C           0.74213453962689      0.58832911599707     -1.10675897781541
  C           0.77949025353599      1.09572251230529      0.33006833627150
  H           0.84749420960139      2.18802091854797      0.30398471948700
  O           1.97150656618899      0.55874824057719      0.90811472470592
  C           2.01718825221563      0.65996867815176      2.31900764324658
  H           3.00834584764873      0.28283734205404      2.59319827302821
  O           1.85236270327377      1.98113493936700      2.75433826784268
  C           2.91651990607838      2.83976190617636      2.34596405065066
  C           0.93073838091752     -0.20284874580184      2.98930990753273
  O           1.48116389565720     -1.36974533938288      3.58530070163065
  H          -2.01431227258169     -1.08088506036618      2.04038803068312
  H          -1.57422419818414      3.40495249387339     -0.51076781869766
  H          -2.14453502501518      3.46363584930470     -2.94905835969500
  H          -3.18874711105431      4.54974073064492     -2.02287708004398
  H          -3.80588302697019      2.98903030174965     -2.57406534093938
  H          -3.19544395368218      2.51200281151476      1.16404604726946
  H          -4.45015810196964      2.42619827087342     -0.07609190254207
  H          -3.80062229105952      3.99294718272982      0.40759088772534
  H          -2.98590467367901      0.50188560840590     -3.17091788693823
  H          -1.26267887435708     -1.27625703706729     -2.80206601387354
  H          -2.86554614886443     -1.98371317935581     -3.05156098229769
  H          -2.18431599964359     -1.88942150881892     -1.42337563703055
  H          -4.33644007086574     -0.53311728304963     -0.61533958447260
  H          -4.93497515346592     -0.81079423182172     -2.25385941848782
  H          -4.87196885770129      0.83072990818149     -1.60564588919158
  H           1.68402469899258      0.84333509866897     -1.59609966060881
  H           0.62796453604862     -0.50118777714037     -1.12008633062076
  H           3.87932566461193      2.43967954135240      2.68263834111137
  H           2.73825401788082      3.80671022755570      2.81535906859410
  H           2.93585012881765      2.95986831377469      1.25945912260077
  H           0.49535462741469      0.37260486243912      3.80823489702800
  H           1.79868587994822     -1.95055473267567      2.88251818853765
