46
Coordinates from ORCA-job goat_0_110 E -1252.760517692305
  O           0.13336323241104      1.87547486912774      3.66994831313756
  C          -0.50239075234766      1.01640873588578      2.72716917569721
  H          -1.48804732357943      0.77157731974880      3.12851181303331
  C          -0.69560828944050      1.75609501700594      1.39679677131938
  H          -1.03429048823236      2.77152184579804      1.63295333242312
  O          -1.69516427605654      1.08545761379818      0.64460206541459
  Si         -1.82100382724621      1.14321695544389     -1.00721334394562
  C          -3.22217700087409      2.29205354511654     -1.48333395069962
  C          -4.59192930829628      1.77554889188285     -1.02317181481962
  C          -2.96437246692951      3.70410864577224     -0.93714723174317
  C          -1.97581538970593     -0.59428973359965     -1.68116910567505
  C          -2.95858658573256     -1.48528071442906     -0.91008593942423
  C          -2.30302702430041     -0.57625444672224     -3.18135341157427
  O          -0.38967974388532      1.76744038520251     -1.57759891063207
  C           0.49127433202725      2.48840488860660     -0.72461708791415
  C           0.63064191147147      1.86769951780790      0.65180054459309
  H           1.29036387586441      2.52236902509604      1.23252648061818
  O           1.24108311235872      0.58297305326252      0.49005935609815
  C           1.54346999039602     -0.05117224864846      1.71051201336993
  H           2.00155429842428     -1.00603488362296      1.42758676040015
  O           2.43865080653020      0.70510670885539      2.49386009061360
  C           3.69964917559944      0.92915318340542      1.86316469407588
  C           0.29899967956216     -0.28136755080127      2.57433153949515
  O          -0.52980317985328     -1.27979198499347      1.99952812865882
  H           1.08552354005412      1.85119056161689      3.49573679425755
  H          -3.22374933155745      2.34449360811429     -2.58009779852732
  H          -5.37517196856499      2.50487856132605     -1.25657902258597
  H          -4.60937621762130      1.60909290721436      0.05893550405593
  H          -4.85919885237543      0.83569828635019     -1.51121512103662
  H          -2.02772158331323      4.12318423201683     -1.31390497200002
  H          -2.91615526596717      3.70031912495047      0.15669103024543
  H          -3.77328675902794      4.38316620288763     -1.22718256338289
  H          -0.96998518398328     -1.01682710636771     -1.55423542410948
  H          -2.72806991981105     -1.51113511489183      0.15723338035664
  H          -2.91714922900424     -2.51220085084392     -1.28923695579165
  H          -3.98883224872034     -1.13859151903557     -1.02394661831474
  H          -3.30288876518324     -0.16757176082004     -3.35871545402261
  H          -2.28323823025627     -1.59009069036681     -3.59476909285293
  H          -1.58973664767007      0.02954673828436     -3.74845432925827
  H           0.14469611053220      3.52069550562841     -0.60133132564735
  H           1.47209052404651      2.51080061679066     -1.20544333825095
  H           4.13818905531380     -0.02341241289212      1.54753325804646
  H           4.34255715477308      1.40108351249479      2.60513712786134
  H           3.59630656372343      1.58578934799365      0.99568890698576
  H           0.63286106420605     -0.58704507638687      3.57136450996674
  H          -0.08086856775820     -2.12723331306305      2.09939122148453
