46
Coordinates from ORCA-job goat_0_81 E -1252.756751240231
  O          -1.08440452667642     -0.47792219343344      3.05686612474967
  C          -0.05145157061053     -0.21430575295235      2.11956116294166
  H           0.13532634853926     -1.10856310226363      1.50862907068190
  C          -0.43596668217504      0.92711749698009      1.18834901945854
  H          -0.54317823425864      1.84312354541946      1.77665876921272
  O          -1.70664867486205      0.60531142715520      0.63109942737680
  Si         -2.18033198117137      0.92601072944623     -0.92887392995140
  C          -2.95339825259753      2.61755201165658     -1.09140265082958
  C          -4.30359376300618      2.67371095391890     -0.36219713529486
  C          -2.00909769151088      3.71593038620062     -0.58519264635270
  C          -3.32059054022502     -0.46026815089126     -1.44045728506893
  C          -3.87848356021011     -0.21800015221378     -2.85038107697437
  C          -2.61237125203660     -1.81898510397709     -1.35555411375589
  O          -0.76658733421335      0.90991170929652     -1.80652585170383
  C           0.37833189743708      0.35799063616585     -1.16309374104058
  C           0.67023938849767      1.11596948135455      0.12567310592701
  H           0.76318425458426      2.17953562163226     -0.11540104255104
  O           1.93072423620563      0.62076434569687      0.58819636406235
  C           2.19411899176755      0.89155693654483      1.95171993023866
  H           3.21381912982222      0.52680129331813      2.11618590386087
  O           2.10439479638023      2.25903768197289      2.24121021907688
  C           3.09859581989917      3.03620647614771      1.57470510548838
  C           1.21981627450790      0.13852275194617      2.87587384634543
  O           1.82875400070527     -1.00928680051330      3.45258857605069
  H          -1.89675386631378     -0.58200508133705      2.54421658406765
  H          -3.13050946429408      2.78014132119258     -2.16269117406980
  H          -5.01380060982018      1.94187415042486     -0.75640408135098
  H          -4.75584767660821      3.66576682200785     -0.46259724754940
  H          -4.17856738797396      2.47564477862764      0.70753481597779
  H          -2.46087993355610      4.70442853159580     -0.71853355068257
  H          -1.05432025434148      3.70830161080448     -1.11707625651276
  H          -1.80112079585270      3.59309324027269      0.48262122488672
  H          -4.15811827082470     -0.46037718891122     -0.73080001275645
  H          -4.44467106595687      0.71520859464591     -2.91328215791138
  H          -4.54534580852038     -1.03419912444635     -3.14681635265101
  H          -3.07050789545796     -0.16953251193875     -3.58802620522567
  H          -2.22501852927832     -2.01334796582158     -0.35184902489842
  H          -1.77152505775143     -1.86461805247483     -2.05500876562057
  H          -3.30067736582823     -2.63013232946176     -1.61514402089737
  H           1.23129944010692      0.46436370792490     -1.83590340294280
  H           0.23654007961554     -0.70759858830607     -0.95225474444815
  H           2.95868874228568      3.01488659281824      0.49066114662116
  H           4.09986196797607      2.66359582323863      1.81776961549959
  H           2.99189494801724      4.05886476986843      1.93503276378710
  H           0.96573490649390      0.79341281730953      3.71119185919768
  H           1.99639282309027     -1.64924414664219      2.74938183553083
