46
Coordinates from ORCA-job goat_0_75 E -1252.750112720876
  O          -0.76300342608583     -1.04353760256712      2.47182147313203
  C          -0.02141461508047     -0.43080171522992      1.42304497755576
  H          -0.38186256449045     -0.89516849856874      0.50465891514732
  C          -0.30061167853449      1.07322909981214      1.37694906743350
  H          -0.28765668724147      1.44419026513749      2.40348192672105
  O          -1.60082480462817      1.34437865199707      0.86741286370825
  Si         -1.94018176825907      1.49951203136125     -0.75545864232094
  C          -3.25678074106978      2.81447534753778     -0.91509448957965
  C          -3.34253948823916      3.42018416960363     -2.32311191536994
  C          -4.63234667773377      2.33369619659488     -0.43292817964284
  C          -2.31971272794007     -0.18653990106187     -1.48623889430965
  C          -3.24545089003683     -1.03853875946950     -0.60745872657752
  C          -2.85341539023335     -0.08993556295862     -2.92240001267794
  O          -0.54919133378175      2.09477845732415     -1.44857796656784
  C           0.68605414921303      1.60606302967826     -0.92473598438283
  C           0.76089316936503      1.84814010652790      0.58450152626978
  H           0.58429620798513      2.91425795254230      0.75906474710141
  O           2.09738633805978      1.56678063832501      1.01515722764580
  C           2.28893691464149      0.49183201654509      1.90440529099658
  H           3.36603407373014      0.28841253698797      1.85613217972090
  O           1.91851673543517      0.79953883484525      3.22429875171502
  C           2.67740324959382      1.86459122502409      3.79125624308326
  C           1.48368177713356     -0.74324517357659      1.51550004444242
  O           1.90351803220976     -1.23621484100655      0.24848479759146
  H          -0.49283361808280     -0.63437891259774      3.30370927702199
  H          -2.91360851700590      3.60270811281358     -0.23135574573615
  H          -2.37190469269823      3.78738508219476     -2.66573558649255
  H          -4.04329670101296      4.26180866205627     -2.33109142835121
  H          -3.70113912937807      2.68845243325438     -3.05141365925373
  H          -5.34305855939141      3.16646851622851     -0.41251951158916
  H          -4.58833333541278      1.90635708858796      0.57307984547904
  H          -5.03925933626221      1.57141041519522     -1.10335918593591
  H          -1.34400227793017     -0.69041185097016     -1.53238668608168
  H          -2.85719735845606     -1.14539474112021      0.40828233480900
  H          -3.35984097437313     -2.04145823370366     -1.03273572919265
  H          -4.24339682759478     -0.59701819401865     -0.53775002204258
  H          -3.85444521833747      0.35013426865141     -2.94074435548066
  H          -2.92442047657919     -1.08548784410815     -3.37300775084501
  H          -2.20704867952591      0.52035670535736     -3.55995719424423
  H           1.49825379510377      2.15606703931804     -1.40451480001212
  H           0.81442375283777      0.54361726335093     -1.15190634338082
  H           3.74984523574922      1.64852152286770      3.72529389574086
  H           2.38474644510737      1.93860714363007      4.83820771061673
  H           2.46737686893743      2.81049105894764      3.28523571085151
  H           1.62975995573655     -1.50111001967752      2.29084062037664
  H           2.83160179455653     -1.49095402166314      0.31392338290732
