46
Coordinates from ORCA-job goat_0_57 E -1252.755875050654
  O          -0.88858751520688     -1.11122774002914      2.85401127309615
  C           0.06639265515167     -0.48570432449734      2.00744837127476
  H           0.44620539883310     -1.20644406096099      1.27305342723140
  C          -0.53082237233762      0.70162773261591      1.26907535689108
  H          -0.83030000839250      1.45841057084610      2.00084597666271
  O          -1.69789326245524      0.24011585674483      0.59651318464476
  Si         -2.24955562772279      0.84330981938625     -0.85108359642676
  C          -3.32772814029699      2.35889686543150     -0.64057833303459
  C          -2.91033679625124      3.17049086537160      0.59422198518228
  C          -3.31729114637567      3.24792393509655     -1.89360953716515
  C          -3.10363402361003     -0.59072814188167     -1.68952297573806
  C          -3.84694016493823     -0.17408692625849     -2.96546466407103
  C          -2.11298052667873     -1.72707881894324     -1.97767093119583
  O          -0.86321042507764      1.31127571226988     -1.64648598253799
  C           0.36480320451678      0.81736880669175     -1.11987312183621
  C           0.53907947937347      1.29118826869734      0.31688628323313
  H           0.47227646680963      2.38371794649457      0.32824134696450
  O           1.85801021677503      0.88821658702612      0.69731555832337
  C           2.11030131287407      0.95373170877575      2.08628280717506
  H           3.15914863410852      0.65702988141557      2.19178370377545
  O           1.90523010757541      2.24335440910847      2.59470810524422
  C           2.80636256366044      3.20623921819227      2.04977797490707
  C           1.21628352428509     -0.01238152700172      2.87617469439017
  O           2.02635149751509     -1.09851587178491      3.31239316829417
  H          -1.63193485867179     -1.37037470223704      2.29495429100912
  H          -4.35133660918193      1.99371343806686     -0.48313289250708
  H          -1.87599643566926      3.51959067025816      0.50493433415032
  H          -2.98829023315179      2.58349147568918      1.51257039918180
  H          -3.54583792220230      4.05553196838078      0.70387542998255
  H          -3.62848778710734      2.70925336220980     -2.79184233918061
  H          -2.31476448407636      3.64554014897561     -2.07464697682589
  H          -3.99476870321881      4.09821563849442     -1.76264173621170
  H          -3.84552356455362     -0.95369416640451     -0.96466358636931
  H          -4.62755914033802      0.56301270175645     -2.76104279237234
  H          -4.32279203131913     -1.04308829842841     -3.43180949665342
  H          -3.16032243507284      0.25842554949555     -3.70069883631766
  H          -2.63203897937675     -2.59305005343009     -2.40163115639979
  H          -1.59415881256567     -2.05450876558133     -1.07281196996699
  H          -1.35692567350293     -1.40864330569126     -2.70237696984187
  H           1.18057251371962      1.21556093194900     -1.72604179908868
  H           0.40384272238075     -0.27640936692851     -1.16429265224924
  H           2.63116019054849      4.13858813485099      2.58561813990981
  H           2.62562036771092      3.35917188170032      0.98250646904990
  H           3.84363525969816      2.88612667728030      2.19895710920945
  H           0.80494178519598      0.52317086408503      3.73848539322135
  H           1.45374977861977     -1.71010555729826      3.79154756298559
