46
Coordinates from ORCA-job goat_0_237 E -1252.757158389211
  O          -1.39104389817425     -0.08788485081086      3.55202747301042
  C          -0.56763017372597      0.12171963240192      2.41373758423502
  H          -0.79417748643711     -0.63354543497901      1.65032880022638
  C          -0.79754595275994      1.50733776824415      1.80592302111771
  H          -0.94481954707909      2.21381708106129      2.62860026290957
  O          -2.01011168170643      1.50061640312648      1.05691324446992
  Si         -2.06462333508950      1.39940931209776     -0.60211469477045
  C          -3.61338650460584      2.31702723253137     -1.10454703307364
  C          -3.54079666236511      3.77134455643082     -0.61631810062621
  C          -3.86762847558550      2.26476960640435     -2.61714777196928
  C          -1.96226360350290     -0.37916398362771     -1.17409392399609
  C          -3.25277126795716     -1.14189426071228     -0.84533284303312
  C          -1.57161223151346     -0.53763438873983     -2.64936179098868
  O          -0.70602655365227      2.19823478842022     -1.13170672486192
  C           0.10698191749836      2.85531041513885     -0.16414448695502
  C           0.44008527340726      1.95490184568350      1.01043632650936
  H           1.09948141508751      2.51656608505480      1.68116584962393
  O           1.13656732391926      0.80802287695258      0.51577728375939
  C           1.76369533898566      0.08071767309526      1.55324772519924
  H           1.92537706940930     -0.92174485114701      1.13834617520025
  O           2.98665687937112      0.65015618140627      1.92903000547460
  C           3.98622853605574      0.54565785014180      0.91711277022541
  C           0.89279167659859     -0.01733108902506      2.81668683436223
  O           1.17426315519620     -1.21431325457386      3.52205563390622
  H          -2.30783825775312     -0.02994017657107      3.25700630211004
  H          -4.45095707701160      1.82179198803481     -0.59581268644147
  H          -2.71324339245734      4.30190783763285     -1.09821590380299
  H          -3.39227113945574      3.83075387311155      0.46480504530559
  H          -4.46382030679696      4.30699345655622     -0.86188647266821
  H          -4.74026311148800      2.87254515298715     -2.87894449456267
  H          -4.05597730536105      1.24725672422451     -2.96623739107310
  H          -3.01325678892428      2.65951435938912     -3.17701019587396
  H          -1.14974436590797     -0.80795204957819     -0.57334201578258
  H          -3.51037490188822     -1.06464674045466      0.21549929087742
  H          -3.14842609178373     -2.20479204285932     -1.08706767856027
  H          -4.09774274834275     -0.75406678430349     -1.42284964665248
  H          -0.64500764100399     -0.00538019810003     -2.87891640940066
  H          -2.35019967344612     -0.15846430832281     -3.31602920710725
  H          -1.42132342952353     -1.59520865046091     -2.89165541623117
  H          -0.39072029578305      3.75561326145631      0.21378512336502
  H           1.03327598941465      3.15415509119969     -0.65893649357270
  H           4.90654382021280      0.94983419339939      1.33797782898664
  H           3.70897206595864      1.11930337256148      0.02873774827319
  H           4.14119521040362     -0.50292125713158      0.63838168386548
  H           1.16177885952218      0.79518252104261      3.49784723718610
  H           0.83565937004118     -1.95732681838957      3.00650213180492
