46
Coordinates from ORCA-job goat_0_137
  O          -0.88538659192624     -0.30644821779551      2.78484870580095
  C          -0.20728633106724     -0.19900010843849      1.53740382798853
  H          -0.72186507880802     -0.89049342785049      0.86926518402902
  C          -0.32062259439343      1.21937853694356      0.98221895562981
  H          -0.12170474326732      1.91685108073320      1.79858956907835
  O          -1.64218648031056      1.48886015777359      0.53247352426229
  Si         -2.19560768918182      1.25721076722563     -1.01822421723796
  C          -3.13664010740649      2.78240979654153     -1.53278603906376
  C          -4.45162189881908      2.93573152301022     -0.75675053308696
  C          -2.26780707843945      4.03916663696428     -1.40028297180534
  C          -3.24669201593829     -0.29441270611807     -1.13638263697005
  C          -2.45682796691285     -1.51627469777304     -1.62432153020689
  C          -3.97148247521907     -0.60513921651775      0.18124732016950
  O          -0.84596588047898      1.14072789476738     -1.97678628117859
  C           0.40295046832095      0.73418890971325     -1.42288344702425
  C           0.69639164189917      1.49462102289174     -0.12975523964343
  H           0.65535810006848      2.56554569341289     -0.35335716756863
  O           2.04228791631056      1.20066871961617      0.26252397421576
  C           2.23685675649280      0.48200365335802      1.45941497771666
  H           3.26650947730511      0.11004173855712      1.38805280190038
  O           2.09559432121649      1.28589370389956      2.60392495837152
  C           3.06626593109810      2.32649332701578      2.68504576420789
  C           1.25507407969391     -0.67301448078093      1.62699401043939
  O           1.45757322671240     -1.65303173962728      0.61379306314220
  H          -0.49685664419820      0.33886055454400      3.38902868938719
  H          -3.38041514000979      2.63676686947654     -2.59419978219854
  H          -5.11795301901570      2.08251572503947     -0.90635622726904
  H          -4.98631305681934      3.83521266369632     -1.07926038136033
  H          -4.26611756894809      3.03151414351734      0.31785844849601
  H          -2.80742865979517      4.92408801712065     -1.75395901607688
  H          -1.34312934592623      3.95574104462566     -1.97693963723916
  H          -1.99383382157616      4.21421495975675     -0.35544583567918
  H          -4.00800995271780     -0.06476734194273     -1.89468339799231
  H          -1.98199848577060     -1.33320323842066     -2.59084286740890
  H          -3.11744256258379     -2.38354761975377     -1.72910001579726
  H          -1.66813532688180     -1.79332919831557     -0.91814382321606
  H          -4.64821474004843     -1.45702344938845      0.05515517900331
  H          -4.56406953493222      0.24087092480092      0.53845682149214
  H          -3.25790467157906     -0.86155885257054      0.96877251884866
  H           1.18547159920291      0.97457411107507     -2.14603084102033
  H           0.41602881961114     -0.34492084157695     -1.25054398521215
  H           2.90048368792120      2.84179996475022      3.63062806781092
  H           2.95411939351355      3.03497171042345      1.86032887817117
  H           4.07850084342043      1.90679588560763      2.66956223146340
  H           1.41472273539328     -1.10757425866964      2.61819578092747
  H           2.34928046479071     -2.00773034131807      0.71351262170345
