46
Coordinates from ORCA-job goat_0_72 E -1252.754165053159
  O          -0.68489820240282      1.73552884843279      4.31854304754988
  C          -0.62401484234754      0.96609959526991      3.12204177912404
  H          -1.40350863662498      0.19697679129098      3.11923814425970
  C          -0.89027094927622      1.90370632783821      1.94110227266493
  H          -1.43592040325481      2.77768132785187      2.31259288721716
  O          -1.67276371006885      1.19843803290679      0.98691587647614
  Si         -1.72342753943188      1.63348009337047     -0.62110596276757
  C          -3.42839003313598      2.31971126770736     -0.98213295840104
  C          -3.50328568048994      3.13296160355314     -2.28120787707603
  C          -4.52481415433481      1.24735380624486     -0.93734102604691
  C          -1.18078511890303      0.14992091845498     -1.62652313464985
  C          -1.84964697870799     -1.16277063899245     -1.19646020391279
  C          -1.32934748533965      0.37206923289443     -3.13763820412839
  O          -0.63715581200917      2.86956105391506     -0.83317487616404
  C           0.22198742101713      3.35403323955748      0.19151526245020
  C           0.42552853936329      2.36417710816950      1.32255139577310
  H           1.01972425805481      2.86255033529119      2.09883683437882
  O           1.13731230997197      1.24676974848344      0.78122901486533
  C           1.06271436757512      0.03056011442572      1.51266975230553
  H           0.30871121686104     -0.61797692262181      1.04696562980535
  O           2.30741011694764     -0.60020970252990      1.47441063502580
  C           2.60240583677345     -1.18697701153506      0.20705773367967
  C           0.73094485353163      0.28293750580978      2.97712418310172
  O           0.69419001845595     -0.93229134258250      3.70873702897964
  H          -0.48328978437503      1.14868080541565      5.05747800729459
  H          -3.59901201488068      3.01222059099762     -0.14489680978910
  H          -3.36997661355180      2.49462362126444     -3.15866446352004
  H          -2.73852656942619      3.91292563969005     -2.31436905319728
  H          -4.48208031635555      3.61601643560978     -2.37395005594537
  H          -4.43601324490175      0.56181212562030     -1.78510510586239
  H          -5.51704922633231      1.70791571220204     -0.99050006433613
  H          -4.48106034259945      0.65302663662070     -0.01983508164217
  H          -0.10976324763594      0.07211030369277     -1.39797653533808
  H          -2.91646482092804     -1.16309608439825     -1.43528080281679
  H          -1.74712950099237     -1.33929054373404     -0.12284631075393
  H          -1.39653384815732     -2.01080274226575     -1.72145402009659
  H          -0.86169349284781     -0.44689879280439     -3.69453730693613
  H          -0.86304342659647      1.30650889343150     -3.46382805745386
  H          -2.38372723222745      0.40471263064565     -3.42690069834669
  H          -0.19472307895934      4.27554828970742      0.61232608884365
  H           1.19053945092155      3.58655670677109     -0.25883860190619
  H           2.72380587585016     -0.41868573501053     -0.56149031173303
  H           1.80459664100070     -1.87641056881440     -0.09029205944694
  H           3.53614810724001     -1.73674775319160      0.32186823281464
  H           1.50453543367307      0.94801149340816      3.38187797955043
  H           1.56171185985765     -1.34677899806449      3.62152779610701
