46
Coordinates from ORCA-job goat_0_30 E -1252.763958915008
  O          -0.08402722696077      1.58536391359755      3.68320010665425
  C          -0.58279944031782      0.68568700622082      2.70545263140085
  H          -1.55541576522534      0.28057396058273      3.00871008717136
  C          -0.77736320444589      1.49705407568024      1.42727139688494
  H          -1.31218114151373      2.42138498733302      1.67526811263919
  O          -1.55549451053666      0.70004097124065      0.52841904552873
  Si         -1.79573317878898      1.30598371429347     -1.01147124230655
  C          -3.06619063085869      2.68044537267433     -0.93608750715225
  C          -3.54837361991101      3.05536796798114     -2.34497029383419
  C          -4.24367308647747      2.38170289975991      0.00043232810704
  C          -2.18884531444954     -0.11413596071762     -2.15169088385962
  C          -1.02529960140380     -1.11275127763119     -2.22434894789131
  C          -3.49670759846960     -0.81860238935212     -1.76280729695551
  O          -0.33308460342917      1.94436215997133     -1.47045780165361
  C           0.43986564137880      2.63221476821139     -0.48800820131992
  C           0.57406828292619      1.85223827130540      0.80902791748226
  H           1.12291634544125      2.47660671077522      1.52169070491448
  O           1.31239611625289      0.66263094405270      0.52496648184864
  C           1.61816210782200     -0.10681368753806      1.67096969035489
  H           2.08942295964544     -1.01312943591586      1.27345764642158
  O           2.49494240069078      0.55509123300394      2.54010075329151
  C           3.77260432955540      0.79885874193104      1.95791729861950
  C           0.35747760240371     -0.50149216657045      2.44780372625852
  O          -0.33405813032075     -1.52195089305738      1.73798003648130
  H           0.13357270785388      1.08286831913609      4.47652159740157
  H          -2.52493266511400      3.54425911795662     -0.52569990573153
  H          -4.11578724288401      2.23511983287512     -2.79567615407135
  H          -2.71380468258569      3.28999282938262     -3.01271766217524
  H          -4.20470653226540      3.93101292399495     -2.30992173835202
  H          -3.90425872813216      2.15563237075827      1.01452290505325
  H          -4.83041316110673      1.52881275344380     -0.35186190685593
  H          -4.91796223598565      3.24312579713777      0.05427108368578
  H          -2.32145214269804      0.33014045331027     -3.14697077584264
  H          -0.09263364114827     -0.62885696341784     -2.52297116467360
  H          -1.24714512728955     -1.90269819796817     -2.94936707632425
  H          -0.85688946111219     -1.59475227780668     -1.25687622499875
  H          -4.35549402877445     -0.14530205968431     -1.81385095233378
  H          -3.44242021887290     -1.21879318863357     -0.74535226049123
  H          -3.69170834460334     -1.65810548404106     -2.43799497408556
  H          -0.01025219230093      3.60598190566580     -0.26122153065442
  H           1.43323544782147      2.80188500003677     -0.90846403851948
  H           3.70537196253865      1.52910276601375      1.14673344027570
  H           4.20257224258383     -0.13200872345406      1.56986162379602
  H           4.41081263309772      1.19250443629843      2.74878028231584
  H           0.66979720784343     -0.93135908155375      3.40322541947600
  H          -0.84416052987303     -1.07904441728272      1.04246422401980
