46
Coordinates from ORCA-job goat_0_216 E -1252.751375204420
  O          -0.94703705898765     -1.51275221180598      2.49926816868211
  C           0.10413790652902     -0.74020232651114      1.94100553277276
  H           0.59540508149389     -1.39450958875871      1.21372885692184
  C          -0.40963627420294      0.49350897222427      1.20528871624267
  H          -0.87961669326591      1.16578942780394      1.93377733355177
  O          -1.39576226466522      0.07534360355021      0.27071351463537
  Si         -1.77614760554884      0.97248719040946     -1.07378929212954
  C          -2.78862421819437      2.47716092685301     -0.61770316458258
  C          -2.77849311900754      3.56765369311446     -1.69757932819664
  C          -4.22115850847276      2.12083032125309     -0.20030891271285
  C          -2.51385570373758     -0.23655125295447     -2.29168435250364
  C          -3.59480756090667     -1.13760408459704     -1.67898602747467
  C          -3.02058355853034      0.45237728812535     -3.56572873798355
  O          -0.29874246024826      1.52635205107746     -1.61724036932619
  C           0.83940000406480      0.95665717290188     -0.97667456329219
  C           0.77689071953442      1.22701795603471      0.52160873861209
  H           0.66055819168334      2.30604012074194      0.66393414010563
  O           2.03752125923352      0.81091511680302      1.04804837866673
  C           2.06856585291379      0.75648095478422      2.46038313920206
  H           3.10451905356041      0.49979781533983      2.70744729329584
  O           1.71116504020273      1.97997744816176      3.04184134705636
  C           2.63599850077068      3.02734031454403      2.75189273254146
  C           1.11913765073154     -0.32669765913667      3.00424571986300
  O           1.83609666305911     -1.44559756173474      3.50714005277362
  H          -1.42811783931421     -0.95800615714922      3.12622386557078
  H          -2.26828457756525      2.87791860503823      0.26473837881324
  H          -3.28372052777665      4.46918997665576     -1.33486187255905
  H          -3.30318372361437      3.23901031742050     -2.59874546065416
  H          -1.76062001133896      3.84395591367295     -1.98350205269937
  H          -4.80083287357392      1.76374007381787     -1.05639503809450
  H          -4.73560621566597      3.00047241482010      0.20059761915139
  H          -4.24277592491310      1.34149531845232      0.56717286691518
  H          -1.66158242667210     -0.87402695418710     -2.56666221016780
  H          -3.23313148720548     -1.65153164016063     -0.78510458724288
  H          -3.91135295821321     -1.89759228703841     -2.40137384347538
  H          -4.48129620228097     -0.56191370192683     -1.39979158671041
  H          -3.90254573296893      1.06463687043753     -3.35653772229835
  H          -3.30777525737793     -0.29182436797899     -4.31582424385220
  H          -2.26104312178181      1.10071390194873     -4.01285051821366
  H           1.73362249021105      1.43226662380609     -1.38377392141811
  H           0.90257145704492     -0.12076136856126     -1.16717701119795
  H           2.31961646971535      3.89507061290641      3.32990563037365
  H           2.63261420231162      3.27742771318723      1.68755798312342
  H           3.64868849005833      2.73559331271709      3.05160924253644
  H           0.58562864609114      0.09223233949845      3.86105355442067
  H           2.25814622682133     -1.89363320560070      2.76337201095764
