46
Coordinates from ORCA-job goat_0_109 E -1252.751361763535
  O          -0.29578607513264     -0.22220965416238      3.17066513613811
  C           0.14453630871715     -0.21640317036360      1.81570052358681
  H          -0.36728185648966     -1.05202902045765      1.33574877379385
  C          -0.28973430220986      1.08121431204816      1.12236812944262
  H          -0.22708306169311      1.88570738467883      1.85836351125015
  O          -1.65402187194874      0.97099112661129      0.73280213126151
  Si         -2.27248549319514      1.01230021084394     -0.80617193144083
  C          -3.18755893821085      2.61809899520720     -1.08622248829308
  C          -4.44195751580401      2.69061392889271     -0.20303917496972
  C          -2.27736483538359      3.82921946910936     -0.84687955641576
  C          -3.36777621131618     -0.48384034050171     -1.04706802571373
  C          -4.08283983920317     -0.42219759259539     -2.40498918757596
  C          -2.57089127290396     -1.78736707253111     -0.90912051352628
  O          -0.97107318355555      0.95380770253951     -1.83811983143943
  C           0.31093624545238      0.61596685456351     -1.30949862293816
  C           0.59812076588052      1.46214808399118     -0.06919022755719
  H           0.37340647665440      2.50128691830031     -0.32991068634944
  O           1.99872941808211      1.41077475954806      0.22348584028494
  C           2.40160744051483      0.81937963499554      1.43566170930755
  H           3.47637917109994      0.64736638016384      1.31312556246353
  O           2.16188384713416      1.64120165935923      2.55081579903110
  C           2.86774789735076      2.87871094432871      2.50470113518476
  C           1.66073060409271     -0.47630849660985      1.71044088375366
  O           1.98632953889992     -1.36294156188006      0.64830102396460
  H           0.15100865539145      0.50604454299011      3.62143748270896
  H          -3.50319075089740      2.62479306351934     -2.13754600559000
  H          -5.13359912555964      1.86800276655985     -0.40431591419298
  H          -4.98055654650488      3.62890534527167     -0.37195156559908
  H          -4.17490901984619      2.65064732325758      0.85816132600413
  H          -2.82370023828215      4.76327931624391     -1.01545865362703
  H          -1.41030501275915      3.82204660491672     -1.51249467836348
  H          -1.90870561040293      3.84411833158282      0.18416179769982
  H          -4.12642670828107     -0.45525754798920     -0.25431919327707
  H          -4.71790043696014     -1.30282316129981     -2.54716705893962
  H          -3.36012844129978     -0.40210796097086     -3.22762508135637
  H          -4.71626724979959      0.46419633094356     -2.49534328002871
  H          -1.78138995229880     -1.84544775297276     -1.66521447020496
  H          -3.22352442151867     -2.65613487598651     -1.04586287762759
  H          -2.10124908818814     -1.87476263479437      0.07372034600400
  H           1.06061129954031      0.84570468103501     -2.06959700243116
  H           0.36685990339105     -0.45113524892686     -1.07988163290601
  H           2.70284353973529      3.37182677719551      3.46216430962266
  H           2.49498753647351      3.51404655793877      1.69709707051084
  H           3.94008048807371      2.70321982748279      2.36294503069403
  H           2.00605724490303     -0.87724671781619      2.66811346040456
  H           1.62880067825784     -2.23115702426067      0.86726667725153
