46
Coordinates from ORCA-job goat_0_184 E -1252.758335328536
  O           0.22023558251852      1.68926763718027      3.81006618015896
  C          -0.39363183609926      0.80504454829038      2.88065991166627
  H          -1.32207871340846      0.39500857834541      3.29957272279879
  C          -0.76185485639451      1.65693974216521      1.66629166299238
  H          -1.16532685752085      2.60638654475862      2.03807611935165
  O          -1.76003989935279      0.97699893566887      0.92353153818427
  Si         -1.97252463444732      1.12841200547207     -0.71717611667690
  C          -3.58950491169274      2.03268761168112     -0.98697361447287
  C          -3.52953891155599      3.40829756365077     -0.30611652959352
  C          -3.96240001530595      2.17464914340722     -2.46812742251560
  C          -1.88183529361452     -0.57772615785116     -1.47546463735469
  C          -3.12775484713643     -1.40541216797523     -1.13072506931456
  C          -1.61132072158599     -0.57338272772179     -2.98540946487941
  O          -0.71786614401873      2.04647822019552     -1.29782386362374
  C           0.16166001004442      2.74510651586062     -0.42307824138821
  C           0.47936704027875      1.96429377992315      0.83728782775035
  H           1.15500517233279      2.57071781741545      1.44955116337770
  O           1.12789922157537      0.75373456853319      0.44114595856877
  C           1.62607238232453      0.00175747925854      1.52611158983282
  H           2.01954930552047     -0.91339311083235      1.06856001642277
  O           2.64231904365138      0.67534541412737      2.21683701092244
  C           3.78907086983468      0.92460661464200      1.40840420063204
  C           0.53379733167538     -0.37045639587607      2.53042128707856
  O          -0.17862302138646     -1.45180080556643      1.94376759717168
  H           0.54932467267709      1.17244552960452      4.55432503350511
  H          -4.36580730969871      1.43595144774056     -0.48966254150680
  H          -4.48868388189693      3.92881880602188     -0.39811521512841
  H          -2.76627157739807      4.04006465132759     -0.77183692310825
  H          -3.29310337376723      3.32678312337929      0.75853156742663
  H          -4.13985148848836      1.20543326810143     -2.93975087351507
  H          -3.16944896311598      2.68072398739852     -3.02874557357684
  H          -4.87491945506603      2.77032512235868     -2.57970007079276
  H          -1.01730790645858     -1.03754115469718     -0.97957437869965
  H          -4.02182735608895     -0.98555413909256     -1.60251251083884
  H          -3.30597560825914     -1.44200776532190     -0.05164086780423
  H          -3.02022884377695     -2.43555400142571     -1.48651964997573
  H          -1.46982283431958     -1.59638914142979     -3.35069069571427
  H          -0.71290625893556     -0.00153213408257     -3.23124451811263
  H          -2.44636356611816     -0.14113623168823     -3.54306464397856
  H          -0.27623533998273      3.70758071480093     -0.13454555518041
  H           1.08772488028444      2.93675640658459     -0.97021123220935
  H           3.56905928363279      1.65098767892163      0.62125234706321
  H           4.14632242801612     -0.00529241972296      0.95070003909757
  H           4.55886198071989      1.32534511094881      2.06750682089303
  H           1.03057482825617     -0.70214842199771      3.45108383544279
  H          -0.98983960645154     -1.59137179248264      2.44528577962353
