46
Coordinates from ORCA-job goat_0_175 E -1252.756100722420
  O          -1.35584797647515     -0.78081005659537      2.64988936872379
  C          -0.35159230364400     -0.08235314139435      1.92354802772971
  H          -0.18586940768934     -0.58068560998673      0.96108383927575
  C          -0.73561488411069      1.37309598452264      1.70144293217168
  H          -0.93298379291036      1.82140457052087      2.68000097491761
  O          -1.94235185767846      1.46057996465103      0.95369968803838
  Si         -1.99266243042391      1.56525364901484     -0.70926473044356
  C          -3.33846312178349      2.78525312782699     -1.14107812401128
  C          -3.61956057605690      2.86461660022684     -2.64743110281684
  C          -4.63410952645163      2.55133487506053     -0.35076838594101
  C          -2.12211281536868     -0.16167140664679     -1.42772192416430
  C          -3.46807742190367     -0.82639950897342     -1.10924337860476
  C          -1.81149828481716     -0.21962069861373     -2.92947198485584
  O          -0.53865032278550      2.24066655148887     -1.16007376815885
  C           0.61779835485100      1.82530441861681     -0.43382255673112
  C           0.41995690447082      2.14671225901419      1.05082766773314
  H           0.19663219264986      3.21406145794381      1.11720107627805
  O           1.60728056339172      1.96541868261204      1.81621893473292
  C           2.02348093022885      0.61511478295946      2.01077360819027
  H           2.25143167362231      0.14703352387995      1.04199830088975
  O           3.15705800245637      0.63932701509003      2.80750785349906
  C           4.32818750052862      1.06802706544291      2.11158378536486
  C           0.93415284280762     -0.17010380069986      2.72745875635372
  O           1.36397006192579     -1.51677593577770      2.85163692944987
  H          -2.15358431165626     -0.79020428393037      2.10688050003530
  H          -2.91971328076206      3.74910666461498     -0.82075134329123
  H          -2.70717951995999      3.01893345225846     -3.23073376737461
  H          -4.30055101210758      3.69404495131502     -2.86466020828805
  H          -4.09567584010430      1.94708464529529     -3.00426047836672
  H          -5.35015021217601      3.35505894641332     -0.55208279322605
  H          -4.45253162173886      2.52331584231953      0.72628370965218
  H          -5.11014156711744      1.60965257251605     -0.63672037430253
  H          -1.33909281387765     -0.73200999638013     -0.91037651287452
  H          -3.46002425076715     -1.87833240777943     -1.41322503147874
  H          -4.28387696783025     -0.33539532251489     -1.64773285823558
  H          -3.70067777653410     -0.78851766487279     -0.04061147857094
  H          -1.78186569834371     -1.25931553440617     -3.27255656313190
  H          -0.84583574020428      0.23797174291906     -3.15971071402312
  H          -2.57536286039394      0.29639030298393     -3.51653078807328
  H           1.47654291829788      2.38861685275060     -0.80451910429547
  H           0.81095658537062      0.76119906776477     -0.60719540500979
  H           4.50107411552206      0.43869185792808      1.23175559703600
  H           5.16170607460080      0.96133602043994      2.80501104042788
  H           4.24217127304982      2.11261524331839      1.80175494236951
  H           0.77917900998080      0.28142289640945      3.71617221267283
  H           0.59802919191753     -2.03020021954680      3.13807363072770
