46
Coordinates from ORCA-job goat_0_233 E -1252.756483376498
  O          -1.32008786980742      1.37767623786966      3.97815301807299
  C          -0.87302954978455      0.66646732823883      2.82836976698987
  H          -1.49490722608255     -0.21900761814673      2.65891545184342
  C          -1.02898671306942      1.58156052046599      1.61064181856564
  H          -1.73344103910888      2.37835987494068      1.87644602807487
  O          -1.53606989857827      0.80622997456190      0.52836177764477
  Si         -1.68341402494731      1.55402812343571     -0.95366204956875
  C          -3.19377195806045      2.66230207429093     -0.94576726842971
  C          -3.51572975657112      3.16340392562087     -2.36086614133778
  C          -4.42115404778123      2.03159575920713     -0.27665092921720
  C          -1.62198796152966      0.24431795263752     -2.27783497836072
  C          -0.32878383870642     -0.57610704403291     -2.16733351717210
  C          -2.85495484423916     -0.67002952837476     -2.25442931685546
  O          -0.33111066984483      2.50686524538831     -1.12069545908851
  C           0.18970271631681      3.15374611519722      0.03686402347573
  C           0.30709158025230      2.21799161549930      1.23045133623891
  H           0.65500645546195      2.81458846054274      2.08391658915273
  O           1.27389029899058      1.22056171663259      0.89237259783297
  C           1.22570716709315      0.01000485757729      1.63116490449807
  H           0.68071728234387     -0.74374743226988      1.04535756494044
  O           2.52901611266499     -0.43322364558983      1.86402947134103
  C           3.16249870033311     -0.95907894062826      0.69826814034125
  C           0.57188143759505      0.21562244159918      2.99024268470249
  O           0.57619640914548     -0.98330568209040      3.74876476118275
  H          -1.18493068561037      0.80947015606322      4.74640586295612
  H          -2.89524373818254      3.53164792172537     -0.34286766419214
  H          -4.32540431601185      3.90028336611947     -2.33772896658226
  H          -3.83813912768197      2.33980441615198     -3.00562479549674
  H          -2.64821790125944      3.63553422938175     -2.83184959867750
  H          -4.20024407434083      1.70781257237221      0.74370085366196
  H          -4.77717809447720      1.16012186177675     -0.83290872150243
  H          -5.24624406168849      2.75063134645311     -0.23167852138877
  H          -1.61022028020948      0.78234942344121     -3.23498396298252
  H           0.56002925773760      0.05890923012461     -2.19522697314599
  H          -0.26001093924267     -1.29460200614381     -2.99078349920133
  H          -0.30619269782387     -1.14103866656712     -1.23080074591378
  H          -3.77872165509093     -0.11795542166025     -2.44157258208175
  H          -2.95432805633389     -1.17422409390535     -1.28781075870398
  H          -2.76917848020110     -1.44530108203898     -3.02295939512316
  H          -0.44605513348666      4.00032470553233      0.32325151744908
  H           1.18010210010801      3.53849436210808     -0.21594118734151
  H           4.11868744848473     -1.37355951370227      1.01647821712600
  H           3.33420346641561     -0.17322497945788     -0.04236364408394
  H           2.54909547191307     -1.75059558057498      0.25402205351317
  H           1.13161708166164      1.00098266342124      3.51432570990218
  H           1.49624565323488     -1.26043724319397      3.84209652694149
