46
Coordinates from ORCA-job goat_0_13 E -1252.765685420052
  O           0.27397974815648      1.90288399635852      3.48234276866608
  C          -0.44180146198164      1.03833465083598      2.61079479319108
  H          -1.40385755704713      0.82573103118395      3.08310753361743
  C          -0.70515944848021      1.73137489603433      1.26787471105772
  H          -1.09659720938671      2.73394208733255      1.46520110377991
  O          -1.67814792039008      0.94966232438604      0.56392063602163
  Si         -1.98379039659812      1.20095636081427     -1.06147374887077
  C          -3.35720877281441      2.45115667375087     -1.29857943716551
  C          -4.75204369893859      1.89476135130281     -0.98449577354562
  C          -3.09844565973528      3.73789722674831     -0.50186966861459
  C          -2.34435429918843     -0.45924948850039     -1.84751398184071
  C          -1.05729508879027     -1.21782865443829     -2.20075415763525
  C          -3.25598649768958     -1.33780305608793     -0.97476631646573
  O          -0.57806553834886      1.81130611287764     -1.69278376159796
  C           0.39372503165416      2.47943555010980     -0.89600108720968
  C           0.58981824316370      1.85464293543867      0.47184365862184
  H           1.27094808689253      2.50987309950554      1.02619845775061
  O           1.18951551269635      0.56808752168578      0.28811371039880
  C           1.52582982085384     -0.07638683195240      1.49776448833994
  H           1.95003643452303     -1.03988297674696      1.19722786108042
  O           2.46163471033522      0.66136836649732      2.24911856354844
  C           3.70916177177927      0.85104222185033      1.58043719842987
  C           0.30032595034838     -0.28709656802175      2.39217376429359
  O          -0.54913868739484     -1.26945418381765      1.82124976774185
  H           1.21573800295091      1.82471348547168      3.26852730168453
  H          -3.32389317830836      2.70016153179859     -2.36865733241658
  H          -4.81829744763831      1.55160287816175      0.05315179756295
  H          -5.01276437775879      1.05612235955284     -1.63430396853749
  H          -5.51158430993174      2.67157663363431     -1.12286998580766
  H          -3.14610556168468      3.54667779886706      0.57457486772667
  H          -3.85853600200488      4.49116411146928     -0.73393644849683
  H          -2.12111583346998      4.17409573564174     -0.72446473140028
  H          -2.88154249777660     -0.23613082867368     -2.77941445985300
  H          -0.47059118946396     -1.43038490308258     -1.30179188509716
  H          -0.42374044845405     -0.64824095267159     -2.88369572267814
  H          -1.29784805481527     -2.17555899459848     -2.67432577853198
  H          -2.74908547110314     -1.63926135667863     -0.05397140078510
  H          -3.52255019032481     -2.25356445972779     -1.51215335651697
  H          -4.18296049683780     -0.83568533359089     -0.69162668343474
  H           0.11075926229377      3.52827960574009     -0.75598829210173
  H           1.34239790724999      2.44940385240724     -1.43683764306400
  H           4.11782276151705     -0.11476352131545      1.26531386665351
  H           4.38252731292580      1.31827341763666      2.29783570965187
  H           3.59369250795510      1.49892664117979      0.70801800163264
  H           0.64176103281687     -0.66950008456075      3.35660082818326
  H          -1.08321680175562     -0.81641226380871      1.15114423203307
