46
Coordinates from ORCA-job goat_0_226 E -1252.756229558991
  O          -1.35526860034908     -0.87602264899084      2.68598339013813
  C          -0.36657857045489     -0.15781702671087      1.95578935191384
  H          -0.20054249584278     -0.64548116769558      0.98632351987459
  C          -0.78530526698216      1.28879471873458      1.74010253499490
  H          -1.02629652006787      1.71881250873089      2.71708805934404
  O          -1.97380572864318      1.33665556946736      0.95802474310535
  Si         -2.00033421727903      1.53151548408381     -0.69799449232032
  C          -3.34778302229947      2.76334860162206     -1.09141637905310
  C          -3.18562724131101      3.42530640074813     -2.46678610647151
  C          -4.75625534489812      2.17812718868879     -0.92144756710060
  C          -2.09299805555278     -0.14510389444015     -1.53184802660978
  C          -3.15350322805658     -1.08631631020891     -0.94702707965331
  C          -2.26020910316162     -0.01014556553104     -3.05235018929177
  O          -0.54853439020291      2.24544129017575     -1.09371514804061
  C           0.59819776359797      1.83108527318551     -0.35351221454527
  C           0.36019777529649      2.11049562671875      1.13231171749255
  H           0.10422002535634      3.16911192116281      1.21836677189530
  O           1.53578684128963      1.94560732350701      1.91835562620488
  C           1.99231396144725      0.60352704792561      2.07341477342089
  H           2.24076942885763      0.17331558217825      1.09226978124467
  O           3.11930399341522      0.63650642095358      2.87920377401533
  C           4.27859918562441      1.13342253764831      2.20943456727885
  C           0.92092035294066     -0.23079394865551      2.75934795109281
  O           1.38749620878048     -1.56797622504028      2.85161529202059
  H          -2.18866426866617     -0.79071758384131      2.20736406514030
  H          -3.20837496998018      3.54020896253357     -0.32719288706691
  H          -2.19228458942819      3.86334218622399     -2.59115768293923
  H          -3.92436853051963      4.22413581944374     -2.59135191898832
  H          -3.34029910496330      2.70710770317824     -3.27602795503912
  H          -5.51093668805637      2.96624724683513     -1.01169060883303
  H          -4.88843364956464      1.69882978635178      0.05303446379597
  H          -4.96620582345779      1.43246478463692     -1.69353174859287
  H          -1.10812633839464     -0.59586923994925     -1.34379435725080
  H          -4.16277512110013     -0.69454998920279     -1.09763786315105
  H          -3.01362730092261     -1.24567059435290      0.12442245238843
  H          -3.10508329014907     -2.06489774500074     -1.43649472326320
  H          -2.15410651953613     -0.98559538662614     -3.53824311146881
  H          -1.51790062337140      0.66411207279846     -3.48922561781060
  H          -3.25247449099039      0.37528775879580     -3.30348350775115
  H           1.45493214114704      2.41864894697724     -0.68981684422891
  H           0.81329375092777      0.77521521640818     -0.54937263855681
  H           4.47802159462595      0.54764735976506      1.30544266768982
  H           5.11148725803798      1.02653385457940      2.90359689210495
  H           4.15821401220549      2.18642706788662      1.94259496476163
  H           0.74876134273037      0.19072204079971      3.75824357114674
  H           0.64813745792142     -2.10479697649874      3.16304773696254
