46
Coordinates from ORCA-job goat_0_6 E -1252.767388341077
  O           0.15265750126827      1.53764351166921      3.72904044185485
  C          -0.51180632001233      0.72836330048648      2.76836482375771
  H          -1.45664080182838      0.40696958028166      3.21335268166834
  C          -0.82156715602022      1.54348606762187      1.50691008713732
  H          -1.28691931145892      2.48697559329381      1.80816888970025
  O          -1.72899106828557      0.77632414291551      0.70724707014589
  Si         -2.03232024874211      1.17037390551054     -0.88988557870951
  C          -3.53978354213320      2.27414445812484     -0.99165422907507
  C          -3.35002783244557      3.57633563906423     -0.20164974063196
  C          -3.90810592239183      2.57387513826344     -2.45210323852554
  C          -2.24267413935965     -0.40285840320180     -1.87136785765265
  C          -0.95267404123595     -1.22681883208329     -1.96512949090498
  C          -3.40477879778002     -1.24319195210675     -1.31992982570337
  O          -0.68530747776190      1.96893360401713     -1.43020710761627
  C           0.22180340853224      2.61445666141110     -0.54248762668996
  C           0.46228457571673      1.84549699780002      0.74281915758519
  H           1.10017593734214      2.47330160989257      1.37472424254922
  O           1.14095020009146      0.62900147974279      0.41419831658371
  C           1.51331349098838     -0.13472081808361      1.54133672174980
  H           1.98880480912782     -1.03151711752547      1.13101512156721
  O           2.40973987064047      0.56070622065767      2.37734988146305
  C           3.64208448908130      0.89804152672824      1.73988192757816
  C           0.30894495215801     -0.51660877158033      2.40884131944876
  O          -0.48601996447471     -1.48653433490777      1.74595479503736
  H           1.09781759203300      1.53398572513289      3.51596605195386
  H          -4.36604162508602      1.71338791008617     -0.53540132723611
  H          -4.24924012847473      4.19816055861701     -0.26527293420341
  H          -2.51799037385042      4.16299028888127     -0.60350395080824
  H          -3.15174289496145      3.38928508747747      0.85678855489825
  H          -4.78601982151486      3.22653207841242     -2.50120341825878
  H          -4.13764095707615      1.66358802244785     -3.01216560624501
  H          -3.08811330693472      3.08605398715820     -2.96643727081175
  H          -2.51033395717152     -0.07899043064796     -2.88566431759694
  H          -0.12978627926532     -0.64090105687794     -2.38096998021171
  H          -1.10554823507617     -2.10215758586664     -2.60519266409512
  H          -0.63748265472236     -1.58935349063386     -0.98311551518497
  H          -3.55636752267905     -2.13771374523819     -1.93251129393223
  H          -4.34482138285093     -0.68435946128772     -1.30728347329673
  H          -3.19884336261782     -1.57510065258639     -0.29706870274409
  H          -0.15272614949468      3.60957920303332     -0.27892331156496
  H           1.17160978739652      2.73221696961572     -1.06912075444312
  H           3.48822266768214      1.63746043036352      0.95008047853742
  H           4.10331826051017      0.00095618132624      1.31378222073357
  H           4.29053331611898      1.31373741752076      2.51007353248263
  H           0.68501109264957     -0.97375650107023      3.32680156367906
  H          -1.07300667563094     -1.00153014385579      1.14581133603126
