46
Coordinates from ORCA-job goat_0_174 E -1252.758334900346
  O           0.27181625777455      1.22547171270800      3.71403982342732
  C          -0.22447473288592      0.46200275490911      2.62348300947510
  H          -1.09737303724436     -0.12648508819619      2.92640769805889
  C          -0.63583331033472      1.37159767144719      1.46333734073902
  H          -1.28616760923157      2.16877795982836      1.84509560071867
  O          -1.34989961862804      0.56133268794850      0.52421662392170
  Si         -1.77077932713435      1.25240797532869     -0.93957736145594
  C          -3.21970588379991      2.40285882650116     -0.64536307671245
  C          -3.80871698283857      2.94395888148768     -1.95515064742012
  C          -4.30770540607945      1.79141752218494      0.24689415075659
  C          -1.97375299740674     -0.14210873592448     -2.15904194883494
  C          -3.23879675351291     -0.97081598503620     -1.89727285870535
  C          -1.90500135758504      0.32374524528835     -3.62002652928170
  O          -0.45072111658549      2.15031520000962     -1.39930053719109
  C           0.25363155115144      2.86645954400900     -0.38520669232251
  C           0.59492618474546      2.00374960815235      0.81822053094411
  H           1.08216787243202      2.64210385889441      1.56206700633083
  O           1.50062048126276      0.98918015127694      0.37208683116161
  C           1.99847405895327      0.17005360141687      1.39502486605259
  H           2.58525256866137     -0.60796037032393      0.89202742095873
  O           2.84120397715821      0.95185832908796      2.21388830695904
  C           3.78616490979501      0.18791856548414      2.95162810286755
  C           0.86443887973990     -0.51568337441790      2.17416600840930
  O           0.30170861928982     -1.54348911337910      1.36533567425779
  H          -0.47249139445487      1.69432509529032      4.10894166407479
  H          -2.78336874593538      3.25220262118091     -0.10029087156678
  H          -3.04079095037023      3.38167642157808     -2.59972419879695
  H          -4.55526831829846      3.71851891952382     -1.75066300773873
  H          -4.30644093428943      2.14935485340723     -2.51863808929710
  H          -4.79377346150777      0.94211266126165     -0.24106536210793
  H          -5.08419767952329      2.53232788800970      0.46547962589558
  H          -3.89868296747444      1.44086364913703      1.19789331362443
  H          -1.10083761171366     -0.78137936458900     -1.96747316719784
  H          -3.25760942980397     -1.85328520254232     -2.54506238703591
  H          -4.14009035790679     -0.38849270092611     -2.10886163825799
  H          -3.29676194859262     -1.31559719794701     -0.86077608530707
  H          -1.91770073956712     -0.53940997995549     -4.29370882074032
  H          -0.99473135216150      0.89413855759101     -3.82079532149052
  H          -2.76062694611044      0.95359471180780     -3.87748280379545
  H          -0.33836992392262      3.72241041703389     -0.04034418569674
  H           1.17700933433792      3.24343902278423     -0.82932262127973
  H           3.30626559846969     -0.41470403853566      3.72968531179936
  H           4.46597343435960      0.89704262656712      3.42391247446821
  H           4.35586202872798     -0.47291582484971      2.28735289845171
  H           1.28344670074790     -1.00111237209018      3.05719193212765
  H          -0.29434156270733     -1.10752819242316      0.73703199675222
