46
Coordinates from ORCA-job goat_0_79 E -1252.757550997089
  O          -1.52817625824622     -0.08814223278994      3.52502315833320
  C          -0.64978155627761      0.05561271361007      2.41300633995233
  H          -0.82138556293693     -0.75353860081131      1.69673421520846
  C          -0.84281430210318      1.38897161488036      1.69309377226484
  H          -1.05987764959709      2.15511369521285      2.44473378951271
  O          -1.98666614267131      1.29170410056657      0.85162243329790
  Si         -2.04607811288443      1.51361742076115     -0.79050577744641
  C          -3.25115021976909      2.91153217642866     -1.09724867202587
  C          -3.42503007065634      3.23146309481454     -2.58720369541268
  C          -4.60834439869827      2.63724018929747     -0.43424609166100
  C          -2.47908693684771     -0.06750859503987     -1.69555411469979
  C          -1.94305228445772     -0.04914620918322     -3.13652257705681
  C          -1.96930438410745     -1.30930780842938     -0.95255998084859
  O          -0.50464860122873      1.94610288536916     -1.23672999641634
  C           0.26897109863445      2.62578640388649     -0.25291698796870
  C           0.46850107038038      1.78016293163093      0.98863087560903
  H           1.06725202914642      2.36925957240714      1.69230788455168
  O           1.19802388734529      0.60394819119716      0.62509659970293
  C           1.74001004227770     -0.05647299014491      1.75164209992770
  H           1.91734437825826     -1.08733511022399      1.42517413964966
  O           2.93833309038786      0.53084964032510      2.17854529380634
  C           4.00631205178335      0.35809274312138      1.24927297484742
  C           0.77215819382578     -0.05096102806757      2.93642273208387
  O           0.97302835796980     -1.25120336427709      3.66651660717759
  H          -2.40026004101900     -0.32623754723701      3.19118727302276
  H          -2.80240337263305      3.78695210774025     -0.60722000863407
  H          -4.04904776413696      4.12164368459449     -2.71985704599142
  H          -3.91880007465922      2.40618721211816     -3.10933756679506
  H          -2.46713479121295      3.41654180205356     -3.08190777682957
  H          -5.28642455986963      3.48569329079488     -0.57535775450554
  H          -4.50665166674931      2.46159315646051      0.63968907330263
  H          -5.08983908853318      1.75743517358602     -0.87425201433221
  H          -3.57492539996810     -0.11633991094557     -1.73868780033404
  H          -2.29650497554631      0.81501362941724     -3.70374956274984
  H          -2.25926860606330     -0.95118880308844     -3.67076726351810
  H          -0.84979378987913     -0.02489618700430     -3.14094147003901
  H          -2.42101111269877     -1.40287299702708      0.03751127837648
  H          -0.88281641924007     -1.27054646281612     -0.82212785638148
  H          -2.20249484822769     -2.21731094362515     -1.51897558011942
  H          -0.20699637408364      3.57080556969020      0.03723345212179
  H           1.24233026209070      2.85369251278819     -0.69159278175081
  H           4.16851497800625     -0.70632591861203      1.04450531335037
  H           4.89886986243981      0.77954455047781      1.71101284974761
  H           3.80036606828487      0.87976514745321      0.31090773191752
  H           0.99164029906407      0.81606487846311      3.57343328274438
  H           0.24206369510742     -1.31480537982368      4.29521920500765
