46
Coordinates from ORCA-job goat_0_166 E -1252.757040185222
  O          -0.56650367292127      2.67214915249829      3.62701814062006
  C          -0.38382683831100      1.59144710174909      2.71715591782312
  H          -1.03611999719437      0.75338678699032      2.98480109116866
  C          -0.78676109604900      2.06561186310221      1.31553778913089
  H          -1.30672598615554      3.02295929114670      1.42231535095773
  O          -1.65295873709058      1.08998387789806      0.74481774134266
  Si         -2.04585376159634      1.12098582085060     -0.87276715540958
  C          -3.64798880007286      2.05637890919384     -1.12345733049238
  C          -4.84134002310301      1.28576580949034     -0.54141047023527
  C          -3.57664230266867      3.47290466826690     -0.53682053330561
  C          -2.15021037473925     -0.63273570842594     -1.50404748644209
  C          -2.57405415416601     -0.65238492195213     -2.98069313180355
  C          -0.83961400001149     -1.40085154273989     -1.29718327237191
  O          -0.80323555053631      1.90301373529588     -1.64557290951063
  C           0.09865727463823      2.76104838997199     -0.95683349608230
  C           0.44574520135540      2.27775156941479      0.44017072720469
  H           1.06688549686404      3.05485243963642      0.90373874098668
  O           1.17876324199103      1.06022282816382      0.30171283629223
  C           1.38441603113068      0.30765478971103      1.48501360373192
  H           0.76327456619757     -0.59745008063091      1.43241283131765
  O           2.73063080993105     -0.06016369349573      1.58082728382217
  C           3.10639149544056     -1.07038640913599      0.64583678914878
  C           1.05670658870499      1.10556021638763      2.73966502778570
  O           1.22979273461276      0.31051778491018      3.90270147306289
  H          -0.27854815016212      2.37107915527329      4.49765446276379
  H          -3.78761113812066      2.14218048838376     -2.20917048279210
  H          -4.71895060809678      1.13071094343602      0.53577519773027
  H          -4.96304420198001      0.30458255972640     -1.00817496628473
  H          -5.77198516851535      1.84377351846141     -0.68965242601925
  H          -2.74196488312403      4.04688120754730     -0.94883392920373
  H          -3.45982894665445      3.44039135042709      0.55083451544897
  H          -4.49763783716499      4.02602762957601     -0.74966540551755
  H          -2.93543413960383     -1.12549517887438     -0.91585777691235
  H          -3.54304283250666     -0.17040639720347     -3.13670702959714
  H          -2.65084639267791     -1.68215772717850     -3.34471713669024
  H          -1.83865320793774     -0.13613711499701     -3.60641784881957
  H          -0.55941652753984     -1.44350632666537     -0.24253741072470
  H          -0.01719720426179     -0.92695410888595     -1.84094536344415
  H          -0.93496283274080     -2.42849070923291     -1.66407299514624
  H          -0.32618060295483      3.76762174496929     -0.87438761775866
  H           1.01503184098260      2.82290222088730     -1.54855677872139
  H           3.04186881349565     -0.69813508545310     -0.38031477361875
  H           2.46423858056170     -1.95140217099475      0.75457607511391
  H           4.13787459349371     -1.34142488137292      0.86935556052998
  H           1.72474225960088      1.97500157151763      2.77412437111908
  H           2.15607043965619      0.04098463235546      3.93301219980235
