46
Coordinates from ORCA-job goat_0_220 E -1252.755368904469
  O          -0.53118139676113     -1.25879344250327      2.68192603063800
  C           0.31571019634414     -0.56455370342108      1.77702979800174
  H           0.59861722110372     -1.22454661920223      0.94700885673130
  C          -0.38783842693938      0.65817311075009      1.20575998889029
  H          -0.60408568780096      1.35633497479620      2.01963318971947
  O          -1.62528882743501      0.20886660161709      0.66234343281821
  Si         -2.34782408874837      0.81985987284785     -0.70421008224237
  C          -3.44102072869298      2.29468919709416     -0.33697340914114
  C          -2.91646350416529      3.08890749933903      0.86789760880597
  C          -3.59338770780300      3.21380336575492     -1.55851980790056
  C          -3.24773550272480     -0.62246016807560     -1.47762181847086
  C          -4.13333141308730     -0.20212741993563     -2.65818584582392
  C          -2.26244990748147     -1.72297756201783     -1.89414020945126
  O          -1.07445095301443      1.34444468943778     -1.63969311074856
  C           0.22335644735821      0.89501277498724     -1.26053384541199
  C           0.52723406814773      1.34091854925971      0.16346271973277
  H           0.38881649235292      2.42561293641514      0.21681814314736
  O           1.90431793049028      1.02525135969861      0.38749962753111
  C           2.27332318630652      1.00030654410941      1.75217526990402
  H           3.35645053882898      0.83536145509518      1.74251352602715
  O           1.96205794992989      2.20211993966505      2.40163648688722
  C           2.69737151214536      3.31536562257078      1.89573081099961
  C           1.57722738987621     -0.14647078674354      2.50762911554970
  O           2.42162327466494     -1.28868565820099      2.59629471591299
  H          -1.36526619822578     -1.40312443557235      2.21606712994736
  H          -4.42999778559238      1.89226338317619     -0.08016176205132
  H          -2.86685491714026      2.47483037840907      1.77033179952829
  H          -3.56753533866330      3.94454839887382      1.07582412237383
  H          -1.91298694898061      3.48198055329223      0.67311616347177
  H          -3.98007562711908      2.68612262638275     -2.43368453550155
  H          -2.62911558894062      3.65070282321503     -1.83287597507587
  H          -4.28051607778809      4.03625836830692     -1.33363523710395
  H          -3.89824859091088     -1.02109844532687     -0.68679606061176
  H          -4.90490960453810      0.51042034235621     -2.35600770880232
  H          -4.63534933167626     -1.07439052317410     -3.08972616703398
  H          -3.53956673748436      0.26173043703942     -3.45279049218222
  H          -1.59509314783374     -1.36815044282592     -2.68599112995511
  H          -2.79927875071010     -2.59527838282748     -2.28139746231886
  H          -1.64270816977034     -2.05298527968890     -1.05606243876586
  H           0.95145482225120      1.34747655211785     -1.93636529321663
  H           0.30540654677002     -0.19402396778323     -1.34399808733847
  H           3.77362424653315      3.11590702622641      1.94517654692296
  H           2.45416212108132      4.16754059880687      2.52955883633258
  H           2.41897015926687      3.53806252985827      0.86223552944024
  H           1.30868052474021      0.21161925997553      3.50629665269469
  H           3.11810633183645     -1.09857493417567      3.23566437713987
