46
Coordinates from ORCA-job goat_0_64 E -1252.764068877645
  O           0.33445637712621      1.48639439982438      3.68770216365099
  C          -0.34606612282319      0.67688538000423      2.73933634039161
  H          -1.23983995387312      0.22682177736789      3.18520507238440
  C          -0.77430617950518      1.51077270009444      1.52851518714487
  H          -1.29210656688829      2.40913770020835      1.88321403237279
  O          -1.66342026552445      0.70643621857084      0.74768898155930
  Si         -2.07661591910894      1.14566651567008     -0.81154337788919
  C          -3.68267108533895      2.10625054078290     -0.78933278513520
  C          -3.59965972738814      3.33711029458854      0.12364466055357
  C          -4.10506486846001      2.50802749637569     -2.20993428264607
  C          -2.19441490263358     -0.39585965586475     -1.85783189993992
  C          -0.84177485678039     -1.09264109867890     -2.04835748974686
  C          -3.24338900215080     -1.36375169270362     -1.28867497559105
  O          -0.84296807225124      2.09891307979373     -1.37092962779780
  C           0.08078659490746      2.75149142122856     -0.50407040886858
  C           0.44534881405538      1.92832218523913      0.71624229439937
  H           1.08812807049692      2.54334614699007      1.35490786662003
  O           1.15263132245847      0.76956588109657      0.27263646481082
  C           1.67279024599340     -0.01463314728029      1.32819855650765
  H           2.09008381893550     -0.89862081930964      0.83232514886479
  O           2.67139513354120      0.65692540629640      2.04481823532232
  C           3.81495348355362      0.95872370265687      1.25005718184640
  C           0.57956304495569     -0.46423918091651      2.30618863611414
  O          -0.18495405501526     -1.50493845273261      1.70752734311443
  H          -0.30984549095765      2.09109691372732      4.07395930279896
  H          -4.44497933763166      1.42960027932491     -0.38158490431966
  H          -4.54744982265071      3.88580300190517      0.11602639579288
  H          -2.81961426548906      4.02775155059413     -0.21257490915547
  H          -3.38438760540245      3.06269922083003      1.15951868146008
  H          -4.24696395698820      1.63822387363550     -2.85691696433878
  H          -3.35179667374222      3.15219170168436     -2.67529201967909
  H          -5.04746274787819      3.06530837823448     -2.18852607910980
  H          -2.54327348093630     -0.05849295696663     -2.84262723634458
  H          -0.09946747005467     -0.42035757876622     -2.48463346822800
  H          -0.94932095315520     -1.95816888450479     -2.71074171105613
  H          -0.44193112238375     -1.45322797580413     -1.09698797945618
  H          -2.95583669023289     -1.71260777077247     -0.29141807991665
  H          -3.34109568564490     -2.24507772004350     -1.93070374391879
  H          -4.22986748856727     -0.89861947497675     -1.20847706177826
  H          -0.33627554888093      3.70549437279328     -0.16310719935453
  H           0.98578504995226      2.95640607364881     -1.08057275619460
  H           4.57312697772665      1.35601258226851      1.92462202879690
  H           3.58038303335514      1.70473011984345      0.48574461780786
  H           4.19580343043578      0.05279778486086      0.76401116970372
  H           1.06482024465300     -0.88439068696728      3.18907088020743
  H          -0.82928572380895     -1.07702960385157      1.12393771823983
