46
Coordinates from ORCA-job goat_0_161 E -1252.750906385281
  O          -1.12786181000452     -0.66028939020540      2.56073505765186
  C          -0.13439145738204     -0.31264635058028      1.60462330381882
  H          -0.32660057086505     -0.96775987614259      0.75149473851493
  C          -0.26027836017417      1.13924178465409      1.15526256447309
  H          -0.15515279322109      1.77968805513984      2.03273486424114
  O          -1.54468405911787      1.41304441854995      0.61522693806553
  Si         -1.97399905173525      1.21970163765002     -0.97635295003192
  C          -3.14555996395078      2.59731030057146     -1.43504903280932
  C          -4.48818043507687      2.49228244567646     -0.69803828385408
  C          -2.49306383028604      3.96521231396248     -1.19088932798338
  C          -2.60763198696186     -0.51445226710407     -1.29784924713048
  C          -3.53529420178976     -1.05545236201562     -0.20265836156369
  C          -3.26311724057931     -0.60207796935705     -2.68403607379383
  O          -0.56957324395764      1.44907663260315     -1.84138412523003
  C           0.61414984937300      0.92685031479172     -1.25014666588839
  C           0.84933143978220      1.50080468966175      0.14851818963408
  H           0.89275409745172      2.59267036452829      0.07364240852517
  O           2.14255146704963      1.01576127553912      0.53339170121114
  C           2.27162837945783      0.52263256011438      1.84865943960546
  H           3.29816685473759      0.14233440883158      1.89560488265093
  O           2.07380523335685      1.50994254961105      2.82357957107228
  C           3.02725568375195      2.56812286124191      2.74807800122633
  C           1.29095320980007     -0.62013796236131      2.11572549929185
  O           1.79436723501737     -1.83219239684838      1.56479837883173
  H          -1.04153360881268     -0.06566295120330      3.31635394761330
  H          -3.33486273796909      2.49215162879390     -2.51140460441050
  H          -5.02492006857387      1.57520136627398     -0.95106754088178
  H          -5.13329212457871      3.33759244211534     -0.95953852651919
  H          -4.34590205070376      2.51009814904226      0.38728022010922
  H          -1.55455898572517      4.07088732714409     -1.74062823239867
  H          -2.27692084133031      4.10900390887215     -0.12787754857085
  H          -3.16381234042742      4.77139781104367     -1.50594630051669
  H          -1.70764010316581     -1.14493391031086     -1.31410167798168
  H          -3.05419082535516     -1.03428411066134      0.77765810323018
  H          -3.81874673875543     -2.09107408115818     -0.42006323003149
  H          -4.45839765180718     -0.47283312654293     -0.13620900275538
  H          -3.52862781230859     -1.63739937057091     -2.92194240129531
  H          -2.59853756640544     -0.23798459467841     -3.47347665925670
  H          -4.18224085384324     -0.00921320528802     -2.72212854628307
  H           1.46155930231084      1.20457075795368     -1.88014565988298
  H           0.57892776727422     -0.16873220373066     -1.20298473222389
  H           4.04697704470292      2.16853587827048      2.78650364029832
  H           2.85433913647550      3.20995299491300      3.61134160522587
  H           2.90083650867130      3.14846451457490      1.83028749940384
  H           1.24882519766961     -0.77825034535329      3.19455820319219
  H           1.86709490798180     -1.72090691801236      0.60811997340599
