46
Coordinates from ORCA-job goat_0_77 E -1252.755648534097
  O          -0.58379404446635      2.07129927282966      4.15567734885281
  C          -0.51220493551792      1.16130439733275      3.06268879431739
  H          -1.23130452293476      0.34579359366299      3.19357057662967
  C          -0.89436708904378      1.92068944702383      1.78842929400712
  H          -1.46945282171995      2.80653130031584      2.07842507999124
  O          -1.68480011144238      1.06183053083398      0.97764311483918
  Si         -1.85219072648412      1.28486419207797     -0.66590732828833
  C          -3.60719328383763      1.85040948094891     -0.98485851726604
  C          -3.88858871594270      3.13259990353520     -0.18755634024760
  C          -3.90921146348285      2.05614106411172     -2.47482887264407
  C          -1.37704473062820     -0.31420265985009     -1.51412466292337
  C          -2.46229068265001     -1.38461218326518     -1.33192113991746
  C          -1.00541540973604     -0.13960215551443     -2.99238459253808
  O          -0.81412435546324      2.49790365392936     -1.11136714343203
  C           0.03332536637191      3.18206747314458     -0.19774101654191
  C           0.35668444350952      2.36551236404407      1.03920196951808
  H           0.95682526022821      2.99604875629653      1.70707775564328
  O           1.10763269698017      1.22606116650261      0.60871392388210
  C           1.16108747592798      0.12595202344128      1.50638924736964
  H           0.43420854192242     -0.63192451172890      1.18264434412030
  O           2.44580076267404     -0.41920454854177      1.48286964940707
  C           2.72827275686393     -1.14468555142629      0.28653175415849
  C           0.88292750978265      0.56149563190324      2.93857412948206
  O           0.97433281408958     -0.53633626794899      3.83266087766934
  H          -0.31082295311080      1.59905412510303      4.95167845949422
  H          -4.26458303164663      1.05735586995825     -0.60446917713085
  H          -3.72689202280367      2.98873450857811      0.88427478165803
  H          -4.92446701893479      3.45806235362758     -0.33028285850701
  H          -3.23770804553769      3.94840303439649     -0.51860675132462
  H          -3.21936663034590      2.77951159211227     -2.92182567253944
  H          -4.92500864735598      2.44242085119738     -2.61169594694431
  H          -3.83001336492055      1.12468571701778     -3.03995522406263
  H          -0.47631448789288     -0.64622799560832     -0.98272944044766
  H          -2.70876569181105     -1.53952133852698     -0.27700619672731
  H          -2.13238404327618     -2.34489884114577     -1.74205478881997
  H          -3.38353233710588     -1.10316243332821     -1.85157868808978
  H          -0.65295792501011     -1.08838621847906     -3.41125703971224
  H          -0.21227731204481      0.60098137308561     -3.12238263895239
  H          -1.86365375446149      0.18089347060131     -3.58898970422977
  H          -0.44336227950151      4.11564495337780      0.12095307967016
  H           0.96228061823970      3.42744587752437     -0.71881929365002
  H           1.97519571205556     -1.92367024505088      0.12450526700728
  H           3.70693675548788     -1.60510606320847      0.41872964372290
  H           2.75307776232415     -0.47739463745354     -0.57933653318369
  H           1.62147103443897      1.32948455420417      3.20179071646446
  H           1.86798292821312     -0.89399688164184      3.75890976021574
