46
Coordinates from ORCA-job goat_0_91 E -1252.754374684213
  O          -0.79724285696655     -1.39032624211235      2.15954132790405
  C           0.15659191306106     -0.55395287100678      1.52026910177417
  H           0.41089418734697     -0.96433348596078      0.53507361829960
  C          -0.35633922466206      0.87151883973082      1.36890770275032
  H          -0.41573827229500      1.32304644382830      2.36280987796956
  O          -1.67995670513143      0.87054657796662      0.85474730582896
  Si         -2.12137452334026      1.18400945899746     -0.71818127595350
  C          -3.62270844525769      2.28838340917908     -0.67239599048455
  C          -3.31313384338564      3.57854374509748      0.10033537763952
  C          -4.17233408605099      2.60318816681682     -2.07066741532259
  C          -2.33275718538837     -0.45744701796673     -1.59502829429837
  C          -3.61525405180087     -1.16136310369230     -1.12850805482174
  C          -2.26817529310616     -0.35471835799099     -3.12379523293540
  O          -0.85060799469004      2.04036782696052     -1.36150296510420
  C           0.42972660748477      1.54049876043262     -0.98850528345178
  C           0.65304794924394      1.66948033820975      0.51698022100947
  H           0.59589346213335      2.72794401819078      0.79152499339405
  O           1.98811902067060      1.18750131715962      0.71662478879010
  C           2.27707450008481      0.69720996605916      2.00918158856801
  H           3.32862357445219      0.39555235025062      1.95836322756273
  O           2.09146878566164      1.67600903109397      2.99548653677958
  C           2.97843573438507      2.78423985613184      2.85211009206431
  C           1.41311659742405     -0.51880020542933      2.37599629091152
  O           2.21366759667000     -1.68237455765272      2.19845736545857
  H          -1.63466185452664     -1.26039048788085      1.69498874564019
  H          -4.38983970480675      1.73087657049176     -0.11886495430165
  H          -2.93763465576554      3.36927177203183      1.10528228631205
  H          -4.21381369934470      4.19368599488838      0.19616051476510
  H          -2.55825010750354      4.17351414381166     -0.42233072788931
  H          -3.41209141681494      3.07926198397528     -2.69819770266618
  H          -5.01955421667532      3.29320179564274     -1.99950983077442
  H          -4.51942518435027      1.70483810935422     -2.58596711075027
  H          -1.47908784072605     -1.06466740583481     -1.26406349410066
  H          -3.68633834072060     -2.16492965128429     -1.56046700456125
  H          -4.50469765492900     -0.60431211213153     -1.43916163324942
  H          -3.64924192941347     -1.26413183113245     -0.03929079462211
  H          -3.10278331272391      0.22750445746908     -3.52313031588156
  H          -2.31715074285550     -1.35038924863617     -3.57746659261537
  H          -1.34142973517486      0.12071704684703     -3.45564359631350
  H           1.19241355598203      2.12569167346148     -1.50548577203305
  H           0.54532712225747      0.49340493885714     -1.29324360237692
  H           2.76659653593126      3.34679867276500      1.93903222851418
  H           4.01892631948714      2.44099896311462      2.83277900119570
  H           2.82201005308980      3.42575291292026      3.71878262466841
  H           1.11286783737356     -0.42009164957651      3.42438280875958
  H           1.68077152566606     -2.44508091344725      2.45385001794803
