46
Coordinates from ORCA-job goat_0_122 E -1252.758070741880
  O          -1.46270676286085      0.34644578998130      3.28032348433159
  C          -0.59514815594654      0.36678164365903      2.15260116881470
  H          -0.82357535383235     -0.47590961978849      1.49190600229843
  C          -0.71672997599008      1.66447607650105      1.35977631416265
  H          -0.80665488087670      2.48971683077337      2.07269841408918
  O          -1.92478089266473      1.65074130991942      0.60663743425624
  Si         -2.04254355222148      1.39315635799518     -1.02928094530693
  C          -3.34459796090312      2.56722209299454     -1.68217440064024
  C          -4.75453291263767      2.23617413272231     -1.17390118095582
  C          -2.98119123209347      4.02701266182024     -1.38062710876287
  C          -2.43178972115271     -0.39153613472074     -1.46355159134788
  C          -1.18102128185872     -1.24694398437089     -1.70252415291466
  C          -3.33728052694901     -1.04539955479503     -0.40712517354320
  O          -0.54725300812580      1.79744436043183     -1.63180932713966
  C           0.32326919759641      2.55862384134942     -0.79904815991675
  C           0.56878431150648      1.88469918235619      0.53609086573380
  H           1.24069777861121      2.52937453166965      1.11337111594098
  O           1.22013893097619      0.63485274546125      0.28998896314135
  C           1.76692180300301      0.06641016255825      1.46184434579252
  H           1.90086267555293     -0.99607816535097      1.22924105979984
  O           2.99461582868056      0.64711205416391      1.80670223101309
  C           4.03139410218106      0.35522739745502      0.87182961921311
  C           0.82761993556477      0.21407592906775      2.66054317793786
  O           0.97628223507139     -0.93921063014897      3.47390331556212
  H          -2.36083594578302      0.19547686156574      2.96425005305832
  H          -3.33568388083608      2.42988521324648     -2.77262320152132
  H          -4.80259803833135      2.28384896737201     -0.08111997600762
  H          -5.07591185389310      1.23801080727465     -1.48143860273530
  H          -5.48151173129727      2.95471036827620     -1.56732170388901
  H          -2.93464181074562      4.20467003155931     -0.30169631115572
  H          -3.73410569288281      4.70521705559991     -1.79621691869637
  H          -2.01360390790404      4.30149702247573     -1.80912508418827
  H          -2.99590615902979     -0.34244446855555     -2.40523887774311
  H          -0.56269333861082     -1.30250903666944     -0.80201381563034
  H          -0.55898538159201     -0.84032063103039     -2.50289576102264
  H          -1.46503819449407     -2.26901320947895     -1.97598206012851
  H          -3.64242805258758     -2.04511767686720     -0.73337652448830
  H          -4.24367415949340     -0.46647201450818     -0.21454748198507
  H          -2.80945432476647     -1.15510431063992      0.54425591749763
  H          -0.08363597070492      3.55942991461578     -0.61693487523297
  H           1.27456144247770      2.66508522537973     -1.32408003956264
  H           3.81533427008985      0.79442729550244     -0.10564267877050
  H           4.15618765364010     -0.72821489239114      0.76301145858339
  H           4.94817859606313      0.78862093640496      1.27073249593773
  H           1.10776043787654      1.11215453843772      3.22709771626013
  H           0.26185546217416     -0.91205700927436      4.12375079986090
