46
Coordinates from ORCA-job goat_0_67 E -1252.759563655920
  O          -1.46839283127986     -0.12962168648406      3.48789454826456
  C          -0.62573862057029      0.05066552787239      2.35355974845064
  H          -0.75530423722930     -0.78569281452936      1.65932931367205
  C          -0.93017026776988      1.34868228863228      1.60446413730626
  H          -1.23610257765288      2.10425621628149      2.33568988021138
  O          -2.03829520459031      1.12277151129705      0.74048738270439
  Si         -2.08957205959585      1.34320482874677     -0.90139302378865
  C          -3.52449623807097      2.48741716700836     -1.26403282521003
  C          -3.32732071934407      3.85389833659928     -0.59377614501519
  C          -3.75734928496312      2.64597649318522     -2.77268638300954
  C          -2.24079554123289     -0.27886971159031     -1.81569690307162
  C          -1.05949225257867     -1.21822825180119     -1.54784420450916
  C          -3.57527084407004     -0.96678604730012     -1.49160491033969
  O          -0.63948680222515      2.03999793004248     -1.31408742529312
  C           0.09782026667745      2.71767126397674     -0.30130036122509
  C           0.34859735791144      1.85052714303888      0.91585307138580
  H           0.89957082700252      2.46558780582834      1.63653167582265
  O           1.16030727187620      0.73727664667785      0.53250578058644
  C           1.75601687718900      0.10452591800949      1.64731723732764
  H           1.98641032283445     -0.91389136059480      1.31469134691016
  O           2.92616673848708      0.75760528222566      2.05714342010002
  C           3.98962112126297      0.63993953156510      1.11427191280077
  C           0.81060366215736      0.05265370901853      2.84862333835822
  O           1.11147156155256     -1.12271325273267      3.58447586054974
  H          -2.32325214680860     -0.45091384813688      3.18047721075773
  H          -4.41290197242977      2.01473414640206     -0.82435624548326
  H          -2.47368249814691      4.38177507986055     -1.03046438896321
  H          -3.15042594011951      3.75927062781603      0.48138556938011
  H          -4.21034335762930      4.48599380853142     -0.73504843609301
  H          -2.87161585146939      3.06215017286424     -3.26439711128683
  H          -4.59156311959855      3.32864907074970     -2.96608939938868
  H          -3.98881376066897      1.69209858093062     -3.25400785669883
  H          -2.23809698893947     -0.02115668609436     -2.88337554433582
  H          -0.10380192326990     -0.74962546677294     -1.79255639850311
  H          -1.15386578644585     -2.13278181457794     -2.14306579780768
  H          -1.02504336425336     -1.51359202529965     -0.49507877524298
  H          -3.67256344899755     -1.90299084135726     -2.05103725925718
  H          -4.43399828597212     -0.33795163602662     -1.74211775190167
  H          -3.63922135845535     -1.21157188472777     -0.42621207370723
  H          -0.42564119032836      3.62475371145765      0.02072909714092
  H           1.05800873334607      3.01060260389729     -0.73077905136743
  H           3.74010932967802      1.14002664119737      0.17466512213688
  H           4.21176896590557     -0.41488461367242      0.91617909747401
  H           4.86189954124157      1.11774570084097      1.55960694206004
  H           0.97834165043836      0.93922003870733      3.47418140671569
  H           0.40985424714551     -1.22215584156270      4.24120517138275
