46
Coordinates from ORCA-job goat_0_14 E -1252.762976516069
  O           0.28872904246769      1.82352716223078      3.76494186234630
  C          -0.39754460918036      0.91683711230632      2.91610403874409
  H          -1.32937904958460      0.57589501900499      3.38258043979204
  C          -0.74754127370546      1.69088428597864      1.64700718494645
  H          -1.19840683663597      2.64789993238472      1.93008714235531
  O          -1.68632963608927      0.90279475705455      0.91462335031730
  Si         -1.94450297443009      1.10080376134244     -0.72612051329374
  C          -3.55995570276353      2.01676399091082     -0.94804518837268
  C          -3.50093224612272      3.37146532024064     -0.22633063255677
  C          -3.93802916951248      2.20223700554372     -2.42364591136869
  C          -1.87999237705151     -0.60193050518501     -1.49365616034844
  C          -3.12501665885582     -1.42325705452492     -1.12924332745404
  C          -1.64179298667585     -0.58751809131255     -3.00936898167572
  O          -0.69292430902955      2.01541671576856     -1.30857294899472
  C           0.21854070039232      2.70485061056111     -0.45844619960069
  C           0.51028743585709      1.95657026849071      0.82734384895688
  H           1.19056318890864      2.56825089423688      1.42839638695844
  O           1.13349777830893      0.71869048284768      0.47687470718109
  C           1.57503189832695     -0.03145290326483      1.59231020214116
  H           1.92990016456107     -0.97546125112394      1.16293908545850
  O           2.61060851993974      0.60766552838946      2.28547196536012
  C           3.79183912291922      0.75708953666062      1.50225907585710
  C           0.43595729038838     -0.32743231317822      2.57418599003004
  O          -0.40240134472855     -1.34339133702316      2.03599481269177
  H           0.59750988330953      1.33981595624907      4.53935413511224
  H          -4.33370705246939      1.40430173820243     -0.46658578605644
  H          -3.29136299993625      3.25759290137514      0.84067523540167
  H          -4.45414976625876      3.90143100873828     -0.32439681913068
  H          -2.72339297265733      4.01103344624869     -0.65643017073540
  H          -3.14905661854068      2.72808820918664     -2.97133453105043
  H          -4.85312846837577      2.79741347805070     -2.51245557612197
  H          -4.11417880196054      1.24701920752586     -2.92337997349104
  H          -1.00629962587676     -1.07410347703721     -1.02457816040609
  H          -4.02460100447423     -0.99104583629124     -1.57856546955891
  H          -3.28154003516233     -1.46932625922563     -0.04697179738964
  H          -3.03225695321398     -2.45036590257902     -1.49691041473287
  H          -1.50835998432675     -1.60855335198789     -3.38230634058067
  H          -0.74912806552335     -0.01403914664956     -3.27154265676592
  H          -2.48958160123699     -0.15300890943467     -3.54532095452583
  H          -0.18192305592584      3.69186818389200     -0.20157073324751
  H           1.14912055367749      2.84198670325736     -1.01401597682505
  H           3.63343317654794      1.45566399050269      0.67604699410166
  H           4.11107651383563     -0.21110503450134      1.09904385360949
  H           4.56364255448134      1.14772830407293      2.16511038849634
  H           0.87840959616413     -0.72964627899123      3.48943703910415
  H          -1.01678123978116     -0.90369785894419      1.42926748532178
