46
Coordinates from ORCA-job goat_0_17 E -1252.766936358890
  O           0.17611150105563      1.44192212323518      3.77348767787040
  C          -0.39970943036735      0.59597855557502      2.78753287535836
  H          -1.32768152164880      0.19696474424852      3.20411011228375
  C          -0.74429266180978      1.39782530275717      1.52721923400364
  H          -1.27424621393541      2.30841386094575      1.82803665085622
  O          -1.59184744847488      0.57788010802226      0.71231821836987
  Si         -1.99522378001105      1.15812235932909     -0.80462405594922
  C          -3.24525963231083      2.53371678699029     -0.59844695471953
  C          -3.70116882866700      3.09614778865917     -1.95166198700067
  C          -4.44379313398071      2.07534220464711      0.24311539648955
  C          -2.56262763069824     -0.26370692935946     -1.87277491783461
  C          -2.24123491019392      0.00298285579020     -3.35260065639598
  C          -1.96482154446894     -1.60340831564533     -1.42209842291614
  O          -0.57496528112158      1.76081194594093     -1.41828864003809
  C           0.25219408787266      2.51274256961497     -0.53163211844953
  C           0.52764489769638      1.79160702468632      0.77691852936755
  H           1.09896904947307      2.47971226468922      1.41012999916532
  O           1.31548955923690      0.63479995024670      0.47594827082470
  C           1.72241237934784     -0.09000578682816      1.61623343626557
  H           2.28869472087839     -0.94083490927882      1.22394847781831
  O           2.52705985597824      0.68271207683079      2.47692029447436
  C           3.74575839976218      1.12372564761988      1.87720288060287
  C           0.52465731262394     -0.57750535598196      2.43647912522405
  O          -0.16629739356333     -1.58929959926361      1.72204191387353
  H           1.12219626642007      1.52019578915189      3.57890449737186
  H          -2.73134752418006      3.33610390009398     -0.05228468599469
  H          -2.85592460444824      3.42302590440403     -2.56412898187253
  H          -4.36459770386395      3.95539864360973     -1.80828699942901
  H          -4.25754962266549      2.34467094276224     -2.52060187287961
  H          -5.15781298417933      2.89471152597783      0.37723340301244
  H          -4.13477663222780      1.73150601553268      1.23369156104029
  H          -4.97685547515906      1.25288635874447     -0.24551003595963
  H          -3.65325361951280     -0.31850927377354     -1.76468204876428
  H          -2.63952371079790     -0.80357492653456     -3.97646584283398
  H          -1.16052181535344      0.04715392452179     -3.51239200807505
  H          -2.66933845907591      0.94341928758176     -3.70830846819949
  H          -0.87043811054877     -1.57037038390010     -1.42342383899714
  H          -2.27189181986845     -2.40460141085152     -2.10227880813315
  H          -2.29514880611915     -1.87614246399141     -0.41676745074714
  H          -0.21327066226051      3.47830594255124     -0.30163676928642
  H           1.19926014201868      2.70044529126724     -1.04153054941361
  H           4.29600308165072      0.26841038652010      1.47132014828450
  H           4.33080273183237      1.59663297578590      2.66493541895200
  H           3.55336246367313      1.84437237031492      1.07851385011782
  H           0.90010899885488     -1.02562771033759      3.35904356414991
  H          -0.73135448686264     -1.13881036290218      1.07540057811258
