46
Coordinates from ORCA-job goat_0_82 E -1252.755198447316
  O          -1.01990793903867     -1.41197789565094      2.44902233009208
  C          -0.02027290319794     -0.63669115789279      1.80114507693997
  H           0.42022205932981     -1.29484733979181      1.04791765466392
  C          -0.56825929656945      0.61095669084239      1.12154000628584
  H          -0.92895051306009      1.29642492517186      1.89766339580953
  O          -1.66759993546577      0.24870573023070      0.29957635054324
  Si         -2.10373534271354      1.04260108573549     -1.09023097857288
  C          -3.17015770833261      2.54276890704454     -0.77175522821228
  C          -2.49648313605661      3.52410818605528      0.19630067051658
  C          -3.54189150027261      3.23810652569300     -2.08988524698166
  C          -2.93200491463884     -0.22097223584545     -2.18642143778055
  C          -1.99467053696061     -1.39589668159988     -2.49516637138614
  C          -4.25205074801732     -0.71045240353054     -1.57341577538287
  O          -0.65829880866672      1.56715866028985     -1.73014935648354
  C           0.51760271910841      0.99879094109132     -1.16230065850063
  C           0.58191349354120      1.29397124760005      0.33101798070355
  H           0.52239454711456      2.37759366941494      0.47173422025558
  O           1.86639573546723      0.82587137867461      0.74810135389672
  C           2.03676528656888      0.76756486535208      2.14884214402702
  H           3.06536603534389      0.41903318087501      2.28940982978485
  O           1.85063839257614      2.01880532097665      2.75201605860161
  C           2.82013852986925      2.98261670488778      2.34281705526992
  C           1.05690005793808     -0.22024367637338      2.79468670530795
  O           1.79837060814909     -1.34493619310894      3.25012003138975
  H          -1.49869348745510     -0.83955238828609      3.06239615342930
  H          -4.09264185286815      2.17560647589503     -0.30383818536497
  H          -3.13808293692303      4.39432457573807      0.37057093025248
  H          -1.54831113331438      3.88875928247850     -0.21041949467868
  H          -2.29137605592646      3.06433947097672      1.16673878538668
  H          -2.64696238385573      3.59166437556486     -2.61225239068239
  H          -4.17822070244726      4.10881161335777     -1.90030468727741
  H          -4.08273568124745      2.57069977197666     -2.76644711337365
  H          -3.16004669995301      0.29313083872887     -3.12930963510924
  H          -2.48425150050689     -2.11555451747159     -3.15977278560211
  H          -1.71629585875744     -1.92577943810689     -1.57919503496408
  H          -1.07469506443436     -1.06249133792059     -2.98307949515160
  H          -4.07751310498937     -1.20423047893507     -0.61208495639499
  H          -4.73847484175315     -1.43606194083526     -2.23361280357496
  H          -4.95418357803618      0.11091726131032     -1.40550849117384
  H           1.38386231744242      1.45266829930106     -1.64713069360626
  H           0.55497257047073     -0.08293947976386     -1.33207301754233
  H           3.83304392326226      2.60568470464803      2.52327683427636
  H           2.64967590996401      3.87465983530300      2.94476730347634
  H           2.71065551180824      3.23066535933699      1.28374353763544
  H           0.57364998306871      0.28102890492248      3.64255134541481
  H           1.15815048443597     -1.98916162436104      3.57865808383750
