46
Coordinates from ORCA-job goat_0_213 E -1252.759969093996
  O           0.81122430783111      2.40999922409826      3.08134019316227
  C          -0.05569376132825      1.45408408966548      2.48734193606791
  H          -0.92783628836398      1.27095013326705      3.12448082081873
  C          -0.54312384588666      1.94257757613957      1.12140980390352
  H          -0.94267643937602      2.95747324646025      1.22596806414529
  O          -1.57370271705633      1.04762456158660      0.68996291386451
  Si         -2.11680991789802      1.07036965810038     -0.89163633839890
  C          -3.62175223027070      2.17384090042705     -1.01398246736558
  C          -4.80233418699274      1.58439804771907     -0.22834864433697
  C          -3.32370643067942      3.60731739633501     -0.55437099197654
  C          -2.47905780049389     -0.68060530861034     -1.43043356131383
  C          -3.19097868331051     -0.69540901687799     -2.79260775140054
  C          -1.21675490035936     -1.55132059035730     -1.47322401850063
  O          -0.87367482768636      1.67484258843995     -1.80321442357427
  C           0.19572152364297      2.43461516329184     -1.24741282269640
  C           0.61479194280021      1.96523364383908      0.13209238120743
  H           1.37256845366826      2.66111019589197      0.50575312931937
  O           1.17018637587261      0.65366272179539      0.00103800793117
  C           1.71614185089365      0.13920674468055      1.18582372346902
  H           1.98413309081040     -0.89936972897895      0.95957633790507
  O           2.87805692924856      0.87851628629090      1.49773545137897
  C           3.84238016789095      0.13173456437224      2.22849868979340
  C           0.70021541145720      0.13070118988355      2.34149268791303
  O          -0.22048210965262     -0.93947166854150      2.15568775892234
  H           0.28236644166110      3.17759274698042      3.32854920616406
  H          -3.89331304455360      2.20480786643314     -2.07728056018360
  H          -4.55948244727770      1.50220130668602      0.83614970267304
  H          -5.07816720131526      0.58843897885119     -0.58541877147184
  H          -5.68453409789667      2.22709641677233     -0.31666956417219
  H          -3.07644620271082      3.63355990235453      0.51138850742788
  H          -4.19929540789234      4.24845721314141     -0.70139236665267
  H          -2.49012114549314      4.05053269391243     -1.10609831786624
  H          -3.16438081002600     -1.09689646389685     -0.68015654435472
  H          -2.56213386445239     -0.24537553667996     -3.56798519549661
  H          -4.13718140986981     -0.14894257978568     -2.77084171286063
  H          -3.40582062735692     -1.72397049053616     -3.10009129333976
  H          -0.70273372495856     -1.58421882569541     -0.51073187287651
  H          -0.50707445473873     -1.16869431338955     -2.21236990109375
  H          -1.47211955578567     -2.57816437707174     -1.75557947673399
  H          -0.09207094675757      3.48934234703102     -1.17634218937104
  H           1.04663520472619      2.35398508456471     -1.92744704044281
  H           4.12248629166626     -0.77794694724366      1.68425034382232
  H           3.47600316398466     -0.14585090587830      3.22258371236581
  H           4.71858952890707      0.77005559846674      2.34113123582954
  H           1.23545224801871     -0.06790815476859      3.27194499669377
  H          -0.88954385263962     -0.62393317916625      1.52969622170164
