46
Coordinates from ORCA-job goat_0_32 E -1252.764269467194
  O           0.19749732055409      1.60155698912389      3.65786166490578
  C          -0.41985889900969      0.70887265704058      2.74356849020738
  H          -1.33032654797372      0.27725236014139      3.17602711844194
  C          -0.81128474333987      1.53969411243985      1.52388992298984
  H          -1.32247075700046      2.44482679424038      1.86709082935008
  O          -1.69301353370315      0.74207033932865      0.72942241710716
  Si         -2.07001098074197      1.17607370630912     -0.84056776920628
  C          -3.65975695087590      2.16317413486768     -0.85566648461475
  C          -3.55037574954923      3.43317791706562     -0.00081695263537
  C          -4.08315075056512      2.50771914355576     -2.29097057658353
  C          -2.19443251990187     -0.37194795020263     -1.87597322815229
  C          -0.85424743688925     -1.10211744381583     -2.02454250453451
  C          -3.28140712972778     -1.30914708567323     -1.32705540885180
  O          -0.80943868948277      2.10307519404131     -1.38322080476910
  C           0.09839760145484      2.75602739244530     -0.49971811498690
  C           0.43019331960675      1.93853241041432      0.73388418281721
  H           1.06554480872133      2.55223387561178      1.38085032084931
  O           1.13654721895874      0.77060473770496      0.31232279481430
  C           1.61918792820855     -0.01840490100619      1.38151578004824
  H           2.03977185428678     -0.90723165322072      0.89713349930828
  O           2.60536791197474      0.64207273644255      2.12598941585926
  C           3.77535346365187      0.92796205672124      1.36432499346526
  C           0.49698557008310     -0.45208196218833      2.33208269969912
  O          -0.27059852497257     -1.48378396688070      1.72363344870368
  H           0.55626352090126      1.08684943262274      4.38960352877153
  H          -4.43080657134532      1.51845992860158     -0.41400283975826
  H          -2.76695088580519      4.09745791540805     -0.37923820782392
  H          -3.32435896275116      3.20509809958342      1.04399336523159
  H          -4.49191527265414      3.99219021934301     -0.02138952903343
  H          -3.31799048810334      3.11004405321893     -2.79189932616971
  H          -5.01112484805376      3.08912629084622     -2.28963883789008
  H          -4.25187586348970      1.61203387928431     -2.89463819363007
  H          -2.50827424815705     -0.03506798275407     -2.87259291171733
  H          -0.49080312270691     -1.46861106126831     -1.06092437811548
  H          -0.08333170783581     -0.45007098792324     -2.44157152084753
  H          -0.96371587655188     -1.96761729712217     -2.68663061588944
  H          -4.25807718642707     -0.81959499683750     -1.27694944016494
  H          -3.02863620470650     -1.65580398929112     -0.31965251513107
  H          -3.38376616024568     -2.19355301867412     -1.96411720548996
  H          -0.31960153964343      3.71502406000528     -0.17447838254635
  H           1.01752463465759      2.95109095600646     -1.05690541362980
  H           4.51896423495155      1.31637763116995      2.05993853137784
  H           3.57251736429347      1.67591095746482      0.59285956964500
  H           4.15815251031959      0.01646923064726      0.89041796317462
  H           0.96021589952789     -0.88224987101523      3.22411870886443
  H          -0.90293300994157     -1.04752504382318      1.13289191654028
