46
Coordinates from ORCA-job goat_0_141 E -1252.756546468345
  O          -1.10908670036066     -1.23441597512525      2.54115772589079
  C          -0.05703740449793     -0.59633226720194      1.83359920927650
  H           0.31491273024187     -1.25992215433168      1.04041020601439
  C          -0.53403355364680      0.69761944498563      1.18913413644447
  H          -0.81994968328544      1.40120776235343      1.97650948217855
  O          -1.69579104284334      0.38871726669701      0.42688422343589
  Si         -2.08174472072038      1.04397631158626     -1.04957348053617
  C          -3.05787483537555      2.62679731397086     -0.88351788920521
  C          -2.30187206340824      3.66896857352393     -0.04901138353358
  C          -3.43698660806930      3.19002655745946     -2.26098563512417
  C          -2.98516146789500     -0.28250662095662     -2.00212831125583
  C          -2.12896754929811     -1.54839898074576     -2.13947182263928
  C          -4.34634666822385     -0.59868640341791     -1.36586613043375
  O          -0.61307217515187      1.40865802809565     -1.74174999039054
  C           0.54645147249467      0.86642559586200     -1.11726764362474
  C           0.61071084534027      1.29794842119489      0.34280126971956
  H           0.55504666177314      2.39049214351804      0.38097856853948
  O           1.89154996603820      0.86832616873128      0.81519681549343
  C           1.99549478167865      0.79217842328647      2.22420629429503
  H           3.04271510506426      0.53131073523932      2.41200910367748
  O           1.66948080179757      2.00704766290450      2.84039886139773
  C           2.58036558228924      3.05796011409378      2.52033139550363
  C           1.07793880380629     -0.30136077640605      2.80188355815135
  O           1.80749684099864     -1.47460205352130      3.13683074849463
  H          -1.85111641942548     -1.30090128593672      1.92585213803174
  H          -3.98192328088609      2.36431853772728     -0.35227006935400
  H          -2.06725575598227      3.29785883022530      0.95268614700901
  H          -2.90005419879349      4.57905313809475      0.06512431718680
  H          -1.36118107687735      3.94931705853412     -0.53245255556228
  H          -2.54325256928484      3.43078243111702     -2.84585240915814
  H          -4.01882112329698      4.11141924048124     -2.15405989247449
  H          -4.03617276707089      2.48246471332731     -2.84079813162073
  H          -3.16058750574030      0.12525255566444     -3.00625975325158
  H          -1.17860865709341     -1.34284807644793     -2.63978948292693
  H          -2.65663991620010     -2.31000580635924     -2.72315212548725
  H          -1.90575916981602     -1.97781149637875     -1.15794323358911
  H          -4.87196464414917     -1.36769192045347     -1.94142057962234
  H          -4.99107240097311      0.28342520760574     -1.32061080968005
  H          -4.22391867645510     -0.97667106463318     -0.34559436950719
  H           1.42507947984249      1.25283505842376     -1.63720719712419
  H           0.55638544084554     -0.22660959691322     -1.18991875968938
  H           3.60545272425994      2.76384255323551      2.77170212248541
  H           2.28978108983166      3.91929534524598      3.12094452303972
  H           2.52921381054459      3.31912040682895      1.45997582680939
  H           0.65705210401205      0.06660596001854      3.73921190278618
  H           2.12507439396192     -1.87823708120349      2.31933307992979
