46
Coordinates from ORCA-job goat_0_48 E -1252.764057378370
  O           0.56113544568166      2.29619408209542      3.38399179024897
  C          -0.27137504420522      1.36059968614701      2.71323767990386
  H          -1.20476156409817      1.20689320288602      3.26575368954920
  C          -0.61493571094633      1.85582998511376      1.30545455460396
  H          -0.98211967231007      2.88606608080924      1.37228557041148
  O          -1.63888601651130      0.99997010046270      0.78759203588667
  Si         -2.04354541813077      1.03804039740622     -0.83473932100392
  C          -3.47557996827159      2.21293217876971     -1.09370039089616
  C          -4.74101713965754      1.70264541834895     -0.38926399906497
  C          -3.14061994378593      3.64189387351980     -0.64561077309200
  C          -2.44299795694480     -0.69850174502515     -1.39435945573863
  C          -3.05401824137285     -0.69356203509047     -2.80462127162497
  C          -1.22033140049518     -1.62339911445026     -1.33990090628202
  O          -0.69788863566568      1.57431312688812     -1.63825302462606
  C           0.34430422638388      2.30139056477937     -0.99387607161203
  C           0.62424476323012      1.82636995264820      0.41898089389114
  H           1.37320141293385      2.49613054049295      0.85436890279462
  O           1.13529880918892      0.49483390863891      0.34354476781076
  C           1.56542560346223     -0.01975412811234      1.58836330029998
  H           1.82314654875176     -1.06419842199463      1.37803248323504
  O           2.68064731491941      0.66495918014987      2.08790563538032
  C           3.82710080103775      0.54162384600458      1.25078396887091
  C           0.45364263569377      0.01294309593756      2.64514568626035
  O          -0.48140952803585     -1.02544403316244      2.37613270147233
  H           0.03120882120857      3.07858298476976      3.57664544197129
  H          -3.66405811189278      2.23055457255189     -2.17515735677666
  H          -4.58558301585420      1.63943627499115      0.69268543390262
  H          -5.03731334266525      0.71098749417801     -0.74226096954116
  H          -5.58114715355547      2.38325627498344     -0.56268530790582
  H          -2.96827897479745      3.68500521828624      0.43420839434601
  H          -3.97117502581278      4.31971171757613     -0.86939972619235
  H          -2.24974264285204      4.03066153825158     -1.14632544681847
  H          -3.19895885256905     -1.07879165649381     -0.69441464877650
  H          -2.35356342337817     -0.27399440332206     -3.53434396206826
  H          -3.97660485862743     -0.10977636679045     -2.85276211045221
  H          -3.28758125514572     -1.71468613667021     -3.12307963175390
  H          -1.49871487977610     -2.64083107579986     -1.63417867386938
  H          -0.78019263144939     -1.66939108066954     -0.34184533780729
  H          -0.44266365538411     -1.27789948019570     -2.02708349904512
  H           0.08914965636315      3.36606233042021     -0.95394503299211
  H           1.24868616222048      2.18531397410481     -1.59547951408930
  H           3.68396142020397      1.06710648415929      0.30257802199891
  H           4.04420182736100     -0.51379923256255      1.04830213178431
  H           4.66223185863324      0.98780811872612      1.79049395641171
  H           0.90385126566744     -0.19844318669361      3.61682860659690
  H          -1.08242450874983     -0.68939410706390      1.69423078439809
