46
Coordinates from ORCA-job goat_0_189 E -1252.758373606837
  O           0.45194032432573      2.07624360309933      3.37575084198670
  C          -0.22589080362784      1.13377610310594      2.55606994982186
  H          -1.13639061990583      0.77525336193837      3.04832839157414
  C          -0.61624445905241      1.76101733122355      1.21497587250744
  H          -1.13287875578244      2.71062731396678      1.39943148548308
  O          -1.49600596007215      0.84281983956202      0.56249746832108
  Si         -1.87628776413409      1.02445487305116     -1.05403215060129
  C          -3.41314897305120      2.08788456488856     -1.22410044474518
  C          -4.43358901183243      1.79330285280189     -0.11433155596659
  C          -3.07821709170180      3.58618961874195     -1.25865748807547
  C          -2.02548780745868     -0.68495359799260     -1.78487843774864
  C          -3.12590773272667     -1.52271416617824     -1.12011640305458
  C          -2.21656073753949     -0.63064485216858     -3.30692425678245
  O          -0.56712372361660      1.76266480402344     -1.75454669879500
  C           0.30011995569792      2.60027496829334     -0.99346659590869
  C           0.62720360791917      2.02751813006775      0.37322772714839
  H           1.25126269960575      2.75448752656487      0.90222910139482
  O           1.35414886325785      0.81219292952349      0.16521828266571
  C           1.82856592343348      0.21577939318135      1.34242633218344
  H           2.26466355313570     -0.74114054856417      1.03277676810760
  O           2.83013749519596      1.04569666412213      1.89026820492900
  C           3.77636258024251      0.33974504968245      2.68256343103938
  C           0.69085812768199     -0.07261716879419      2.33447082012461
  O          -0.06328521140870     -1.18782751405647      1.86990179816652
  H          -0.19317499037578      2.72989307287376      3.67003204263058
  H          -3.86664160085505      1.82059423599424     -2.18786465120109
  H          -5.34603418013218      2.37898707510308     -0.26824341396544
  H          -4.02608792742965      2.06180553785757      0.86481605273787
  H          -4.71679728131202      0.73865638856679     -0.07641873715543
  H          -2.62209103684311      3.91046683303905     -0.31755701110013
  H          -3.98786305646774      4.17913877175616     -1.40155145914272
  H          -2.38494826382558      3.82958877886492     -2.06729278898127
  H          -1.05747816337666     -1.15969567263146     -1.57495868274750
  H          -4.11676591835523     -1.11203621517651     -1.33564103317149
  H          -3.00845493613496     -1.56626068073062     -0.03337103272974
  H          -3.10744756223494     -2.54922400856124     -1.50072430936769
  H          -2.22683286091079     -1.64071215672657     -3.72948682381397
  H          -1.41686942163934     -0.06942308341131     -3.79802294750941
  H          -3.16855531264558     -0.15654250297913     -3.56632576015950
  H          -0.15009120230143      3.58936298929941     -0.85640077585868
  H           1.22488056808342      2.71761874308129     -1.56241412983300
  H           3.31898075788850     -0.08394391670125      3.58288389320400
  H           4.53951237926983      1.05895425664641      2.97959092893828
  H           4.24201852282785     -0.46708875456335      2.10427705880016
  H           1.12572728364343     -0.36089604397861      3.29323767719040
  H          -0.65928027545839     -0.85302472770701      1.18261345945981
