46
Coordinates from ORCA-job goat_0_217 E -1252.756962383277
  O          -1.45667179084069     -0.13082104645563      3.54233989685576
  C          -0.60204672552932      0.11791366549045      2.43736903876168
  H          -0.86020577019028     -0.64409354032539      1.69612063518294
  C          -0.85388246880865      1.49758079527711      1.81958801618129
  H          -1.01547457434002      2.21236984329995      2.63434850850608
  O          -2.05313243171781      1.47717695360045      1.05414673339748
  Si         -2.08436637832375      1.40202014111722     -0.60523690521178
  C          -3.66115172576849      2.26514448779552     -1.11704826493905
  C          -3.65869028006607      3.71066213449246     -0.59860732459570
  C          -3.88354576570010      2.23382157799833     -2.63525885999559
  C          -1.90743377819964     -0.36286672595195     -1.20245579417296
  C          -3.18025968828916     -1.17259786536626     -0.92035852818268
  C          -1.47322315887411     -0.48357350949681     -2.66895017328124
  O          -0.75636177019663      2.26865273319664     -1.10660433208006
  C           0.04848529086555      2.89736602169438     -0.11434886777704
  C           0.38327853189729      1.96030497519159      1.03157614659067
  H           1.05196227280732      2.49728532689659      1.71330147263334
  O           1.06395215662406      0.82289845393036      0.49498001230692
  C           1.71028129116828      0.06885130407322      1.50077614499664
  H           1.83759208905469     -0.93200279365474      1.07003178346621
  O           2.95656065053272      0.60970247453102      1.84145150376746
  C           3.91948464302424      0.49753293491090      0.79536909149721
  C           0.87832997938716     -0.02246413806581      2.78865947728388
  O           1.17653889933886     -1.21502868617101      3.49378372523721
  H          -1.23546479361751      0.49590481283564      4.24284595378921
  H          -4.48674001619035      1.72487236345017     -0.63542939776765
  H          -3.53493181054138      3.75346814519400      0.48638874235407
  H          -4.59763554363761      4.21342100531808     -0.85325592461585
  H          -2.84360847136706      4.28390694581053     -1.05202727003633
  H          -4.01940824330070      1.21659877708251     -3.00873677923419
  H          -3.03681090323891      2.67755077376100     -3.16947395149752
  H          -4.77712422071848      2.80786653985255     -2.90257133350155
  H          -1.09710804107658     -0.77417908746894     -0.58698062514816
  H          -3.46835236531399     -1.12057580884750      0.13413851207975
  H          -3.03441091302524     -2.22762117051836     -1.17494064413914
  H          -4.02207000148048     -0.80354707536182     -1.51453448927994
  H          -1.28659874499701     -1.53185576136499     -2.92612020007803
  H          -0.55621162249508      0.07849235723129     -2.86323471454570
  H          -2.24364536917780     -0.11350047266454     -3.35025091078313
  H          -0.45676051708649      3.78148543954498      0.29106330479578
  H           0.97506604924195      3.21806098626948     -0.59489827228438
  H           4.04571228858586     -0.55073675238767      0.50142032151901
  H           4.86073337620310      0.88070690517499      1.18871387040022
  H           3.62297580331322      1.08529039798090     -0.07742692077352
  H           1.17371285228584      0.79354836596698      3.45628959386471
  H           0.80261170977927     -1.95874320486773      3.00430799845361
