46
Coordinates from ORCA-job goat_0_5 E -1252.767015161952
  O           0.29116798132623      1.53241548567597      3.78944984585936
  C          -0.31384383275204      0.64913401192886      2.85523852537175
  H          -1.21999494738729      0.25470182046285      3.32138549963265
  C          -0.71419267814032      1.40682094743139      1.58425561281386
  H          -1.25044491543521      2.31605713856955      1.87675250401005
  O          -1.57142833775906      0.55019873983044      0.81793341554902
  Si         -2.01667336468280      1.06328424185716     -0.71408125802703
  C          -3.32650070381749      2.38414331510312     -0.50541153207813
  C          -3.47802754094178      3.30178649694492     -1.72495225719264
  C          -4.66865838761173      1.76657266784058     -0.08692952411688
  C          -2.49971549665863     -0.44195492995754     -1.70130476577419
  C          -3.08858761641682     -0.07015108376067     -3.07054030576317
  C          -1.31326182097488     -1.40208586713875     -1.86912979237748
  O          -0.63898513897292      1.71130632509405     -1.37315237831046
  C           0.19610542733199      2.49616016360881     -0.52476458626582
  C           0.52622391962188      1.80046041423744      0.78488202766079
  H           1.11198351162689      2.50567568689332      1.38523469194302
  O           1.31251341971339      0.64405287316468      0.47937884352028
  C           1.76638253960731     -0.05307718203798      1.61920171604391
  H           2.32025849297874     -0.91088025264078      1.22429982122890
  O           2.60172922688983      0.74288754905491      2.42855738614643
  C           3.78980363331476      1.17963994126090      1.76756582046112
  C           0.60798643480757     -0.52555440747121      2.50387263815869
  O          -0.10602229058668     -1.56562291456419      1.85493004574291
  H           1.22851662599075      1.61082299599935      3.55642798924634
  H          -2.96970617259603      3.00231867004533      0.33007940081421
  H          -2.52598513825690      3.76225399304459     -2.00147715343272
  H          -4.19230275351354      4.10467927700599     -1.51348494286221
  H          -3.84926394501691      2.75513226361719     -2.59582629696105
  H          -4.56484999020853      1.13426010715051      0.79989173873741
  H          -5.08685447685063      1.15071613578294     -0.88900308267892
  H          -5.39989763436573      2.54818386534789      0.14363283105094
  H          -3.27942801038914     -0.94997838183916     -1.11853437300750
  H          -4.00840978245551      0.51112694541927     -2.97906822944084
  H          -3.32280047949686     -0.97571935079276     -3.63950139510236
  H          -2.37740549095544      0.51530243836340     -3.66204737785125
  H          -1.62869622364353     -2.30529662145935     -2.40142615389672
  H          -0.88841122499745     -1.71149257972039     -0.91167912722089
  H          -0.51428393998896     -0.93376002346002     -2.45089477188696
  H          -0.28589161531636      3.45393285417462     -0.29410110606852
  H           1.12247594577744      2.69831249798672     -1.06626095275370
  H           3.55781007199902      1.88532473437108      0.96608514751353
  H           4.32665439345011      0.32036283802117      1.35224001551235
  H           4.40643644265219      1.66911964838376      2.52033250423094
  H           1.02823281938372     -0.93924536262329      3.42330853234788
  H          -0.72980693628263     -1.13607812620670      1.24889480947312
