46
Coordinates from ORCA-job goat_0_131 E -1252.754501946474
  O          -0.84115597549213     -1.28950979676399      2.73229757306458
  C           0.15216501515305     -0.57051374297198      2.01736051278266
  H           0.61236017439536     -1.22041725079476      1.26001388158399
  C          -0.44923355791477      0.63755286219632      1.31235128596439
  H          -0.83401073009154      1.32877212659095      2.06835602922332
  O          -1.54664460118112      0.16925940121982      0.53472489147184
  Si         -1.99725822206510      0.77500635522639     -0.94756340816980
  C          -3.17632044848214      2.21274745688718     -0.76309873750206
  C          -2.58207338063318      3.29181174879169      0.15305769865729
  C          -3.58449997293295      2.81053231947376     -2.11683499640648
  C          -2.67218958871347     -0.68326990711992     -1.90416248204633
  C          -4.09666970926368     -1.03701480688096     -1.45359731828586
  C          -2.59769293055503     -0.50049394559351     -3.42589532560653
  O          -0.58092825212814      1.34771377614182     -1.60689255216018
  C           0.62379271333730      0.90496382592336     -0.98812462367038
  C           0.64313089315161      1.33839950739172      0.47190877572524
  H           0.48801009901867      2.42122802326534      0.50751876705745
  O           1.95327404141861      1.02753459760540      0.95441173555187
  C           2.06090017692689      1.01847065109643      2.36525890021959
  H           3.12395104524365      0.84194893073620      2.56158978222982
  O           1.64834294898948      2.23217335733030      2.92988366700445
  C           2.48284618100069      3.33028385822625      2.56316123122486
  C           1.22373353514277     -0.11227080547269      2.99306306260675
  O           2.04172536377907     -1.18933373990370      3.43021396088946
  H          -1.55963422764207     -1.45491368573703      2.10786926193628
  H          -4.07579995609092      1.81002280720601     -0.27937122137748
  H          -1.66625627722980      3.70999904867594     -0.27571788644205
  H          -2.34077103752740      2.89958585455626      1.14452626700507
  H          -3.29148796841618      4.11546821883378      0.28491664043174
  H          -4.12275840197333      2.09000797663982     -2.73677337988530
  H          -2.70916333984938      3.15131607062763     -2.67913452473584
  H          -4.23877225030116      3.67634126631476     -1.96982631655328
  H          -2.01087649938460     -1.51734187297977     -1.63375665704748
  H          -4.44219141692278     -1.95182640345515     -1.94612342277688
  H          -4.79833951489511     -0.23783004318007     -1.71203964887717
  H          -4.15585415806936     -1.19654143686119     -0.37269311563405
  H          -1.58187417520910     -0.26825057906518     -3.75559392947256
  H          -3.25231166946394      0.30621067641643     -3.76643709529860
  H          -2.91690488268210     -1.41614493355948     -3.93486303345145
  H           1.46467905830367      1.36909116124746     -1.50664811934747
  H           0.72909196451631     -0.18334225603750     -1.06488507425378
  H           2.13485960822254      4.19286149117817      3.13056798664046
  H           2.41093099940860      3.54450915686634      1.49349568461351
  H           3.52663456350243      3.11834193438910      2.82022458415808
  H           0.74078930352401      0.27828783215936      3.89058689941232
  H           2.42440546007564     -1.61517708683673      2.65293378954616
