46
Coordinates from ORCA-job goat_0_142 E -1252.749223556225
  O          -0.28569454736982     -1.10777623111479      2.81260804661496
  C           0.28151171265964     -0.58575564963361      1.61536541711390
  H          -0.01204450068081     -1.27799072801042      0.82532374787552
  C          -0.31338859142349      0.78989857820652      1.30045651103360
  H          -0.40524990854568      1.34141391332381      2.23895652975745
  O          -1.62325351843371      0.61524937044080      0.77329542923048
  Si         -2.16807583276118      1.11033427167674     -0.71485399673905
  C          -3.11658725286641      2.71305667639275     -0.52453347550941
  C          -3.24509084167217      3.52489570062243     -1.81969341800913
  C          -4.48608679719452      2.47414692009286      0.12656935936858
  C          -3.15245754939852     -0.30909879348718     -1.43069589233645
  C          -3.75322363111452      0.03511993565271     -2.80087556483246
  C          -2.27941451955759     -1.56854632927265     -1.52109021640691
  O          -0.81672154351031      1.40030142687136     -1.63922424743756
  C           0.47178680715311      1.11513369217881     -1.09891154671714
  C           0.55917307208810      1.61275317561092      0.34405235962103
  H           0.18609038729212      2.64326044908850      0.35542147069713
  O           1.93522525629181      1.66894137030631      0.73159981158498
  C           2.35650488357555      0.84141476850828      1.78926853566535
  H           3.45166397750514      0.85777168521241      1.72586916532341
  O           1.93959106774188      1.30428868950534      3.04814698297222
  C           2.46080373846400      2.58886803559719      3.38017053470767
  C           1.81882503222500     -0.57779579289645      1.66025906809101
  O           2.29272243201302     -1.18426647424734      0.46397071372412
  H          -0.05486534457464     -0.50757251229424      3.53300172986704
  H          -2.50437413475649      3.29772201863358      0.17664532305489
  H          -2.26973412355213      3.71223508223067     -2.27554702813143
  H          -3.71519089278135      4.49355096914290     -1.61831993240233
  H          -3.86565413732160      3.00893563453107     -2.55707051499908
  H          -4.98526296949161      3.42474338263494      0.34189031817223
  H          -4.39859901270369      1.92216541368562      1.06735215856473
  H          -5.14131588286615      1.90079748528490     -0.53657833321807
  H          -3.97610321771867     -0.50705812250161     -0.73234757915382
  H          -4.27095227044878     -0.83400476404506     -3.22036339035762
  H          -2.97416196163110      0.32827455983456     -3.51233505518651
  H          -4.47551635056143      0.85215829148608     -2.73902059510135
  H          -1.42350864026337     -1.40370282008199     -2.18367149525851
  H          -2.85443526626456     -2.40777334075094     -1.92646436441811
  H          -1.89392542866283     -1.86569778731509     -0.54298077801032
  H           1.21444689728519      1.64944300321202     -1.69537197717930
  H           0.68626163916169      0.04447941584783     -1.15861996519386
  H           2.16925317000101      2.79158638116180      4.41025387552409
  H           2.04980950070958      3.36138178395026      2.72500924587058
  H           3.55392106048622      2.59076103605040      3.30170044628988
  H           2.14152629305158     -1.14826869323382      2.53633834536820
  H           3.25572174042288     -1.22352507808948      0.50530424050535
