46
Coordinates from ORCA-job goat_0_165 E -1252.761982540366
  O          -0.04265730845891      1.33545450094670      3.78579673984962
  C          -0.58874894287561      0.55703959477200      2.72407850827407
  H          -1.53484674854538      0.14450782526769      3.08098870263361
  C          -0.88363903274662      1.45901468012790      1.51836893735492
  H          -1.32857704772452      2.38200879581707      1.90763254938359
  O          -1.81124602184522      0.79903675344837      0.66869825712716
  Si         -2.04380759678996      1.21306845519255     -0.92162966732361
  C          -3.52252185738990      2.35381969283404     -1.06564907193649
  C          -3.29744822829058      3.67118234973896     -0.31111684524003
  C          -3.88651439796932      2.62249229409686     -2.53242901250194
  C          -2.25771507785381     -0.33634807126500     -1.94049005165161
  C          -1.01378393954289     -1.23233519171342     -1.90778206199812
  C          -3.50901470460927     -1.10946154860768     -1.49688578040335
  O          -0.65851780098635      1.98670930694654     -1.41169493693215
  C           0.18239067908727      2.63820925848725     -0.46495958042285
  C           0.40943194462252      1.83025130271028      0.79906896024349
  H           1.00214076827474      2.45927824100173      1.47299886208390
  O           1.15667773586039      0.66090674094757      0.44823111695000
  C           1.54672859139173     -0.10928556736693      1.56078572569422
  H           2.10254789220076     -0.95475818237618      1.13881513629387
  O           2.36568229668873      0.61819865966488      2.44842009954849
  C           3.58535863636166      1.06921895324632      1.85953227442353
  C           0.35264095753254     -0.60311681638215      2.38518245898754
  O          -0.37055043565402     -1.59993105573917      1.68061554299886
  H           0.90619907819740      1.43544402952247      3.62133310424047
  H          -4.36205577022176      1.82730017967831     -0.59256768578053
  H          -3.05806946392174      3.50587615572234      0.74295738536965
  H          -4.19364478661582      4.29936717600962     -0.35395327030330
  H          -2.47717230629968      4.24175671465976     -0.75765385903299
  H          -4.14586972575107      1.70314115573971     -3.06413339777017
  H          -3.05226020731795      3.09239012666196     -3.06422368124058
  H          -4.74364251431134      3.30095410558497     -2.60075241852692
  H          -2.41301438222155      0.00021000174710     -2.97400167826060
  H          -1.16014576150479     -2.11441357379870     -2.54075834871789
  H          -0.80865778277546     -1.57645735162046     -0.89082290298441
  H          -0.12692406384970     -0.70290226285205     -2.26506928209143
  H          -3.65242442322608     -1.99977859302480     -2.11796832722619
  H          -4.41507782348411     -0.50143281176201     -1.57171446347662
  H          -3.41410527171050     -1.44313552743537     -0.45851478062999
  H          -0.24400881012499      3.60599867350567     -0.17882916987501
  H           1.14567940208232      2.81759110397946     -0.94812796284999
  H           4.18183903462553      1.49962944777839      2.66299496177143
  H           3.39837557338181      1.82683772241898      1.09431703616733
  H           4.12233235613560      0.22593366078240      1.41235916033758
  H           0.73975400399236     -1.00505167906461      3.32741883461555
  H           0.18283328418362     -2.38816942602935      1.63139388282807
