46
Coordinates from ORCA-job goat_0_78 E -1252.757770385859
  O          -1.54396896082055      0.25530446161692      3.53054270898646
  C          -0.66961707706339      0.31030701026862      2.41284292722012
  H          -0.96141800366649     -0.44455983582655      1.67215328667494
  C          -0.78097137443694      1.69056405020774      1.77276102984003
  H          -0.91263073385676      2.42297993286573      2.57516231977917
  O          -1.94654023818592      1.76555425260377      0.95904959783191
  Si         -1.92029701402756      1.65617232262343     -0.69875852261201
  C          -3.37186745601147      2.67792576806985     -1.28922240766388
  C          -3.56866501349176      2.60156201498095     -2.80918636433443
  C          -4.68086573506331      2.37442374112278     -0.54747848176110
  C          -1.84526744692479     -0.12659903716467     -1.26613392780609
  C          -3.14351576034454     -0.89152137885988     -0.97940818671555
  C          -1.41830956060184     -0.28213854440611     -2.73222615164839
  O          -0.49465095090400      2.38265468624257     -1.15891808887653
  C           0.31282884622664      2.96950449841785     -0.14340658948424
  C           0.52485741599714      2.03253727735497      1.03211884003962
  H           1.20350913053734      2.52887404033316      1.73452245819130
  O           1.13850833114041      0.83727588771241      0.54100759727201
  C           1.65827921100430      0.02933754247697      1.57780850576168
  H           1.69232129041495     -0.98556628999440      1.16542953940874
  O           2.94094617020973      0.43639859486266      1.97107799449965
  C           3.93094777148907      0.21603529419747      0.96806450893348
  C           0.77065028601097      0.05325832854364      2.82546935978351
  O           0.81416062538255     -1.19435466565727      3.50675638818848
  H          -1.35578657278304     -0.57371720374760      3.98938159016968
  H          -3.07440943178305      3.70580984859906     -1.03731818365702
  H          -2.64305821475190      2.80612169999143     -3.35554281550039
  H          -4.31794470419101      3.33011543279786     -3.13634507183571
  H          -3.92239833479190      1.61063838533785     -3.10790274839598
  H          -4.55938088327859      2.45029760336651      0.53572613373922
  H          -5.04289938763326      1.36837028157591     -0.77536442699122
  H          -5.46225541774837      3.07996316492340     -0.84997511809276
  H          -1.04947730518774     -0.55924111857927     -0.64570730850343
  H          -3.95940456861178     -0.53013448929787     -1.61202420562138
  H          -3.45725821289656     -0.78839760771129      0.06376706991825
  H          -3.01585250628155     -1.95938335903185     -1.18646641893650
  H          -1.27016623495380     -1.33992063451209     -2.97536149094559
  H          -0.48259852752492      0.24400891974698     -2.93769642248157
  H          -2.17905789571600      0.10603015459935     -3.41443327132290
  H          -0.13851114754386      3.89800765010624      0.22536645813708
  H           1.28083209820010      3.20925969520694     -0.58796275232888
  H           3.73528251713117      0.82576460403601      0.08212158429760
  H           3.95864872795170     -0.84159897395069      0.68218745535678
  H           4.88954187511778      0.50112515077712      1.40082095200328
  H           1.10590513045269      0.85527699912094      3.49282881817778
  H           1.59577524381007     -1.20807615594731      4.07013183130486
