46
Coordinates from ORCA-job goat_0_25 E -1252.764955366273
  O           0.32275143643917      1.69447444270603      3.70891684215195
  C          -0.34372263124538      0.78534411091734      2.84287621853866
  H          -1.23394027134972      0.43114153102601      3.36797636590328
  C          -0.78897197502439      1.50342655105479      1.56274964889110
  H          -1.27585348760311      2.43984520098425      1.84991291922016
  O          -1.71525739562480      0.65138264208488      0.87632085542161
  Si         -2.19375867391055      0.99958997759400     -0.68923362881365
  C          -3.68959190762624      2.12588336239566     -0.66619713016779
  C          -3.43224094582801      3.46563275989356      0.03519633868468
  C          -4.23344888143414      2.35805753910163     -2.08390429235611
  C          -2.55220519542528     -0.59046085218703     -1.61483819828046
  C          -2.15372553279493     -0.46258139837094     -3.09479024850026
  C          -1.88885039457214     -1.82426762510142     -0.99173421280295
  O          -0.88762359870757      1.74154053808828     -1.39237388789531
  C           0.04520239081102      2.49158963696552     -0.62132194561160
  C           0.41853711654346      1.82424746369113      0.68859815656314
  H           1.05866628946255      2.52737409436232      1.23276994794195
  O           1.14869341309876      0.62976804595080      0.38867013478908
  C           1.65432903732766     -0.02222155349515      1.53470045723841
  H           2.16611828234890     -0.91126127176346      1.15239748714613
  O           2.55032382374411      0.79193796653120      2.25486910327441
  C           3.70771822374643      1.16853102300021      1.50783357484890
  C           0.53805505526685     -0.42285327335649      2.50436282315637
  O          -0.22604241196341     -1.48130110883699      1.95193667397227
  H           1.24830026945321      1.74607579288577      3.42731533025625
  H          -4.45295748067843      1.57930248711104     -0.09477508236673
  H          -2.65698077195857      4.03907988013105     -0.48214161444582
  H          -3.12079676729283      3.33538752335692      1.07423167914702
  H          -4.34171398896968      4.07588511217091      0.03774915592437
  H          -4.52663144293706      1.42412690204300     -2.56986905682410
  H          -3.48607092971223      2.84701259475917     -2.71736517808097
  H          -5.11445323494847      3.00760754528348     -2.05263882483090
  H          -3.64024891402011     -0.72757431946291     -1.56700732530597
  H          -1.06960886377154     -0.36253788494713     -3.19401994707842
  H          -2.61173952586673      0.40355002153197     -3.57887318953639
  H          -2.46110446080843     -1.35667222706417     -3.64674368498668
  H          -0.80181563448123     -1.70788170468402     -0.94020743752409
  H          -2.09562163782280     -2.71280622573830     -1.59738911408312
  H          -2.26278784545134     -2.02052238791136      0.01636281143002
  H          -0.35911335465517      3.48399959602247     -0.39517461037245
  H           0.94680312893669      2.61740143252538     -1.22508336527975
  H           4.20289100207038      0.27810130091905      1.10662034944057
  H           4.37557407517889      1.67975073643889      2.19997639348521
  H           3.44540113351116      1.83960189010594      0.68617029188792
  H           0.99939505860949     -0.79666687982799      3.42100208939463
  H          -0.84793158006418     -1.08079098888558      1.32642632643521
