46
Coordinates from ORCA-job goat_0_63 E -1252.762255608807
  O           0.32750088704367      1.93514107523120      3.47135261136593
  C          -0.41346191189186      1.07075488783442      2.62149979256725
  H          -1.37302280618164      0.80625794516429      3.07876638347283
  C          -0.68778750668210      1.74835580505944      1.27469390879452
  H          -1.08872485310949      2.75093200225720      1.46021232455080
  O          -1.65590274895232      0.95249988542877      0.58185240732554
  Si         -1.96718545378489      1.20307442265548     -1.04213304812464
  C          -3.36614784893431      2.42694246297690     -1.27319164704440
  C          -4.75074196815163      1.85332926678284     -0.94638524627077
  C          -3.11838986907234      3.72021278719106     -0.48333415217217
  C          -2.29221231919254     -0.45960761656684     -1.83843047254267
  C          -0.98834739485522     -1.19984246033479     -2.16770111426169
  C          -3.20666256290672     -1.35408351307057     -0.98537850012171
  O          -0.58225102643664      1.85546912976797     -1.67746595373920
  C           0.39694805757253      2.51622209957483     -0.88206659416569
  C           0.60379126852482      1.87177871514051      0.47437062197356
  H           1.29637874251075      2.50207836836060      1.04203221359925
  O           1.17534075883824      0.57954253112210      0.26376077547990
  C           1.56018589836863     -0.06731189188828      1.46096179147816
  H           1.89377853573188     -1.06113796588779      1.14052586748549
  O           2.59672023908207      0.60534391173927      2.11912114622997
  C           3.79809509701788      0.65344268355054      1.35417327673371
  C           0.37779493510571     -0.22650444602474      2.42334580259884
  O          -0.48325649511803     -1.24677837517496      1.93066027557935
  H          -0.25947864891662      2.64749848012967      3.75032916449184
  H          -3.34443007741576      2.67319433867424     -2.34424064593313
  H          -4.80154052250171      1.50334681356271      0.08988555212193
  H          -5.00941772939427      1.01572213367397     -1.59819960154200
  H          -5.52074859417095      2.62210006991913     -1.07182099062761
  H          -3.15898614737396      3.53306489230471      0.59420995806813
  H          -3.88780308477352      4.46414017883857     -0.71488455474678
  H          -2.14679354471515      4.16586254765505     -0.71247120904045
  H          -2.81443008436643     -0.24084800065111     -2.77990608433837
  H          -0.34713370711941     -0.61866838068425     -2.83359963540242
  H          -1.20625375973669     -2.15812305753934     -2.65116581702435
  H          -0.41976116788138     -1.40847143592208     -1.25635985784929
  H          -4.14685927676253     -0.86784363115637     -0.71902862090816
  H          -2.71171916515574     -1.64879275473958     -0.05598808715759
  H          -3.44824823076734     -2.27300361972486     -1.52929289738319
  H           0.11187860899892      3.56255422123189     -0.72701130578951
  H           1.33968085267083      2.49510304339820     -1.43370429684584
  H           3.67982810500450      1.28717151547164      0.47087106347721
  H           4.09410196380591     -0.35358636017322      1.03763874697940
  H           4.56842653515835      1.07263538236198      2.00114129759396
  H           0.76213074979320     -0.56187497493381      3.38834714634222
  H          -1.02093272890677     -0.84104311258669      1.23426820472181
