46
Coordinates from ORCA-job goat_0_194 E -1252.758613726028
  O          -1.50561640702485      0.66522276194308      3.40431075963922
  C          -0.60346080937178      0.55335129889339      2.31362355312207
  H          -0.87778039482379     -0.30501322267554      1.68658844174706
  C          -0.69293356971164      1.82068333700914      1.47181084867627
  H          -0.77558621524216      2.67246012069393      2.15350168036736
  O          -1.88160201926019      1.81638635362121      0.68800616339876
  Si         -1.92483554274013      1.37610833395083     -0.91158790892748
  C          -3.31276604540368      2.34464759480875     -1.70512350828830
  C          -4.69661612822200      1.99088302202812     -1.14413531674467
  C          -3.04200960268976      3.85126937108497     -1.58067606422067
  C          -2.01055890862999     -0.48017652326604     -1.13520408338558
  C          -3.07586845409015     -1.16786472990320     -0.27140451282759
  C          -2.17712726545470     -0.84854120090433     -2.61666093339923
  O          -0.46646887432711      1.88338441653168     -1.53560784497492
  C           0.38139237023227      2.65494335865121     -0.69020043592685
  C           0.60442312927589      1.98849433396381      0.65430770812550
  H           1.29818894448172      2.61430445446444      1.22625255008455
  O           1.20792264981874      0.71290893568130      0.41564602531736
  C           1.74560140438309      0.13969515508889      1.58991400971299
  H           1.82900546389154     -0.93180640463815      1.36686760952401
  O           3.00404941104272      0.66498004151746      1.90722712322086
  C           4.01385412149957      0.30484042746634      0.96610687903904
  C           0.82881685067448      0.36135679087828      2.79786488557486
  O           0.92646371302932     -0.69947490575479      3.73864817825536
  H          -1.30234546634707     -0.05940599805770      4.01012696826878
  H          -3.29534883290719      2.08104804573696     -2.77110754796856
  H          -4.96658584376221      0.95175684989384     -1.34364970603744
  H          -5.46568842477331      2.62570893343999     -1.59710699431383
  H          -4.73674809057980      2.14723155155821     -0.06139910903827
  H          -3.03726198536265      4.16142445747307     -0.53123155576222
  H          -3.82135878587835      4.42527404448056     -2.09287869230690
  H          -2.07872198497208      4.12830923985910     -2.01710351642908
  H          -1.02488592960492     -0.83416614801116     -0.80465781331898
  H          -2.97669001348135     -2.25651469125955     -0.33903312045236
  H          -4.08470698442784     -0.91245312751299     -0.60500905679810
  H          -2.99399112855228     -0.88885262577369      0.78239623229886
  H          -2.12082059024321     -1.93334503095477     -2.75544809834425
  H          -1.40322981978399     -0.39135969857905     -3.24047634603268
  H          -3.14994729902883     -0.51781211866826     -2.99430197201571
  H          -0.03872234616521      3.65325199869881     -0.52298748542336
  H           1.34238545040341      2.76545211334610     -1.19645565845918
  H           4.95360267905052      0.71041469015183      1.33988233849194
  H           3.80105664421688      0.72619916054527     -0.01983059343087
  H           4.09207790392445     -0.78543205710017      0.88597911695687
  H           1.15382841054778      1.25659573921621      3.33518082766285
  H           0.72156461638976     -1.53011844961749      3.28929597534254
