46
Coordinates from ORCA-job goat_0_222 E -1252.753342628946
  O          -1.12639322295201     -0.43778523425559      3.05544623203413
  C          -0.32543123221244      0.04127442314161      1.98047378633934
  H          -0.48659303213657     -0.57988622464487      1.09336577091836
  C          -0.63663055678016      1.49336102156488      1.63764207371603
  H          -0.77569547108476      2.04216267359848      2.57355983715136
  O          -1.87661576439459      1.57340330793790      0.94066769879959
  Si         -1.99503708934758      1.64597580901236     -0.71682264656060
  C          -3.51945363711410      2.67147878625062     -1.06785034491610
  C          -3.54989034974528      3.23909981101312     -2.49350304144737
  C          -4.82878678324131      1.94430321737632     -0.73513984394827
  C          -1.90651653360268     -0.06098181856279     -1.48219293821836
  C          -2.86358269581761     -1.07526691834186     -0.84204712359097
  C          -2.07685667525690     -0.03215705833020     -3.00746531378647
  O          -0.63140536528245      2.46820240720810     -1.20344962575258
  C           0.15304495025564      3.09284689416921     -0.19190957758620
  C           0.56281332862517      2.11385411102935      0.89176471948997
  H           1.18317321929406      2.65261553290789      1.61498568178646
  O           1.35099702201913      1.08517343040996      0.27648144776177
  C           2.02947040553096      0.29134171697981      1.20836432515434
  H           2.31935031833542     -0.62759594372494      0.68430955857989
  O           3.18407314847847      1.00180975451069      1.60323818221568
  C           4.09647680300477      0.21713290411909      2.36446170127069
  C           1.12855513179821     -0.08711066835102      2.39990799383364
  O           1.43388316362346     -1.42128383739194      2.78020958612429
  H          -2.01801298420331     -0.58785028458956      2.72087328791485
  H          -3.41536594521942      3.51789336935554     -0.37429015940216
  H          -2.62631945873493      3.76949188556230     -2.73921758229585
  H          -4.38187736172096      3.94250835636181     -2.60509366205204
  H          -3.68958725172258      2.44767903935300     -3.23448194254560
  H          -5.01283381129878      1.13063994510615     -1.44227084266289
  H          -5.67774989656612      2.63305841818595     -0.79945043907579
  H          -4.81939639533365      1.51817357700816      0.27233205748076
  H          -0.87837206791656     -0.38303287223893     -1.26689147870113
  H          -3.90545582656925     -0.83681394127468     -1.07044798254292
  H          -2.76090182837182     -1.10806111358435      0.24601565048212
  H          -2.66595264475017     -2.08129520750093     -1.22710278141198
  H          -1.41180023714080      0.69516627978307     -3.48224581207299
  H          -3.10442595149577      0.22337028741346     -3.28105640553814
  H          -1.85815583208184     -1.01544409392679     -3.43702880839730
  H          -0.39407694130229      3.92206690718022      0.27125715924943
  H           1.04942204880595      3.49463348713235     -0.66815054422114
  H           4.35421008310386     -0.70540435745663      1.83106469065723
  H           3.68607416786688     -0.04174614144913      3.34506244304502
  H           4.99353480851902      0.82135838873241      2.49777042372547
  H           1.32483877256273      0.59923580904062      3.23514839729421
  H           0.73320547157288     -1.70134583582016      3.38396619170221
