46
Coordinates from ORCA-job goat_0_71 E -1252.757951388840
  O          -1.52337008894113     -0.50499602510447      3.08649472804318
  C          -0.59265583894510     -0.09796115984106      2.09032407480829
  H          -0.67922489967828     -0.74789158874450      1.21309059046574
  C          -0.81283322290846      1.34880637568217      1.66199519879111
  H          -1.02071374961576      1.93757836440710      2.56061435142255
  O          -1.97933761174761      1.43105761919996      0.85088966277468
  Si         -2.00643428354044      1.62250665840492     -0.79808416037574
  C          -3.30908800738131      2.91276233891814     -1.16609295339556
  C          -3.27345444456980      3.33632767150586     -2.64100166463847
  C          -4.72075034710832      2.47522769981301     -0.75469938364374
  C          -2.29465617970169      0.00612356351871     -1.70450125889267
  C          -0.99491861249939     -0.73021062320962     -2.05381186405143
  C          -3.23791757969071     -0.91088304521098     -0.90848123124796
  O          -0.50018146477485      2.20848729916649     -1.18532411276775
  C           0.21988072434256      2.84777296545192     -0.13441070723015
  C           0.47885181106668      1.89970217970388      1.02006440296454
  H           1.03681583981694      2.44941718912836      1.78586549184806
  O           1.29025701745999      0.82571896058287      0.53390880852762
  C           1.82942421990616      0.03574188624483      1.57336029448215
  H           2.11893563833402     -0.90663545688918      1.09490927403823
  O           2.94297131714819      0.63939389018976      2.17290801517325
  C           4.07104754593507      0.71903659899314      1.30411825516520
  C           0.80179017187442     -0.24195454405364      2.67299409469601
  O           1.03832967284773     -1.55096728766224      3.16743813604518
  H          -2.38480270428290     -0.60588761234138      2.66520986519293
  H          -3.02574496160149      3.77990793128107     -0.55364418389217
  H          -3.54951309181012      2.50446132271488     -3.29702148605922
  H          -2.28073185011311      3.68371306084864     -2.94021095592686
  H          -3.98398367722947      4.14877589783770     -2.82658744220795
  H          -5.06513236489499      1.63810302197535     -1.36969751802179
  H          -5.43381307473740      3.29527056755332     -0.89100245753058
  H          -4.76406975342742      2.16307457384307      0.29256234387036
  H          -2.79759880449100      0.27293812919232     -2.64325090921586
  H          -1.21547426715066     -1.65788512936773     -2.59301507985066
  H          -0.43639266778294     -0.99720012522246     -1.15179822661662
  H          -0.33879929984530     -0.12043521144189     -2.67871591494243
  H          -3.47033291729128     -1.81179478201841     -1.48584006105407
  H          -4.18290688863940     -0.42217902252163     -0.65850353059153
  H          -2.77237264409005     -1.22827497770139      0.02904637273331
  H          -0.32430284546722      3.72300494489781      0.24035938958908
  H           1.17468015940429      3.18548196014025     -0.54173390547564
  H           3.86962166795782      1.37807393818491      0.45547867378717
  H           4.34179674492149     -0.27638857854260      0.93396125962317
  H           4.89454244847570      1.12464400007584      1.89131482850033
  H           0.93255559409268      0.49378511680646      3.47774873955871
  H           0.29395757037380     -1.76910055638944      3.74303215552787
