46
Coordinates from ORCA-job goat_0_29 E -1252.762729252024
  O           0.34487926957808      2.02872513927726      3.54752336436057
  C          -0.28816751195718      0.98634331354887      2.82151476333718
  H          -1.16394640187775      0.61029709822337      3.36356318721725
  C          -0.76218187124513      1.60171073519268      1.50715688823518
  H          -1.27626061089975      2.54173794374833      1.72992515575294
  O          -1.66565517920966      0.67286162134004      0.89988266567283
  Si         -2.16411201690324      0.89696740667742     -0.68196039576428
  C          -3.68426972741565      1.99670348489289     -0.73641457642205
  C          -3.74719234791989      2.99814165855140      0.42520466935499
  C          -3.79127124333696      2.73337895555595     -2.08038443231232
  C          -2.45604497359192     -0.79956174713063     -1.40564394446757
  C          -3.26197880861175     -0.76444607344922     -2.71166351657172
  C          -1.14502438842310     -1.57345277230166     -1.59770444150726
  O          -0.88944213725111      1.62063883012337     -1.45650379908921
  C           0.00370411813847      2.47178319030424     -0.74271781981918
  C           0.42590840590638      1.89268955580179      0.59532940285664
  H           1.06632084456910      2.62761057184719      1.09390093475869
  O           1.15827781341309      0.69325563950992      0.33836272430136
  C           1.71012353112875      0.10006442105011      1.49677123644586
  H           2.14000171772796     -0.84369626257321      1.14154940131787
  O           2.70339108189262      0.89638908787718      2.08186960491718
  C           3.83645140852490      1.07683520207701      1.23680349789816
  C           0.64146633413789     -0.20529527051953      2.55226992399700
  O          -0.12336298876547     -1.33232502396459      2.14197505137508
  H           0.75295706008074      1.64899629046520      4.33390578345075
  H          -4.54459288734289      1.31947583963973     -0.64511636676158
  H          -3.71109680888717      2.49916558603059      1.39673039433254
  H          -4.67460719860146      3.57880642343733      0.37813982152986
  H          -2.91593397845194      3.70909249805427      0.37966965549558
  H          -3.76381653240768      2.05249539663536     -2.93455623886123
  H          -2.96580930097404      3.44180888774563     -2.19598227052571
  H          -4.72718345648731      3.29948288204860     -2.13383418478519
  H          -3.05987529684926     -1.32246917655150     -0.65026038388214
  H          -3.43143682806968     -1.78145521421466     -3.08019054838159
  H          -2.72517455912639     -0.21722244233593     -3.49315642436795
  H          -4.23773284385065     -0.29090673071939     -2.57885859001551
  H          -1.35035465638342     -2.59514493720987     -1.93381870819872
  H          -0.56054776982432     -1.63356333176907     -0.67673100390266
  H          -0.51983892181687     -1.09156260739570     -2.35465398923623
  H          -0.46164196211712      3.44878291054179     -0.56686292043292
  H           0.88837175285615      2.61801752903307     -1.36622887193035
  H           4.59018046315249      1.59996267588107      1.82502344449906
  H           3.58296746810574      1.67382942971429      0.35639821460217
  H           4.23301197364759      0.10743329238433      0.91280717944180
  H           1.15294092939703     -0.48427043680003      3.47744578582081
  H          -0.79845096365820     -1.00186147027545      1.52978067626382
