46
Coordinates from ORCA-job goat_0_85 E -1252.749845567940
  O          -0.77348132104297     -0.97005162709887      2.46848249663843
  C          -0.06267643207748     -0.42895929318874      1.36108612793454
  H          -0.47514182366290     -0.92684889058033      0.48284662555982
  C          -0.30808197612412      1.07591349335711      1.24688825281427
  H          -0.22607686102596      1.50519934939090      2.24728003824767
  O          -1.63044124611059      1.34280140432313      0.79926379249406
  Si         -2.09087588142343      1.55241340133733     -0.78398499520130
  C          -3.22700709966617      3.03143295502685     -0.87179956293607
  C          -3.47347956952639      3.46184370094283     -2.32468762722374
  C          -4.55372918161078      2.78525079745791     -0.14105754212989
  C          -2.90092940844014     -0.00128992785870     -1.46549411592827
  C          -1.93656535777204     -0.90569887785418     -2.24448893079426
  C          -3.63216329526328     -0.79464969047760     -0.37190827066205
  O          -0.70431747168351      1.93585266136187     -1.61638555458235
  C           0.54294686556093      1.43884709983390     -1.13466348111920
  C           0.72013889117304      1.77240474145597      0.34735669095664
  H           0.58293841270533      2.85213720076873      0.46615801940907
  O           2.07370373411815      1.47673727138468      0.70898717851274
  C           2.29375866234411      0.45937691496010      1.65773767342112
  H           3.36024739976516      0.22206943352271      1.55741989683669
  O           2.01582374943810      0.86706959220199      2.97289743460548
  C           2.83424346481025      1.94738438136837      3.41449143329813
  C           1.43702088505685     -0.77624764932785      1.40313903566951
  O           1.77862751072355     -1.37198827691524      0.15686101200013
  H          -0.46635402135720     -0.52258208924159      3.26709647281165
  H          -2.69143859421695      3.84010368264185     -0.35757121965234
  H          -2.53914451675987      3.68477103414588     -2.84648505005741
  H          -4.10105916390350      4.35866102343253     -2.35888464611276
  H          -3.99293191544365      2.67813018144702     -2.88571423354542
  H          -4.39889555544420      2.48686400045175      0.89976932052086
  H          -5.13155415362832      1.99720514590259     -0.63398012610871
  H          -5.16819144649978      3.69168963263991     -0.14305129673434
  H          -3.65564258040142      0.36444712663759     -2.17513447997198
  H          -2.47850565490573     -1.74590969967007     -2.69168923563170
  H          -1.16686142223169     -1.32857913502532     -1.59195933964340
  H          -1.43023611594571     -0.36355248473366     -3.04670949914572
  H          -4.18145207441883     -1.63436706206682     -0.81087044761479
  H          -4.34816087312025     -0.17799610577531      0.17764830364249
  H          -2.92425145361826     -1.20262113056417      0.35477947626309
  H           1.34035440439390      1.92975651256881     -1.69661135125033
  H           0.62525602811152      0.36109302763922     -1.29903157772866
  H           2.61526066218038      2.09821211662020      4.47114940082174
  H           2.61057483990712      2.86278561008502      2.86051008793171
  H           3.89489535762560      1.69981006179865      3.29217476424597
  H           1.60421191765961     -1.47909074576617      2.22472008954204
  H           2.70359368175183     -1.64358086856092      0.19367895959697
