46
Coordinates from ORCA-job goat_0_227 E -1252.749335147754
  O          -0.31511784597709     -0.73714136168570      3.07145758553698
  C           0.18340607546495     -0.42078544601569      1.77570376130847
  H          -0.16954455961429     -1.21882538902741      1.12195404482580
  C          -0.41087006173456      0.90494430594859      1.28738254065571
  H          -0.46633654163602      1.58260290330622      2.14236009360069
  O          -1.74054251964894      0.67461228174822      0.83836121129943
  Si         -2.35361681451300      0.91531696707022     -0.68450760494993
  C          -3.44703616518214      2.43819654044403     -0.73346990650942
  C          -2.99232723141998      3.49738121039300      0.27981532976917
  C          -3.52127297382796      3.04711342001243     -2.14221904069336
  C          -3.25777341027624     -0.65212349210915     -1.15977471332984
  C          -4.08329929878720     -0.49612827034719     -2.44387027270617
  C          -2.28437759776804     -1.83231053047910     -1.27793831576673
  O          -1.04149512677796      1.17577320765727     -1.67359984419275
  C           0.26535872337242      0.91197063736889     -1.16609477107797
  C           0.43197719479121      1.58113411583842      0.19782865960231
  H           0.07788413978867      2.61205933704114      0.09488465242722
  O           1.82529601604816      1.65870859601502      0.51590522943945
  C           2.28220348996712      0.96699404651499      1.65228633682609
  H           3.37376608154096      0.95561532622091      1.54290865886888
  O           1.92482995342991      1.59337445253285      2.85794353691571
  C           2.47784928334236      2.89922015304615      3.00404274462906
  C           1.71961069361199     -0.44550977436817      1.72789352184836
  O           2.10681816044010     -1.19970981299545      0.58570495792514
  H          -0.03262116261924     -0.03660718715661      3.67315294090303
  H          -4.45320114489394      2.10080648917402     -0.44984866055837
  H          -1.98763084675316      3.86141896263857      0.04135358422049
  H          -2.97173487412694      3.10453908618614      1.29909152154452
  H          -3.66551355093265      4.36108888983322      0.26075356452154
  H          -2.54030948702299      3.41980620252422     -2.45032824701804
  H          -4.21868931170499      3.89134143472417     -2.15757614423491
  H          -3.85314818798598      2.32693710399735     -2.89370503398260
  H          -3.95035522293857     -0.85612516911512     -0.33137627096438
  H          -4.85043775914652      0.27595099815450     -2.34538448415111
  H          -4.58656726492343     -1.43664124422847     -2.69190518933138
  H          -3.44632301521204     -0.23081257931926     -3.29422689963846
  H          -1.56238186378681     -1.66286909941148     -2.08309109465048
  H          -2.82418009578398     -2.75727143660572     -1.50681102810788
  H          -1.72416157316767     -1.99328517071227     -0.35354119864516
  H           0.99046722231641      1.34500197272955     -1.85836416187163
  H           0.44866921771843     -0.16412062658243     -1.10206266184692
  H           2.05365902821807      3.58998592354704      2.27066267419365
  H           3.56698643283544      2.86920728139698      2.88667005950197
  H           2.22902136181141      3.23697202465766      4.00960547489365
  H           2.08649924681632     -0.91640463863866      2.64482529605396
  H           3.07051318664842     -1.23515264192398      0.55740756291629
