46
Coordinates from ORCA-job goat_0_43 E -1252.757713483791
  O          -1.42137039662724     -0.09644442997637      3.45642701490510
  C          -0.57905536866247      0.13585819442262      2.33179586321339
  H          -0.82879325728308     -0.56944523873750      1.53231429705967
  C          -0.71117858773078      1.56104690067111      1.79824232054967
  H          -0.84585447171723      2.23178401082681      2.65203240689506
  O          -1.88975995566941      1.67316244356844      1.00563770585268
  Si         -1.88680584253780      1.64826488205706     -0.65667219121853
  C          -3.33230764587855      2.72004405467753     -1.16792012783534
  C          -3.56087775793549      2.72602839629566     -2.68526305816417
  C          -4.63093397496923      2.39840524616397     -0.41570096310409
  C          -1.84377597523028     -0.10163188358002     -1.32010710167346
  C          -3.14177098544851     -0.87031012693771     -1.04267338381566
  C          -1.45573130923086     -0.17961973626068     -2.80319211248558
  O          -0.45420502338118      2.37080335315032     -1.09912396368405
  C           0.35020916303545      2.93890414682570     -0.07028272038439
  C           0.58458564943689      1.96814762301979      1.07231409701231
  H           1.24834083013346      2.45780301320482      1.79315962709086
  O           1.23350674510837      0.80624042880845      0.54628195343675
  C           1.77803991998815     -0.01290200894091      1.56141912240861
  H           1.89221495673217     -1.00165506456447      1.10320396987678
  O           3.01810512815256      0.46069104924552      2.00978415570429
  C           4.04589208705217      0.34841302096529      1.02729145379846
  C           0.85229095719244     -0.11178509391721      2.77538849096601
  O           1.01252259702611     -1.40386856411971      3.33934567201634
  H          -2.32303149231982     -0.21668775231300      3.13796810153039
  H          -3.01375196343883      3.72915490179610     -0.86971243873647
  H          -4.30099635510526      3.48539452996718     -2.95877117281809
  H          -3.94165514353299      1.75932357599459     -3.02704975015863
  H          -2.64236818412853      2.93999375615053     -3.23986436958751
  H          -5.01138842224249      1.40915561311427     -0.68394668473615
  H          -5.40813632879319      3.12760886336868     -0.66879534417948
  H          -4.48736370911802      2.42109945453860      0.66721773280954
  H          -1.03654162060878     -0.57552690654411     -0.74599484573640
  H          -3.02928847253899     -1.92651265036052     -1.30941465812179
  H          -3.96901644622218     -0.46900336920924     -1.63521778693424
  H          -3.42961448712542     -0.82068026646898      0.01187405553238
  H          -2.23048004739487      0.25136453355251     -3.44232558210466
  H          -1.32325345945060     -1.22348509558156     -3.10752221265914
  H          -0.52086126560311      0.34976806200176     -3.00404487343115
  H          -0.11400285915639      3.84727429536064      0.33125557295023
  H           1.31096837402126      3.20925491445730     -0.51291818161808
  H           4.97312657204785      0.66991895029011      1.50090816331994
  H           3.83741371614111      0.98632175179775      0.16429664553055
  H           4.14646818087071     -0.69092521968371      0.69448217990930
  H           1.14003704398250      0.65585404493498      3.50616919219316
  H           0.30439888816048     -1.51035060403262      3.98796372862554
