46
Coordinates from ORCA-job goat_0_58 E -1252.759223814574
  O          -1.51300794012343      0.26958183551475      3.32639379935457
  C          -0.60180667894763      0.35646331526686      2.23709369032927
  H          -0.79108244053706     -0.45695560912318      1.52865086515318
  C          -0.70696940205131      1.69171290630899      1.50610597664477
  H          -0.83036457804834      2.47938622907691      2.25502493145854
  O          -1.88479315366438      1.71478117140464      0.70406878175308
  Si         -1.88924828152159      1.35910080974869     -0.91844127678809
  C          -3.27467743633749      2.35366815778297     -1.68378970160838
  C          -4.65664169702664      1.99355456482166     -1.12140888763760
  C          -2.99707863503197      3.85575801543371     -1.52430425015060
  C          -1.94414812436685     -0.48281478220806     -1.24593612857364
  C          -3.02647618174959     -1.23003249201735     -0.45616047487273
  C          -2.06042751092326     -0.76921075263958     -2.75025590364979
  O          -0.42165899387549      1.90951209197110     -1.47948607568394
  C           0.38214827640909      2.67513781502722     -0.58646929629134
  C           0.60208868814169      1.96248238652558      0.73428281767003
  H           1.24608301223049      2.59623118571220      1.35344476991692
  O           1.27890471375773      0.73088959452344      0.46263806905457
  C           1.79140250123598      0.12283824432060      1.63076906835470
  H           1.95770408310871     -0.92529681795072      1.35811286606029
  O           2.99098868445596      0.71260178171556      2.05003080125480
  C           4.07016133824908      0.48612223960758      1.14533048605819
  C           0.80167034676058      0.19952891075986      2.79528197759909
  O           0.93704537471125     -0.98813050630446      3.55981037976557
  H          -2.39754026113812      0.13520377063324      2.96738464092933
  H          -3.26584632779575      2.11596191750344     -2.75580440987020
  H          -5.42654349034925      2.63622106382895     -1.56162452450556
  H          -4.69023499073741      2.13514548911263     -0.03650879309010
  H          -4.93019119586658      0.95791716751101     -1.33349697219537
  H          -3.78108797403836      4.44465998799534     -2.01189079901411
  H          -2.03855415446348      4.14094355050735     -1.96564955973070
  H          -2.97858452550144      4.13960710810466     -0.46744223975766
  H          -0.96435233417186     -0.84468462661937     -0.90642003541881
  H          -4.02753101868491     -0.96964787367770     -0.80883394898519
  H          -2.98309809121781     -1.00833578930946      0.61373740600131
  H          -2.90928352347815     -2.31197014844819     -0.57875536166497
  H          -1.98384600282665     -1.84365378850766     -2.94729090880934
  H          -1.27471650598149     -0.26753928026297     -3.32302670124162
  H          -3.02615018885947     -0.43048251617521     -3.13876988210910
  H          -0.07611223405849      3.65048044454594     -0.38742319916065
  H           1.34798439256318      2.83998735590636     -1.06810745988280
  H           3.88770681981971      0.97437663737058      0.18442962512741
  H           4.21697315995419     -0.58797671086341      0.98418698076401
  H           4.96251277259193      0.91016763128454      1.60504071380123
  H           1.04396448007605      1.07449834831559      3.41308892141241
  H           0.19866522930877     -1.00154003403476      4.18264922222909
