46
Coordinates from ORCA-job goat_0_19 E -1252.766340369196
  O           0.01439984649841      1.93908187588600      3.48892232783472
  C          -0.62024039811786      1.02159958670181      2.60910547139503
  H          -1.60957224315992      0.80843008943679      3.02111605328203
  C          -0.79786580015716      1.64509022828043      1.22009301115627
  H          -1.24517190185295      2.63863629249818      1.33475691473044
  O          -1.67116642377558      0.78930282337283      0.47443444316560
  Si         -1.90636809116059      1.08473336305771     -1.15498715678115
  C          -3.25209730842248      2.37768820364407     -1.37249763035248
  C          -4.29861917690396      2.30025111136997     -0.25058134321031
  C          -2.69903811960273      3.80501169338065     -1.49054287107329
  C          -2.29414447293274     -0.52988940189271     -2.00333828095528
  C          -1.12766738938603     -1.52279845459562     -1.92136567429090
  C          -3.59450071598394     -1.15518668499750     -1.47759794060999
  O          -0.44443543600988      1.62204430072639     -1.72237128252969
  C           0.44485629402511      2.35037806035852     -0.88082425213155
  C           0.55229833779752      1.78039189844558      0.52207294524946
  H           1.17412782186066      2.47292264811116      1.10030669943219
  O           1.19234875261403      0.50273513030254      0.43375327368670
  C           1.44322451666231     -0.09417386756896      1.68775448915465
  H           1.90361232576528     -1.05977361788362      1.45474308626951
  O           2.30891428655427      0.68605853724071      2.48047195408315
  C           3.59860753433449      0.87902415597852      1.89862804106200
  C           0.15997338677998     -0.29546385944902      2.50120889828545
  O          -0.63061554815493     -1.32094460014879      1.92177447690299
  H           0.97067592928010      1.86803923638021      3.34953098717311
  H          -3.74778667247790      2.12909044311702     -2.32093863955719
  H          -4.72521105534469      1.29955972427370     -0.14570979596172
  H          -5.12125632115342      2.99649588358134     -0.44477877340802
  H          -3.85249358743244      2.57043526054914      0.71102449356253
  H          -3.50980399210837      4.51326203674705     -1.69170209206840
  H          -1.96510517319014      3.89324847010880     -2.29524834084533
  H          -2.21590788957814      4.11905914002775     -0.55995188559941
  H          -2.44659428804233     -0.26679472360786     -3.05936249459812
  H          -0.20523022742961     -1.09677761463173     -2.32253686711857
  H          -1.35860004714239     -2.43067071275258     -2.48836243707671
  H          -0.93328602743256     -1.82314254839466     -0.88785244830399
  H          -3.51846356346333     -1.38342688948061     -0.40951847095178
  H          -3.80641190618000     -2.09304575725139     -2.00120602017540
  H          -4.45331338208802     -0.49433770159549     -1.62008239940936
  H           0.12257638751282      3.39408855834221     -0.80228820266343
  H           1.43225448148021      2.32920448877300     -1.34738339076600
  H           4.04338388324239     -0.08763362631633      1.64010327368921
  H           4.21102897767631      1.37575116757574      2.65009500090132
  H           3.53764503820793      1.50207067156489      1.00294244491219
  H           0.44225111009901     -0.62584139153413      3.50333869001165
  H          -1.13726175170653     -0.90753362773197      1.20511171449786
