46
Coordinates from ORCA-job goat_0_191 E -1252.755268435743
  O          -0.99951390647702     -0.69473058073058      2.71233916473017
  C          -0.00118282040702     -0.39390169290771      1.74765952841150
  H           0.10300348102656     -1.22916908218054      1.04327733664728
  C          -0.36566058619156      0.85849358793755      0.96320720255553
  H          -0.39070052002929      1.71165660224547      1.64748491683482
  O          -1.67988129229558      0.65946930693548      0.45384130972848
  Si         -2.22910948366172      1.14895667898394     -1.03581732357646
  C          -2.92062764160258      2.88433381986276     -1.01759264001706
  C          -4.29928887565460      2.97195427085109     -0.35035818142676
  C          -1.93158361593493      3.85969474189803     -0.36427819059165
  C          -3.44165398754988     -0.16259768822847     -1.59683974130797
  C          -2.70757181671510     -1.36305345486944     -2.21197448403269
  C          -4.35569268644094     -0.62942545207240     -0.45323960025148
  O          -0.86177075421524      1.19080738498397     -1.98417012264812
  C           0.28473460106806      0.51164019025780     -1.48132288365215
  C           0.69115814060555      1.10325187565246     -0.13741769571932
  H           0.83504758725829      2.18029817272380     -0.26752999797214
  O           1.94250001252825      0.49302781570136      0.19305082773390
  C           2.29320276886408      0.59645213486695      1.55881088848296
  H           3.29703062366616      0.16166042876979      1.62018879592892
  O           2.30322405261985      1.92660240090233      1.99885347612471
  C           3.30506293515206      2.71723755965380      1.36078291204797
  C           1.32510530839660     -0.19752724549552      2.45583927817148
  O           1.84499739855804     -1.48743797816537      2.75764848974647
  H          -1.84304031136227     -0.68231999887853      2.24085742710398
  H          -3.03316948576584      3.16445853427048     -2.07435152010251
  H          -4.25675947740981      2.63718878046438      0.69131562972704
  H          -5.04304702361893      2.36217388482907     -0.86912120732204
  H          -4.65830662896716      4.00648009564631     -0.34901684322142
  H          -1.78155148037951      3.61504916027095      0.69216079521417
  H          -2.31256566783797      4.88504432429752     -0.41332068115208
  H          -0.95563425345113      3.84055950132194     -0.85605423274334
  H          -4.06550034288759      0.29778523238380     -2.37460406605446
  H          -2.06364958098572     -1.84736227515165     -1.47039285470408
  H          -2.08157290608742     -1.06951429199593     -3.05801447808620
  H          -3.42462675967390     -2.11259290276869     -2.56297650077425
  H          -3.76795929310259     -1.10471236148307      0.33739154725746
  H          -5.07831551710145     -1.36602410440889     -0.81984877221420
  H          -4.91658952019432      0.19229530836088     -0.00243727667786
  H           1.10283239492299      0.65224825031193     -2.19024311917934
  H           0.09649279998410     -0.56298810427539     -1.38220719143096
  H           3.29178998447483      3.69311131009093      1.84518177908197
  H           3.09746957227334      2.83680486854235      0.29404937187636
  H           4.29162110011280      2.25772637881542      1.48770308971779
  H           1.15815098102708      0.37441911124563      3.37378938402741
  H           2.56705249346250     -1.38127449946606      3.38795645370817
