46
Coordinates from ORCA-job goat_0_34 E -1252.762351717327
  O           0.16015502966301      1.49773230052684      3.84656361238470
  C          -0.40330022488439      0.65483095555383      2.85147994667959
  H          -1.35591604785838      0.23512274599626      3.19265262054300
  C          -0.65664472404780      1.43562765886602      1.55876402260555
  H          -1.19680490266492      2.35980032896679      1.80018638060854
  O          -1.45727392389459      0.60509830282947      0.71188610061540
  Si         -1.73693625928489      1.11963529753637     -0.85483240960607
  C          -3.03761301967883      2.46641057148280     -0.80742963566285
  C          -3.49283118724381      2.87730829750905     -2.21446309754180
  C          -4.23481848023549      2.12678509036339      0.08986790450571
  C          -2.07268025990132     -0.40767802688982     -1.86957210292117
  C          -3.44278814063751     -1.02829993078068     -1.56455477333622
  C          -1.88673043453248     -0.18298423878766     -3.37666722500642
  O          -0.30096893545992      1.77424667099159     -1.37310236114651
  C           0.47187828000978      2.52463295740193     -0.43661390008577
  C           0.66472804907125      1.79532274826141      0.88213072003310
  H           1.22401106051414      2.45409367246766      1.55499578742707
  O           1.41817573551550      0.61235087916071      0.60980385358295
  C           1.77959012920437     -0.11351970977697      1.76844766547722
  H           2.26099845629829     -1.02004490186248      1.38381990740143
  O           2.66561907731785      0.59707399803612      2.58682776408529
  C           3.91765561657678      0.85207644343775      1.95626635907656
  C           0.55071424900159     -0.51555764857874      2.59092661771816
  O          -0.13734103749159     -1.56062008466419      1.91296834359619
  H          -0.52423536358721      2.11492497729992      4.13065539623738
  H          -2.52016211240207      3.32683051921721     -0.35925671670457
  H          -4.06234013206964      2.07410062037023     -2.69117739888120
  H          -2.64700018208331      3.11964873390475     -2.86458769473300
  H          -4.14233981819616      3.75765364175461     -2.16790959012167
  H          -4.80434438121769      1.28250419220550     -0.30804477647669
  H          -4.91744310596696      2.98074660708288      0.15623970527152
  H          -3.91868378713141      1.86841714964933      1.10377256750720
  H          -1.29726352261373     -1.11115853605766     -1.53587050413694
  H          -4.25228884559980     -0.38278266516521     -1.91692369735192
  H          -3.58898363474793     -1.19663028179698     -0.49362256057731
  H          -3.54626118785454     -1.99275693420789     -2.07230704463657
  H          -1.97966760016924     -1.13199852029506     -3.91500361434900
  H          -0.90495457004155      0.23904365278911     -3.60514989939872
  H          -2.64591297786071      0.49548967282747     -3.77481570778885
  H          -0.00530212140613      3.49077918195585     -0.23409327977454
  H           1.44767938137265      2.71106066460848     -0.88978599518798
  H           4.57000459901105      1.28782301573053      2.71280770017875
  H           3.80680723846662      1.55262543026279      1.12388868685753
  H           4.35919030622861     -0.08050035512160      1.58564033271898
  H           0.89302085422394     -0.91726519684240      3.54645622398969
  H          -0.65644714171142     -1.14174994821928      1.20899576632419
