46
Coordinates from ORCA-job goat_0_104 E -1252.754283498675
  O          -0.76201886288105     -1.39695667805202      2.13747198820037
  C           0.17769549432368     -0.57154424202827      1.46472836503328
  H           0.37750653447158     -0.97514576866348      0.46400400933455
  C          -0.33342903748082      0.85815063181771      1.34437748612188
  H          -0.36747143516193      1.29739475457653      2.34415600140585
  O          -1.67079922642558      0.86009690141311      0.86509631570074
  Si         -2.15299112869427      1.16825807773654     -0.69699688513596
  C          -3.65073878400876      2.27581431404778     -0.61512744811681
  C          -3.31765342476935      3.56964467017253      0.14152245175849
  C          -4.23888922400525      2.58369403164765     -1.99923877675625
  C          -2.39211910856271     -0.47578712595219     -1.56176803506625
  C          -3.65976245747258     -1.17749290642131     -1.05312873970964
  C          -2.37456992230734     -0.37926210670007     -3.09222782179657
  O          -0.89945996012398      2.02025636057675     -1.37840354118915
  C           0.39346145028626      1.53642425810771     -1.02807496906769
  C           0.64318080243569      1.67290488365781      0.47266551135359
  H           0.56613097947750      2.73070468890315      0.74569669598031
  O           1.99279404277582      1.22540245901783      0.65129007934929
  C           2.29736532741112      0.70299079491708      1.92776464250579
  H           3.36189275023052      0.44909860671676      1.86978243563368
  O           2.07183755292462      1.63705351674975      2.94847457969342
  C           2.91783583861653      2.78181100360207      2.85302899546559
  C           1.48139662049630     -0.56523140095054      2.24449504128973
  O           2.20242772190325     -1.73919125890367      1.88928893461598
  H          -1.62023191760465     -1.22058663473354      1.72900032442370
  H          -4.40318727714470      1.72304192942656     -0.03723823432201
  H          -4.21432566793485      4.18705245404837      0.25822893261326
  H          -2.57608433061596      4.16024445985086     -0.40466380278343
  H          -2.91553590823412      3.36511899987831      1.13712827883293
  H          -3.49573503000274      3.05425071429882     -2.65099853093029
  H          -5.08233424330835      3.27603439466587     -1.90842768071542
  H          -4.60206409607877      1.68296796223579     -2.49899185758411
  H          -1.52881779064762     -1.08198941843805     -1.25515730816218
  H          -4.55818028829878     -0.62040256290871     -1.33682566054129
  H          -3.65918390769556     -1.27746848230626      0.03684373578921
  H          -3.74526056371344     -2.18208970360064     -1.48006914468734
  H          -3.22283391126815      0.19867523542914     -3.46825722577672
  H          -2.43446561593896     -1.37712004990758     -3.53974545272926
  H          -1.45977679311819      0.09722091772598     -3.45442885490053
  H           1.13910896877116      2.12998268394946     -1.56023067123689
  H           0.51609647993907      0.49033811725310     -1.33331039356112
  H           2.73075971039382      3.38615576968239      3.74011907782780
  H           2.69265196348005      3.36812757217182      1.95822782416624
  H           3.97057900868476      2.47813124365615      2.83127777440067
  H           1.25092842635739     -0.56288688697640      3.31429405107456
  H           2.91822024051940     -1.85763718139065      2.52460750219798
