46
Coordinates from ORCA-job goat_0_99 E -1252.750985139381
  O          -1.06650529196196     -1.37876064921699      2.04159856480613
  C           0.01028901778553     -0.60094854415257      1.53873532171935
  H           0.26269964861761     -1.04551163023399      0.57252149418116
  C          -0.32243905404398      0.87782318808686      1.36411255210242
  H          -0.36974033548717      1.33239721651674      2.35908446255081
  O          -1.59383153963516      1.08306967952499      0.77755247034316
  Si         -1.91586071600954      1.45921596424476     -0.80574302201080
  C          -3.18895501111469      2.82533381681214     -0.82445869590871
  C          -3.22916135719637      3.59674425464974     -2.15121054164425
  C          -4.58837552786407      2.33764684014008     -0.42590041916642
  C          -2.32450254805852     -0.11610053953237     -1.73488406000045
  C          -3.32331005384650     -1.01976568453646     -0.99936787182559
  C          -2.77955400222928      0.15868236208154     -3.17453875085790
  O          -0.49617147213219      2.09910105475090     -1.39554792977245
  C           0.67881651763934      1.43811920724069     -0.94056992771532
  C           0.83019263299317      1.54328489426804      0.57592555505680
  H           0.88483296238676      2.60138069161962      0.85276468796657
  O           2.08659964283285      0.90737907366662      0.83896126565666
  C           2.24970566552832      0.39730700137081      2.14424709539205
  H           3.25816955582110     -0.02988869581744      2.14974880820087
  O           2.13432635658272      1.39932774206475      3.11841915989916
  C           3.15517698666264      2.39094294564030      3.01735676826440
  C           1.22272624559117     -0.69740582195408      2.46251491064464
  O           1.87435397344491     -1.95531718358003      2.33932081083030
  H          -1.38329410476427     -0.96919808978959      2.85685202726048
  H          -2.83436831974254      3.51460832712394     -0.04598276706628
  H          -3.90261367233305      4.45643924074112     -2.06863484178343
  H          -3.59815558525433      2.96914287502404     -2.96650648786841
  H          -2.24158426899962      3.96944781730726     -2.43421829338452
  H          -4.57838085934958      1.78593906614156      0.51870507748805
  H          -5.00742938111503      1.68097363808193     -1.19360579218762
  H          -5.27072310529481      3.18628242439314     -0.31102910408422
  H          -1.36674798463596     -0.65371023181760     -1.78175003505419
  H          -3.45117269378351     -1.96439179026272     -1.53926028770005
  H          -4.30788917427437     -0.54948054981011     -0.92743791095512
  H          -2.98499364400320     -1.25201573833290      0.01286272061442
  H          -2.07952413560596      0.80670612324636     -3.71015222110414
  H          -3.76081592492577      0.64185961423084     -3.18855656837786
  H          -2.86659199834363     -0.77717251281667     -3.73656367744144
  H           1.54349359000185      1.91433262852722     -1.40679126116943
  H           0.67640518387417      0.38291080035761     -1.23886074374472
  H           4.14604581178866      1.92476365606068      3.05844050667318
  H           3.03028789105391      3.05834933147138      3.86947678986976
  H           3.06281160757563      2.96193730274589      2.08981825975463
  H           0.88166262082146     -0.54776341583116      3.49414226835783
  H           1.20804585100337     -2.63776770044692      2.48866963319052
