46
Coordinates from ORCA-job goat_0_200 E -1252.758731621459
  O          -1.36935640716647     -1.06166480962938      2.53998309401402
  C          -0.39508331575868     -0.30298489821510      1.83678473368704
  H          -0.10835647814987     -0.83129015077698      0.91862070400724
  C          -1.00088783092907      1.04622292607476      1.48030423112061
  H          -1.34660350407671      1.51506685425554      2.40756526360772
  O          -2.13062827585980      0.87403760038904      0.64030326803205
  Si         -2.23297758999543      1.23389822157870     -0.97573183112745
  C          -3.45648775090377      2.62213304391398     -1.23135221069873
  C          -3.04799849053344      3.87361881612072     -0.44423644161797
  C          -3.64029291939825      2.93917814835381     -2.72224576899901
  C          -2.70002903537073     -0.31517493743839     -1.91089673901345
  C          -1.70052409549672     -1.45057225703770     -1.65627438839084
  C          -4.13185696460882     -0.75862631802860     -1.57835477944271
  O          -0.73062666055811      1.77345242033598     -1.44004527768084
  C           0.40019451144224      1.58015606440186     -0.59618096573888
  C           0.05009714404904      1.96826377418009      0.84293732125905
  H          -0.36173161756246      2.97974355296285      0.81022144529765
  O           1.20134607520998      2.06186710322926      1.67527303925218
  C           1.82825801399338      0.81731796151883      1.96680513416363
  H           2.18966011719090      0.34738701486886      1.04079184812079
  O           2.89285656138731      1.06301942351628      2.82241509624482
  C           4.02407475084270      1.64401944919656      2.17132298809784
  C           0.84953457271083     -0.10013456415716      2.68491128279809
  O           1.41712676381785     -1.38264545153381      2.91101583484531
  H          -0.93634770393493     -1.87381184846169      2.83132304134089
  H          -4.41515459953938      2.26372060192473     -0.83404735221859
  H          -3.79819881806925      4.66353050173415     -0.55580738690335
  H          -2.09399146556035      4.26880205426691     -0.80688129500997
  H          -2.93863374111933      3.66298009531586      0.62342653315193
  H          -3.99923470034228      2.07157460718490     -3.28282289218297
  H          -2.69641463076831      3.26223416535666     -3.17356751688213
  H          -4.36478621065255      3.74873857219055     -2.85935888877711
  H          -2.65842754839298     -0.05130418660795     -2.97597842700895
  H          -0.67574468635826     -1.15570122368968     -1.89982016347282
  H          -1.94903566033189     -2.32784865177784     -2.26283206192520
  H          -1.72196530843746     -1.75906167724992     -0.60671248458209
  H          -4.23319611638365     -0.98593172569698     -0.51200486628053
  H          -4.39510131228721     -1.66441997870328     -2.13468478087376
  H          -4.86671436967069      0.01158383032503     -1.82789068037017
  H           1.20254920602760      2.23361898835643     -0.94630685372261
  H           0.74652710405796      0.54521103900285     -0.67256729098747
  H           4.81665000157629      1.70818812345792      2.91596879058858
  H           3.78991465442723      2.64445947342866      1.79896258261292
  H           4.35186521072486      1.01105449482231      1.33973947449963
  H           0.57085227321230      0.37438694998208      3.63394667358948
  H           2.12883084754620     -1.28204319324141      3.55423896357632
