46
Coordinates from ORCA-job goat_0_8 E -1252.765838779742
  O           0.20557219634337      1.99462245758536      3.62538025362489
  C          -0.45698617969314      1.09660174918304      2.74579011916355
  H          -1.43611070073685      0.88093642215823      3.18001729802997
  C          -0.67018309871529      1.74972957082696      1.37436325080601
  H          -1.08501403508663      2.75110454108860      1.52519982758180
  O          -1.60018191823882      0.93415408638109      0.65287194812068
  Si         -1.79894950042150      1.06707677324684     -1.00100317717733
  C          -3.22027284739898      2.21962874456235     -1.39240561073524
  C          -4.58228847640389      1.65234428432811     -0.97025443101534
  C          -2.99481513364379      3.60370806371864     -0.76574989813810
  C          -1.95355989467872     -0.65959212612763     -1.69614444116488
  C          -2.96174840084349     -1.55898091508457     -0.96767249816111
  C          -2.24428672368934     -0.61572867698525     -3.20375092742606
  O          -0.38886664179612      1.71555774029779     -1.58635285224083
  C           0.50995695918499      2.44947059387534     -0.76218353742913
  C           0.65663182138358      1.87159456040823      0.63209800702673
  H           1.30273183267654      2.55443667513091      1.19489999357144
  O           1.28320730655609      0.58982878636618      0.51173465298254
  C           1.57568053281955     -0.01509513192811      1.75340745583902
  H           2.02880186617697     -0.97876539770941      1.49945933267350
  O           2.46415596941344      0.75995844159284      2.52407325236481
  C           3.73694486681129      0.95468119637443      1.90622618978045
  C           0.31401353075587     -0.22230674580426      2.59639833031638
  O          -0.49173401343956     -1.23450369151032      2.01406152462813
  H           1.15687863655505      1.92820444873977      3.45402483107810
  H          -3.21848023600429      2.33550378811147     -2.48459526108984
  H          -5.37349490489976      2.38822713022365     -1.14892581231295
  H          -4.59670005382314      1.40601581557924      0.09655444906161
  H          -4.83916152672118      0.74924093746824     -1.52755209373405
  H          -3.79821676126734      4.28911658393910     -1.05511216682216
  H          -2.04810892244192      4.04988939075912     -1.08087120916030
  H          -2.99457438554332      3.54432110162327      0.32706224495228
  H          -0.95254470236531     -1.08878718511279     -1.55205114799555
  H          -2.88341652521766     -2.58741079641820     -1.33515957069797
  H          -3.98851344785949     -1.22870675554676     -1.14041478621851
  H          -2.79964434654586     -1.58007683086984      0.11306952787199
  H          -1.50813320156195     -0.01330923028819     -3.74405657261373
  H          -3.23379742941365     -0.19001885067923     -3.39813290258389
  H          -2.22893610155975     -1.62429343008842     -3.62943698619568
  H           0.17607583997276      3.48853710804876     -0.66859506328314
  H           1.48636984822166      2.44507083973165     -1.25188469212076
  H           4.17386542899111     -0.01117633968832      1.63198205017257
  H           4.37065547890443      1.44913906637560      2.64129614906589
  H           3.65014357585266      1.58062011563680      1.01468279801086
  H           0.61627416585145     -0.57292594430262      3.58562354506552
  H          -0.99528974646015     -0.81139296521748      1.30228860652781
