46
Coordinates from ORCA-job goat_0_153 E -1252.758567001552
  O          -1.55105645172497     -0.38414830327549      2.70975151012413
  C          -0.48595510920106      0.08719572247600      1.89543836837236
  H          -0.38058259682344     -0.55864762622690      1.01362637712054
  C          -0.80659123105853      1.51103077908348      1.46272433222879
  H          -0.98850352815867      2.09756656325619      2.36874229441632
  O          -1.99471529970795      1.56724394252461      0.68718749676642
  Si         -2.02661511774682      1.38795670529136     -0.96486315313094
  C          -3.33435233668275      2.53042854053755     -1.64598899112862
  C          -4.74858374471671      2.11666915002997     -1.21429239512150
  C          -3.04424527268051      3.98405506140179     -1.24684398325931
  C          -2.20897121248527     -0.41578366099984     -1.43963116989071
  C          -3.20529953161155     -1.19322096753377     -0.57033412859598
  C          -2.54067775201854     -0.55104385842850     -2.93320789221595
  O          -0.54988378838007      1.93956170221507     -1.50445399582879
  C           0.58268768295243      1.61449578281114     -0.70153759605128
  C           0.38053163517537      2.14938515764061      0.72050637930820
  H           0.18138960771802      3.21995591968551      0.63421929185362
  O           1.56656567628325      2.04732400288397      1.50327665196703
  C           1.93265946449444      0.71595382409026      1.85094766582615
  H           2.13656388079887      0.12825952036646      0.94467709203213
  O           3.06960185110905      0.77546488593827      2.64463627775458
  C           4.26098984490147      1.06705637670065      1.91189948108667
  C           0.82369879190088      0.07000828865276      2.66783940001937
  O           1.12136458798846     -1.28820675937209      2.95825998460180
  H          -1.29511867268743     -1.25791820550554      3.03045947874463
  H          -3.27134352432020      2.45236835647431     -2.73920787449689
  H          -5.48725743984046      2.82805376056991     -1.59808187925125
  H          -4.84025877762408      2.10277786415380     -0.12352480488311
  H          -5.01823658191134      1.12573488457468     -1.58652876605089
  H          -2.05432249651116      4.30660031544310     -1.57864959652188
  H          -3.08944196218142      4.10510764532131     -0.16024601059060
  H          -3.78645862492244      4.65785218562698     -1.68752684078196
  H          -1.21399621771920     -0.85351203379817     -1.27856041964686
  H          -2.94684622111529     -1.13190846743444      0.48914361368337
  H          -3.21769661436968     -2.25059019203664     -0.85636014395677
  H          -4.22323256976556     -0.81167435338818     -0.68933271264997
  H          -3.53512459917991     -0.15049212379010     -3.15267132111251
  H          -2.53424601101745     -1.60286331343735     -3.23739647687568
  H          -1.82021108542686     -0.01747887378937     -3.56060873246487
  H           1.46083747599271      2.09907146700167     -1.13359007261510
  H           0.75348115838054      0.53302002534089     -0.71482568481183
  H           5.08798978041763      1.00165958203487      2.61801123058522
  H           4.22201705638906      2.07286720973599      1.48621337765725
  H           4.40405321671161      0.33494168802831      1.10989238302539
  H           0.70308498232512      0.64773789609069      3.59265060677189
  H           1.87625767805032     -1.30366606696550      3.55842134798756
