46
Coordinates from ORCA-job goat_0_236 E -1252.757619471472
  O          -1.36617200707475     -0.23456731966998      2.92580851258837
  C          -0.36959398279755      0.19021742273772      2.00243874188402
  H          -0.29197345227973     -0.53948749532752      1.18588319870397
  C          -0.68831992389371      1.56501851005199      1.43296698179089
  H          -0.84226173330511      2.25154092529160      2.27104475970310
  O          -1.90773931178365      1.51698300328048      0.70093542454268
  Si         -2.00529117143165      1.28114730196068     -0.94464581788584
  C          -3.24537884123103      2.48596433102888     -1.64614317828416
  C          -4.68520523541607      2.17192154264307     -1.21674360618940
  C          -2.86330460020757      3.92492939422382     -1.27130039723715
  C          -2.32316663426205     -0.52449840726867     -1.32859183891480
  C          -3.40693627264930     -1.18164710532965     -0.46548226198854
  C          -2.61668859567117     -0.70970812816720     -2.82502345895690
  O          -0.51708790926582      1.70464510727991     -1.55885529545129
  C           0.62881680898754      1.40799349964824     -0.76430743150048
  C           0.48458608926759      2.09482154804841      0.59609863311080
  H           0.31374098936250      3.15590447130297      0.39971229563669
  O           1.68039429857134      2.04390473819472      1.36685098634160
  C           2.04474637408389      0.75364338274581      1.85245009073015
  H           2.21502362057512      0.06756753995975      1.01014949814737
  O           3.20700948565575      0.89962911487770      2.59252099150409
  C           4.36734306936660      1.11184067331354      1.78749948653556
  C           0.94856361517330      0.21407937983201      2.75885430018552
  O           1.31679943461328     -1.09079365569439      3.17824763922876
  H          -2.20580478823647     -0.27717991060511      2.45332205137679
  H          -3.18191448890927      2.38471808582809     -2.73767323205877
  H          -4.78199454047887      2.16854519622217     -0.12617933052023
  H          -5.02006485677532      1.20039384405599     -1.58691572312888
  H          -5.37253163031395      2.93033805606210     -1.60585286806415
  H          -2.91113302649430      4.06964083092845     -0.18767468769710
  H          -3.55455043457385      4.63759129698633     -1.73302433705175
  H          -1.85080206230876      4.17453448583792     -1.59819476545556
  H          -1.37026480759440     -1.02597702056312     -1.10780755031870
  H          -4.39006845810057     -0.74132501431085     -0.65024075122214
  H          -3.19476546385870     -1.08210003851116      0.60144855484064
  H          -3.47935084671116     -2.25074492767352     -0.69149412643115
  H          -3.56790801952774     -0.24229082561665     -3.09821750620656
  H          -2.68664846779459     -1.77272577503815     -3.07770679092371
  H          -1.83560155198787     -0.26789073086064     -3.45080787132669
  H           1.51048674491687      1.80833065931554     -1.26913802877663
  H           0.75421423408923      0.32397615139047     -0.67273001554485
  H           5.22107735080199      1.11969253995959      2.46431352663478
  H           4.31085328858735      2.06706036309406      1.25941641806219
  H           4.48272534630642      0.29918528498449      1.06198319721529
  H           0.85772927338675      0.88812648711528      3.62064019918049
  H           0.55236309118945     -1.46669881356525      3.63242538319169
