46
Coordinates from ORCA-job goat_0_44 E -1252.763563020008
  O           0.13804972974019      1.22834874689019      3.75581110032731
  C          -0.42785485348850      0.47914827149826      2.68996668690462
  H          -1.35187131537927     -0.01441850037232      3.01041470656021
  C          -0.75357380279100      1.38805826852985      1.50167092444919
  H          -1.32159144162329      2.25487890383546      1.86170587285802
  O          -1.54949173925310      0.62525220786255      0.58858563715629
  Si         -1.90312485221220      1.30156054969977     -0.89898493600639
  C          -3.25191955745518      2.58050008680997     -0.68022234658176
  C          -3.59606876108569      3.25635793725704     -2.01465772817773
  C          -4.51035007366224      2.04419191103240      0.01282056889996
  C          -2.25324549114995     -0.09367051577701     -2.08675845873178
  C          -0.95601843460826     -0.79050618938617     -2.52221119369874
  C          -3.23489494153916     -1.11182215961412     -1.48492616368181
  O          -0.51517138031404      2.07800648965181     -1.37618218334341
  C           0.26241826473957      2.74577354194210     -0.38357408792671
  C           0.52932315363720      1.87795680383324      0.83433444144440
  H           1.08474818756929      2.47884331101988      1.56240165187963
  O           1.31839170009793      0.76613031130621      0.40731361986537
  C           1.74462740090328     -0.07038319717017      1.46450066049270
  H           2.24804697466848     -0.90646565828153      0.96535857621068
  O           2.62849203063708      0.57962742143232      2.33414893595783
  C           3.84523831486436      0.96468024121266      1.70053075090277
  C           0.56100396472080     -0.61412731178899      2.27253007589899
  O          -0.10832851465565     -1.60826792798598      1.50515158636860
  H          -0.55725943496815      1.78567211031452      4.12440332324401
  H          -2.80493643169968      3.34042372394822     -0.02318460020456
  H          -4.05551575649291      2.54356450197975     -2.70700459578256
  H          -2.70872854286922      3.67124755333691     -2.50106258082523
  H          -4.30891798726083      4.07374430017334     -1.86346674047006
  H          -5.20138435063623      2.86223185654662      0.24217274550634
  H          -4.27346451350208      1.53158688062031      0.94919766094850
  H          -5.04418502993444      1.33903803418221     -0.63051487766069
  H          -2.72125364555336      0.35428574923067     -2.97257545973007
  H          -0.43575985157723     -1.22295005637861     -1.66167607517736
  H          -0.26845568620673     -0.09922528093873     -3.01373265072223
  H          -1.17819507144221     -1.60622099942082     -3.21816025451898
  H          -2.81417213436270     -1.57550005922015     -0.58749381477149
  H          -3.43979379028968     -1.91073519439006     -2.20481432277938
  H          -4.18976986405668     -0.65830930504271     -1.21052736596603
  H          -0.24285142591992      3.66146624333990     -0.05400207042089
  H           1.21366795808846      3.02332620710929     -0.84241797101338
  H           3.67591468121077      1.75556660811677      0.96446130807765
  H           4.31018813013974      0.10467501468636      1.20437493533433
  H           4.50673097415113      1.33401027765717      2.48401245328611
  H           0.95248078235644     -1.10207680943400      3.16706679365481
  H          -0.67722357153488     -1.13922489985442      0.87547546196302
