46
Coordinates from ORCA-job goat_0_54 E -1252.764064182094
  O           0.14059552787386      1.47178816485573      3.75475165263598
  C          -0.53492221312717      0.69288142144093      2.77792487254927
  H          -1.48528318244526      0.31645198329486      3.17208177204274
  C          -0.82404831411996      1.52983742503553      1.52856200315217
  H          -1.30019653014712      2.46835444839098      1.83400546227500
  O          -1.71431517278941      0.77356623321676      0.70202594736100
  Si         -1.99168677075232      1.20611429966456     -0.88886736477358
  C          -3.51699157922040      2.28575781856172     -0.99060753558462
  C          -3.37036722193672      3.56019644312377     -0.14808045857392
  C          -3.85247988713564      2.63260958431712     -2.44842993053237
  C          -2.16053308694094     -0.34520638670746     -1.91299931794732
  C          -0.86453507696923     -1.16158479065725     -1.98245973324911
  C          -3.33239296924278     -1.20421001985777     -1.41304774766661
  O          -0.65450372238194      2.05020099817579     -1.38247504889431
  C           0.24565794126360      2.66502028433810     -0.46429818721421
  C           0.47244066137928      1.84778080100847      0.79323990339896
  H           1.11074908352265      2.43358014742523      1.46306864955958
  O           1.12962795340882      0.63596471962196      0.41877170429315
  C           1.51845758156878     -0.16313642203667      1.51899523551095
  H           1.90675176637972     -1.08234954874701      1.06537801175010
  O           2.50829114717232      0.45098717855263      2.29652452555255
  C           3.72603476429818      0.65203842774630      1.58461935569036
  C           0.33212215315603     -0.51858394225960      2.42350839506630
  O          -0.46342895395144     -1.51214107511828      1.78703525622507
  H          -0.48311203445350      2.12500136095043      4.09282254798484
  H          -4.34484538213614      1.69508454366872     -0.57710509233078
  H          -4.27524977828463      4.17315108122895     -0.21781042551716
  H          -2.53321021468640      4.17155863368695     -0.49967408004564
  H          -3.20402035688523      3.33537816683724      0.90860474795090
  H          -3.02987845108426      3.17995702546872     -2.92059334544340
  H          -4.74250167346061      3.26865280523029     -2.49812437047868
  H          -4.04709305513325      1.73922964965814     -3.04770912283969
  H          -2.39958850904285     -0.00239256648630     -2.92821817768838
  H          -0.03079240449113     -0.56486140765900     -2.35948391467283
  H          -0.99316937364215     -2.02460726547725     -2.64430476075443
  H          -0.58027491537494     -1.54188313693317     -0.99772886734139
  H          -3.15412369893452     -1.55293223401392     -0.39049029972065
  H          -3.45767824569794     -2.08870836084542     -2.04585391635612
  H          -4.27708811485539     -0.65328204868924     -1.41896301051706
  H          -0.13283866195446      3.65036660296381     -0.17099712198200
  H           1.19945846466695      2.80090361704181     -0.97925011091678
  H           4.45861461844561      1.01260674449974      2.30647248773044
  H           3.60306311460714      1.39289855773058      0.78972215103793
  H           4.07633463357019     -0.29035946599143      1.14734840942008
  H           0.72558047525242     -0.95670947786127      3.34259733798067
  H          -1.03868033528769     -1.04872101839488      1.15977151187300
