46
Coordinates from ORCA-job goat_0_210 E -1252.755157860468
  O          -0.82859531139710     -1.32305871086689      2.67842486230016
  C           0.16427861638170     -0.66547618314014      1.90451788240336
  H           0.53476825461406     -1.33721983925498      1.11973696420512
  C          -0.40070022942047      0.58180368623453      1.24166455891732
  H          -0.71325535124999      1.28882784994501      2.01673844121272
  O          -1.55308753963168      0.17363228494427      0.50818767780468
  Si         -2.06838932511636      0.98426629006212     -0.85060217479982
  C          -2.92006559198603      2.57875446727737     -0.37479091018094
  C          -2.97910949242783      3.61373829450510     -1.50584460950408
  C          -4.31027259190508      2.30920450386989      0.21771637371370
  C          -3.09763294663976     -0.23968452550801     -1.81330689073374
  C          -3.69269821635622      0.37794778920587     -3.08640240211096
  C          -2.26608002184415     -1.48649110464245     -2.14823710452853
  O          -0.65952408621183      1.36261634074877     -1.65532116755232
  C           0.54407763226793      0.82338998933387     -1.11517262635987
  C           0.68310805760494      1.22948917304970      0.34706649340379
  H           0.59663973705634      2.31944229392908      0.40598948176848
  O           1.99829720876092      0.83468045218892      0.74568552638305
  C           2.18335834930106      0.79872603465579      2.14733493218045
  H           3.24627208653962      0.56861400864877      2.28037596738935
  O           1.86281271289942      2.02219024093892      2.74990038270780
  C           2.73073508273155      3.08342641838110      2.35407534329419
  C           1.32582454208688     -0.29816223791001      2.80668871456995
  O           2.08583083772346     -1.48032636581425      3.02949109749192
  H          -1.58975392803307     -1.44726004090209      2.09668822198163
  H          -2.28480480228508      2.99156575017580      0.42213159637450
  H          -1.98653525977029      3.82142223824612     -1.91325590168861
  H          -3.39781248163115      4.55692753374193     -1.13899007327917
  H          -3.61405523647369      3.27276596219106     -2.32791920124338
  H          -4.75617573373372      3.23453461048817      0.59694107997889
  H          -4.26800784423339      1.59475509229287      1.04539416510600
  H          -4.98810092185267      1.90305285561085     -0.53949706409276
  H          -3.92383398701833     -0.53963817163167     -1.15541234815346
  H          -2.90740387624896      0.77283029589907     -3.73943431854841
  H          -4.38352498288968      1.19356936058888     -2.86139688419013
  H          -4.24413273746503     -0.37790243083927     -3.65527533063386
  H          -1.42207285055937     -1.22900686343286     -2.79615060000105
  H          -2.87708438996908     -2.22398648642191     -2.67909003051810
  H          -1.86573358591287     -1.96190944070699     -1.24931972458495
  H           1.38410365656183      1.23469386942802     -1.67797201632385
  H           0.56299899844685     -0.26767965908734     -1.21064378574585
  H           2.45140989577760      3.95522571788705      2.94489610342968
  H           2.61973224869107      3.31269870069227      1.29085573782321
  H           3.77407053216217      2.81923670063428      2.55965610396407
  H           0.93462940010520      0.09110882823032      3.75170649497326
  H           2.67944547255033     -1.32108557386684      3.77243096139648
