46
Coordinates from ORCA-job goat_0_103 E -1252.750631812680
  O          -0.74002102524124     -0.87463265259237      2.66851102146571
  C          -0.04898672908735     -0.37514327632174      1.52896273804046
  H          -0.42265802687436     -0.95878434758707      0.68723696544243
  C          -0.37723658897392      1.10257405585497      1.30717208708015
  H          -0.34700854948386      1.59933140084143      2.27879158707335
  O          -1.69904451524912      1.26848792511541      0.81073556586064
  Si         -2.09489230387119      1.21255601991599     -0.80358115372272
  C          -3.51040649938248      2.39495884376158     -1.11427377987985
  C          -3.48733548538292      3.58011485134711     -0.13930982071647
  C          -3.50904875312992      2.90107090398532     -2.56613652359924
  C          -2.45618239684447     -0.55737539300169     -1.30337726601567
  C          -3.41524910040278     -1.23228367756199     -0.31318250816576
  C          -2.99103092834603     -0.65730170994606     -2.73828912689059
  O          -0.75100531125854      1.77299572051328     -1.60915348823319
  C           0.51377011932138      1.37935456760622     -1.07559687907026
  C           0.63249840884972      1.80432661114821      0.38947326877758
  H           0.42808909025336      2.87856476333197      0.44119456185784
  O           1.99106598934249      1.61298636286683      0.79991717829546
  C           2.24549577385388      0.66480034646210      1.80941003301073
  H           3.32613356371521      0.48562202378754      1.74588771291167
  O           1.91145099729697      1.12752974682428      3.09312639384461
  C           2.65709163061544      2.27502333759909      3.49201825454707
  C           1.46745515050682     -0.63125786964027      1.60831032830024
  O           1.86280820549585     -1.26886830676976      0.39921435236723
  H          -0.46626251520533     -0.35389620246492      3.43415621787087
  H          -4.43581531228288      1.82771953053451     -0.94991504834261
  H          -2.55524391356624      4.14652528085718     -0.23565212058247
  H          -3.57249734516129      3.25468551392355      0.89940976996331
  H          -4.31445560831207      4.26545085290208     -0.35292309916991
  H          -2.60871386460536      3.48768139133324     -2.76923183074088
  H          -4.37461448292820      3.54828277024331     -2.74161355045387
  H          -3.54742100853246      2.08778993030504     -3.29406690267718
  H          -1.49530104074932     -1.08776258181517     -1.26722001091473
  H          -4.38026371985114     -0.71472066043647     -0.28678194110970
  H          -3.01187348719637     -1.23810850824829      0.70234188801474
  H          -3.60837245742870     -2.26936945442960     -0.60742519114268
  H          -3.10102381465485     -1.70565594621110     -3.03495786396510
  H          -2.32551822648368     -0.17322715504134     -3.45884197953126
  H          -3.97611355562309     -0.18846362388872     -2.82283363774530
  H           1.29456873138934      1.88521694919252     -1.64726065152072
  H           0.66182888746587      0.30002810156159     -1.17785858767958
  H           2.39836365132600      3.14417890877045      2.88170269445725
  H           3.73253435587006      2.08091056038846      3.40923157900717
  H           2.40186964992225      2.47148758897690      4.53293072362564
  H           1.66209481079287     -1.28030634119706      2.46720044541918
  H           2.80042755009141     -1.48684715279639      0.46280759463659
