46
Coordinates from ORCA-job goat_0_52 E -1252.756852415465
  O          -1.41331878344948     -0.27473283885779      3.26649031910476
  C          -0.30469553769554     -0.08189258224853      2.39545722114415
  H          -0.00224642961881     -1.03855159152370      1.95503418213285
  C          -0.62280883790468      0.89521282611841      1.27320356560272
  H          -1.20929473429561      1.71641036439053      1.70084517145985
  O          -1.40476028294791      0.21231863795412      0.29368344935698
  Si         -1.89041755178677      1.13413804285376     -1.01089632149814
  C          -3.36075559611829      2.20230721150781     -0.57939710170146
  C          -3.55133000518178      3.38828805072397     -1.53481089366865
  C          -4.65176299588073      1.38477294572309     -0.43906014886081
  C          -2.05783133168523     -0.05103507955755     -2.44444191752031
  C          -2.86036564013291     -1.31299795918444     -2.09868664714426
  C          -2.60878325141548      0.63152076675492     -3.70349309598855
  O          -0.60034518898643      2.17266159581917     -1.23087886155197
  C           0.65171080402045      1.62946277269004     -0.81572736867047
  C           0.69021051142082      1.47739499385650      0.70218918370664
  H           0.86403258609004      2.45417145341523      1.16544681629595
  O           1.79345891299549      0.61714415064549      0.99032538859040
  C           2.10070987457964      0.55711334375882      2.36910855542114
  H           2.69162040231378     -0.35774342309317      2.48838833859795
  O           2.83471543130166      1.67027347669103      2.79696087354701
  C           4.15116401062603      1.71522022775140      2.24953548493461
  C           0.83891815570389      0.46970166277360      3.23036903135936
  O           1.13069173123292     -0.36398376160746      4.34097736598862
  H          -2.06828568930606     -0.80892652034606      2.80306365003637
  H          -3.10968885816945      2.60931720838420      0.41017793631559
  H          -2.64223801168025      3.98863817840938     -1.62090585550285
  H          -4.35362657463088      4.04154548156788     -1.17558976261395
  H          -3.82770801135201      3.05169708484261     -2.53754130697243
  H          -4.52731072613406      0.53692179662792      0.24110100460387
  H          -4.97641594002597      0.99306434651422     -1.40726851690488
  H          -5.46163915436620      2.01003030447214     -0.04910534374265
  H          -1.02340340404763     -0.35893607566894     -2.65188503226287
  H          -2.83908826119165     -2.01870318679741     -2.93595410164038
  H          -3.90834573857375     -1.07506529477555     -1.89766443038269
  H          -2.45631086884298     -1.82106459806568     -1.21970965567457
  H          -2.04864618350174      1.53583006648518     -3.95929825898693
  H          -3.65732427928215      0.91300622694200     -3.57092406763770
  H          -2.55701943813139     -0.04747374400018     -4.56091089813430
  H           1.44490058527568      2.30215580301984     -1.14495791168641
  H           0.82632648513953      0.64738903011740     -1.27062591719586
  H           4.69717387161714      0.79521078402801      2.48735249135408
  H           4.65513161859887      2.56593062919667      2.70748973176708
  H           4.12255053203618      1.84935650494753      1.16501782628208
  H           0.57400983922108      1.47793714984486      3.57599856131754
  H           0.29239195416266     -0.52878646310138      4.79177726702327
