46
Coordinates from ORCA-job goat_0_152 E -1252.755208261591
  O          -0.51700480675560     -1.50973866534300      2.47176766030538
  C           0.38019730418837     -0.73274604566900      1.69158255587466
  H           0.73794103995179     -1.31859023564972      0.83531831857912
  C          -0.30402609362035      0.51988388783515      1.16603952709580
  H          -0.60798450583729      1.14328236896192      2.01314883570084
  O          -1.47563637292730      0.09168499358526      0.47522900552155
  Si         -2.13454161527957      0.98032500042543     -0.76804143745739
  C          -3.03424311393327      2.47235559070324     -0.09136007643155
  C          -3.22708259012621      3.60168607423328     -1.11147963986716
  C          -4.36406445250119      2.06657350256452      0.55909973485257
  C          -3.16453864368020     -0.21494569766003     -1.76417336569791
  C          -3.86276299851635      0.47305159949198     -2.94566384874836
  C          -2.29992988458840     -1.38776797363416     -2.24866726609934
  O          -0.81142782717838      1.50744570947493     -1.63255776230336
  C           0.45771912125218      1.00829546200295     -1.21841574509544
  C           0.67431644348164      1.30540024870203      0.26039608578744
  H           0.52732460917113      2.37937928895331      0.41540179582953
  O           2.03491268041558      0.96615486843189      0.53896123028871
  C           2.31995910231872      0.83761016691873      1.91833854765438
  H           3.40079929745132      0.66382992142314      1.96218609384015
  O           1.97498016119313      1.99144114213940      2.63430116942728
  C           2.75081049559040      3.13033371065846      2.26385502485606
  C           1.57401834054437     -0.35533434003000      2.54605644215368
  O           2.41674532723355     -1.49840037887262      2.63664297033245
  H          -1.30808583473002     -1.63537236330630      1.93172712046168
  H          -2.36889497856370      2.84737551672638      0.69971937806831
  H          -3.66768529323542      4.48078428369215     -0.62922180659534
  H          -3.89994842824811      3.30127711823871     -1.91910384432157
  H          -2.27819666332397      3.90434863253738     -1.56112844053897
  H          -5.07022733879073      1.69590081417058     -0.19033760820259
  H          -4.82994808635040      2.92381446464077      1.05599707890387
  H          -4.22798196197491      1.27987742052966      1.30738053872944
  H          -3.93535408348476     -0.60626015538847     -1.08753322998288
  H          -3.13707903934469      0.95785768595278     -3.60702024444579
  H          -4.57503224620974      1.23247751181198     -2.61524661685270
  H          -4.41296520695409     -0.26105820912653     -3.54347240570555
  H          -1.51227953039616     -1.03770421316984     -2.92356459397232
  H          -2.90922277888949     -2.11182060997539     -2.79963429043338
  H          -1.82109137288282     -1.91098973598299     -1.41732883611113
  H           1.22923330612611      1.51775164536377     -1.79874506806730
  H           0.53577642342421     -0.06808476650801     -1.40598548621412
  H           2.47068136736584      3.93598460092714      2.94177324049122
  H           2.54595341315027      3.43321444294903      1.23349249182465
  H           3.81966877894769      2.91463324930929      2.37134261416943
  H           1.22201029321611     -0.05819849896228      3.53879181949609
  H           3.04813824330079     -1.35076903407699      3.35039233289984
