46
Coordinates from ORCA-job goat_0_232 E -1252.758080784913
  O           0.10164323167509      2.15369875316873      3.55472317177114
  C          -0.49800067826764      1.16827548782555      2.72061839922051
  H          -1.47992194811132      0.87466349656413      3.10765044399632
  C          -0.70169143783499      1.84162094385754      1.36240400467067
  H          -1.05645622389359      2.86144146550210      1.55153022335126
  O          -1.68721548483288      1.11873944603942      0.64111700247644
  Si         -1.81927361111557      1.13800757093495     -1.01270433074664
  C          -3.25881765060167      2.22864508708993     -1.50861331242856
  C          -4.60987614189544      1.68204194889295     -1.02871168766711
  C          -3.04028378765367      3.66078656789029     -0.99895079350689
  C          -1.92010653424461     -0.62119367992921     -1.63959816078418
  C          -2.84878266504866     -1.52516623752270     -0.81823299113389
  C          -2.28286450347011     -0.65803230321637     -3.13118284927557
  O          -0.41759226634562      1.80339517827680     -1.60721424935601
  C           0.47515558928864      2.53325663464598     -0.77285654092040
  C           0.62122643707487      1.93089000804360      0.61055191942863
  H           1.29520933920756      2.57454401364094      1.18536360808467
  O           1.19662307850544      0.63110435757919      0.45985726399727
  C           1.55920394784420      0.03932958550053      1.68773392698711
  H           1.92169512801160     -0.95968957165141      1.41376054066385
  O           2.57152176913237      0.75368677485063      2.34425317012137
  C           3.78510525312496      0.80714274722732      1.59892391117994
  C           0.37020056697142     -0.09591994846286      2.64742734251390
  O          -0.46544520406896     -1.17151351472702      2.23715744224811
  H           0.28383861013505      1.75543971668311      4.41341384482960
  H          -3.26610630303747      2.25321595573796     -2.60642579461916
  H          -4.84704234663626      0.71898392095757     -1.48633658980815
  H          -5.41740265821117      2.37759444546797     -1.28176188317441
  H          -4.61878437993709      1.54887338626377      0.05809360895975
  H          -2.11168849484967      4.09289844117540     -1.38117144930269
  H          -2.99847553181689      3.68649211347895      0.09488948253018
  H          -3.86438514956286      4.31120829633178     -1.31097732619580
  H          -0.89582996161910     -1.00085167656571     -1.52618597702998
  H          -2.58159125879018     -1.52052950684669      0.24080733482102
  H          -2.78838044663716     -2.55828536214678     -1.17753638412536
  H          -3.89264917923313     -1.21203766046152     -0.90327229719958
  H          -1.60732356804276     -0.04099725325949     -3.73150836002387
  H          -3.30184171016136     -0.29374737532472     -3.29563950317328
  H          -2.23213891444341     -1.68160337295817     -3.51705253899744
  H           0.13316878388977      3.56876312984283     -0.66370862606783
  H           1.45181066439841      2.54347978594527     -1.26251710999511
  H           3.67001369534721      1.41474642124211      0.69714127280012
  H           4.10670248308595     -0.20164501362632      1.31456932410759
  H           4.53488209981697      1.25884084092052      2.24810500140746
  H           0.77275946183431     -0.29146909758642      3.64797639502184
  H           0.02315790101924     -1.99287494729213      2.36435012034347
