46
Coordinates from ORCA-job goat_0_214 E -1252.757641692545
  O          -1.41702780437194     -0.36715829782360      2.83982078063056
  C          -0.40044730528034      0.10695081923663      1.96336109133174
  H          -0.30665853019088     -0.57523338558665      1.10794719303630
  C          -0.71305386863671      1.51098728356961      1.46789283320068
  H          -0.88498692532131      2.14740545445628      2.34130396825204
  O          -1.92172093297696      1.49719984912633      0.71610137576327
  Si         -1.98850250003265      1.34216697473132     -0.94119078194950
  C          -3.25695966054084      2.54570495721255     -1.59141934874349
  C          -4.68587030626265      2.17408535903328     -1.17061848423607
  C          -2.91276224118384      3.97688920003412     -1.15538130658352
  C          -2.24753574098217     -0.44664130538736     -1.43643481023082
  C          -3.29092518178482     -1.20332021891025     -0.60599338716376
  C          -2.55954717532781     -0.53899200482440     -2.93806799705821
  O          -0.50253436240213      1.83816588350640     -1.50503027469238
  C           0.63692076156501      1.50083918330747     -0.71692679361139
  C           0.47017698931299      2.09529777829853      0.68362863172954
  H           0.29970085936518      3.16683141525032      0.55583985874035
  O           1.65484409077645      1.99482600946486      1.46701295609375
  C           2.01174455434029      0.67663572985648      1.87922474645328
  H           2.18780403422104      0.04119881799076      0.99932100829308
  O           3.16753633172704      0.77564688919926      2.63663273384378
  C           4.33519996019657      1.03361388153365      1.85591624058017
  C           0.90471242334374      0.08832442535473      2.74139831010848
  O           1.26789568942252     -1.23774939294251      3.09376791050445
  H          -2.25921698818258     -0.29533554371498      2.37430996868450
  H          -3.19583000654476      2.49350227930034     -2.68628727524654
  H          -4.77820616740928      2.12812922708333     -0.08068672708036
  H          -4.99421566185267      1.20748628495767     -1.57528421999064
  H          -5.39616273777600      2.92608915057714     -1.52966967370356
  H          -3.62788221013957      4.68913756055216     -1.57989772394807
  H          -1.91063562548830      4.26999275840749     -1.47792280303002
  H          -2.95570038732027      4.07239839898855     -0.06611548486585
  H          -1.27406651897522     -0.92759060717258     -1.26650376608870
  H          -4.28692097220090     -0.76531293286823     -0.71073677854000
  H          -3.03936001044835     -1.20825786162213      0.45686741659007
  H          -3.35575653718016     -2.24607609603099     -0.93456701507426
  H          -3.53476330035434     -0.09681635966350     -3.16405315480014
  H          -2.58745384715596     -1.58395763216491     -3.26339822597960
  H          -1.80963537432180     -0.02041542624763     -3.54290696295494
  H           1.52049893590734      1.94129383502854     -1.18348817603301
  H           0.77244322038746      0.41451107455464     -0.69398436404542
  H           5.18346155594254      0.99413297980101      2.53846983613978
  H           4.28688101462749      2.02092542788483      1.38967211336597
  H           4.45309922500394      0.26854479463796      1.08073656822986
  H           0.80165211535999      0.71426889319907      3.63724251352423
  H           0.50371711914568     -1.63407551117565      3.53035748055431
