46
Coordinates from ORCA-job goat_0_229 E -1252.751540625407
  O          -0.85683187967601     -1.46106109008918      2.05061814129812
  C           0.11371979982921     -0.59789309803716      1.48118105955351
  H           0.31398293768256     -1.00695442147809      0.48619192236327
  C          -0.35949895377967      0.85022868532120      1.35912514949875
  H          -0.36179478395593      1.28810736098320      2.36193074809880
  O          -1.68934724131747      0.95653859188478      0.88568285218239
  Si         -2.14557207114619      1.20582272924275     -0.69020074044908
  C          -3.61635608862861      2.35270782169795     -0.67025408354107
  C          -3.26881681698463      3.65993788137119      0.05614640514465
  C          -4.16547740077122      2.63530039414439     -2.07573723632156
  C          -2.41911089736482     -0.45852037762201     -1.50636780221332
  C          -3.72236459939741     -1.09989403121100     -1.00859432857294
  C          -2.35987345310642     -0.41456513278336     -3.03812911492611
  O          -0.86271161816511      1.99931074165846     -1.39211621918046
  C           0.40903838709513      1.48210828146692     -1.01520182394629
  C           0.65099451570512      1.62839581493405      0.48711593663621
  H           0.59873979582667      2.69033750135926      0.74995516866514
  O           1.98781332430760      1.14857660633934      0.67291457489610
  C           2.27483706624244      0.63694136292129      1.95770823747650
  H           3.32963503061961      0.34498537051220      1.90823024808412
  O           2.07830685035048      1.59349565579924      2.96365395644549
  C           2.95940724846697      2.70993716284949      2.85009911802248
  C           1.41544100653797     -0.59913393651753      2.28684464619859
  O           2.14635681321774     -1.80409232319388      2.10912730228170
  H          -1.12654791262043     -1.09431587068287      2.90188279287337
  H          -4.39539698246907      1.83595281019939     -0.09442431153364
  H          -2.49688727097421      4.21395979637321     -0.48639325427899
  H          -2.89957611810257      3.47560747993121      1.06810821709194
  H          -4.15121858852973      4.30417180582762      0.12880315617763
  H          -3.39646644746847      3.07029012864178     -2.72214037303737
  H          -4.99408108608463      3.34926307504639     -2.02382176768182
  H          -4.53826320160256      1.72989700725136     -2.55988042873020
  H          -1.58657829086996     -1.08414683248850     -1.15809589717104
  H          -3.83121080697018     -2.11497770107932     -1.40453567861465
  H          -4.59415578442052     -0.52367426996747     -1.33411252249778
  H          -3.75186565193939     -1.16255950266638      0.08338715670742
  H          -1.41729089230546      0.01145027411661     -3.39184250557498
  H          -3.17332524165070      0.18475449405087     -3.45549573219377
  H          -2.45066615077975     -1.42374881239988     -3.45403764636265
  H           1.18044583865999      2.04450000274873     -1.54472755518773
  H           0.50378382637731      0.42867250394350     -1.30594406118607
  H           4.00220716386863      2.37362610838635      2.83331387788254
  H           2.79131305791820      3.33374093966178      3.72745398551018
  H           2.75188066355381      3.28863802357868      1.94612644857973
  H           1.16775269584749     -0.55612530833481      3.35030838208421
  H           2.31958020897407     -1.91934370369174      1.16640359944880
