46
Coordinates from ORCA-job goat_0_143 E -1252.754685927438
  O          -0.80245880614502     -1.47079845223473      2.27599120236117
  C           0.19083968113864     -0.76625863016298      1.54462173348538
  H           0.51124445303351     -1.35920252142262      0.67842544929928
  C          -0.34716975103339      0.56531550744555      1.04314929009126
  H          -0.61746228048476      1.18786481675914      1.90211141209142
  O          -1.53179620868664      0.27694650876701      0.30360071978415
  Si         -2.06547320594781      1.24964590414744     -0.93456835179254
  C          -2.85507223823051      2.81893474035663     -0.29982821260374
  C          -3.14095540549493      3.80041730627644     -1.44520007974344
  C          -4.11230355322342      2.57179888787771      0.54257742900771
  C          -3.14372330164699      0.17181050804373     -2.01603114744752
  C          -2.28030392169060     -0.75707081702921     -2.88223117183216
  C          -4.15083112862190     -0.64641994009941     -1.19325531585287
  O          -0.66780957731141      1.70339858615167     -1.72141404890067
  C           0.53296006261943      1.06353202443858     -1.29851132508612
  C           0.73364379169494      1.27920869644530      0.19640926552578
  H           0.69210823335226      2.35577778257205      0.39172601690707
  O           2.04331034257013      0.79144724184408      0.49687558986345
  C           2.27330241566907      0.58804671969534      1.87746387743676
  H           3.32904245425218      0.30254499426953      1.94318890515052
  O           2.02550706747814      1.74619722856478      2.62614532409098
  C           2.92104758309791      2.81290292146392      2.31619809691650
  C           1.39214067720684     -0.54248320680416      2.44155879078767
  O           2.11083672409299     -1.76881715518318      2.50978738558166
  H          -1.58267835453954     -1.51137063959740      1.70784006107159
  H          -2.08933083153466      3.26620752266173      0.34975157023818
  H          -3.88907799987535      3.39279960827023     -2.13298969253360
  H          -2.24014851167430      4.02408828183091     -2.02286554145979
  H          -3.53414890648338      4.74520036097527     -1.05530563474900
  H          -4.93158651258760      2.19603650721087     -0.07702257354361
  H          -4.45387762437171      3.50397571957845      1.00465387256317
  H          -3.93484032124761      1.84629570679907      1.34177417099965
  H          -3.70230555801701      0.84506655029512     -2.67934416127026
  H          -1.68136496992646     -1.42749494640960     -2.25700751450965
  H          -1.59532192860806     -0.19645940703664     -3.52264622470721
  H          -2.91210557062083     -1.38109903584053     -3.52300021303407
  H          -4.80942227537425     -0.01571444635874     -0.59233511628754
  H          -3.63045736936740     -1.32854404067433     -0.51458040136263
  H          -4.77990615905395     -1.25148079127196     -1.85446953006548
  H           1.36786286591540      1.51600380069227     -1.83689092756494
  H           0.51090734541878     -0.00714009830478     -1.52966256696363
  H           2.69881435275545      3.62236321982841      3.01082836365212
  H           2.78117282812353      3.16412891431269      1.29040081124254
  H           3.95950188109861      2.48954828410751      2.44898790519742
  H           1.04451060414547     -0.24537617291401      3.43578846056832
  H           2.72712890813628     -1.71552455033726      3.24956404739664
