46
Coordinates from ORCA-job goat_0_92 E -1252.751437226242
  O          -0.45241889683324     -1.07212616595022      2.67385886443475
  C           0.13942772747892     -0.53862025169902      1.49287240688798
  H          -0.15864619592480     -1.21029681609374      0.68626545011643
  C          -0.42486124901271      0.85536915453158      1.19900659687905
  H          -0.54585685107713      1.37215500558091      2.15352316368731
  O          -1.71923585936334      0.73534537520742      0.62102339672800
  Si         -2.16969931804518      1.12814301463389     -0.92694404940992
  C          -3.29930521180568      2.61660536068289     -0.89871592012742
  C          -2.62247328196748      3.81941716769291     -0.22975675060624
  C          -3.79214651818074      2.97164446707560     -2.30882076766918
  C          -2.97672060243897     -0.35785111341791     -1.72261218822742
  C          -2.04393964210985     -1.57544011382471     -1.72397640362035
  C          -4.32219849511991     -0.69380172483487     -1.06463904064665
  O          -0.77723795571474      1.53342824255523     -1.73772984026693
  C           0.49087146124740      1.25837687639638     -1.14547397563984
  C           0.49959655388696      1.70298072184401      0.31700554763340
  H           0.13306290229201      2.73403741766407      0.34675539786101
  O           1.85282456217955      1.73643305701103      0.78364674878213
  C           2.22324107325900      0.84162643689330      1.80620103777494
  H           3.31846187584571      0.84949800076986      1.79304730233357
  O           1.74759835086253      1.22921452533406      3.07063541052975
  C           2.25108041449054      2.49103151737512      3.50193258879061
  C           1.68073485331770     -0.55626499274167      1.56689323337494
  O           2.27598905408550     -1.01821182545878      0.36126151327606
  H          -0.21411857077628     -0.48981066625831      3.40665761374182
  H          -4.16839752316067      2.32999832155806     -0.29208087118382
  H          -2.29270506109260      3.58548383055672      0.78652160294023
  H          -3.31105939718859      4.66903859997525     -0.17242881334641
  H          -1.74581478317411      4.14094201527034     -0.80062813937484
  H          -2.95324667195157      3.22649313461629     -2.96473496195051
  H          -4.46138637645311      3.83791351095773     -2.27817853282074
  H          -4.33850968642825      2.14450641900542     -2.77045210531456
  H          -3.16503998165502     -0.06930159132391     -2.76544272995616
  H          -1.07683560957498     -1.34931083768352     -2.18226327638005
  H          -2.49198111567530     -2.40600769763242     -2.27961110871240
  H          -1.85956257285860     -1.92465643233712     -0.70373759775842
  H          -5.02621976842154      0.14060010034376     -1.12580106865899
  H          -4.18866963217043     -0.94275414355649     -0.00670329129778
  H          -4.78584082348826     -1.55875985255530     -1.55068381523488
  H           1.24738164058305      1.83102148295799     -1.68641032729466
  H           0.73585908520841      0.19664060347240     -1.23199462383754
  H           1.86817509309006      3.30194011592822      2.87690604379998
  H           3.34653313336644      2.49669404646757      3.47262856390094
  H           1.91335582673677      2.63132830315488      4.52826557316578
  H           1.97470342146094     -1.18916962362801      2.40949529637232
  H           2.04918062227142     -1.94927297651677      0.25567684632478
