46
Coordinates from ORCA-job goat_0_172 E -1252.750386369654
  O          -0.71939848502660     -0.12331390475806      2.92666601217455
  C          -0.16495074117657     -0.14509289604608      1.61494413135637
  H          -0.78279380084170     -0.84635409716444      1.05139675791549
  C          -0.27000199431846      1.23988272734735      0.96892088514590
  H          -0.05475329443664      1.97952188432235      1.74262281602630
  O          -1.59687242806402      1.49011026151873      0.52660496461771
  Si         -2.17258101141858      1.27012595586808     -1.01608718834036
  C          -3.10408455451071      2.80441713444943     -1.53273784746410
  C          -4.44616824696159      2.95499740929185     -0.80378716144211
  C          -2.23769411710895      4.05812824966757     -1.35628898822851
  C          -3.22625045748526     -0.28265662344482     -1.11267032195367
  C          -2.42515873630174     -1.52592600012130     -1.52337047433078
  C          -3.99320594103507     -0.54098835857275      0.19280364003310
  O          -0.83478856967629      1.15565595632626     -1.99594090297574
  C           0.38484890307970      0.67050996022070     -1.43622839285733
  C           0.73574169695111      1.45089865083413     -0.16883243712923
  H           0.72325197775922      2.51565087331305     -0.42330650493550
  O           2.08027235680915      1.12986647431168      0.20744285752715
  C           2.28144345941394      0.43455865738865      1.41617446106216
  H           3.30265665762753      0.04540478166419      1.34131573163391
  O           2.15718339227873      1.25913536714252      2.54765320899523
  C           3.10765077494577      2.32051827867366      2.58148489745494
  C           1.27949804823819     -0.69095791311771      1.61139898415540
  O           1.50661592210190     -1.62191623796556      0.56100212784063
  H          -0.20608383386198      0.50577859053256      3.44984662982600
  H          -3.31059330230980      2.67341113425704     -2.60422046159533
  H          -4.30107162577724      3.03109200400572      0.27884659061929
  H          -5.11195709241041      2.10943282881975     -0.99448696633227
  H          -4.96048640880884      3.86447781416443     -1.13160143455207
  H          -2.00470107150559      4.22269218872405     -0.29974319979829
  H          -2.76293453002316      4.94619257066397     -1.72334147226973
  H          -1.29170040763493      3.97725381140967     -1.89807846373556
  H          -3.96088105957235     -0.08110505824671     -1.90480105972829
  H          -1.67733867487839     -1.78663757850921     -0.76791961861379
  H          -1.90168369567862     -1.37760758522060     -2.47083527616183
  H          -3.08934143260540     -2.38982844924996     -1.63327410771286
  H          -4.59473574721396      0.31855060225138      0.49929693159028
  H          -3.30184281307822     -0.76656714536098      1.00968057183435
  H          -4.66660530223968     -1.39713794449989      0.07897071149330
  H           1.17833865967559      0.82821949997972     -2.16997903710695
  H           0.31991889226220     -0.39974671385320     -1.22698739774989
  H           4.12561257697889      1.92641967411023      2.48471704206505
  H           2.99760021887711      2.81173192410607      3.54779798574313
  H           2.92116495627084      3.04152659646401      1.78134583190020
  H           1.47052567688130     -1.15449829254321      2.58383410109437
  H           0.96228520580955     -2.39957706315422      0.73001084290956
