46
Coordinates from ORCA-job goat_0_198 E -1252.755850937998
  O          -0.84583600031831      1.77014046224884      4.07840833846459
  C          -0.58590501884828      0.91638834571527      2.96866443058394
  H          -1.22790534490425      0.02984063990606      3.00737388412063
  C          -0.92998697112348      1.68408485081384      1.68915416005449
  H          -1.59900363123288      2.50828419516902      1.96189131763373
  O          -1.57555835635653      0.79061034885446      0.78780352035126
  Si         -1.92610585633231      1.33710355276032     -0.74850059491635
  C          -3.48539927817058      2.36816058435693     -0.64304155563284
  C          -3.85022442368010      3.07236219567534     -1.95567365956144
  C          -4.66470482777200      1.54324320235212     -0.10980246724736
  C          -1.98165975600343     -0.13327781374427     -1.89732063214198
  C          -1.87121671090408      0.30015995316036     -3.36782026514092
  C          -0.87615805234405     -1.14122230846297     -1.55131682391949
  O          -0.64477379516916      2.29395664183410     -1.19811602933733
  C           0.02587617913410      3.06613605092368     -0.20672035891448
  C           0.32884796533655      2.26778178034732      1.05124545517198
  H           0.79083059233560      2.95219712931635      1.77472921814357
  O           1.24751428487275      1.23436330498025      0.68667528362527
  C           1.30377944623081      0.10288512237693      1.54198644289933
  H           0.67009582255864     -0.69213222719578      1.12557931239709
  O           2.62469881510941     -0.34229039732940      1.61749253053128
  C           3.06599516534263     -1.00210032092214      0.43128162453113
  C           0.86658689197254      0.45895371962652      2.95579082440977
  O           0.98675618850957     -0.65460292328159      3.82675753565068
  H          -0.58801792691988      1.29845870990799      4.87977397259505
  H          -3.25132549896535      3.14393718630594      0.10039058417133
  H          -3.00602436585621      3.63189766717893     -2.36819976454924
  H          -4.67570683279794      3.77488664358092     -1.79918454068160
  H          -4.17644212860354      2.35090292204228     -2.71018833048190
  H          -4.43134062458100      1.07647526286153      0.85101800463156
  H          -4.93523809142102      0.74791384004082     -0.81202631799390
  H          -5.54910117903118      2.17423906556552      0.02832915396394
  H          -2.95482633963960     -0.61943005096197     -1.75280954179433
  H          -1.92264170717758     -0.57394792990966     -4.02520417060728
  H          -0.91606746643059      0.79961208835322     -3.55445259152301
  H          -2.66950216973961      0.98474350903722     -3.66237769609032
  H           0.11265404655480     -0.67616410774228     -1.61832455918921
  H          -0.89572203162140     -1.98372046997972     -2.25079944729535
  H          -0.98972670188474     -1.53569489103814     -0.53954253552614
  H          -0.57713636882969      3.93814324854966      0.07352046669642
  H           0.96280050869674      3.42118165751497     -0.64154306116592
  H           4.06215356463597     -1.39251859674611      0.63764633415772
  H           3.11491832699410     -0.30476991608049     -0.40951795998894
  H           2.39280346630497     -1.82897338752106      0.17990372965314
  H           1.50113033985743      1.28496287975346      3.30216254744597
  H           1.90976585221209     -0.93691142019460      3.80516423181546
