46
Coordinates from ORCA-job goat_0_76 E -1252.759176299496
  O          -1.44316366784586      0.18168055050028      3.64190971745395
  C          -0.63567093684437      0.25751812023367      2.47580932921822
  H          -0.90165523158187     -0.55130162020881      1.78396879813527
  C          -0.89807131284343      1.59329932098402      1.78551667854644
  H          -1.07482591489002      2.34453677686114      2.56161567297236
  O          -2.08791338380207      1.51971372634497      1.00822538313631
  Si         -2.10170543300721      1.38641955153525     -0.64776843429422
  C          -3.68492014868789      2.21079029392332     -1.20247641693670
  C          -3.70691580888457      3.67265900896601     -0.73265551113914
  C          -3.89416516541973      2.12524065251301     -2.72055140833099
  C          -1.89793848832938     -0.39657321911936     -1.17823809339539
  C          -3.16299502502082     -1.21133097149563     -0.87598766756057
  C          -1.45036808553582     -0.56583466439242     -2.63583046801055
  O          -0.78113749321217      2.25285192340784     -1.16853247426895
  C           0.01483344722506      2.91821110061094     -0.19315410296328
  C           0.34501577502875      2.02415566686648      0.98815316026904
  H           1.00709005042944      2.58871044454980      1.65400655045792
  O           1.03278805012637      0.87082559311240      0.49546717786075
  C           1.66160892278303      0.13410760642728      1.52540505160218
  H           1.74750261981809     -0.88850019352352      1.14056945803536
  O           2.93007848661735      0.64247171732874      1.83783161888547
  C           3.88306608555754      0.45076306192060      0.79387512187856
  C           0.84025114716651      0.13492376052168      2.81786091684220
  O           1.02235478849192     -1.07812272988999      3.53776419550495
  H          -1.16325557678378     -0.60858387640684      4.12183527188183
  H          -4.50710833050920      1.67539867724509     -0.70966349582468
  H          -2.89521603385039      4.24190246259975     -1.19705607740711
  H          -3.59458168653273      3.75292418917258      0.35144679458445
  H          -4.65015694227474      4.15330985695076     -1.01286956821417
  H          -3.04895190112642      2.56216090210868     -3.26273906872448
  H          -4.79314801048757      2.67762808464156     -3.01416921519762
  H          -4.01342435602938      1.09412572335812     -3.06011519288696
  H          -1.08777559665789     -0.77327386062459     -0.54075265590476
  H          -4.00458857318678     -0.87538450207717     -1.48982811249831
  H          -3.46003124785434     -1.12394780908094      0.17365795519516
  H          -3.00181571187415     -2.27309593128084     -1.09024694915597
  H          -0.53885063406245      0.00034623054154     -2.84372744756408
  H          -2.21978591124158     -0.23101773373558     -3.33630202007085
  H          -1.24866674751773     -1.62046539918518     -2.85261326669123
  H          -0.49631861166893      3.81399491126299      0.17784634577781
  H           0.94358519094618      3.22557583707681     -0.67814258301946
  H           3.60124357641678      1.00885890175657     -0.10286390001092
  H           3.97201929946953     -0.61317903451249      0.54655224790245
  H           4.83895711446918      0.81912682875019      1.16543253968425
  H           1.14221974594362      0.98606177201890      3.43842218446397
  H           1.82645766707397     -1.00343170855761      4.06337195978146
