46
Coordinates from ORCA-job goat_0_125 E -1252.753041806813
  O          -1.00344530587440     -1.18079021706830      2.17971373511544
  C           0.05355011208849     -0.51793176953092      1.50096852908764
  H           0.20248315967706     -0.97069149372246      0.51256934008695
  C          -0.24229309508586      0.96749415754042      1.34277041355970
  H          -0.22405885160630      1.42864649385879      2.33290696952882
  O          -1.56106371841023      1.15568891275696      0.84546009890525
  Si         -1.97047984516569      1.46720572763620     -0.73757002765408
  C          -3.29882907963726      2.77780753793840     -0.73917471805506
  C          -3.88793365878752      3.02339013455276     -2.13492983867947
  C          -4.40685480424435      2.51336207181081      0.28995804786793
  C          -2.35674479052640     -0.16439047208578     -1.57569672681318
  C          -3.68109062710649     -0.76953855975317     -1.08985382317703
  C          -2.30755517927744     -0.08744662466781     -3.10727099330199
  O          -0.60297612606369      2.13607503133438     -1.40827908446833
  C           0.60764706828140      1.48704921731541     -1.03152155036385
  C           0.85382622575196      1.61331496337271      0.47091518291391
  H           0.92870362611890      2.67595541815912      0.72487008044726
  O           2.12161502969497      0.97819574638915      0.67856207467343
  C           2.33133831051238      0.44497215746567      1.96952766392889
  H           3.34906895669018      0.03989898332858      1.93413193590661
  O           2.22851944376883      1.42336152705671      2.96833272931468
  C           3.22701494797296      2.43658643080924      2.85928069946184
  C           1.33683058038673     -0.68540358938997      2.29707546919384
  O           1.88262431255337     -1.95819019843664      1.97006667293395
  H          -1.82313782842610     -0.88010599163918      1.76512320857747
  H          -2.76412237651707      3.68635273936705     -0.43012238994792
  H          -4.47010288048255      2.16107230134163     -2.47177523354104
  H          -3.11249432991524      3.21763589633166     -2.88161032579838
  H          -4.56027939357929      3.88738017486287     -2.11800335815110
  H          -4.99144882750127      1.62745772786429      0.02816953718666
  H          -5.09758433092887      3.36223548318979      0.32822252892176
  H          -4.00056054567643      2.36416253797946      1.29324494014974
  H          -1.54831599793178     -0.83349557454168     -1.25066306583480
  H          -3.73405997237220     -0.82082161994268      0.00196538073617
  H          -3.80494171904034     -1.78589359419300     -1.47799448057311
  H          -4.53318861821850     -0.17907255532522     -1.43858486230774
  H          -3.10010586458818      0.55445261165577     -3.50088572960446
  H          -2.44407738270717     -1.08235120819172     -3.54450575584076
  H          -1.35125386009230      0.30671861129137     -3.46093230254174
  H           1.43366597381036      1.96618160733650     -1.56042137275313
  H           0.59318862441688      0.42935652489259     -1.32041217278550
  H           4.22711228329854      1.98857666086484      2.85659688751951
  H           3.11825266451941      3.08091226959635      3.73114772204412
  H           3.09392804600091      3.02801041670696      1.94963593168459
  H           1.09845359119192     -0.63018276513086      3.36363643500933
  H           2.55512605302759     -2.17695384098705      2.62561559743732
