46
Coordinates from ORCA-job goat_0_61 E -1252.766165864247
  O           0.32805484068847      1.59370700723525      3.83928572742999
  C          -0.37542951714550      0.78476109221380      2.90645970222708
  H          -1.30267558619255      0.46610942424298      3.38881408923811
  C          -0.73449983992778      1.59694217582664      1.65609170969616
  H          -1.18468503292252      2.54418660283611      1.96995880491371
  O          -1.67857777091591      0.83012326410096      0.90363187621221
  Si         -1.95797264667660      1.07565003752037     -0.72772750563034
  C          -3.54478403664865      2.04764303994007     -0.91021722609414
  C          -3.44101576091871      3.38825608079127     -0.16791546619021
  C          -3.93368698080285      2.26800791153197     -2.37824602884239
  C          -1.95801064208429     -0.61096116647159     -1.53282423727132
  C          -3.22239293853633     -1.40225299617086     -1.16896907234135
  C          -1.73714486866229     -0.57299414218647     -3.05089610081593
  O          -0.67572828220914      1.95028075392582     -1.30527626893504
  C           0.22250792001456      2.64320023363378     -0.44546751792432
  C           0.51735296582256      1.89213926117189      0.83840823927559
  H           1.17990256019461      2.52586038369844      1.43803444154227
  O           1.18155602463952      0.67271243888210      0.48913039666627
  C           1.59905349410679     -0.08588422206226      1.60448077250047
  H           2.05770616903645     -0.98448786939973      1.17934151357703
  O           2.52797075043640      0.61361034376458      2.39971052482581
  C           3.73446623541881      0.94519727558786      1.71142657403337
  C           0.42857289053214     -0.46333021357824      2.51826600513267
  O          -0.38972043090093     -1.43572211402263      1.88735768124942
  H           1.26370251444092      1.59070417155065      3.58788319795825
  H          -4.33026375883020      1.44894045655378     -0.43039453919131
  H          -3.21668462703958      3.25299043411697      0.89350334314140
  H          -4.38312431169280      3.94142356896251     -0.24155371803273
  H          -2.65672685619814      4.01682194094868     -0.60167348351999
  H          -3.13612701042054      2.77991093657422     -2.92666012735020
  H          -4.83220396545822      2.89043886569511     -2.44665026797284
  H          -4.14278663696599      1.32660310661456     -2.89108570352220
  H          -1.09327459042067     -1.12038488165036     -1.08648569214316
  H          -3.16569503597871     -2.42296286698557     -1.56085028062418
  H          -4.11464971982860     -0.93331809239710     -1.59532445086446
  H          -3.36516144912059     -1.46830355980660     -0.08589505978131
  H          -1.63178572347081     -1.58982091632040     -3.44361123939401
  H          -0.83440977877249     -0.01570520343225     -3.31338988424762
  H          -2.58064535914773     -0.10948885739702     -3.56875902950931
  H          -0.18723979981833      3.62474799863492     -0.18275253009243
  H           1.15514103438477      2.79309635554814     -0.99410089184456
  H           4.17591914512904      0.04508226603823      1.27103616912252
  H           4.41445795703876      1.36281350484008      2.45279357190236
  H           3.55000762028785      1.68126501292524      0.92507898228707
  H           0.83859638411093     -0.91813569327829      3.42280180947972
  H          -1.00391554857526     -0.95322315074758      1.31349118972386
