46
Coordinates from ORCA-job goat_0_202 E -1252.759569893717
  O           0.32794576935121      1.17176214778521      3.59085937623719
  C          -0.22793722241185      0.45860984650317      2.49518453410522
  H          -1.07774192290241     -0.15144544581797      2.82047203388655
  C          -0.71360770607760      1.42208541567801      1.40966354123615
  H          -1.34273248582079      2.19319031182386      1.87151062772274
  O          -1.48115643143136      0.65640425036806      0.47535441555704
  Si         -1.98275550234002      1.40661677146423     -0.93234688716726
  C          -3.43325476107643      2.52383571067643     -0.54505760030905
  C          -3.90927920006634      3.26854893598351     -1.79998549791977
  C          -4.59670748755575      1.81036296759109      0.15403163902973
  C          -2.26529069765539      0.07746950194754     -2.21030702860103
  C          -0.93559716749912     -0.45425041032919     -2.76447871351680
  C          -3.11142614013078     -1.07418646900981     -1.64450628579000
  O          -0.70417015894171      2.35210813624751     -1.40926816540316
  C           0.05372456739426      3.02145226239687     -0.40296875497565
  C           0.47302174673961      2.09657116901547      0.72689645010008
  H           1.00314992125243      2.69512250137299      1.47470763337569
  O           1.35105837317918      1.11291503745113      0.17023835001944
  C           1.91377861968327      0.24160915806068      1.11344471092169
  H           2.46469013519747     -0.50679622243717      0.53157506422962
  O           2.80900233400820      0.97778913541630      1.91886907836754
  C           3.84089404365482      0.18285509927714      2.48820345907044
  C           0.83593317623854     -0.48714575868143      1.93243164452106
  O           0.22572377211975     -1.48363868487643      1.11841614829884
  H          -0.39368460805537      1.62213187357881      4.04517269272670
  H          -3.02730903819775      3.26839059131962      0.15482878099320
  H          -4.33098610041585      2.57234207214003     -2.53210442958167
  H          -3.09274013778720      3.81071687135668     -2.28512126766683
  H          -4.69040872705256      3.99330842994680     -1.54777187035333
  H          -4.26325055919500      1.25100504568156      1.03244169296462
  H          -5.09247305059089      1.10912329734465     -0.52308738122229
  H          -5.35022332964713      2.53442102951439      0.48148364416651
  H          -2.82301169344997      0.54250188842500     -3.03314493015962
  H          -0.34619134743615      0.33538511664475     -3.23482218879897
  H          -1.12029166267458     -1.23440555591136     -3.51041631274134
  H          -0.32686711537909     -0.89584937184325     -1.96904737390650
  H          -4.08651481050123     -0.73790408670788     -1.28540455274708
  H          -2.59794843116016     -1.56238424190277     -0.81059710874424
  H          -3.28308116424572     -1.83181451685959     -2.41588787857135
  H          -0.52297455895089      3.85093390078990      0.02317204655171
  H           0.94574415424808      3.43181301412233     -0.88056297637646
  H           4.52048383787320      0.86508925511113      2.99873735021474
  H           4.38859971299206     -0.35948770001514      1.70830740761264
  H           3.44842501745949     -0.53630115486703      3.21481610045605
  H           1.31660005747381     -1.00598050042743      2.76387662956269
  H          -0.42521202021648     -1.02863062534807      0.56245215262487
