46
Coordinates from ORCA-job goat_0_56 E -1252.755556048280
  O          -1.09345404853798     -1.04803010652905      2.84158261245393
  C          -0.03303670632218     -0.46767323924729      2.09377109778980
  H           0.42070185423403     -1.22070956944748      1.43824256148543
  C          -0.51814240661759      0.69583276880739      1.24407673165118
  H          -0.91361217975779      1.47389780413531      1.90464160277656
  O          -1.58254406845908      0.20852881114547      0.43303654036234
  Si         -1.96334528956244      0.81115129902258     -1.06919314381803
  C          -3.11249419119538      2.28527019964561     -0.98985234525925
  C          -2.85092482602512      3.11682961315007      0.27424962891440
  C          -2.99983158693827      3.16587416022460     -2.24391500625215
  C          -2.62608118998878     -0.64646569089155     -2.02922294074312
  C          -3.80327006578571     -1.30968376968074     -1.30026248643376
  C          -3.00922800573123     -0.27796574162689     -3.46827934223326
  O          -0.50391570373889      1.34352946320230     -1.66908517130098
  C           0.65060443274416      0.81162510270365     -1.02521594042762
  C           0.67429094795436      1.26049540721839      0.42952638914967
  H           0.64001766662535      2.35410627935824      0.45041875116189
  O           1.92659872974155      0.81066126718077      0.95329222159877
  C           2.03716300347310      0.91008172529994      2.35887758072871
  H           3.04974101434268      0.55820378178869      2.58243366069204
  O           1.85957581442310      2.22604012712579      2.80621949837431
  C           2.86974722977171      3.11523528080619      2.33199325021060
  C           1.01013837677413      0.02406398162143      3.07824038456270
  O           1.71307938654260     -1.05740920062022      3.68033010073280
  H          -1.75965900228090     -1.33948065677464      2.20653337608415
  H          -4.13430423537529      1.88775807890087     -0.93620230991559
  H          -1.82225114725894      3.49276240970498      0.29165409370300
  H          -3.01056942327530      2.53394586544052      1.18458878578130
  H          -3.51772855057672      3.98489275040986      0.30756072354191
  H          -3.20137317935940      2.61148107391123     -3.16343780737269
  H          -1.99672310708992      3.59385867148364     -2.32568844961567
  H          -3.71255242934760      3.99555186805854     -2.19109704246716
  H          -1.79517723549818     -1.36406133587301     -2.06593322715474
  H          -3.52693815566409     -1.63323867323970     -0.29345158837242
  H          -4.15291545718429     -2.18791247916189     -1.85322990499172
  H          -4.64944798417538     -0.62028466585691     -1.21193935337020
  H          -3.28359478672427     -1.17468969480853     -4.03363375384143
  H          -2.18924729103884      0.21489288084860     -3.99873221707452
  H          -3.87224138998254      0.39443537773878     -3.48380712411814
  H           1.53577364632224      1.19878630620465     -1.53294047766862
  H           0.66945559027724     -0.28286475313050     -1.08455502392032
  H           2.70170550482361      4.07282614862805      2.82384722734899
  H           2.80698799636709      3.24568693999232      1.24836874126770
  H           3.86442514000113      2.73734526527152      2.59363220637000
  H           0.51076830436643      0.62458967904096      3.84632588772057
  H           1.05777900470749     -1.62352081118256      4.10649100188859
