46
Coordinates from ORCA-job goat_0_11 E -1252.766026958368
  O           0.37192927524027      1.87257987790656      3.63850613293367
  C          -0.31169971886085      0.92028809588874      2.83544020693805
  H          -1.20217826726209      0.61051004179272      3.38779354139027
  C          -0.75976007214331      1.55755979026060      1.51477832993521
  H          -1.24644518134404      2.51133565193129      1.73864361162062
  O          -1.68908340900804      0.65989861472931      0.89493594220833
  Si         -2.16200961310201      0.89161754534903     -0.69419902725816
  C          -3.62629227064495      2.06275443217922     -0.77544626318279
  C          -3.66163844015444      3.07371144199732      0.37910593400192
  C          -3.67837375460754      2.79293938470211     -2.12628527583199
  C          -2.51927002324714     -0.79624142545867     -1.40822711325626
  C          -3.33076859488354     -0.73872856213841     -2.71007278410900
  C          -1.23578332528639     -1.61451372200327     -1.60522255369391
  O          -0.84130356262580      1.54051220644134     -1.45863319200652
  C           0.05611216675672      2.38307472931093     -0.74229994787250
  C           0.44265499239718      1.81859917519672      0.61289132700788
  H           1.08296901631922      2.56142755019980      1.10182749521321
  O           1.17446252770024      0.60903607180132      0.38933799626367
  C           1.66988023524521      0.01613930013327      1.56948153427514
  H           2.17225851544116     -0.89827298454279      1.23758612170339
  O           2.57603068371286      0.85840546033558      2.24487194703546
  C           3.73723160638900      1.18039247949153      1.47877814862225
  C           0.55196590859318     -0.31763367274769      2.56293047230221
  O          -0.22969172752410     -1.39644146043935      2.07515758845889
  H           1.29661417008527      1.89263526650943      3.34958736616774
  H          -4.51845354026697      1.42683368086669     -0.69302542071380
  H          -2.80096028449231      3.74917186859301      0.34115897609162
  H          -3.66040921780048      2.58011819883655      1.35403239485223
  H          -4.56315782412255      3.69230614622568      0.31544965395781
  H          -4.58439315661764      3.40388286889837     -2.19722388394887
  H          -3.67300253132436      2.10402953847737     -2.97450559972478
  H          -2.81720795220896      3.45858174178394     -2.23584258344424
  H          -3.13593283987977     -1.29568213805236     -0.64746792658390
  H          -4.28616027876024     -0.22565750640154     -2.57587657446278
  H          -3.54251041170718     -1.75090136230331     -3.06987540984247
  H          -2.77676083798155     -0.21920708055524     -3.49838900767159
  H          -0.64241629301727     -1.68436776900524     -0.69057547257588
  H          -0.60430298385989     -1.16122175464988     -2.37441296008811
  H          -1.47767742768523     -2.63259804688931     -1.92754352148215
  H          -0.38889001686408      3.37329981225322     -0.58962772259717
  H           0.95595813904152      2.50001960288379     -1.35012912806305
  H           4.40927562281978      1.72495442165066      2.14082074362843
  H           3.48190257397740      1.80482419589463      0.61907181745107
  H           4.22463872912422      0.26361165143896      1.13083879336310
  H           1.01483823475067     -0.64355699160080      3.49707776363939
  H          -0.88823884031128     -1.01377636717186      1.47503752934829
