46
Coordinates from ORCA-job goat_0_115 E -1252.749270326951
  O          -0.59467224283575     -0.83797845989981      2.82922705355110
  C           0.07417149175126     -0.50425239877736      1.61633319267436
  H          -0.29084819557790     -1.21594239723593      0.87363530327360
  C          -0.31616368141188      0.90767747357056      1.16521662187509
  H          -0.41078077918420      1.52773624785109      2.05923310756685
  O          -1.59369277331476      0.86461011891240      0.54093930035819
  Si         -1.95647036026281      1.27113953531591     -1.02526862115617
  C          -2.76298097532739      2.95992586960274     -1.09294579142273
  C          -3.34609589241963      3.24657199428268     -2.48400518707085
  C          -3.80578998665676      3.19058094762031      0.00840460793242
  C          -2.97397986218427     -0.10981174069043     -1.77011401706107
  C          -2.18979518598071     -1.42923611583563     -1.74219153208637
  C          -4.34595265286847     -0.27685381695466     -1.10363004379408
  O          -0.50636434446353      1.37737432535591     -1.83453899299345
  C           0.69492658843871      0.98763411436705     -1.17234325654453
  C           0.72464638685708      1.55848129395478      0.24586281830759
  H           0.48104924475464      2.62429557478101      0.17201483172546
  O           2.06049287598528      1.47905767351723      0.75394837831770
  C           2.29735087404905      0.64860820515220      1.86641671800263
  H           3.38600172188752      0.53053391407698      1.89263667166297
  O           1.83722762282622      1.20589840524544      3.07170669877998
  C           2.47556712856336      2.43579146081652      3.40601449221532
  C           1.60040532532369     -0.69393390736850      1.73546248003412
  O           2.15860199542871     -1.32856566353623      0.59260588202594
  H          -0.29352948212756     -0.21830408810862      3.50631812317299
  H          -1.93377158496036      3.65978134365932     -0.92073522749901
  H          -3.71715880907775      4.27504595795460     -2.54496731512714
  H          -4.18620204583127      2.57961513445675     -2.70137937786099
  H          -2.60109800728466      3.11301769346504     -3.27435375386353
  H          -4.67176167928672      2.53479701180037     -0.11476692511923
  H          -4.17117748624716      4.22278250813826     -0.02143587132623
  H          -3.38839033398344      3.00972789624118      1.00216200025377
  H          -3.13282641474644      0.17127026906488     -2.81999518710599
  H          -2.74515874687748     -2.21822122567366     -2.26017687612666
  H          -2.02679680166953     -1.76314008025653     -0.71298654417483
  H          -1.21255980716438     -1.33450355737070     -2.22351736258707
  H          -4.88210834436859     -1.12703822130859     -1.53888847034380
  H          -4.97277205386074      0.60880925788833     -1.22938300371587
  H          -4.24321227732101     -0.46712119243649     -0.03038448161979
  H           1.53782594267251      1.40128507121531     -1.73030351203061
  H           0.79201492586780     -0.10104164651846     -1.15710574175283
  H           2.20726684410489      3.22347872474425      2.69721612440091
  H           3.56429854322547      2.31176804998500      3.41598966999840
  H           2.13096249651510      2.70944270476935      4.40274839206864
  H           1.80269420935270     -1.27768162059801      2.63852170698478
  H           1.81055658969110     -2.22686264523573      0.55306291720008
