46
Coordinates from ORCA-job goat_0_50 E -1252.766187616588
  O           0.07365308704674      1.34756232211792      3.87141816363066
  C          -0.41922080139270      0.52439357537219      2.82324574532253
  H          -1.36510381537855      0.09698645404932      3.16461671670479
  C          -0.69646060855044      1.35762609650720      1.56637366215402
  H          -1.26016803514701      2.25071718095549      1.85725490577900
  O          -1.47797202962848      0.54598637854134      0.68220689894548
  Si         -1.75511726341935      1.09621459848298     -0.87356375136695
  C          -3.05629225241912      2.44048947643660     -0.79401849418150
  C          -3.07097620873999      3.33535605856640     -2.04051857671085
  C          -4.45398650896839      1.88608753171683     -0.48788721732601
  C          -2.08626238862273     -0.40305064749343     -1.93065995162648
  C          -3.07617488433230     -1.38574571875149     -1.28855084639330
  C          -2.52003423282209     -0.03166506336046     -3.35537124710051
  O          -0.31294504737691      1.76027434091420     -1.36208315408523
  C           0.40261358552392      2.53582050498396     -0.40221955466374
  C           0.61198263226143      1.79553015478527      0.90854417403391
  H           1.12519526260640      2.48257349677956      1.59089984045782
  O           1.44457313121301      0.66453543157393      0.63235294952892
  C           1.78709753186701     -0.08798209961385      1.77513662297724
  H           2.39613267342131     -0.91537646164417      1.39675714213112
  O           2.51593162069602      0.67093609748300      2.71221679639243
  C           3.76337577148754      1.15359697302517      2.21203494936553
  C           0.54718657901566     -0.62252867879989      2.49772976494887
  O          -0.07724715125801     -1.62320021912552      1.70902064331264
  H           1.02905538962728      1.44730267418226      3.74340423599771
  H          -2.75054122868076      3.06456786500915      0.05781572254078
  H          -3.77706479741946      4.16227900919099     -1.90960737736609
  H          -3.38156424893621      2.77715536267812     -2.92801560869480
  H          -2.08540727485686      3.76256718032061     -2.24239219582184
  H          -4.45487406251339      1.24189353187060      0.39620733905634
  H          -4.83579157298940      1.30115954174129     -1.32968629761694
  H          -5.16089746932951      2.70277411166837     -0.30815996880523
  H          -1.10836143871794     -0.90012623959982     -1.98931196751342
  H          -3.15541642122421     -2.29254961738749     -1.89711289238742
  H          -4.07681827144981     -0.95208209532402     -1.21431474074069
  H          -2.76373974997236     -1.68228522738964     -0.28410536699986
  H          -2.57877088494796     -0.92764461028998     -3.98174597336759
  H          -1.82184638621786      0.66376722188493     -3.83011047393597
  H          -3.50944851557772      0.43445951353234     -3.35397832679815
  H          -0.12788130167042      3.47224809572979     -0.19115058220959
  H           1.37523253089438      2.78128467186856     -0.83336582460668
  H           3.61157563739809      1.89480877011278      1.42345983231195
  H           4.35872146160035      0.32202535838033      1.82078427218810
  H           4.28197215522299      1.61320313695324      3.05245928437781
  H           0.86974990927090     -1.09371156547044      3.42877592921444
  H          -0.61371410659286     -1.16198447316484      1.04547479894671
