46
Coordinates from ORCA-job goat_0_39 E -1252.762404403856
  O           0.25349910714645      1.88970144674012      3.66198082535336
  C          -0.45150369996979      1.03973882630125      2.76813128501599
  H          -1.43625184699264      0.78216735545691      3.17283808938127
  C          -0.64822703838938      1.72897794790073      1.41389966072357
  H          -1.05050935937152      2.73417883840680      1.58304810828912
  O          -1.58469207238230      0.94570240958174      0.66770238541497
  Si         -1.76846638076883      1.13869675640509     -0.98151921492293
  C          -3.19796305364282      2.29272228201359     -1.33845080016451
  C          -4.55986883551145      1.70060887385449     -0.95257950947210
  C          -2.98460626266184      3.64973635815170     -0.65108238155221
  C          -1.90086309684115     -0.55916311645777     -1.74860003131348
  C          -2.91049908423125     -1.49500711728330     -1.06999141894664
  C          -2.17576035595438     -0.45367173339238     -3.25606732724145
  O          -0.36802196700533      1.83396328188943     -1.53565874043867
  C           0.55384405600220      2.49933591054887     -0.67795867355833
  C           0.68439474499401      1.84464512662517      0.68279949912410
  H           1.35405612269610      2.46246960398004      1.28999048494547
  O           1.25031445146364      0.54617776481756      0.49071619298957
  C           1.56708571653081     -0.11295201538047      1.70238402236920
  H           1.90579109636538     -1.10816275264100      1.39209439854720
  O           2.57514954521089      0.54443833390919      2.41674051922540
  C           3.81656245577896      0.58019957146497      1.71774163876637
  C           0.33529351843232     -0.26499151158122      2.60176324737540
  O          -0.50873971488628     -1.27463136834925      2.06010134050813
  H          -0.33625188439169      2.61154445415519      3.90897148774280
  H          -3.18769448893151      2.45528520716913     -2.42458280234948
  H          -4.58122979915431      1.40843229495124      0.10250728480756
  H          -4.80665217242005      0.82082767618009     -1.55028005213068
  H          -5.35426793298852      2.43888754294810     -1.10574270916918
  H          -3.78391090479219      4.34667343293436     -0.92382884325644
  H          -2.03293748636228      4.10847357215809     -0.93177865581205
  H          -3.00147641217261      3.54401270376749      0.43815598520076
  H          -0.89828882223086     -0.98657318050415     -1.61111345354874
  H          -2.75823237744645     -1.56176567928660      0.01030507084761
  H          -2.82275778166604     -2.50622187472326     -1.48070071256622
  H          -3.93752814722091     -1.16308245706987     -1.23823536638111
  H          -3.16639656827866     -0.02726972708894     -3.44320363125746
  H          -2.14807821595084     -1.44297287858079     -3.72432402103969
  H          -1.43855380552672      0.17663971546247     -3.76199326584143
  H           0.24721753568968      3.54092978523614     -0.53187853606721
  H           1.52831003059374      2.49326689808993     -1.17172362994438
  H           4.55506583591206      0.99107409225711      2.40582050137033
  H           3.75295524622294      1.21545474860006      0.82990827467466
  H           4.11848699363177     -0.42985198131473      1.41687690670090
  H           0.66620818970320     -0.60942119644997      3.58321958416596
  H          -1.00005507823161     -0.86297422185320      1.33385698343474
