46
Coordinates from ORCA-job goat_0_203 E -1252.752760993782
  O          -1.05474111648720     -1.15401526544288      2.25038090811793
  C           0.02239920761856     -0.50072309806810      1.59665893793728
  H           0.20555929224069     -0.97311731545563      0.62153896639813
  C          -0.27292814634024      0.97931426916467      1.39005664333389
  H          -0.28815167633734      1.46576283225338      2.36817030674653
  O          -1.57453727035389      1.14993232342868      0.84441234082371
  Si         -1.93443445805761      1.44260672200237     -0.75384001089830
  C          -3.25124635094703      2.76333552586884     -0.81548264436919
  C          -3.79600898573568      2.99252258501013     -2.23187281576035
  C          -4.39150473900495      2.52321487417435      0.18392050758325
  C          -2.30883236635093     -0.19902218388501     -1.57755194754610
  C          -3.64982323846919     -0.78756544260745     -1.11778365937757
  C          -2.21852535520375     -0.14689088596644     -3.10819313405480
  O          -0.54265150748541      2.09171231229493     -1.39419104885793
  C           0.65220477037173      1.44533301181699     -0.96677833988039
  C           0.85200285683958      1.60383248778370      0.53913215494952
  H           0.92305534150414      2.67142457376032      0.77207528458765
  O           2.11023793633731      0.96896305176337      0.80046370500478
  C           2.28268000877180      0.47954004239288      2.11563897779236
  H           3.29909153151568      0.07105604024480      2.12484008400036
  O           2.15136532159974      1.49153261363482      3.07614020726819
  C           3.15696863455050      2.49784403004057      2.96478841057331
  C           1.27785460033251     -0.63980630521417      2.44841418445988
  O           1.86907035208870     -1.92562307549922      2.31617915319528
  H          -1.86024568222328     -0.87231164600488      1.79633875489053
  H          -2.71846285975784      3.67219495353248     -0.50404110133286
  H          -2.99667170412470      3.16790100878385     -2.95776659300613
  H          -4.46001046322616      3.86293711256543     -2.24855233091201
  H          -4.37612915651941      2.13049972973264     -2.57295808161671
  H          -4.97491401034742      1.63754337699861     -0.08127837785111
  H          -5.07657211122388      3.37753523640004      0.18853919253518
  H          -4.01623404753215      2.38671547053135      1.20102164839322
  H          -1.51393507721561     -0.86811371925131     -1.22025401310997
  H          -4.48805245072168     -0.19632626498913     -1.49749449429594
  H          -3.73150038301696     -0.82196419026279     -0.02710177493798
  H          -3.77113015914188     -1.80870016964972     -1.49401963722113
  H          -1.25095132567172      0.23627024902914     -3.44273996043748
  H          -2.99652859700928      0.49324259079851     -3.53244830281457
  H          -2.34982937090366     -1.14780768356577     -3.53310020166594
  H           1.49674884249981      1.90869648397617     -1.48028365081829
  H           0.64076417500869      0.38157697379333     -1.23310015611858
  H           3.02128478324903      3.17288573479775      3.80917211907654
  H           3.05642140508477      3.05696471773996      2.03084123458392
  H           4.15475675819953      2.04733875235946      3.01161180547557
  H           1.00041851839174     -0.54360413228520      3.49948605803100
  H           2.05561827320431     -2.07838830852565      1.38127069112564
