46
Coordinates from ORCA-job goat_0_107 E -1252.759108800795
  O          -1.59908855478952      0.47874571730595      3.36074143184398
  C          -0.66692537375897      0.45094029202883      2.29061615846166
  H          -0.89022113040988     -0.38753460452335      1.61959947926856
  C          -0.78319264896650      1.75236271548956      1.50567890322853
  H          -0.92242870956499      2.56648620475614      2.22343556687869
  O          -1.94637170932983      1.73653552383986      0.68525070344044
  Si         -1.92244058484233      1.38547186021883     -0.93639889206753
  C          -3.33089696123292      2.32929638782218     -1.72392848024781
  C          -4.71491918035343      1.85723480034205     -1.25900815959898
  C          -3.15710098322587      3.83612701524292     -1.48474970172704
  C          -1.91235249759065     -0.45698447410527     -1.26573015964656
  C          -2.96183744852098     -1.24261908987309     -0.46843085201072
  C          -2.02978676811614     -0.74581202721130     -2.76935852910091
  O          -0.47422614195710      1.99788022008621     -1.48568174317282
  C           0.31649320830415      2.75046555150488     -0.57122610913501
  C           0.52916044744320      2.01484754661469      0.73878458721299
  H           1.18169061420253      2.63187008305730      1.36621230770782
  O           1.18749040614597      0.77932088117244      0.44427878296502
  C           1.69999865053686      0.14760366843661      1.59962087746376
  H           1.79583717582892     -0.91069391725434      1.33140305564743
  O           2.94576651712490      0.66700771729370      1.97842182388534
  C           3.98469847103629      0.36392501560646      1.04930797123308
  C           0.75775557837705      0.29479786117762      2.79805428693647
  O           0.80309628201761     -0.85770568469943      3.63011094783314
  H          -1.40265951390297     -0.28571873155229      3.91775299635891
  H          -3.24907196902098      2.14386395111192     -2.80339863266352
  H          -5.49973837584589      2.47986164655371     -1.70172341604369
  H          -4.81303914686321      1.92808725308829     -0.17096149375863
  H          -4.91178898809090      0.82258640927738     -1.54739642236799
  H          -3.94319894022315      4.40014276925569     -1.99774205922510
  H          -2.19192305379176      4.19682107582550     -1.85037247922841
  H          -3.22177966733652      4.07243567623918     -0.41820772573911
  H          -0.91853921517422     -0.78389492781871     -0.93209491233158
  H          -3.97458329971346     -1.01497475040371     -0.81011337314655
  H          -2.91539789726154     -1.02217817344755      0.60123417433405
  H          -2.80974061039200     -2.31969155947918     -0.59617759436340
  H          -1.26527832011472     -0.21802589224467     -3.34746799005092
  H          -3.00900013865171     -0.43861212130669     -3.15038193058243
  H          -1.91936331986579     -1.81689962945286     -2.96887361932692
  H          -0.14919536457223      3.71970942503696     -0.35942263679330
  H           1.28611185222272      2.92864980258340     -1.04052664458921
  H           4.07052154968860     -0.71973746498457      0.90980692913180
  H           4.91130928985044      0.75076268681132      1.47267975666112
  H           3.79868828857215      0.83983173378547      0.08293181178192
  H           1.03923941797207      1.18303425946019      3.37508164158577
  H           1.56217876415672     -0.77937270266842      4.21862936305771
