46
Coordinates from ORCA-job goat_0_86 E -1252.757485385926
  O          -1.01781110543369      0.36836803420580      3.80667735252774
  C          -0.32525368471244      0.30369591645740      2.56339201689952
  H          -0.44794623339860     -0.69046221481854      2.12040695062054
  C          -0.83788344215754      1.33251955655906      1.55153798589084
  H          -1.19169627092843      2.21541783545195      2.09551327344809
  O          -1.94430412219442      0.74380963383776      0.87637274442762
  Si         -2.31573350705065      0.94855437380537     -0.72562542700087
  C          -3.66506729238697      2.24392264204687     -0.91267528343298
  C          -3.73038109625809      3.20512920911398      0.28283954544484
  C          -3.52425879903899      3.02407369897473     -2.22806177092430
  C          -2.78200616829222     -0.71321285358887     -1.43201795686030
  C          -3.25774399793747     -0.61303701057252     -2.88796923190650
  C          -1.63027069871980     -1.71705524849975     -1.29165594620776
  O          -0.90446117095319      1.44505340113776     -1.44904635572945
  C          -0.09421554699617      2.34124581736197     -0.69478981106353
  C           0.32382908929232      1.76440667916756      0.64389724809905
  H           0.87950226605076      2.55301900152163      1.16430753196873
  O           1.19119795497361      0.64900757077737      0.42058716538158
  C           1.95522544026394      0.34038447802504      1.57013123682850
  H           2.24139253085034     -0.71129531820327      1.45697648558346
  O           3.09719301198526      1.14625034005595      1.67091688241022
  C           4.06290588037753      0.87781818822183      0.65658709954448
  C           1.14902740336686      0.52297594662762      2.85745120408202
  O           1.63241693526326     -0.41266926194358      3.80864411128850
  H          -1.86493837733990     -0.07927589585252      3.70439391949053
  H          -4.61050561618196      1.68519187180361     -0.94736333313387
  H          -2.81200961573014      3.79461231142908      0.36911457443566
  H          -3.87008157623505      2.67107950881287      1.22555380217905
  H          -4.56060341249260      3.90980887870481      0.16449967184211
  H          -2.60683533294759      3.62027545082889     -2.22776327616395
  H          -4.36734849042559      3.71031760028331     -2.36109307840083
  H          -3.48836347880126      2.36596682092247     -3.10010215065627
  H          -3.62493275306486     -1.06483642021290     -0.82093005766723
  H          -3.53100021771253     -1.60159543894122     -3.27152352559610
  H          -2.46847083800237     -0.21582065928569     -3.53443798163380
  H          -4.13158654472205      0.03607391205603     -2.98799853884666
  H          -1.93699299138564     -2.70843358199621     -1.64141877062492
  H          -1.29983925310066     -1.81181327887205     -0.25377957486768
  H          -0.76824566618027     -1.40531709771993     -1.88891564441417
  H          -0.62153474187665      3.28666274336464     -0.51879874147185
  H           0.80203175421460      2.55673250148462     -1.27997369687765
  H           4.35528421214367     -0.17834937097422      0.67447825601166
  H           4.93142084695452      1.49880081560044      0.87461371437771
  H           3.67444014797903      1.12935231998091     -0.33382664803921
  H           1.29808604555128      1.54484410676378      3.22981507172017
  H           1.00231852339077     -0.40594751390382      4.54131895701709
