46
Coordinates from ORCA-job goat_0_119 E -1252.752379800177
  O          -1.06420303817682     -1.32798107700972      2.16481506084599
  C          -0.02752499488046     -0.54602347175326      1.58956915116080
  H           0.20460615469631     -1.02948087505661      0.63738541185455
  C          -0.40244218539525      0.91647304353390      1.36482599753137
  H          -0.40087665472583      1.41733989531407      2.33827507547324
  O          -1.70847749066477      1.08343369326185      0.84569766618086
  Si         -2.09747188768416      1.25513540566882     -0.75854556248283
  C          -3.49967698258992      2.47987194540313     -0.86385908565167
  C          -3.09849080203115      3.81246985262587     -0.21537738665929
  C          -3.98986971516179      2.69593685435663     -2.30230418777866
  C          -2.43589191810041     -0.43988914309521     -1.48117690966235
  C          -3.79478100644463     -0.97300664210188     -1.00476768209070
  C          -2.31027166498846     -0.49694147712571     -3.00864859757649
  O          -0.74788488043746      1.93118257555726     -1.45775819110616
  C           0.47702890017451      1.35458602722202     -1.01786780290549
  C           0.69117387731653      1.56103058399909      0.48190313871355
  H           0.72548199225003      2.63572077870660      0.68947679540444
  O           1.97618950006603      0.97691283293774      0.72706739778110
  C           2.20745307743469      0.53544970941617      2.04748692433406
  H           3.22403168245152      0.12852964826274      2.02634180310292
  O           2.11576825939101      1.58212854430209      2.97606133009972
  C           3.10838087507596      2.58778798422575      2.77853119783814
  C           1.22112373180480     -0.56350039196206      2.46816169508331
  O           1.89997076693230     -1.81051954559396      2.38934246852264
  H          -1.36509575077474     -0.88932771930538      2.97087874232114
  H          -4.32375537210574      2.04756047546522     -0.28111656849441
  H          -2.76858746567507      3.67795519944257      0.81782165160544
  H          -3.94403045355214      4.50818615671885     -0.21381328852535
  H          -2.28114363893534      4.28411435824574     -0.76912544246060
  H          -4.77895282777333      3.45476227073746     -2.32507159844006
  H          -4.39720847405702      1.78117157434467     -2.73850182056781
  H          -3.17886092891535      3.04514487892838     -2.94945698335433
  H          -1.65773791261710     -1.08880476041400     -1.05804848770019
  H          -3.87333151219611     -0.96409988417009      0.08659265055727
  H          -3.94718360411785     -2.00350649090758     -1.34214090321817
  H          -4.61654860740980     -0.37047645593355     -1.40424983649355
  H          -2.44776635712884     -1.52311397805332     -3.36605776994080
  H          -1.32859465033333     -0.15242643963549     -3.34436025437041
  H          -3.06590863133565      0.12300096100039     -3.49834628922271
  H           1.29677833337990      1.83892705264266     -1.55191912802384
  H           0.51162359577260      0.28362326607889     -1.25325107406941
  H           2.95390744872837      3.11751744325398      1.83486266448060
  H           4.10980611668937      2.14291295739432      2.78462850929450
  H           3.01539651407769      3.28811429032306      3.60801939463170
  H           0.91652161198738     -0.36351294068696      3.50270556351499
  H           1.26127696997940     -2.49811896656519      2.61557456046288
