46
Coordinates from ORCA-job goat_0_158 E -1252.755185366660
  O          -0.77741066249074     -1.08519135270753      2.85999155727747
  C           0.14977869918512     -0.46265782142547      1.98368425003337
  H           0.46911274969029     -1.17604056115003      1.21100886022971
  C          -0.47533757757250      0.74041063263518      1.29164096104410
  H          -0.72717234270234      1.49224100898378      2.04530444855658
  O          -1.68416640147771      0.29252497744218      0.68673581771525
  Si         -2.28056517729958      0.81485816257077     -0.77385119317859
  C          -3.36109248814018      2.33366897366154     -0.60497219039344
  C          -2.90253517202314      3.21032978138650      0.56940505580352
  C          -3.40288980361493      3.15576891255733     -1.90218070533352
  C          -3.14936860982869     -0.66591507167897     -1.50939894009599
  C          -3.92962246526887     -0.32302444740051     -2.78520233365224
  C          -2.15756297635046     -1.80972371674962     -1.76260371765101
  O          -0.92577085048450      1.24762605419188     -1.63899509613833
  C           0.32690511868319      0.79868179558505     -1.13051761792201
  C           0.53330857424786      1.33256290725385      0.28087088953358
  H           0.42030452879891      2.42120260066535      0.25324817626945
  O           1.88094772805039      1.00113642859368      0.62885691220960
  C           2.14921116016886      1.05242163680004      2.01725280101932
  H           3.22419557425672      0.85953646959953      2.10063958102698
  O           1.82545635985274      2.29916066401486      2.56755469503411
  C           2.62977171820609      3.36031890054507      2.05414728957753
  C           1.36809514212346     -0.02975287221520      2.78443909243990
  O           2.19874290242580     -1.13322278291795      3.12145693541709
  H          -1.57944236430231     -1.23811672387173      2.34332369237346
  H          -4.37570068618750      1.97255403302283     -0.39033248528885
  H          -3.54373320733003      4.09318618502372      0.66224148509760
  H          -1.87754732302818      3.56526611325164      0.41824462694683
  H          -2.93345993270106      2.66926891231798      1.51824058538324
  H          -2.41006051776240      3.54625830442269     -2.14240242991059
  H          -4.07894751852323      4.00985519690576     -1.79001916373686
  H          -3.74559978713231      2.56950966875391     -2.75809759481229
  H          -3.86865658295702     -0.99346046884773     -0.74599871625917
  H          -4.41173247658467     -1.21856135906893     -3.19105725776094
  H          -3.26613013744574      0.07274235053254     -3.56122209149717
  H          -4.70972455835767      0.41955592756007     -2.59952066297915
  H          -1.42245737000474     -1.52509515996479     -2.52203027779937
  H          -2.68003773505693     -2.70063013588073     -2.12635900103909
  H          -1.61355535620202     -2.08493867741042     -0.85501992898692
  H           1.11614035962039      1.18973942611799     -1.77534575063060
  H           0.38723631595338     -0.29492761077075     -1.13663464274809
  H           2.43977025550172      3.52316515556640      0.98993083584759
  H           3.69260535506555      3.13921752950175      2.20224338066146
  H           2.36177993768762      4.25662659819759      2.61260277148877
  H           1.03668466448884      0.39593095230367      3.73318407137247
  H           2.44418293682245     -1.58781749790472      2.30577302545539
