46
Coordinates from ORCA-job goat_0_73 E -1252.756001139651
  O          -0.69124782264147      2.49806592081637      3.90115126626899
  C          -0.65197282999764      1.49534198308867      2.89087578531222
  H          -1.47175576697800      0.78188858750411      3.02543856206296
  C          -0.84936049681815      2.18101635702533      1.53610432228657
  H          -1.36003811186004      3.13493231774078      1.70521245985422
  O          -1.64741219443008      1.33109843338944      0.72329125693670
  Si         -1.63714666842707      1.41120473085716     -0.93954537056300
  C          -3.28077700426930      2.09249948564462     -1.51800879199277
  C          -4.45566231973593      1.14603141837153     -1.23954335046303
  C          -3.51995885214751      3.46469772484514     -0.87002385941563
  C          -1.18584047284777     -0.26963010245545     -1.62643957397777
  C          -1.90149251943779     -1.43956918491261     -0.93850764374643
  C          -1.38194047214835     -0.31388361562517     -3.14864506688302
  O          -0.46940034669987      2.50583799896016     -1.37859353898826
  C           0.35927230330621      3.18597158960499     -0.44524037104288
  C           0.49767333859940      2.44950700146149      0.87423977917721
  H           1.09669732694014      3.07617710296126      1.54694656352286
  O           1.17156135067898      1.21773143982551      0.59746678496487
  C           1.01657635389023      0.17669332211733      1.55221214879321
  H           0.24060492797403     -0.51604910577643      1.20006808160288
  O           2.22770312076126     -0.50543707545789      1.67934392091331
  C           2.52291469571647     -1.34188794580914      0.56105345526410
  C           0.66627679347061      0.73079417610308      2.92654826478055
  O           0.54683163850031     -0.31186094152868      3.88162196544507
  H          -0.53734606761234      2.06731972176169      4.75079017091954
  H          -3.19831482476234      2.23348270998681     -2.60387175635837
  H          -5.40315306427050      1.61484314542089     -1.52639933173945
  H          -4.52049232721449      0.89890062594093     -0.17469501309645
  H          -4.36738764948445      0.21012075171623     -1.79580760373300
  H          -2.70341251761015      4.16136175441138     -1.07936983659545
  H          -3.61009687552788      3.37088566481557      0.21707329030903
  H          -4.44818353793670      3.91192673464150     -1.24099634706469
  H          -0.11222711288854     -0.36105799152372     -1.41660553444489
  H          -2.97628830358735     -1.42564469861073     -1.13756226239256
  H          -1.76323272957457     -1.41871089761047      0.14538926931497
  H          -1.51285412165356     -2.39446274600800     -1.30870653014887
  H          -2.44100672885766     -0.22677117406425     -3.41108673942226
  H          -1.01730072754833     -1.26137418619994     -3.55919270839926
  H          -0.84578821469014      0.49621083398198     -3.65230348421501
  H          -0.05223040802731      4.18115808068726     -0.24269442297736
  H           1.34851736483098      3.30521085868294     -0.89463477694051
  H           1.69955960754752     -2.04109645542966      0.37818329126589
  H           3.42580204479945     -1.89832159514210      0.81098774829546
  H           2.69919014086188     -0.74530290280202     -0.33817640119071
  H           1.46619454908585      1.42419171766332      3.21621798938544
  H           1.39189553272165     -0.77779157107103      3.90669393911571
