46
Coordinates from ORCA-job goat_0_231 E -1252.757990563822
  O          -1.31902377347899      0.40701100233001      3.76468754795506
  C          -0.57420149775199      0.32564423466303      2.55712549594722
  H          -0.84116883896696     -0.58714929020168      2.01280970362111
  C          -0.93141681310677      1.52236740171781      1.67782816037957
  H          -1.14483344667474      2.37415288418275      2.33248802756736
  O          -2.12279033744621      1.23322521760491      0.95661109009195
  Si         -2.33379662904580      1.25717690192646     -0.68704958287989
  C          -3.81467420419971      2.35391377256362     -1.01047478096639
  C          -3.54467343757728      3.79079363057487     -0.54361985648420
  C          -4.26873344007489      2.33107226965394     -2.47570234775509
  C          -2.54186400659094     -0.46129015164118     -1.40780366672289
  C          -2.06109043939010     -0.51557891874997     -2.86694823377014
  C          -1.83407991928750     -1.53601795273487     -0.57285951437781
  O          -0.94091630941072      1.91335680402724     -1.31273621085935
  C          -0.09441283644380      2.66354886907927     -0.44899249237485
  C           0.27417662408646      1.89582551518959      0.80435314452399
  H           0.93315565561336      2.54302267826760      1.39430840976551
  O           0.98354807638796      0.71414786942698      0.42463739235542
  C           1.67818785639310      0.13507290614097      1.51127506466943
  H           1.77383363429416     -0.92859352003199      1.26463655055623
  O           2.94637216933384      0.70670346805403      1.68948157487405
  C           3.85337432669178      0.39942707821547      0.63266213190780
  C           0.92021349391462      0.29622325432306      2.83266232620757
  O           1.17710093870022     -0.79940857354867      3.70268360732598
  H          -0.99610970722999     -0.30026794825473      4.33782741335811
  H          -4.62442975724316      1.93759508597712     -0.39471986205756
  H          -3.22997409011499      3.82719701385882      0.50316040535595
  H          -4.44368383954515      4.40764317000462     -0.64656515502727
  H          -2.75781460439237      4.25361435119610     -1.14777566206071
  H          -3.47237199506042      2.68030902329855     -3.14130590278513
  H          -5.13107169167050      2.99044356852183     -2.62136194056786
  H          -4.55908532149719      1.32780477850215     -2.79778176292374
  H          -3.61999021789509     -0.67011269084017     -1.39526959946687
  H          -0.98202699547481     -0.34731157126233     -2.92211972885139
  H          -2.54590956480854      0.23498440980808     -3.49617963465450
  H          -2.26895491985869     -1.49970436666000     -3.29995204985707
  H          -0.76238901243403     -1.32913903450173     -0.49352571451318
  H          -1.95065062653246     -2.52064019944265     -1.03868728015198
  H          -2.23870062459627     -1.59206066446529      0.44011342865257
  H          -0.57126550459798      3.60513773130243     -0.15403450878538
  H           0.81729124605564      2.89910578237800     -1.00186233888884
  H           3.51458011800192      0.82942026876981     -0.31358312837737
  H           3.95942938223602     -0.68568496023998      0.52112411518756
  H           4.81559064799039      0.83279501903628      0.90446018628154
  H           1.22470135354367      1.23247888370716      3.31358537603826
  H           2.01449887915507     -0.64200500172713      4.15264980253740
