46
Coordinates from ORCA-job goat_0_162 E -1252.749556311677
  O          -0.97773199701866     -1.19704143406327      2.24551457714924
  C          -0.00623417081143     -0.52412353867478      1.45422817032113
  H          -0.10958445377761     -0.95557312472131      0.45583592576135
  C          -0.27957290656174      0.97470113943293      1.38120483164179
  H          -0.27994592161578      1.36968359481495      2.39868111974417
  O          -1.56816777161142      1.24728147739148      0.84983872747664
  Si         -1.91862563551988      1.46399659815362     -0.75950015773209
  C          -3.21905181477348      2.80012701833363     -0.86489703071021
  C          -3.30586283361408      3.45606651463019     -2.25015789685788
  C          -4.59763864502503      2.31960860136278     -0.39115226517833
  C          -2.31611772783310     -0.18864119017568     -1.55119881880347
  C          -3.25106736856954     -1.06153669270870     -0.70357168644694
  C          -2.84560096062302     -0.03362563313065     -2.98361413943101
  O          -0.52160629152504      2.06898053426012     -1.43424731906363
  C           0.69102080498712      1.51550713902808     -0.93528091708122
  C           0.81610816999000      1.70278038333731      0.57752837775052
  H           0.74178632329727      2.77229724064314      0.80189840144697
  O           2.14217319098625      1.25955945739454      0.89601021367116
  C           2.28286912565251      0.45219900806387      2.04480071738652
  H           3.34430328437515      0.18070100038992      2.05684239538678
  O           1.93779868992335      1.11929328971203      3.22723619135100
  C           2.77309517470686      2.24336713416584      3.49809673556891
  C           1.43281309696390     -0.81350981149586      1.93768783272329
  O           2.08526935150002     -1.76315474789310      1.10136741917439
  H          -0.96654134555482     -0.81000422600673      3.12995721909312
  H          -2.86191895584832      3.55949926630065     -0.15610402449057
  H          -3.68143873931610      2.75601399486045     -3.00066107334352
  H          -2.33248144916432      3.82064897114589     -2.58784578923320
  H          -3.99355482189413      4.30797028345326     -2.22279285951606
  H          -5.01767012266518      1.58595960952844     -1.08501891359354
  H          -5.29785373676134      3.15973348456750     -0.33746079429750
  H          -4.55311925210715      1.85716007788072      0.59918949980693
  H          -1.34578617246684     -0.70162557837570     -1.61060755498313
  H          -3.38176334944211     -2.04449377494477     -1.16924364466769
  H          -4.24257361546094     -0.60939089772766     -0.61179289893254
  H          -2.85593446952014     -1.21322891923328      0.30321999946721
  H          -2.92494274815309     -1.01083687903244     -3.47147567777525
  H          -2.19314373638517      0.59454791361622     -3.59723304542365
  H          -3.84271066624938      0.41581893935074     -2.98663312861189
  H           1.52457448670270      2.03282865309601     -1.41441076028531
  H           0.76942568098654      0.45069395808486     -1.18795393635288
  H           2.62350098993579      3.03383141909623      2.75776352447985
  H           3.82754896882409      1.94495278987784      3.50130343952895
  H           2.49540016683675      2.61185589995092      4.48510625079648
  H           1.38385999111482     -1.27103332563829      2.92709840233698
  H           2.18064418308585     -1.37359561810191      0.22270436074829
