46
Coordinates from ORCA-job goat_0_208 E -1252.749450762469
  O          -0.16744547643466     -0.59971672942191      3.14593673162938
  C           0.24133046029384     -0.36784080163300      1.80065267249067
  H          -0.16917597541743     -1.19584684439588      1.22038114421779
  C          -0.37214184968045      0.93871192464262      1.27850737061466
  H          -0.42746318568240      1.63465578520486      2.11855605343169
  O          -1.70406566028456      0.68291227060863      0.84858146486439
  Si         -2.34689466518721      0.91864024915426     -0.66264520906597
  C          -3.45626911804661      2.43004513116305     -0.69304335904249
  C          -2.98444534220114      3.49844905202642      0.30265255622145
  C          -3.57124400312450      3.03065543033311     -2.10254921592244
  C          -3.23812215918880     -0.66177467540843     -1.11809814760908
  C          -4.10404364013329     -0.51749739184592     -2.37645742992091
  C          -2.24615440402305     -1.82275870080197     -1.26989365094617
  O          -1.05562069957220      1.19487269396535     -1.67438922774921
  C           0.25864179856254      0.92383747007055     -1.18832803704222
  C           0.45089406005953      1.60399436727006      0.16681976581891
  H           0.09220115122127      2.63286318393223      0.05954457267620
  O           1.84902949516860      1.69318307850174      0.46156085847446
  C           2.33615696235759      0.99569190615369      1.58224965164149
  H           3.42335232662390      0.98770447316370      1.44962882031838
  O           1.99609157293930      1.61175306398621      2.79946161860321
  C           2.53565188026982      2.92370256317285      2.94048490815049
  C           1.77541506608622     -0.41213324831528      1.66041500846696
  O           2.19259752989331     -1.08051301383468      0.47780374895628
  H           0.19697304576813      0.11617382376141      3.68276540567920
  H          -4.45187191789684      2.08565133725822     -0.38191410845161
  H          -2.93335590195143      3.11128916230627      1.32303803819951
  H          -3.66524846212529      4.35633363223133      0.29714763941469
  H          -1.98966746560872      3.86990305427862      0.03557576398446
  H          -2.60099783102540      3.40741838064683     -2.43838526303933
  H          -4.27388233143163      3.87068306137684     -2.10424996035514
  H          -3.91863895200112      2.30443414972095     -2.84107134314208
  H          -3.90130298974903     -0.88148529594957     -0.26994734653257
  H          -3.49769145406726     -0.23760020764823     -3.24431042788856
  H          -4.88210822314488      0.23984791162048     -2.25244299939027
  H          -4.59694894622873     -1.46641601481817     -2.61310298490740
  H          -1.55882171646970     -1.64054730701870     -2.10202785644795
  H          -2.77499614027652     -2.75917551257535     -1.47659888553824
  H          -1.64787790923549     -1.96950381646117     -0.36700874395224
  H           0.97453900351193      1.34610061499144     -1.89658592030980
  H           0.43361233579642     -0.15270418319484     -1.11830325615396
  H           2.08357006616654      3.61364107417113      2.22326510452690
  H           3.62158514334156      2.90860796896925      2.79497254148809
  H           2.30838810157346      3.25102530730304      3.95451285488131
  H           2.18640721362647     -0.90252010969309      2.54802288960619
  H           1.94400920692815     -2.00849826896883      0.55907618905108
