46
Coordinates from ORCA-job goat_0_69 E -1252.757064772090
  O          -1.52348333874064     -0.13850963522970      3.20888573466416
  C          -0.42611427616607     -0.04942199051093      2.30699648449187
  H          -0.21875881135094     -1.03205935893377      1.86912253461816
  C          -0.69080686396249      0.94432257825639      1.18622922120232
  H          -1.17713061615411      1.82137984569447      1.62859167471009
  O          -1.57729624003020      0.33684540755702      0.24612392046273
  Si         -2.03042875179017      1.30870340283868     -1.03156084088610
  C          -3.28874196371567      2.59796806612992     -0.53941355930940
  C          -3.46767460822718      3.64686812181193     -1.64656119776359
  C          -4.63654519039598      1.98509621333227     -0.13915906766110
  C          -2.58414769938082      0.18203033102529     -2.41791628511787
  C          -1.40434841098864     -0.35129190886212     -3.24242389977949
  C          -3.44140796502325     -0.98170018879171     -1.89565659671096
  O          -0.62534769225082      2.14311062916190     -1.37363835345318
  C           0.57777828789733      1.49625772198729     -0.96430045725208
  C           0.64869245266574      1.39158815366947      0.55662912996613
  H           0.92301155680244      2.36213429385343      0.98256357792936
  O           1.68219654347868      0.44585898198540      0.83764081603794
  C           2.02251182929058      0.38766284158308      2.20821335831500
  H           2.54524611033314     -0.56754926839791      2.32979096374497
  O           2.85157718804114      1.44824172812822      2.59435153345379
  C           4.15183139154658      1.38017365439817      2.01195475521374
  C           0.78239499258024      0.41201106361468      3.10443825926473
  O           1.03519653504463     -0.43274238963509      4.21610382513412
  H          -2.22576051360910     -0.63758367874947      2.77682202010188
  H          -2.86400060550338      3.10024038251131      0.33976071805184
  H          -2.52200717063964      4.12997439681919     -1.90560392683177
  H          -4.16818087267874      4.42613995007863     -1.32840021667582
  H          -3.87410082249987      3.19334105000628     -2.55652503392856
  H          -5.12675847475058      1.51995502330515     -0.99965029170770
  H          -5.31132742194734      2.75843709667536      0.24248069688648
  H          -4.52602260357199      1.22302657780530      0.63786001066387
  H          -3.20893274039936      0.80051619455050     -3.07596004884701
  H          -0.78547172478437      0.45620364472449     -3.64148796159487
  H          -1.76759207058907     -0.94815692721400     -4.08557697039305
  H          -0.76351480110383     -0.99874491042433     -2.63557510511831
  H          -2.85410945353222     -1.62850235779555     -1.23780149422417
  H          -3.80081956717688     -1.59301790518334     -2.73005546097776
  H          -4.31327549738387     -0.63909644288192     -1.33380297498014
  H           1.42206842723219      2.07872707207332     -1.33611722313151
  H           0.64704205605872      0.48811612530688     -1.38518515976734
  H           4.73158296148321      2.19942948099355      2.43634250428255
  H           4.10346186209257      1.49252214953840      0.92567735391689
  H           4.63255070258490      0.42636850574246      2.25738730106648
  H           0.61111693185541      1.44184770963890      3.44552019056687
  H           0.19979693935973     -0.52047143218760      4.69314554136574
