46
Coordinates from ORCA-job goat_0_168 E -1252.754622620525
  O          -0.97891757295137     -0.13006805727026      3.35943131196857
  C          -0.30446901186236      0.16446036273096      2.13986144879600
  H          -0.55199314784110     -0.59380850742077      1.38983556010560
  C          -0.67684596777851      1.53940420242745      1.59299412517028
  H          -0.78890883308076      2.22531639273784      2.43796365030928
  O          -1.94728915227995      1.47341975821206      0.95302745462918
  Si         -2.15119703635343      1.38441882269504     -0.69435688374101
  C          -3.77075181613364      2.25318556386924     -1.03629323045860
  C          -3.69556773772591      3.70834041354359     -0.55080124180588
  C          -4.18042513984819      2.19560487299249     -2.51396536517677
  C          -2.04131185784628     -0.38291079548087     -1.29842280549815
  C          -3.25687280747008     -1.20223364704821     -0.84465047442141
  C          -1.80731766219108     -0.50839658541699     -2.80978605867469
  O          -0.87027837284761      2.22857662779431     -1.33674468469761
  C          -0.02040425861000      2.93800804180277     -0.44083688740771
  C           0.46224347913623      2.06405171436850      0.70097016177204
  H           1.13810439226088      2.66529959635408      1.31761123592564
  O           1.19238439659970      0.96349013225502      0.14138724735763
  C           1.95846102493042      0.28682473495088      1.09832773052794
  H           2.18337404769921     -0.70188916328938      0.67982817759248
  O           3.15436325993621      1.01840059254990      1.26733308826731
  C           4.13653050607698      0.32962670065562      2.03466093153074
  C           1.18724929994066      0.09836138488283      2.41885380606018
  O           1.54515607461248     -1.16347470108972      2.96449016570167
  H          -1.89129134095989     -0.36027066937526      3.15062319684290
  H          -4.53444355405636      1.73049717737592     -0.44509215538564
  H          -4.65733675350991      4.21237160190348     -0.69254228073966
  H          -2.94352157109542      4.26777775461459     -1.11652058953050
  H          -3.43347023967313      3.77125365423011      0.50835946371097
  H          -5.09194236751482      2.77952827078324     -2.68001603076669
  H          -4.37663526248785      1.17381340642425     -2.84570297079977
  H          -3.40068721996013      2.61439476673737     -3.15879278195904
  H          -1.15161532066936     -0.78459569607317     -0.79583254906357
  H          -4.17434335293735     -0.84293449963713     -1.32127110427052
  H          -3.40080049550607     -1.14827904805810      0.23888660576609
  H          -3.13704205949198     -2.25690744863977     -1.11357511319251
  H          -0.93379465934153      0.06512634393864     -3.13020071093292
  H          -2.66892419960594     -0.15447836992661     -3.38132738062248
  H          -1.64141071713041     -1.55578107695666     -3.08383586682476
  H          -0.53693235827459      3.80861339392959     -0.02101147417635
  H           0.84174164673366      3.28943556982633     -1.01097791773640
  H           3.83220785572721      0.22541516455961      3.08030447531822
  H           5.04818135266734      0.92442215982186      1.98194645774422
  H           4.32657513143563     -0.66650451655710      1.61804640236454
  H           1.46126707282762      0.90266882172148      3.11526005507880
  H           0.91285230645077     -1.34332521844898      3.67281380534248
