46
Coordinates from ORCA-job goat_0_16 E -1252.766929731684
  O           0.12991881942427      1.43165180126342      3.78821563930182
  C          -0.43894616529465      0.59187695993273      2.79296589457951
  H          -1.37590368100006      0.19997794213048      3.19598857400525
  C          -0.75932035153799      1.39810794842739      1.52892766080844
  H          -1.28632295770594      2.31257090223475      1.82313755071887
  O          -1.60179663612049      0.58579546864696      0.70133942814029
  Si         -1.97903817508273      1.17036169063883     -0.82016536491737
  C          -3.22030559774169      2.55675484472211     -0.63440932346040
  C          -3.65180376447889      3.11408407372840     -1.99779582304147
  C          -4.43421150299202      2.11033116683184      0.19129871664737
  C          -2.54732561370286     -0.24552086748835     -1.89690155366015
  C          -2.17657148888097      0.00189418746226     -3.36831158329543
  C          -1.99653798885168     -1.59623253124460     -1.41977485474482
  O          -0.54500930154238      1.76084990005585     -1.41422640064412
  C           0.27497609519790      2.50604604961811     -0.51550434487733
  C           0.52608529777300      1.78220095872550      0.79666995984602
  H           1.09418496592118      2.46531151145802      1.43810321943918
  O           1.30846073400758      0.61929602440668      0.50558798397033
  C           1.69357915646056     -0.10995248347645      1.65052563789233
  H           2.25864895059681     -0.96473541136129      1.26510809871124
  O           2.49206474080631      0.65516082153458      2.52352037102817
  C           3.72307982173014      1.08656918384884      1.94228376510061
  C           0.48060040135801     -0.58881041943989      2.45326088707277
  O          -0.20840436241300     -1.59442290226969      1.72828971107291
  H           1.07925050328651      1.50224335353047      3.60681841056796
  H          -2.70945568536033      3.35859814197008     -0.08473338363130
  H          -4.19889610992712      2.36071806445972     -2.57334875665684
  H          -2.79537563171486      3.43709409658800     -2.59665011702776
  H          -4.31640715738593      3.97485855072209     -1.87007062062496
  H          -4.96449372221714      1.28763714475433     -0.30000281169471
  H          -5.14570519602419      2.93440465412412      0.30893664728162
  H          -4.14236509023486      1.77135222253515      1.18874060020640
  H          -3.64168689307352     -0.27343800918367     -1.82104400528077
  H          -1.09091710354656      0.01718537881859     -3.49677738969917
  H          -2.56938151773186      0.95072792630670     -3.74233486017139
  H          -2.57763620750905     -0.79853155986124     -3.99824154764205
  H          -2.35666385442066     -1.84979799646961     -0.41963106352400
  H          -0.90186900512899     -1.59188119540253     -1.39592093086338
  H          -2.30864471559962     -2.39584081092866     -2.09946905038036
  H          -0.18611122264843      3.47532957553289     -0.29249519935517
  H           1.23113018979981      2.68609254567263     -1.01106810988551
  H           3.54849861719429      1.80761220832563      1.13987800695403
  H           4.27332149042910      0.22671607756921      1.54610332077943
  H           4.29903327544171      1.55612962600048      2.73866982113584
  H           0.83915742868587     -1.04105045124618      3.38050919908322
  H          -0.76093378824431     -1.13907636420485      1.07425799073492
