46
Coordinates from ORCA-job goat_0_112 E -1252.760118636920
  O          -0.05649280406173      1.28799511993336      3.88211095170460
  C          -0.48568348399400      0.46752023867003      2.79909039614498
  H          -1.43254863081365      0.01149990378719      3.09600125960757
  C          -0.74065238309070      1.32926499054280      1.55646986620705
  H          -1.26269534026419      2.23544568729768      1.88723405766297
  O          -1.56605569533267      0.59358598938361      0.66229071220812
  Si         -1.77914564715705      1.12615115481447     -0.89703616290256
  C          -3.03105371209550      2.52198876504675     -0.88148009241546
  C          -2.98494734960406      3.39684213221725     -2.14068516682600
  C          -4.45541923497362      2.02682639875615     -0.59770377615979
  C          -2.14184550906175     -0.36821032540844     -1.95350238359347
  C          -3.17343840482846     -1.31181914599677     -1.31932814320774
  C          -2.53792726001140      0.00372513532433     -3.38867498622982
  O          -0.30348408003139      1.73472517443388     -1.36851590824303
  C           0.40252601297532      2.50101245979555     -0.39551274725332
  C           0.58113804401173      1.75827766443859      0.91804764032423
  H           1.08193292383623      2.44552649855856      1.60979759781120
  O           1.42491175653176      0.63098993858126      0.66100991447288
  C           1.76544229111792     -0.09648211107167      1.81642147797637
  H           2.40145342668235     -0.91456580851355      1.45893017556184
  O           2.46611343835864      0.69016548860025      2.75389502908326
  C           3.70528284074009      1.19865021229723      2.26004220327437
  C           0.53494703676495     -0.64687051032483      2.54471019331804
  O          -0.07469121635962     -1.67759870071021      1.78180769764500
  H           0.89549451291327      1.43476700698144      3.78227585471163
  H          -2.72077274084149      3.14718090955946     -0.03158106558192
  H          -3.29794762821668      2.83736460359020     -3.02648959549368
  H          -1.97933492329740      3.78226476888481     -2.32757136840336
  H          -3.66062971659824      4.25291487175969     -2.03806045436664
  H          -5.13578136513331      2.87215563057847     -0.44946687013736
  H          -4.49984503674303      1.40025289391308      0.29788763639914
  H          -4.84054254260461      1.43975725096442     -1.43665222572970
  H          -1.18049508698373     -0.89835246998926     -1.99097799602470
  H          -3.27971222116528     -2.21842580653594     -1.92448307804343
  H          -4.15877100015379     -0.84214778740825     -1.25673838091088
  H          -2.87941583290279     -1.61205791777469     -0.31068119798393
  H          -3.51141292548251      0.50181927130178     -3.41048646589595
  H          -2.61477334126994     -0.89512774889451     -4.00933372835133
  H          -1.80895814625619      0.67198631262547     -3.85623289713747
  H          -0.12120995386799      3.44326013557843     -0.19171372713111
  H           1.38562690749595      2.73835503963326     -0.80751823004807
  H           4.20343228231722      1.68218748131298      3.09947613901279
  H           3.54344954667172      1.92580542532614      1.46035477330832
  H           4.32653097036333      0.37840160907371      1.88508377846930
  H           0.86108266275958     -1.03004757939966      3.51716595577877
  H           0.50026855965662     -2.45071025153466      1.82058333738834
