46
Coordinates from ORCA-job goat_0_3 E -1252.766035344925
  O           0.15510562606273      2.08102256622357      3.58938399565564
  C          -0.47448568213372      1.12875287234322      2.74347473706718
  H          -1.44353977683034      0.89038967596827      3.18845116924838
  C          -0.71665913594158      1.72227623307964      1.35059166492369
  H          -1.18018032425803      2.70813836336247      1.46299991169657
  O          -1.60318520322322      0.83496808433486      0.66227469600727
  Si         -1.83352179374539      0.93919318135764     -0.98942277984992
  C          -3.28661188245714      2.06720154456943     -1.35127791594061
  C          -4.42858292660538      1.85825075168484     -0.34515839914121
  C          -2.87254149913380      3.54539605863794     -1.39048744771954
  C          -2.00635665972611     -0.80170322087851     -1.63628934761957
  C          -3.20549662393015     -1.55181085696141     -1.04160408107555
  C          -2.04590516174909     -0.82801022393820     -3.17071194459002
  O          -0.42691946296255      1.56212143745120     -1.60886694544702
  C           0.42087376481182      2.38973993371136     -0.81805673287670
  C           0.60171139965856      1.87685800370056      0.59867673216586
  H           1.21773430102363      2.61050490470813      1.13062616726911
  O           1.28570786693101      0.62138799240188      0.52308282624603
  C           1.59789633191639      0.06572220422473      1.78202168181049
  H           2.08742869330567     -0.88741586493418      1.55712150264582
  O           2.45652790516429      0.89654934299222      2.52913591407181
  C           3.72045992115679      1.12217622918680      1.90404953197643
  C           0.34579709841085     -0.16427297594165      2.63433803688858
  O          -0.42159540408202     -1.22691221778080      2.09099116141120
  H           1.10832756509730      2.04237104245299      3.41994269146929
  H          -3.65066327832937      1.78931950787412     -2.34937502855096
  H          -5.29114224470454      2.47826476427950     -0.61114811129060
  H          -4.11098115612138      2.14344630366270      0.66206905801558
  H          -4.76517638047350      0.81964598845563     -0.30457123473575
  H          -2.09420412834848      3.73064634936599     -2.13462441069540
  H          -2.49280619436477      3.87456527473803     -0.41765088105223
  H          -3.73281454815530      4.17743160952582     -1.63512037968682
  H          -1.08738605154639     -1.30511894694444     -1.30627922454494
  H          -4.14913480214028     -1.11711392387572     -1.38379303674869
  H          -3.20209708117495     -1.53179903557667      0.05212140328927
  H          -3.19456120494198     -2.60004731454914     -1.35773955788420
  H          -2.94162520002261     -0.32491269086245     -3.54864899202944
  H          -2.06930853094942     -1.85975096010785     -3.53646515317943
  H          -1.17341592520790     -0.33592642606289     -3.60898385025632
  H           0.01945872623946      3.40768601865769     -0.76669536317137
  H           1.39542067941804      2.42758420665195     -1.30967278834746
  H           3.60873148990710      1.71373499277429      0.99208153039901
  H           4.19673227397351      0.16637271222976      1.66194703375469
  H           4.33320524817968      1.66643411643570      2.62153443285252
  H           0.66526148755607     -0.46874461237545      3.63348594538681
  H          -0.95153211555377     -0.84836299625336      1.37250178218260
