46
Coordinates from ORCA-job goat_0_230 E -1252.754880235070
  O          -1.13856707990537      0.35835160293161      3.18605487366763
  C          -0.34939299000596      0.44069495499325      2.00439336390601
  H          -0.60370060305560     -0.38391782265261      1.33034723750849
  C          -0.55149139892230      1.76203646919029      1.27258643002494
  H          -0.59979205741003      2.56148336394480      2.01737000918842
  O          -1.81223393683011      1.75754509362914      0.60831397142272
  Si         -1.99507669739733      1.35954607043576     -0.99443342281015
  C          -3.46939342658774      2.32296306271340     -1.62070524125756
  C          -4.77350077800697      1.95692564933584     -0.89852062646939
  C          -3.19723053494866      3.83119040220734     -1.52293393332611
  C          -2.06487473152613     -0.49011622510249     -1.27470625904549
  C          -3.03541919802693     -1.23575844743834     -0.34997059737438
  C          -2.35241816668234     -0.80769607386258     -2.74971732579875
  O          -0.60321305343608      1.90517885787155     -1.72794209877017
  C           0.28441420431406      2.70356962816351     -0.95128366539223
  C           0.65942322786293      2.03127498212560      0.35554474784290
  H           1.35700307674845      2.68912846390104      0.88363928568402
  O           1.32678707262061      0.80122083127641      0.04030955029973
  C           1.97832136620611      0.23836003288407      1.14389681390597
  H           2.16342287915891     -0.81366596135049      0.89469108191142
  O           3.20643188323687      0.91756119432649      1.29789241546716
  C           4.08204277649367      0.29450137618565      2.23212522803158
  C           1.10574107464310      0.29510817926200      2.41286899354902
  O           1.31167593723204     -0.90351470734735      3.14690140015804
  H          -2.05467433036433      0.20985668847193      2.92481200050403
  H          -3.57791548642875      2.06304863487836     -2.68198127895411
  H          -5.05460771106839      0.91440299850234     -1.06144151365471
  H          -5.59732307776058      2.58239036911139     -1.25855222684003
  H          -4.68529795057879      2.11733022467205      0.18068595380554
  H          -2.29992067808859      4.11862409032685     -2.07721834399128
  H          -3.06143425662413      4.13744451706941     -0.48103768576097
  H          -4.04029059868341      4.40025327120517     -1.92866338801725
  H          -1.04692758412341     -0.83389604131743     -1.04705038305765
  H          -2.92134789287967     -2.31812416037091     -0.47171335569698
  H          -4.07482736730987     -0.99049901223508     -0.58184831796689
  H          -2.86573214403416     -0.99869040076198      0.70399418874204
  H          -3.36185632806165     -0.48912809176076     -3.02862361234744
  H          -2.28339014140314     -1.88480710594688     -2.93443321418281
  H          -1.64664408414834     -0.30799981079258     -3.41994680838155
  H          -0.16121492403332      3.67931846100831     -0.72740788818337
  H           1.18864503449107      2.86483984752656     -1.54130689279921
  H           5.03236884335703      0.82443246157419      2.17210222969570
  H           4.23594622028769     -0.76045705405992      1.97640699184391
  H           3.69519461612704      0.35964533774588      3.25355317131872
  H           1.40051784518716      1.16445755361178      3.01659946367299
  H           0.61572315036548     -0.93816375608245      3.81660867792776
