46
Coordinates from ORCA-job goat_0_21 E -1252.762578269901
  O          -0.01781484187520      1.46384809006517      3.82204613823211
  C          -0.46601228104664      0.55800599747581      2.82565774556816
  H          -1.40693826999286      0.08209178662000      3.12603527094616
  C          -0.72689846421462      1.38608179671370      1.57010447623398
  H          -1.31659405659202      2.26808031816034      1.84583215750387
  O          -1.46278367089550      0.56002142399258      0.66367048020736
  Si         -1.73915279433117      1.14769401113005     -0.87797871136149
  C          -3.09910384731362      2.43179503296424     -0.78030562944568
  C          -3.55570625541735      2.89493860827136     -2.17049457331725
  C          -4.29020858587433      1.99233095233965      0.08104350295536
  C          -1.98944081869580     -0.33413096593339     -1.98051330893400
  C          -3.33292639702448     -1.03309005324078     -1.73095832882640
  C          -1.79539299342242     -0.01723197154157     -3.46983643799739
  O          -0.32446201880385      1.89125741302539     -1.33112003190465
  C           0.39113558082975      2.62778527542575     -0.33980206400225
  C           0.59108402483475      1.84333314781588      0.94591953099339
  H           1.10095329903431      2.49543809307933      1.66265925175953
  O           1.41104236445140      0.71473523377708      0.63624579554031
  C           1.77592336274668     -0.05536083774752      1.76448226816318
  H           2.31214402027388     -0.91496741118511      1.34596400671646
  O           2.60262267265494      0.64947579133626      2.64837546606686
  C           3.85689755743223      1.00259896956398      2.07169504767235
  C           0.54782975835203     -0.55769011998882      2.52993308633750
  O          -0.07575336376553     -1.59906416637867      1.78797923693693
  H           0.24567307978471      0.95682017047255      4.59828117176169
  H          -2.62636221179883      3.28961390278872     -0.28082721193624
  H          -2.71400306464444      3.20905538974249     -2.79474459490093
  H          -4.24535706431171      3.74143623522129     -2.08760953148937
  H          -4.08201526613004      2.09296489184734     -2.69639224949459
  H          -3.97559734414398      1.70059933712839      1.08627540331908
  H          -4.81282196514127      1.14206872297833     -0.36568302832197
  H          -5.01423091142261      2.80850279285961      0.17733913989662
  H          -1.18626559524488     -1.01864885749070     -1.67416396450129
  H          -3.38506014280353     -1.97103371782450     -2.29332055597434
  H          -4.16726878065433     -0.40648259567066     -2.05872976779152
  H          -3.48407246483446     -1.26833079931136     -0.67343073513983
  H          -1.84057577560751     -0.93767390472192     -4.06126222203481
  H          -0.83029264547724      0.45854694382363     -3.66084521308639
  H          -2.57866483349649      0.64933060516751     -3.84030022964843
  H          -0.13606683733361      3.55894552730700     -0.10088652659763
  H           1.36653415854889      2.88275405412903     -0.75923589149935
  H           3.73271858337913      1.74211916219125      1.27572686777532
  H           4.35711207275904      0.11591043979651      1.66485334321628
  H           4.46383249042670      1.42815671524536      2.87064163672444
  H           0.89059572949439     -0.99637836240596      3.47083312409960
  H          -0.60430519269232     -1.17000306901488      1.09710665957945
