46
Coordinates from ORCA-job goat_0_66 E -1252.757233718510
  O          -1.57629082912822     -0.08271560680615      3.11454585279966
  C          -0.44635241742744     -0.01574593692014      2.25189511519217
  H          -0.22851931177772     -1.00738439734310      1.83995474854997
  C          -0.66568841798790      0.95760383469690      1.10449934962495
  H          -1.16692847527796      1.84337512952215      1.51287123816973
  O          -1.51580436087647      0.33542784885967      0.14018538090005
  Si         -1.93762963709224      1.32437555667009     -1.13526246987487
  C          -3.17079673461889      2.63543600534138     -0.61925286276574
  C          -3.81659082141792      3.31105126999427     -1.83744094086085
  C          -4.23225453178656      2.10585593284214      0.35472879738772
  C          -2.48746283993402      0.22831018535312     -2.54229615154603
  C          -1.35273489154463     -0.68732250866808     -3.02172517861660
  C          -3.73468858459728     -0.58919588126662     -2.17530929379930
  O          -0.50651520385207      2.11683727273439     -1.47415415652899
  C           0.67696036828305      1.47106206194351     -1.00844115263056
  C           0.69586652567495      1.39254107085965      0.51604087275087
  H           0.95830931969473      2.36918217713493      0.93550879295872
  O           1.71520009461596      0.44809339719165      0.84805269549284
  C           2.00599892236502      0.40836726849538      2.23076303360022
  H           2.51651795495669     -0.54874075861941      2.38513418663674
  O           2.82984453998846      1.46817645517455      2.62984164156757
  C           4.15036892984743      1.37754517004442      2.09812804552518
  C           0.73559265114728      0.45562894032000      3.08259167523446
  O           0.94625571672333     -0.36861815701850      4.21817048676788
  H          -2.27272935321179     -0.56773247724494      2.65746015010963
  H          -2.57502989311484      3.39020952327049     -0.08987871942297
  H          -4.45995681192710      4.13946403681933     -1.52341825531981
  H          -4.43776231799019      2.60337150992852     -2.39499271543996
  H          -3.06789618847644      3.71286124801037     -2.52702505933693
  H          -4.86549924820950      1.34837377974700     -0.11505089390181
  H          -4.88597919006860      2.91994414866422      0.68529223555572
  H          -3.77876609226234      1.65666421515307      1.24228019520859
  H          -2.75091994090800      0.90495314627931     -3.36577809674102
  H          -1.69203519413284     -1.30934388478591     -3.85666064803287
  H          -1.02248487868487     -1.35775577875084     -2.22239553020366
  H          -0.48588303873429     -0.11526951916808     -3.36222427208225
  H          -4.58925306421950      0.04975468095091     -1.94083680669900
  H          -3.54571041777959     -1.23013241753047     -1.30849598374293
  H          -4.02388531368507     -1.23739321464187     -3.00911266841286
  H           1.53728290589276      2.04205095633828     -1.36086050294156
  H           0.75427067310263      0.45467482813742     -1.40712871195728
  H           4.72177058871493      2.19953103692089      2.52850075105059
  H           4.14384093568160      1.46951990033181      1.00886503306455
  H           4.61219022918485      0.42427581706447      2.37934333120822
  H           0.55778560283065      1.49254185522380      3.39784490139925
  H           0.09794204201996     -0.43345972125396      4.67550256010268
