46
Coordinates from ORCA-job goat_0_209 E -1252.756232024230
  O          -0.68155528252758      1.87586010393357      4.05775563389732
  C          -0.41163424783665      1.00319320391497      2.96516890348605
  H          -0.99366519863672      0.08015024602639      3.05930954943586
  C          -0.85350294941847      1.70045045942685      1.67479102774935
  H          -1.53029190004875      2.51739443638877      1.95006939329313
  O          -1.52571704380435      0.74859090841533      0.85551199952979
  Si         -1.98512304852710      1.22224683631551     -0.67698510623103
  C          -3.55548319213460      2.23411921667080     -0.52648719677182
  C          -3.80608700153888      3.17222836934300     -1.71355871653324
  C          -4.76650714056428      1.33000787702287     -0.25589277058462
  C          -2.09971563531073     -0.31203594624851     -1.72963011307338
  C          -2.53031684011780      0.00865659702660     -3.16821455454121
  C          -0.77349378661919     -1.08492998018193     -1.71253878927406
  O          -0.74762452703855      2.16777558064599     -1.25332192842356
  C          -0.05099540477454      3.01233846655010     -0.34204222667240
  C           0.34666276446531      2.29156626893667      0.93680582757691
  H           0.82252138751684      3.02877064162198      1.59652473906852
  O           1.27927558685707      1.27106168030561      0.57327468314550
  C           1.46172790948433      0.21530019490928      1.50324544091066
  H           0.87149180096418     -0.65258158563708      1.17663100524251
  O           2.81445158906455     -0.12980580380431      1.54274606622108
  C           3.25054503519420     -0.83348858379482      0.38013314814106
  C           1.06481192732003      0.63785114356850      2.91051808167691
  O           1.29295898909044     -0.40656475945210      3.84339261081875
  H          -0.36246780507098      1.44635029026055      4.86092849370568
  H          -3.39971702656170      2.86013818777795      0.36342268532208
  H          -3.97834269974010      2.61364982510660     -2.63770011186818
  H          -2.95880949040740      3.84167633883687     -1.88256419908129
  H          -4.69331771400618      3.78908195774310     -1.53426185746932
  H          -4.98039205038474      0.69154150236733     -1.11882379293101
  H          -5.66208758400535      1.92819072920704     -0.05804651857312
  H          -4.60234155284217      0.67870676744902      0.60791323499892
  H          -2.87327034450906     -0.94254433706604     -1.27210987520010
  H          -2.55755785978958     -0.90539106581585     -3.77048914485640
  H          -1.82767948320101      0.69805136786571     -3.64720695821976
  H          -3.52375655857431      0.46136859724442     -3.20700715977737
  H          -0.85678188516918     -2.00014857188415     -2.30802909143488
  H          -0.48222228815344     -1.36652523340826     -0.69803220387478
  H           0.03536685851921     -0.48315993042423     -2.13765281175840
  H          -0.66708982648158      3.87945047715162     -0.07454120581987
  H           0.84890905604313      3.37229243202667     -0.84545561714592
  H           3.20660698394445     -0.19272998826248     -0.50473590428552
  H           2.63231281279688     -1.72307121052318      0.21686566850292
  H           4.28225837533891     -1.13424534525025      0.56017451735617
  H           1.65938123575100      1.52161968906238      3.17506692945510
  H           2.23221505544460     -0.62620805136910      3.80533821486708
