46
Coordinates from ORCA-job goat_0_177 E -1252.758854014978
  O          -1.12862261293977      0.81962284647433      3.67246751587128
  C          -0.38849298458344      0.64435654591315      2.46903100731695
  H          -0.69646015398612     -0.32784683216154      2.07837214913326
  C          -0.70365412587776      1.70590494013031      1.41429587745668
  H          -0.84016897695294      2.67240873914443      1.91508781464530
  O          -1.93426243010372      1.37801036066867      0.78532179607359
  Si         -2.21011536169476      1.16395677341437     -0.83456861328376
  C          -3.59126605686465      2.32478747810390     -1.32917194838353
  C          -4.90262038663039      1.94927810472974     -0.62383019980311
  C          -3.21969036880213      3.78818983747450     -1.05660969642309
  C          -2.62232327001396     -0.61648634013284     -1.22431040014054
  C          -3.05307488076586     -0.77825170361994     -2.68993432964495
  C          -1.46837190044206     -1.56742321879861     -0.88552841285833
  O          -0.78721092880166      1.55686329956954     -1.59526500061324
  C           0.14567642730632      2.38211771538558     -0.90546582864754
  C           0.49911615559677      1.84418207229683      0.46648052779187
  H           1.20192412846408      2.55555119425257      0.91492230989209
  O           1.14332806470102      0.57744959195947      0.31418125645990
  C           1.85159237847173      0.19655922592809      1.47736763079352
  H           1.93201783745537     -0.89506039250557      1.42484092117243
  O           3.12677726232337      0.77551243997972      1.52680944280655
  C           4.01031447421907      0.26426008337703      0.53078949304846
  C           1.10837677442311      0.60013497486594      2.75120212927015
  O           1.41487486594941     -0.35324780426742      3.75629619778810
  H          -0.99075691412397      1.72252707705140      3.98676015818246
  H          -3.73430181200998      2.20279782473587     -2.41051437514255
  H          -5.21661926685296      0.92864904155253     -0.86011990922285
  H          -5.71040410765769      2.62511373064204     -0.92385612648683
  H          -4.79747735867541      2.02386463115660      0.46341517631652
  H          -3.00500554182041      3.94856427338992      0.00488249364845
  H          -4.04452661403563      4.45449881773668     -1.33111990216391
  H          -2.34003088370376      4.09623369044765     -1.62806526065735
  H          -3.47866559479406     -0.87297672508034     -0.58635248671950
  H          -3.93230195795962     -0.17383834961461     -2.92807805434988
  H          -3.29813598786756     -1.82354733606331     -2.90542877827384
  H          -2.24849240710228     -0.48247916943636     -3.37137579855950
  H          -1.75851555911529     -2.60615669662016     -1.07645838288064
  H          -1.16908750739498     -1.48969077748667      0.16226122468838
  H          -0.58926209427356     -1.34807961287376     -1.49795356042817
  H          -0.24504266429908      3.39936846855178     -0.78966343215242
  H           1.05387194022042      2.43166093434126     -1.50959088211349
  H           3.65811178870573      0.51370452464976     -0.47363300191127
  H           4.10380299007619     -0.82382216366530      0.62305614290784
  H           4.98163996745818      0.72801389117073      0.70076071306114
  H           1.45181200276729      1.59613554385886      3.06363069110210
  H           0.78567365200732     -0.20512155062698      4.47492171143331
