46
Coordinates from ORCA-job goat_0_169 E -1252.756945278888
  O          -0.97001637440287     -0.58518933607746      2.98983669851593
  C           0.02474577981422     -0.29154594800257      2.01939258132010
  H           0.19447190549880     -1.16685929537295      1.37959679766781
  C          -0.40060640988629      0.87623478498513      1.14100132684308
  H          -0.48902236302817      1.77299785684686      1.76111497950257
  O          -1.69102087358318      0.56383931187264      0.62508006747473
  Si         -2.22965096806266      0.93751529566496     -0.90138422847505
  C          -3.01178685438254      2.63148140194218     -0.97105067660645
  C          -4.33258246566723      2.65587496753133     -0.18807142893379
  C          -2.05105407555448      3.71357918909717     -0.46046808559062
  C          -3.38831613174365     -0.43262072872605     -1.41515062893268
  C          -4.00392174900581     -0.14022668211967     -2.79130823251341
  C          -2.67486711724018     -1.79130216145321     -1.41028598154014
  O          -0.85339253047743      0.95581485052511     -1.83670357549088
  C           0.31848427035490      0.38747234655353     -1.25879833150342
  C           0.66010500226304      1.10550575060954      0.04060022386136
  H           0.73663669115038      2.17677252732623     -0.17042414648170
  O           1.94111899059424      0.60537445624712      0.43527874469700
  C           2.25456262419622      0.83095079711403      1.79528730499979
  H           3.28360716773138      0.47078518375728      1.90512290313354
  O           2.16653835078716      2.18713690697370      2.13593463683712
  C           3.12413175478588      2.99634031860178      1.45456613974874
  C           1.32199670814654      0.04029983027817      2.73154197429631
  O           1.91787079158717     -1.18806511333886      3.13258002172359
  H          -1.80186524193339     -0.67645976960123      2.50698774305085
  H          -3.23080952120236      2.83365124773708     -2.02771957442010
  H          -4.16527380091512      2.41888833486910      0.86789699446504
  H          -5.05621078976103      1.93658644344245     -0.58093981498213
  H          -4.79048724577534      3.64937822070018     -0.23386669593098
  H          -1.80659718261660      3.55399733992162      0.59466576475914
  H          -2.50777171355947      4.70528421006859     -0.54385436902738
  H          -1.11500320782729      3.72614172987517     -1.02465881288908
  H          -4.19603603214798     -0.46142215773676     -0.67236613985270
  H          -4.68201197353973     -0.94639764754502     -3.08968818784159
  H          -3.22677014379791     -0.06342821346250     -3.55906070582248
  H          -4.57251569002857      0.79362258850734     -2.79717241095251
  H          -2.24623743885047     -2.02199079243879     -0.43138972027756
  H          -1.86344963964636     -1.80753391080132     -2.14484860236505
  H          -3.37185113808684     -2.59435831425463     -1.67189262858625
  H           1.14290795874465      0.51904021690568     -1.96204508237297
  H           0.18827421716438     -0.68492103771729     -1.07708893584306
  H           2.93204944691842      3.01806678302593      0.37853156048497
  H           4.13755078772396      2.62004984574008      1.63333788307555
  H           3.03132439975591      4.00305446143399      1.86077421483680
  H           1.10071728252808      0.66322216591797      3.60373075694633
  H           2.61598454297754     -0.99038825542329      3.76763767899175
