46
Coordinates from ORCA-job goat_0_147 E -1252.755260898046
  O          -0.97277936620004     -0.88891240891018      2.73436564390887
  C           0.08277636268387     -0.44533662730773      1.89359470256932
  H           0.36124382962666     -1.24063743831085      1.19048100391724
  C          -0.33851504756415      0.78093889292659      1.09632196434461
  H          -0.54288576770728      1.60202875248775      1.78983426942397
  O          -1.55421444860926      0.44591746183931      0.43454661916680
  Si         -1.98832467434044      0.92649525211568     -1.09496988820306
  C          -2.92606608172176      2.54178140124293     -1.08151185385916
  C          -4.31221748388630      2.40320956202267     -0.43691219445066
  C          -2.10650142559341      3.63289589632134     -0.37733199503860
  C          -2.87554775420110     -0.52038481059701     -1.87664304554111
  C          -3.90117486462766     -1.19732003986550     -0.95808878310249
  C          -3.49748771274869     -0.12532880525766     -3.22348621722346
  O          -0.54200417828061      1.20634390217784     -1.87175008056301
  C           0.60656091948822      0.61653081366052     -1.26974661872235
  C           0.79872647966268      1.18545760596600      0.13023607983851
  H           0.83370223843141      2.27645522897682      0.05126448286125
  O           2.06656704187634      0.69959666158425      0.58108251717289
  C           2.25715028073771      0.79761666348033      1.97858616078619
  H           3.28974327674832      0.46871649419395      2.14041857867472
  O           2.07692780779924      2.10758544900932      2.44197722607703
  C           3.05025098304193      3.01827762576076      1.93272749897969
  C           1.29063385010589     -0.12025206707676      2.75046580319393
  O           1.91573117644469     -1.35131435627686      3.09504596216473
  H          -1.75369308351595     -0.96591483139099      2.17042142657575
  H          -3.05956567058521      2.83310962518146     -2.13187930033632
  H          -4.23421448070047      2.03259438313807      0.59051426213434
  H          -4.95688299002791      1.71831567897946     -0.99211069479331
  H          -4.81488250487345      3.37532784064390     -0.39879987725291
  H          -1.94960674590301      3.38422907998590      0.67728943245541
  H          -2.63342130202795      4.59205363537532     -0.41290701060092
  H          -1.12583641278195      3.76933751756018     -0.83982784738001
  H          -2.07296053183979     -1.24526850655212     -2.07299044045309
  H          -4.31133921044236     -2.09201812327423     -1.43853882139384
  H          -4.74017770569144     -0.53290869819397     -0.73473522503421
  H          -3.45211883763834     -1.50045126133246     -0.00886890451274
  H          -2.76313036005402      0.33399792374800     -3.89226968844519
  H          -4.31520576235421      0.58866350133130     -3.08543121524254
  H          -3.90864336194865     -1.00337015105312     -3.73218673761163
  H           1.47843367667598      0.86596208120624     -1.87717639445057
  H           0.51606741466573     -0.47541579987259     -1.22952917198529
  H           2.94823692361704      3.14591237546204      0.85170071783193
  H           4.06127137421966      2.66247141399716      2.16055828334470
  H           2.87842900811127      3.97286362827532      2.42904967262753
  H           0.95836854227673      0.40746055327923      3.64977532399986
  H           2.54252657965195     -1.18106297665758      3.80769437414724
