46
Coordinates from ORCA-job goat_0_23 E -1252.762677120578
  O           0.16337884237068      2.19802387203002      3.50707215250776
  C          -0.45948305230697      1.18175068190764      2.73667701196781
  H          -1.42633010403559      0.90114400946643      3.17094342582155
  C          -0.70903921808633      1.77462788629477      1.35150664982980
  H          -1.17060200019358      2.76132226713207      1.46706145396417
  O          -1.59963612371897      0.88845905309258      0.67139369417751
  Si         -1.83312818767525      0.98852143333654     -0.97977783588735
  C          -3.31720506523640      2.07773699449854     -1.33566247273786
  C          -4.46014881362081      1.82438055835813     -0.34118195734313
  C          -2.93961301963566      3.56628907267199     -1.34710855659920
  C          -1.95987645264031     -0.75560317027541     -1.62989362157164
  C          -3.13435108327298     -1.54148219677541     -1.03238626423509
  C          -2.00437511850623     -0.78099457483749     -3.16410722891980
  O          -0.45198785854310      1.65819510937392     -1.60677237952241
  C           0.40777938638520      2.47023827891801     -0.81121055242666
  C           0.60474881152933      1.92450394310477      0.59057234959943
  H           1.24136799664095      2.62584177468796      1.13978484503496
  O           1.25272424649514      0.65626018900947      0.47207966773807
  C           1.60780788149601      0.07997069161221      1.71350301267777
  H           2.00227533175747     -0.90895587317397      1.45271273100682
  O           2.57962872231099      0.82805435204568      2.38990364969811
  C           3.81837747719806      0.89038150989607      1.68808427028169
  C           0.39139294039249     -0.09317227569243      2.62913196457928
  O          -0.40414179342339     -1.17395271830561      2.15651492306931
  H           0.42150147815177      1.82196743178724      4.35635020920484
  H          -3.66692813844680      1.80705148427777     -2.34082731288608
  H          -4.77352471872815      0.77797383759372     -0.32172968639425
  H          -5.33491619671879      2.42991160241935     -0.60067997911175
  H          -4.15492818567072      2.09756754069067      0.67321052985871
  H          -2.16203888575346      3.78330541420219     -2.08332505027347
  H          -2.57234639156068      3.88727338296500     -0.36661207367384
  H          -3.81365505755217      4.18187687369860     -1.58491363378727
  H          -1.02564127049900     -1.23280083891305     -1.30389747038895
  H          -3.09166281005041     -2.58957137221954     -1.34641365109035
  H          -4.09139413963168     -1.13698881555857     -1.37428770577869
  H          -3.13057932877056     -1.51928626330989      0.06133754344531
  H          -1.14845242224371     -0.26271782680712     -3.60481548171295
  H          -2.91590162111627     -0.30372334850943     -3.53788729942554
  H          -1.99908510916244     -1.81227791926570     -3.53196618849097
  H           0.00648430777561      3.48690094547498     -0.73587668480518
  H           1.37497892570400      2.51675579797060     -1.31649066638046
  H           4.53198607826360      1.38206442539586      2.34893689981479
  H           3.72111580350588      1.46667118067236      0.76385828742464
  H           4.17605272362048     -0.11783125116791      1.44831449072489
  H           0.75276113408873     -0.37340300996965      3.62211459286279
  H          -0.93943992088598     -0.82601013980411      1.42701939815267
