46
Coordinates from ORCA-job goat_0_10 E -1252.767303303576
  O          -0.06058375765317      1.32695946021182      3.76031389582090
  C          -0.57260949961990      0.54408210367345      2.69099532277230
  H          -1.54618837044609      0.16126050267293      3.00655038429637
  C          -0.77688961591917      1.40807439960278      1.44124662897300
  H          -1.31437162979264      2.31900817743822      1.72821587650314
  O          -1.55815940168812      0.64445865673781      0.51337228946416
  Si         -1.80165870304715      1.29688479889085     -1.00698522307106
  C          -3.05136615344640      2.68675312949440     -0.88448295314195
  C          -3.53478895704850      3.11058384200958     -2.27897602877685
  C          -4.22845862158031      2.37891574891004      0.04956574846397
  C          -2.22034317067258     -0.08124965661234     -2.18817230149187
  C          -1.06964284995189     -1.08941798957019     -2.31231674771205
  C          -3.53234234151623     -0.78372219348521     -1.80937551459993
  O          -0.33024585112369      1.92518311854466     -1.45201320752711
  C           0.43658988696816      2.59549283105484     -0.45432869780325
  C           0.56943326522792      1.79610166654568      0.83153921681839
  H           1.10306427728905      2.42958238989518      1.54907131422324
  O           1.34122481901290      0.62639942097667      0.54069223167603
  C           1.61961266450721     -0.16784101099979      1.67306828416281
  H           2.18698536997410     -1.02128683268238      1.28799710358684
  O           2.37378431753567      0.53022033134750      2.63739691975523
  C           3.65362266361762      0.95311741005730      2.16563490198871
  C           0.34107302988103     -0.64603428941125      2.36858467520398
  O          -0.32194009839365     -1.60601218813224      1.56156566464610
  H           0.90139204025404      1.37682720809956      3.65545720353641
  H          -2.49529314681461      3.52995333321192     -0.45179103386475
  H          -4.17579199137390      3.99580495732811     -2.21418008947330
  H          -4.11871420808104      2.31356567493102     -2.74987230290754
  H          -2.70009401588491      3.35047981761899     -2.94469823186354
  H          -4.83078627808853      1.54652826151030     -0.32481458766931
  H          -4.88818234186782      3.24914709104068      0.13290829846600
  H          -3.88747926551029      2.11684281698113      1.05445268305100
  H          -2.35948149674769      0.40052268108643     -3.16508130838836
  H          -0.89840514860533     -1.61424899829850     -1.36794979783509
  H          -0.13373056101644     -0.60462942824403     -2.59923451905188
  H          -1.30732566609581     -1.84528659214896     -3.06791513226947
  H          -3.47138353753643     -1.22055905815093     -0.80745628278891
  H          -3.74490120090794     -1.59628417427047     -2.51159850798521
  H          -4.38315161799631     -0.09863948877321     -1.82596910456053
  H          -0.01544209559935      3.56421957129056     -0.21073006068021
  H           1.43210311021134      2.77475955528962     -0.86569518050367
  H           4.20142148761096      0.10126205742195      1.74928841986439
  H           4.19062441370613      1.34974019610067      3.02635026429526
  H           3.55575724397619      1.72957438136956      1.40286726086613
  H           0.62459959406827     -1.14081744232668      3.30013780788713
  H          -0.83758658981490     -1.11002624823780      0.90662441764431
