46
Coordinates from ORCA-job goat_0_36 E -1252.763091212865
  O          -0.02341136253833      2.11687478818186      3.39390879949904
  C          -0.63007786999082      1.10935780163715      2.59956188796753
  H          -1.62132726901565      0.84982628878799      2.98977368591655
  C          -0.80201349653179      1.69965662489172      1.20220968258697
  H          -1.25894397506165      2.69168080278376      1.29256316397092
  O          -1.66112547128013      0.81973530653980      0.47186440829179
  Si         -1.89273754759363      1.09134339759709     -1.16201771113182
  C          -3.26285121408182      2.35458108275501     -1.40275009272683
  C          -4.31132292822352      2.27443950075832     -0.28291768772272
  C          -2.73562826349044      3.78990050602483     -1.54044250081079
  C          -2.24809299068668     -0.54125760426134     -1.99013581456779
  C          -1.07193154112771     -1.51872090055007     -1.87132041221584
  C          -3.54917829954163     -1.17296014039239     -1.47395920602565
  O          -0.44209242642155      1.65473643321840     -1.73241255634803
  C           0.44057468309648      2.39702639723549     -0.89399998816021
  C           0.55196978174366      1.83051198277877      0.50963759076470
  H           1.17463349170757      2.51369433182012      1.09628602516308
  O           1.17834006793284      0.54911080668343      0.41798723315443
  C           1.45866715363683     -0.03784155342411      1.67358734882243
  H           1.84022529954960     -1.03610162234337      1.42962663604738
  O           2.41578117639397      0.68542040594718      2.39707101152403
  C           3.68831178389156      0.71624296766776      1.75660688798330
  C           0.19921953513358     -0.18170865607481      2.53549391627309
  O          -0.59966614028200     -1.24749076681178      2.03623571707648
  H           0.18334451392394      1.74088349835403      4.25718872280954
  H          -3.75076459231654      2.08253708729443     -2.34880842004267
  H          -5.14580643058104      2.95293138531862     -0.48927248882304
  H          -3.87305053712673      2.56627471975936      0.67595949152992
  H          -4.72023567087702      1.26784178441073     -0.16503704621519
  H          -2.25793506669822      4.12519505553672     -0.61446593610681
  H          -3.55873352685567      4.48084166109940     -1.75153509554152
  H          -2.00288046201721      3.87966831285605     -2.34601797088817
  H          -2.38649870465861     -0.29858196124607     -3.05294160239317
  H          -0.14744267898587     -1.08877356946413     -2.26353567826077
  H          -1.28243470251380     -2.43889311049852     -2.42635230391891
  H          -0.89256538949841     -1.79811028292387     -0.82924797096124
  H          -3.74111817462667     -2.12291971278087     -1.98333948658045
  H          -4.41355101040967     -0.52563826607880     -1.64242226525590
  H          -3.48773106551919     -1.38063748713947     -0.40074758837925
  H           0.10627142152448      3.43745281563278     -0.82079463877325
  H           1.42733262948578      2.38413339155849     -1.36213734595971
  H           3.65106414285550      1.29420147384278      0.82903186933224
  H           4.03194139800840     -0.30074234742090      1.53380169675231
  H           4.38103721963660      1.19004270732618      2.45186893905678
  H           0.51267183608157     -0.46221041375945      3.54456986684240
  H          -1.10628732605003     -0.88730492312844      1.29203722644499
