46
Coordinates from ORCA-job goat_0_128 E -1252.749248031621
  O          -0.21405711537719     -1.07374984102385      2.84963211497548
  C           0.30902595294926     -0.57938429598492      1.62020066544074
  H          -0.02184229479196     -1.28449785636659      0.85562540557860
  C          -0.29215134506041      0.79424627895259      1.30077041511994
  H          -0.39149820741030      1.34185959295686      2.24075746562530
  O          -1.59863979164719      0.61462968639878      0.76644650226908
  Si         -2.14619170386769      1.13463974602947     -0.71208195218412
  C          -3.10185312165494      2.72962599947755     -0.49477434718442
  C          -3.23540082516493      3.56162891874852     -1.77662058429070
  C          -4.46942540016659      2.47507931000150      0.15432295071103
  C          -3.12490740739794     -0.27695569826897     -1.45104291532331
  C          -3.73251766997873      0.08824504362996     -2.81262014305507
  C          -2.24599313945380     -1.53014640984035     -1.56715283901790
  O          -0.79564700353392      1.44751431444943     -1.63005798238210
  C           0.49186729939204      1.14641750459687     -1.09464921510404
  C           0.58009305128037      1.62822033052156      0.35386372079085
  H           0.20434796002210      2.65752603109266      0.37479487632732
  O           1.95462024922061      1.68851686910763      0.74786641766306
  C           2.38474433013783      0.83583615100232      1.78275422592942
  H           3.47796854240085      0.85817862164895      1.71837287541648
  O           1.96173547201871      1.26130128908503      3.05335762956604
  C           2.46677513541341      2.54372136650086      3.41700460048666
  C           1.85180258486454     -0.57580195507666      1.61439958930514
  O           2.38965070577631     -1.06365381555887      0.39219273629220
  H           0.05089679517348     -0.45910411010981      3.54594131261874
  H          -2.49129320022712      3.30582882515321      0.21485555926682
  H          -2.26157122800038      3.75880871137425     -2.23164240778843
  H          -3.70763702430668      4.52569889451808     -1.55902275391611
  H          -3.85608456515905      3.05559582228606     -2.52077572175903
  H          -5.12321190707759      1.90868768108403     -0.51618237208696
  H          -4.97238081801992      3.42022159063780      0.38431579503981
  H          -4.37812846447010      1.90975161432750      1.08677498914589
  H          -3.94490573643198     -0.49183090762473     -0.75330444954148
  H          -4.45854859282907      0.90051169485342     -2.73412411612024
  H          -4.24732841131122     -0.77607084811650     -3.24540818744192
  H          -2.95746701667889      0.39775355208381     -3.52154998202956
  H          -2.81853315115065     -2.36543692603652     -1.98394672870415
  H          -1.85411938386119     -1.84201394261083     -0.59612977162003
  H          -1.39398699938183     -1.34946660094167     -2.23065370964611
  H           1.23772758503454      1.68211901833087     -1.68579158283515
  H           0.69789803938595      0.07521256477693     -1.16552291190784
  H           3.55932881271098      2.56263232742852      3.33415793098266
  H           2.17687080427971      2.71476777346810      4.45323249240628
  H           2.04228825750204      3.32747431993899      2.78424785022840
  H           2.19878122534757     -1.18005298025991      2.45797733302502
  H           2.16284872150074     -1.99783525664187      0.31944921972797
