46
Coordinates from ORCA-job goat_0_95 E -1252.753142477387
  O          -0.93643095631991     -1.24699822174204      2.14220645072117
  C           0.10043426781806     -0.50184276777185      1.51909027525707
  H           0.32567260371136     -0.92771175063935      0.53357044677757
  C          -0.26865686714498      0.96820905945162      1.37327208091776
  H          -0.29885231338693      1.41453317787469      2.37070540315797
  O          -1.57887605763406      1.10451497802395      0.84038171436913
  Si         -1.95817029079982      1.45478652497907     -0.74112883399746
  C          -3.34270874905887      2.70614656257852     -0.73810964322419
  C          -3.89888077368889      2.97845237046931     -2.14248967655429
  C          -4.46939437478177      2.35796720663639      0.24479367055159
  C          -2.24719697296907     -0.16145986640648     -1.64512181711275
  C          -3.55775104015315     -0.83774894731495     -1.21958859991887
  C          -2.15765679466819     -0.02843440501384     -3.17091030471832
  O          -0.60379038709261      2.20650927975159     -1.34908280453623
  C           0.61900761198283      1.58528288357571     -0.96525853445673
  C           0.82866728867830      1.67155605191975      0.54548854836677
  H           0.87298634698233      2.72677615905410      0.83418656998884
  O           2.10628970491778      1.05733733566087      0.75750812224143
  C           2.32659009239697      0.53092595288012      2.04907432543545
  H           3.34488135645229      0.12976298460449      2.01160671054847
  O           2.22017761550498      1.51463312160700      3.04218555696009
  C           3.21106521856662      2.53416689093644      2.92141947955053
  C           1.34357841793919     -0.59859204855685      2.38981158134939
  O           2.02851724955158     -1.83285143671268      2.20581767489199
  H          -1.74869197465096     -1.05689914108695      1.65499504249524
  H          -2.85734264349234      3.62436448884056     -0.37995903416705
  H          -4.60507647182405      3.81478524152680     -2.11706523695183
  H          -4.43609764978898      2.10673007424994     -2.52667594796823
  H          -3.10975654767978      3.22860232841512     -2.85751615267146
  H          -5.00733329821421      1.45900635782906     -0.06758693422035
  H          -5.19627143960361      3.17565952153877      0.29129226890973
  H          -4.08814031494767      2.18815871810120      1.25465437182195
  H          -1.42026841583417     -0.80662589911637     -1.31773357607665
  H          -3.62774896309149     -1.84397786866607     -1.64570233780860
  H          -4.42395516133591     -0.27077268522693     -1.57255068666363
  H          -3.63886512523146     -0.92946782346563     -0.13211423756773
  H          -1.21041613134133      0.42002279018842     -3.48159174101949
  H          -2.96642010687482      0.59210024942348     -3.56590269537627
  H          -2.23670798814126     -1.01200792330201     -3.64631538942548
  H           1.44078629824693      2.10548413680683     -1.46080386010909
  H           0.64426602693653      0.53656396542145     -1.28470419886095
  H           3.07152684655675      3.11640086766885      2.00686742514956
  H           4.21437785253666      2.09353358349066      2.92079121199494
  H           3.09893158222994      3.18522279049170      3.78781582622334
  H           1.04107551310524     -0.48373363992651      3.43592786744537
  H           1.41657591563604     -2.54282122904804      2.43470961828034
