46
Coordinates from ORCA-job goat_0_130 E -1252.752020833314
  O          -0.79039412277360     -0.38287557451242      2.82462034663989
  C          -0.04256070178769     -0.16737502908546      1.63064091775633
  H          -0.38944943653466     -0.85573697552209      0.85168237294595
  C          -0.22729622665716      1.26233843009961      1.13670170332350
  H          -0.14398725637291      1.92689497069170      1.99678645025988
  O          -1.54267503283713      1.43362901566154      0.61525800093800
  Si         -1.95858684750506      1.15202413742361     -0.97240212759055
  C          -3.16143236287981      2.47929136807253     -1.49593534982199
  C          -4.50653878442204      2.37245181884487     -0.76357698196331
  C          -2.54332938755128      3.87120083283609     -1.30274149893320
  C          -2.55391289935583     -0.60884017388028     -1.21570262875767
  C          -3.48633789738631     -1.12733716621469     -0.11451283831889
  C          -3.19142907068007     -0.76664142211463     -2.60483744104614
  O          -0.56293532634830      1.36581200835118     -1.85227434360835
  C           0.66099617729931      0.96441865337371     -1.24124447389508
  C           0.83861440456250      1.65963483064873      0.10854969991371
  H           0.75783837508517      2.73940168109466     -0.05483628982444
  O           2.17113916364644      1.38731397104558      0.55685533305029
  C           2.33160865221475      0.72216357043380      1.78961874217954
  H           3.38313101263872      0.41467819096397      1.79365712508434
  O           2.06415333157115      1.54652075535218      2.89244909866671
  C           2.93415953386887      2.67264399996146      2.97215428067821
  C           1.43309273810112     -0.50199997141783      1.91283410889486
  O           1.94692707916553     -1.45387399943431      0.98735088664332
  H          -1.69469686110377     -0.08883274416738      2.65747299519121
  H          -3.34008007132721      2.32618081343501     -2.56825781502276
  H          -5.16849480977648      3.19233468606979     -1.06128325360650
  H          -4.37248521263429      2.43517551972240      0.32117014675823
  H          -5.02103299940302      1.43453293836290     -0.98435783682199
  H          -2.34130690911752      4.06342185676850     -0.24460744579383
  H          -3.22965009931252      4.64756541703053     -1.65666492910346
  H          -1.60205791335068      3.97654020349711     -1.84782584924089
  H          -1.64031560231392     -1.21929585767178     -1.19743436998710
  H          -3.75904261757681     -2.17085093404028     -0.30526532160545
  H          -4.41395356941824     -0.55065704478742     -0.06776752035972
  H          -3.01674896148039     -1.08202369152224      0.87077636521234
  H          -4.12461374438526     -0.19943090638839     -2.67520630820055
  H          -3.42763180078025     -1.81683685456267     -2.80487845512804
  H          -2.52700317620052     -0.41623834242207     -3.40044787994853
  H           1.48135130664038      1.26282133646033     -1.89706543907563
  H           0.70210760247046     -0.12390901672729     -1.12104285513658
  H           3.98180499131905      2.35128617194261      2.94853396438896
  H           2.72593631385133      3.16508072452505      3.92161384316327
  H           2.75226596518904      3.37101857863636      2.15099141609711
  H           1.51143385436646     -0.87662524385681      2.93736584972619
  H           1.46736919928207     -2.28074553297770      1.11334560527881
