46
Coordinates from ORCA-job goat_0_101 E -1252.759884980381
  O           0.05406741318735      1.52170424480212      3.82918982638548
  C          -0.42290221211200      0.63973620927666      2.81672158733074
  H          -1.37029509655926      0.22661271113796      3.16950721180613
  C          -0.69339632240424      1.42110604363260      1.52535450832253
  H          -1.19165895830087      2.35767243541765      1.80545914675461
  O          -1.54949728385932      0.64256662406912      0.70004527876355
  Si         -1.80671899226830      1.08895387102559     -0.87885649644921
  C          -3.05208924000294      2.49038696488283     -0.91405006092037
  C          -3.48454846529628      2.85644029271535     -2.33985665226904
  C          -4.26555492841878      2.24546910483121     -0.00767748531783
  C          -2.20530803082973     -0.46139120022834     -1.83750425552521
  C          -3.60181088098151     -1.01032218134920     -1.51585181366883
  C          -2.00655594555702     -0.30271906175141     -3.35125736567816
  O          -0.34301904595916      1.65979024256817     -1.42870982698581
  C           0.42511649729233      2.44667840458006     -0.52119483315783
  C           0.62028930577002      1.77714613321929      0.82857392750373
  H           1.15704884383142      2.49106855157010      1.46396096233292
  O           1.42753138890617      0.61364074904749      0.62069320189715
  C           1.78608708470517     -0.04398208980849      1.81212612309694
  H           2.39074346758237     -0.90042354716051      1.49184844312077
  O           2.53419180186405      0.78504245547219      2.67316795089303
  C           3.76789092145844      1.22870484666047      2.10843743364350
  C           0.56642581830166     -0.51271719737129      2.61201228821895
  O          -0.08786097984972     -1.58018483157199      1.94269993855324
  H           1.00486043655389      1.64300937727053      3.69121697291056
  H          -2.50149898536337      3.34836288561245     -0.50190525265929
  H          -4.08706543878519      2.05828421152035     -2.78332803970910
  H          -2.62653902470680      3.03132226231866     -2.99567920742899
  H          -4.09483304483509      3.76585142341654     -2.33752876670521
  H          -4.87205885722796      1.41054183955262     -0.36936911745790
  H          -4.90995249669912      3.13094742927168      0.01880843705026
  H          -3.96274116651990      2.01814102166255      1.01764492269412
  H          -1.46297935727352     -1.18522078501760     -1.47437615348015
  H          -4.38177478948102     -0.34333917874374     -1.89419229225345
  H          -3.75749941528533     -1.13262074513255     -0.44002768154420
  H          -3.74725575410949     -1.98740613143202     -1.98835943815558
  H          -2.73354067917079      0.39327156089399     -3.77814365349189
  H          -2.14011196488265     -1.26619542478545     -3.85458809676645
  H          -1.00659106687423      0.06684676750812     -3.59172056721827
  H          -0.05325647647003      3.41969092375394     -0.35651115224367
  H           1.40245515202783      2.61920227563929     -0.97701300561699
  H           4.35539719468606      0.37063701144777      1.76496213429552
  H           4.30647630075042      1.74907409411705      2.89948512439786
  H           3.59681087500159      1.90951676946059      1.27079591298787
  H           0.91358039127595     -0.83404137452194      3.59950857090058
  H           0.47389200688897     -2.36060598948055      2.01574131084345
