46
Coordinates from ORCA-job goat_0_188 E -1252.754030356597
  O          -0.77763718749156     -1.50848447241415      2.33054428587495
  C           0.16065949819296     -0.68109513000229      1.66085880606504
  H           0.52196009660759     -1.27594924143792      0.81591142877397
  C          -0.46559404112017      0.60087094985310      1.11908600091942
  H          -0.75556965198497      1.23216538239538      1.96653790514212
  O          -1.63823747137817      0.27028510130801      0.39124536146256
  Si         -2.16507608594406      1.01799138358177     -0.99057501215096
  C          -3.22112561613391      2.51759043270233     -0.63556963706793
  C          -2.47768912373720      3.54111513822390      0.23239152461645
  C          -3.72322767321255      3.15837401151880     -1.93775958034112
  C          -3.05671593047389     -0.27825561959864     -1.99546990586552
  C          -2.14380212095962     -1.47419085635530     -2.29658735436717
  C          -4.35229060920083     -0.72792508361168     -1.30500000832353
  O          -0.77308094036017      1.52855903791335     -1.74861094249411
  C           0.45187701584477      1.02190698160381     -1.22833029168172
  C           0.57718419126700      1.35263153519069      0.25429705672360
  H           0.43508318691491      2.43096839029317      0.37711174847898
  O           1.91836978202533      1.00569982838549      0.60865265125547
  C           2.12662851630635      0.86720597116839      1.99976801104488
  H           3.20229566763806      0.68990588981209      2.10618873912062
  O           1.74275399959225      2.01497498109980      2.70561674455107
  C           2.54217677548380      3.15498143388551      2.39232829255749
  C           1.34425827459068     -0.33143262020092      2.56332502573683
  O           2.19145147138290     -1.45275054651993      2.77431358866023
  H          -1.15369638798025     -1.00626856954968      3.06433143355758
  H          -4.09087802461159      2.15526627883551     -0.07231506549681
  H          -1.58960494471868      3.91944149789296     -0.28277077499212
  H          -2.15557616665254      3.11160953311950      1.18520985275321
  H          -3.12171416794639      4.39841163895214      0.45496223790042
  H          -2.88576431109505      3.50081310649001     -2.55447565002485
  H          -4.35151101609087      4.02908873155728     -1.72278041183934
  H          -4.31484994610181      2.45920924251343     -2.53519791116742
  H          -3.32190963884757      0.20014125465623     -2.94747222627169
  H          -1.83635407484092     -1.97341872833159     -1.37269477792242
  H          -1.23924347044551     -1.16932123183827     -2.83015463374312
  H          -2.66515977335778     -2.21188252381970     -2.91573277666927
  H          -4.87270084468535     -1.47733086360086     -1.91050999639535
  H          -5.03979833559465      0.10704089027078     -1.14392657324611
  H          -4.14019893649172     -1.18036913230644     -0.33086862842552
  H           1.27338133038328      1.50182962829515     -1.76359558719736
  H           0.52645500416986     -0.06037804701765     -1.38209927321894
  H           2.40540533488704      3.46265601594288      1.35216600019468
  H           3.60143133379248      2.93778613192452      2.56919146476641
  H           2.21827950963682      3.95767381293920      3.05402477834303
  H           0.96862960035680     -0.05311073369038      3.55097330179763
  H           2.48467590238468     -1.77778081202963      1.91372077860598
