46
Coordinates from ORCA-job goat_0_206 E -1252.758717518561
  O          -1.23468686514046     -0.10864023324374      3.13030907442932
  C          -0.29461036721358      0.21950766148399      2.11589909645809
  H          -0.20694115643079     -0.61608655414172      1.40974658055622
  C          -0.79224093976033      1.45596366733454      1.38042715811595
  H          -0.96035429827685      2.24296986800782      2.12315241383894
  O          -2.03483904043602      1.18137186177781      0.75244795364217
  Si         -2.33511439047295      1.09061545650750     -0.87644399886742
  C          -3.40991543959738      2.52410137866835     -1.40648099374314
  C          -4.82128973195490      2.40313587082987     -0.81363305723204
  C          -2.76748397962580      3.86553617713213     -1.03077368013294
  C          -3.11272750621523     -0.56760096049615     -1.24679277364628
  C          -3.48598102283637     -0.67382319873085     -2.73269046823023
  C          -2.19732818372033     -1.72337664829395     -0.82363444087894
  O          -0.86355655714926      1.23641432845971     -1.63799218867640
  C           0.33931755598981      1.09878419539216     -0.88654112026212
  C           0.25629713584202      1.96101280945054      0.37621195238395
  H          -0.03544473254365      2.96407119249039      0.05656173010383
  O           1.51979323113814      2.12885922285239      1.00997051846589
  C           2.03435545266172      0.95626733104718      1.63181772129208
  H           2.18871937158058      0.16562364407463      0.88318926582096
  O           3.24063799834446      1.28246580613502      2.23495999627912
  C           4.31849330426394      1.43043368247978      1.30883226802554
  C           1.07581457263479      0.48715840461534      2.71522756058432
  O           1.51938211960072     -0.72600849830644      3.30614814761784
  H          -0.86392047815816     -0.84783438289658      3.62827904940170
  H          -3.48838678306837      2.47187310311064     -2.50021128880613
  H          -5.32071347115786      1.48384432752295     -1.13122108632736
  H          -5.44480283704209      3.24750788417521     -1.12549029890991
  H          -4.78800022020640      2.40512633410045      0.28091705011586
  H          -2.64461320066345      3.95007621040587      0.05394873951171
  H          -3.39573361612727      4.70051458671095     -1.35836046091989
  H          -1.78265048964911      3.98553333196909     -1.48986999727571
  H          -4.03485267854850     -0.62284889907385     -0.65381677168779
  H          -2.59817230124056     -0.58135791647131     -3.36707835443953
  H          -4.19351892955109      0.10378240420971     -3.03331273992159
  H          -3.94471240547534     -1.64453860989997     -2.94766491231240
  H          -1.24724041298524     -1.69173155411769     -1.36696859287855
  H          -2.66795422183744     -2.68831446625817     -1.03990302152957
  H          -1.97512069347108     -1.69135640066492      0.24590430154794
  H           1.16800743233272      1.45849824802431     -1.50056485003679
  H           0.51704566956505      0.04378098226921     -0.65689246924461
  H           4.15214485673479      2.28498503284309      0.64815798116292
  H           4.43344320473936      0.52085978300094      0.70961016544047
  H           5.21934412471099      1.59552534780605      1.89877570147487
  H           0.99660431307236      1.28091474214267      3.46837286170911
  H           2.32745660734446     -0.53734655443498      3.79773027798049
