46
Coordinates from ORCA-job goat_0_157 E -1252.754022939540
  O          -1.05776119292322     -1.40841113068015      2.43230805434947
  C          -0.03468414662704     -0.65367560818434      1.80190076937090
  H           0.35769801726152     -1.30067003805083      1.01083564636959
  C          -0.55717004908953      0.63018769338146      1.16350791137108
  H          -0.87673524302808      1.31102781828748      1.96047357321833
  O          -1.68864288101873      0.32168402242925      0.36481411251532
  Si         -2.07638917045160      1.02460247997173     -1.08452154157538
  C          -3.08389208467740      2.58389788679174     -0.87667282343376
  C          -2.35552588726071      3.61521582826307     -0.00502956054754
  C          -3.46353663845324      3.18254676495365     -2.23893511688377
  C          -2.95073037221171     -0.27993927510733     -2.09399357001567
  C          -2.07100160928709     -1.52380096675193     -2.27612863173981
  C          -4.30863662642822     -0.64559221617762     -1.47759905019439
  O          -0.60998426068570      1.43872059003501     -1.75599379674876
  C           0.54841903727522      0.90332915432657     -1.12414144225527
  C           0.58039232771624      1.29498703873512      0.34858383792040
  H           0.48098275667125      2.38310137631674      0.41509593807881
  O           1.87411341862854      0.90503835597580      0.81629565834894
  C           1.97395532765119      0.81788138702927      2.22346510858289
  H           3.02944633548693      0.59716000211253      2.41638243291474
  O           1.59578156522599      2.01127744775521      2.85248871626808
  C           2.46765327917125      3.10056649115662      2.55261533102660
  C           1.09526073951191     -0.31762607678348      2.77568760796913
  O           1.86771415749919     -1.46625429352420      3.09766537104126
  H          -1.47011325503096     -0.85464927035381      3.10717965645267
  H          -4.00682771914541      2.28798403618300     -0.36124857357095
  H          -1.41878753087554      3.93148820157546     -0.47377684652794
  H          -2.11763692514679      3.21788529975632      0.98578122302709
  H          -2.97401131565275      4.50808778837331      0.13456149842102
  H          -2.57011323431497      3.45807020072563     -2.80883373449479
  H          -4.06344794054219      4.08929072564271     -2.10853482530746
  H          -4.04486435217131      2.48250620132004     -2.84537794590817
  H          -3.12926712688279      0.16282168011987     -3.08263871350983
  H          -2.58015182737012     -2.27013938917860     -2.89506457547815
  H          -1.84751590511923     -1.98898006621933     -1.31123329168301
  H          -1.12058561863693     -1.28091010331227     -2.75942784675240
  H          -4.96934864223501      0.22247967884782     -1.40108697003690
  H          -4.18320099847433     -1.06087273484489     -0.47240055884912
  H          -4.81810648084428     -1.40073878926932     -2.08525221018558
  H           1.42843884043234      1.32249799357688     -1.61567599177204
  H           0.58318303952244     -0.18695661502375     -1.22683633854161
  H           2.41599391465222      3.37148799813806      1.49470054630638
  H           3.50110880915632      2.84376485230626      2.81050163567471
  H           2.13820982709198      3.94320137815865      3.15967218715795
  H           0.66166156690880      0.02244477985447      3.71923744972840
  H           2.21260607472142     -1.83976857863793      2.27690968989846
