46
Coordinates from ORCA-job goat_0_22 E -1252.764917060031
  O           0.25687335651214      1.69114087851144      3.72933078024835
  C          -0.41069002000924      0.79165298562156      2.85415721874456
  H          -1.32140533309904      0.46298219626739      3.36037186683959
  C          -0.80845503799091      1.51052536984750      1.55882890612951
  H          -1.27810890791685      2.46110153423084      1.82758298661487
  O          -1.73976715890514      0.67608381024429      0.85764433199920
  Si         -2.17437529676929      1.02441689450678     -0.72061257015966
  C          -3.63845586369157      2.19118514782300     -0.74194828864751
  C          -3.36936184407636      3.52293664665349     -0.03004780250582
  C          -4.12831423041160      2.43817730819592     -2.17690374779066
  C          -2.55607666235936     -0.56346566813532     -1.64078328395775
  C          -2.11744312385238     -0.46276238308165     -3.11136691790684
  C          -1.94384092270966     -1.80908420629757     -0.98938580720192
  O          -0.83261421042491      1.72403458854255     -1.39987937173104
  C           0.10008565041939      2.45856204520281     -0.61368275337710
  C           0.42636902683153      1.79472438681396      0.71032570364117
  H           1.07005234478296      2.48753009227528      1.26355175987835
  O           1.13499489814773      0.58107306685141      0.43727782701151
  C           1.59776530202306     -0.07318160214505      1.59998676024722
  H           2.09762235783557     -0.97693714919267      1.23680665076980
  O           2.49500166529003      0.72572992301070      2.33537123016819
  C           3.68038738832398      1.06537309188338      1.61523906633022
  C           0.44941350749649     -0.43991031199743      2.54501555070504
  O          -0.32664749737299     -1.48353484125822      1.98116283612045
  H           1.18952892307691      1.71969384935872      3.46868579122789
  H          -4.43460966152158      1.66469305546717     -0.19700925764118
  H          -2.56136803210144      4.07592732518613     -0.51875139232420
  H          -3.09820642223679      3.38295026085876      1.01898555085797
  H          -4.26162220677847      4.15745461138877     -0.05837155724680
  H          -4.98980744628910      3.11410583974957     -2.17483818383763
  H          -4.43372475988687      1.51285207486033     -2.67172545248373
  H          -3.34607562782334      2.90330408483538     -2.78568786505339
  H          -3.64844717251263     -0.66880830518743     -1.61883110115306
  H          -1.02872368262051     -0.39557397199595     -3.18448472424123
  H          -2.53750488644828      0.41118560396879     -3.61536138239784
  H          -2.43724508368932     -1.35330525182312     -3.66202121170885
  H          -2.16234612647574     -2.69790981426509     -1.59047312058772
  H          -2.34613746388037     -1.98332734348682      0.01185689074096
  H          -0.85532635674577     -1.72350050705038     -0.91396506553007
  H          -0.28492151771035      3.46266850373706     -0.40617315152965
  H           1.01808198344911      2.55677081341063     -1.19753488850025
  H           3.45588603126412      1.73049560796958      0.77768412618814
  H           4.16552360094743      0.15832714783008      1.23978517238980
  H           4.34106051369254      1.57104527082914      2.31825863172238
  H           0.87957739424553     -0.81825281182313      3.47486766812763
  H          -0.92265138802834     -1.07289984819281      1.33732159081099
