46
Coordinates from ORCA-job goat_0_4 E -1252.766101429203
  O           0.01352619743583      1.18212635260324      3.89755926946713
  C          -0.46313829745367      0.40797423638951      2.80570483253972
  H          -1.41377094152049     -0.03461927534963      3.11278575152479
  C          -0.72090383128344      1.29687400461691      1.58381714263899
  H          -1.29756671356696      2.17318431506010      1.90065601233150
  O          -1.47551098481689      0.51966120400019      0.64702714611328
  Si         -1.74055342974967      1.15290199779326     -0.87845337852716
  C          -3.06545961220339      2.46966662765758     -0.74753194500289
  C          -3.51255277467446      2.97732710892260     -2.12526517926962
  C          -4.26592717626144      2.04093895880615      0.10633014131677
  C          -2.02878705461693     -0.29543353515760     -2.01528442534787
  C          -3.38879338207680     -0.96667977436734     -1.77873953611461
  C          -1.82991696973121      0.05240795067140     -3.49701980336914
  O          -0.30418956194062      1.86726399146585     -1.31158898970056
  C           0.41138744573027      2.57615024212815     -0.30170154745552
  C           0.59768836966783      1.76705687092172      0.97110408799415
  H           1.10098839846166      2.41697577378211      1.69596704096625
  O           1.43265316975492      0.64918390524199      0.65134904055633
  C           1.75877679409701     -0.15703251561620      1.76197863210603
  H           2.37196343289672     -0.96689433166795      1.35351363076413
  O           2.47582170850658      0.55628601839505      2.74307951090062
  C           3.72893241128291      1.06181943713784      2.28132843009842
  C           0.50895922481844     -0.72320844130716      2.44250586406272
  O          -0.10322273471230     -1.68862520744287      1.60209075011445
  H           0.97028268829920      1.28922677231045      3.78778439087481
  H          -2.57027912851726      3.30289730313808     -0.22877077222056
  H          -2.66425591970952      3.28308872897653     -2.74470770876367
  H          -4.17855101005884      3.84010427930671     -2.02024939254642
  H          -4.06206417404897      2.20271658516671     -2.66811485499085
  H          -4.96842162982987      2.87308329191581      0.22285467190291
  H          -3.95703413512500      1.71863405746832      1.10396109944079
  H          -4.81102532452789      1.21473965971932     -0.35825542328326
  H          -1.24232990992965     -1.00702353429078     -1.72765322369363
  H          -3.54233247912968     -1.22463410652458     -0.72689467843104
  H          -3.46557464823820     -1.88863473026621     -2.36416327252704
  H          -4.20826231511413     -0.31166833004954     -2.08781209452462
  H          -1.90037945701565     -0.85189272791548     -4.11043164572873
  H          -0.85314687192569      0.50738816650739     -3.67918104806486
  H          -2.59642950343503      0.74788238221888     -3.84888244498314
  H          -0.10771301480614      3.50741762223188     -0.04619877756452
  H           1.39216473145076      2.83036621812168     -0.70880988990994
  H           4.24011971869983      1.47569231221126      3.14963042463642
  H           3.58632734631538      1.84392772079118      1.53145883236787
  H           4.32698161535047      0.25081352840022      1.85282793920436
  H           0.81929678186479     -1.23448251425423      3.35643200920806
  H          -0.63382704861253     -1.19869859986872      0.95422338088904
