46
Coordinates from ORCA-job goat_0_46 E -1252.756443758559
  O          -1.38439642288002     -0.10670375691295      3.29851210023181
  C          -0.27879956472418      0.01513667582614      2.41020669774636
  H           0.00406326233093     -0.97100268620907      2.02578964464699
  C          -0.58989522345979      0.92953334410143      1.23515886644265
  H          -1.16199796877152      1.78238666939262      1.61922537570985
  O          -1.38600982468153      0.20427630049364      0.29855662499109
  Si         -1.88865413156882      1.08810967436722     -1.02579281254528
  C          -3.30685719021586      2.21998541319350     -0.57262684519056
  C          -3.94176467222589      2.90364955185893     -1.79087775387510
  C          -4.36632344676884      1.51407799891769      0.28524719108443
  C          -2.15446847849339     -0.14775727799454     -2.40120196988025
  C          -3.41335331148423     -1.00066747044058     -2.19276378637094
  C          -2.14277680693490      0.49724110932292     -3.79385372254076
  O          -0.57134418867314      2.06765084883987     -1.33630855017818
  C           0.67336349460664      1.52098991697753     -0.90360594418303
  C           0.72633004748968      1.45748468159038      0.62061521062846
  H           0.92005000113492      2.45677123223024      1.02404764640665
  O           1.81817930493551      0.59728420563527      0.94978331039308
  C           2.13606402481019      0.61330791106992      2.32717071539813
  H           2.71381866689855     -0.30216452758017      2.49615644133219
  O           2.89115942645246      1.73796498207163      2.68326488134519
  C           4.20260365196654      1.73009634058393      2.12240941976543
  C           0.88043188081272      0.59742750248165      3.20199425235059
  O           1.16806893984303     -0.17218941369603      4.35877075340246
  H          -2.03541316936522     -0.68753315319305      2.88899890577597
  H          -2.84000360986527      2.99842758711959      0.04585158372104
  H          -3.19760124211508      3.40925639245711     -2.41325288927908
  H          -4.67471469218381      3.65183982994101     -1.47139976139083
  H          -4.46624983259691      2.17758196989422     -2.41854996503275
  H          -4.87490142524369      0.72539244577428     -0.27592058384043
  H          -5.12927232778608      2.22869157101527      0.61173354779343
  H          -3.92662881379421      1.05999720290781      1.17721221421808
  H          -1.28070838161000     -0.81010392189043     -2.33106408731856
  H          -4.31823213278060     -0.39449026675280     -2.29389529606014
  H          -3.43234639557433     -1.46994736601459     -1.20486470242476
  H          -3.46560712278534     -1.79680941927892     -2.94275592971079
  H          -1.24168846960739      1.09443189956060     -3.95587165020360
  H          -3.00786995729827      1.14950897011127     -3.93887614899283
  H          -2.17975239858720     -0.27411710404169     -4.57029431881509
  H           1.47711839224455      2.15560281497368     -1.27958059103953
  H           0.82046886033191      0.51049421558646     -1.30230953800536
  H           4.72321820531025      2.59929734170616      2.52350007074926
  H           4.16513908204794      1.79883192232017      1.03205082569673
  H           4.73783283886134      0.81816827419861      2.41053766414678
  H           0.63414333911223      1.62880773088556      3.48794432580669
  H           0.32952778288612     -0.29996816340140      4.82118857709482
