46
Coordinates from ORCA-job goat_0_154 E -1252.757101781059
  O          -1.43587467739557     -1.00013715036035      2.44320700822131
  C          -0.41430999103815     -0.24354695787861      1.80824164524834
  H          -0.24198801752262     -0.63054960354848      0.79536448930022
  C          -0.86572811880368      1.20872316348602      1.74249161642290
  H          -1.10376943282612      1.52459762901369      2.76307564894764
  O          -2.05214591431351      1.35613626798669      0.97664150650131
  Si         -2.06508755015468      1.60880778257919     -0.66818257312595
  C          -3.47194045603010      2.78257072096086     -1.02822322291344
  C          -3.34234658222705      3.49152116564003     -2.38363105498817
  C          -4.84752759127975      2.11857176557519     -0.87655701395809
  C          -2.06336155977352     -0.03830132383495     -1.56482896438847
  C          -3.03069413825074     -1.06313886623566     -0.95763868051747
  C          -2.29971568770313      0.12445225969089     -3.07296027561402
  O          -0.64609208875743      2.41407165960850     -1.00722562606304
  C           0.51098715774683      1.99389224727196     -0.28642722774987
  C           0.25812345701406      2.12078664669571      1.22006331089847
  H          -0.03996339775481      3.15490745780878      1.40702835376968
  O           1.44756487620072      1.92805209102821      1.97959738064042
  C           1.93443589412396      0.59027266757343      1.99188993108771
  H           2.19870800855447      0.27102432773386      0.97367948512543
  O           3.05588339822724      0.54910509338013      2.80871683321735
  C           4.22084170543879      1.11589245266832      2.20645485179209
  C           0.88726755198201     -0.33863394297153      2.58824588477643
  O           1.31159677731029     -1.69318152653417      2.53491536624286
  H          -1.10236315928673     -1.90083366611138      2.53921326103525
  H          -3.37390687162839      3.54295717603870     -0.24158869273014
  H          -4.11982274432480      4.25594044587540     -2.48660032554440
  H          -3.45992001746420      2.79072829135788     -3.21401081329020
  H          -2.37183681800065      3.98210413572052     -2.49272494135369
  H          -5.01428991379370      1.37487503643398     -1.66101401174513
  H          -5.64378349729985      2.86587116812852     -0.95733979566828
  H          -4.95645047474217      1.61690323982502      0.08942182910553
  H          -1.04294834257992     -0.42367859236371     -1.43041906215171
  H          -2.82994127351572     -1.22531565520784      0.10363701088516
  H          -2.93820225182919     -2.02600065784802     -1.47189022792529
  H          -4.06993136840232     -0.73749750726173     -1.05832652147895
  H          -3.32337350504717      0.45093935234953     -3.27690260426328
  H          -2.15063518079192     -0.82956002741116     -3.58951287836711
  H          -1.61937630393539      0.85608726592004     -3.51868405427367
  H           1.34041980790204      2.65109716919509     -0.55596953529054
  H           0.78312949535294      0.97314015622198     -0.57466874497522
  H           5.04475346626748      0.95115757065863      2.89989728511845
  H           4.09246176067428      2.18822328407071      2.03910981732882
  H           4.43756516014073      0.61988895582688      1.25429365581908
  H           0.70908991462367     -0.02779530041510      3.62523388185386
  H           2.06844849491334     -1.78887786834138      3.12516679503801
