46
Coordinates from ORCA-job goat_0_106 E -1252.757823342185
  O          -1.20497295369393      0.14541444189548      3.73769107987764
  C          -0.50239462463939      0.21053147059029      2.49959834240129
  H          -0.72996712320716     -0.67287816833814      1.89646126215861
  C          -0.86765000404873      1.45564297937517      1.68973702739461
  H          -1.07207016659679      2.27252119961180      2.38970557493661
  O          -2.07325891814381      1.20243326961037      0.97566429284897
  Si         -2.29456292230966      1.25376337321854     -0.66710978465964
  C          -3.76382065076587      2.37419151973195     -0.96146830385538
  C          -3.47521334940146      3.80131334853121     -0.47626751813982
  C          -4.23133562203645      2.37768664323306     -2.42261863439751
  C          -2.53107168591959     -0.44782440475627     -1.41867527629174
  C          -2.06168613859201     -0.47942547758563     -2.88235726242380
  C          -1.83236894075019     -1.54962842963651     -0.61234349051831
  O          -0.89397492743309      1.89695710111134     -1.28831618917854
  C          -0.04713343526001      2.64422730428179     -0.42183240342271
  C           0.33113855981733      1.86758648457586      0.82243006630972
  H           0.97602162660609      2.51840113374038      1.42362690932705
  O           1.06820220443127      0.70494019463300      0.43335736062896
  C           1.77998777503853      0.14114027656318      1.51695960403026
  H           1.95043509449642     -0.90533348189893      1.23994137036042
  O           3.00229155341872      0.79072922723678      1.73542239628817
  C           3.94398315261372      0.57602497159050      0.68613859729063
  C           0.98259422131934      0.20610622974976      2.82074683584308
  O           1.34296637115049     -0.92146457164199      3.60347830614797
  H          -2.09678701388457     -0.17463195141108      3.56276159277255
  H          -4.57276345704307      1.95758684340643     -0.34469546833362
  H          -2.69089764595553      4.26592397132093     -1.08230449296756
  H          -3.14887685947558      3.81948659952072      0.56740470147654
  H          -4.36949300203301      4.42779969884484     -0.56036080751080
  H          -3.43754269865821      2.72883974823282     -3.09024299972968
  H          -5.08821822719442      3.04776535357937     -2.55043638419733
  H          -4.53482614313351      1.38235461427488     -2.75686095130586
  H          -3.61186172936769     -0.64201504997466     -1.40218416736283
  H          -0.98088942926644     -0.32463758984451     -2.94218683043727
  H          -2.54068199627984      0.28974901792333     -3.49317657735084
  H          -2.28606712120936     -1.45195172810351     -3.33288873632073
  H          -1.96775005757302     -2.52259746118447     -1.09702224085737
  H          -2.22875828582717     -1.62123722349483      0.40297244454452
  H          -0.75659789525630     -1.36153958090759     -0.53962897515773
  H          -0.52754900019155      3.58037711558734     -0.11600778892889
  H           0.86062678485790      2.88997087130057     -0.97673167827657
  H           3.59516482316441      1.01535280135247     -0.25218675225688
  H           4.11991372674372     -0.49608875150612      0.54175540232014
  H           4.87231755902986      1.05894508412087      0.99022835249651
  H           1.24273948400205      1.13018963859580      3.35374327275939
  H           0.71660908845743     -0.95644865705650      4.33833892166763
