46
Coordinates from ORCA-job goat_0_225 E -1252.761442896426
  O          -0.12940281028760      1.23493927672820      3.77058592082432
  C          -0.59096207077765      0.47125207205306      2.65950520215701
  H          -1.56009710325370      0.05147325302750      2.93745853628071
  C          -0.79735094142271      1.38779066386231      1.44677190306988
  H          -1.27600815088616      2.30612909863793      1.80908328206948
  O          -1.65252644348596      0.72978191563691      0.52066213260021
  Si         -1.84113404551306      1.34279117870467     -1.01050082158726
  C          -3.04660162059922      2.77835397827164     -0.97927502164636
  C          -3.45914528922021      3.18157861224579     -2.40198520518990
  C          -4.26896757094245      2.53898491569966     -0.08442641093877
  C          -2.27594861543435     -0.05925175156458     -2.16018994415165
  C          -1.17546759768942     -1.12993273158905     -2.15681022934132
  C          -3.64209360328146     -0.67589142904152     -1.82677283955920
  O          -0.34404591053367      1.91799644391565     -1.45424749916646
  C           0.41695304926991      2.58167562076781     -0.44873441994950
  C           0.54767087680730      1.77042488643787      0.82922395747403
  H           1.08374075159879      2.39748938720190      1.55092540726199
  O           1.32654897886878      0.60781224124461      0.52788503753833
  C           1.63254227848670     -0.17154532570309      1.65944195834900
  H           2.22649375981007     -1.00874698861977      1.27469220690071
  O           2.37248043130288      0.55020119423249      2.61818679523033
  C           3.63272370666431      1.01496379991309      2.13487352403615
  C           0.37816263588195     -0.68201024931068      2.37602199700106
  O          -0.27889131774830     -1.66715117911466      1.59364847502563
  H           0.82846803655223      1.34186443945328      3.67777968151626
  H          -2.47756599934139      3.61282256676266     -0.54592846616488
  H          -4.07085920732968      4.08974819676205     -2.38779439763550
  H          -4.05092600886934      2.39277548624051     -2.87694829689209
  H          -2.59000761428944      3.37445143296981     -3.03829128782489
  H          -4.89136646665702      1.72426395754876     -0.46483440232791
  H          -4.89576409346533      3.43635165823271     -0.04138812441429
  H          -3.97496417175609      2.28352762351922      0.93687478741384
  H          -2.33202780756935      0.37606982532662     -3.16662166080286
  H          -1.07589611109923     -1.58378960629012     -1.16670360141368
  H          -0.20372797547571     -0.71234401767040     -2.43135464121987
  H          -1.41598885001115     -1.92693770107777     -2.86842211757051
  H          -3.66203391709867     -1.06033023832417     -0.80196307599498
  H          -3.85573926663399     -1.51454463883072     -2.49767401910972
  H          -4.45464636646341      0.04705297541290     -1.92984116370573
  H          -0.03761867530452      3.54769143652983     -0.19722296829470
  H           1.41359760294187      2.76821531327066     -0.85455913978218
  H           4.16041016604671      1.43743681499377      2.98908707717424
  H           3.50325364594713      1.78183753734476      1.36696265973716
  H           4.20884217741764      0.18043340443193      1.72131927644744
  H           0.68739747316868     -1.10113905828820      3.33921410698521
  H           0.27244005167512     -2.45831629195562      1.59254582959118
