46
Coordinates from ORCA-job goat_0_26 E -1252.763726550109
  O           0.02411590953196      1.22782970621830      3.72599528024236
  C          -0.46316408307977      0.41723758212890      2.66785132322877
  H          -1.38257410453676     -0.10073312164684      2.96554458539361
  C          -0.79432078131146      1.36050100417313      1.51408665477569
  H          -1.37875884222718      2.20172635427386      1.90382794733144
  O          -1.56739502748427      0.61746687850469      0.56703810893961
  Si         -1.92042240662871      1.34016576821459     -0.89888315388492
  C          -3.29305179666415      2.58738580847877     -0.64761762353608
  C          -3.62031863793260      3.32202267710744     -1.95495605727613
  C          -4.55704769380522      2.00113404691245     -0.00738080508335
  C          -2.23742825333684     -0.01780518627160     -2.13801629484116
  C          -0.92600500327686     -0.67653999815410     -2.58957358480891
  C          -3.20491760478524     -1.07330315927338     -1.57878704359981
  O          -0.54249462650655      2.15706754548564     -1.33547729971098
  C           0.21209576181557      2.80360910147049     -0.31148299567233
  C           0.48589080687327      1.89761092063198      0.87677913787683
  H           1.02325813691567      2.48266000814813      1.63045886916162
  O           1.30153947694515      0.81845964097660      0.41679994551950
  C           1.72932517543945     -0.05372963442729      1.44320681921193
  H           2.25258859576829     -0.85983584272622      0.91589735308431
  O           2.59185041112203      0.57244814810907      2.35213945975592
  C           3.81137142221470      1.00215142800647      1.75324029350045
  C           0.54706356440023     -0.64791855849411      2.21562007876647
  O          -0.10125335000786     -1.62414343895400      1.40943028610385
  H           0.36920183878260      0.65237155296503      4.41797714859080
  H          -2.87082958018141      3.32103852175943      0.05417155607676
  H          -4.35137861797876      4.11833921886398     -1.78002623799192
  H          -4.05126848559938      2.63664320641355     -2.69190615522181
  H          -2.73036211897576      3.77588168789634     -2.39987545454321
  H          -5.26281477666635      2.79806356157691      0.24964418975767
  H          -4.33156990530207      1.44421288318430      0.90627165231067
  H          -5.06901857390133      1.32330045314141     -0.69624013241849
  H          -2.70802011473249      0.45349725476914     -3.01021045521987
  H          -1.13048495951432     -1.47193796264863     -3.31392816937273
  H          -0.40174537273455     -1.12889325194320     -1.74178306685610
  H          -0.24873033357862      0.04284886798535     -3.05436128386915
  H          -3.39110891900931     -1.84984520785618     -2.32771409645855
  H          -4.16928663232660     -0.64624647203334     -1.29552115208033
  H          -2.78221904314904     -1.56115008193227     -0.69528349049525
  H          -0.31528615562597      3.69578984589488      0.04660204059988
  H           1.16150318338842      3.11734173143421     -0.75023833068159
  H           4.45456572810444      1.35138686923409      2.56077142803852
  H           3.63934559468099      1.81839697997234      1.04611850225012
  H           4.29834218311892      0.17000931541924      1.23138494257467
  H           0.94297463336163     -1.16876723019623      3.09163495395511
  H          -0.67780662160410     -1.14149942279321      0.79703032657645
