46
Coordinates from ORCA-job goat_0_132 E -1252.758705502066
  O           0.60344553159041      1.67437579887359      3.62947984252524
  C          -0.15693704389507      0.86744899192522      2.74088697754645
  H          -1.01900195828514      0.42936972962528      3.25580443591558
  C          -0.66452797922247      1.69641761887347      1.55811521661353
  H          -1.16050898507529      2.59784576465174      1.93683509833773
  O          -1.60138886197905      0.88860273441492      0.84331957380373
  Si         -1.99445111345308      1.16919576601234     -0.75806259684118
  C          -3.68952726924425      1.95728683951691     -0.80499397088796
  C          -3.68887262043550      3.25475167825658      0.01720645542625
  C          -4.18020371812733      2.21737208674340     -2.23544078822892
  C          -1.85018559761186     -0.46712387022888     -1.65010551233866
  C          -3.00569692514905     -1.40812063781209     -1.28041378699144
  C          -1.70485893524717     -0.32916084956153     -3.17144844109115
  O          -0.86828793764789      2.22444878963452     -1.35829009297750
  C           0.06287688855735      2.91645300166900     -0.53297001005155
  C           0.50278584773732      2.10774392566505      0.67118923038144
  H           1.18598778937225      2.72581797110862      1.26161646267982
  O           1.17855739426615      0.94297390043742      0.18637810152906
  C           1.75615917595592      0.15523870675003      1.19328777736678
  H           2.12960793547977     -0.74251099132167      0.68736695563935
  O           2.83366063314903      0.87355918443931      1.75479133612973
  C           3.84852366062251      0.03735949239952      2.29577731386454
  C           0.72598010968282     -0.28307116830875      2.24854103273190
  O          -0.08060687175294     -1.32790939368958      1.71355724891470
  H          -0.00080632128983      2.29200192067917      4.05749631585455
  H          -4.37736481755511      1.24754144349278     -0.32674837123558
  H          -3.40090051940142      3.07831757584687      1.05709876025925
  H          -4.68475451639158      3.71010034269381      0.01882214991686
  H          -2.99302999983835      3.98679117470307     -0.40551274172994
  H          -4.30707148827869      1.28981146661221     -2.79836482840159
  H          -3.47727968026815      2.85126903175500     -2.78580973115357
  H          -5.14673240713623      2.73232409081311     -2.22138271216464
  H          -0.91691503007981     -0.89991637319533     -1.26556085791894
  H          -3.09375224001809     -1.54180269233408     -0.19766093946808
  H          -2.85746330164761     -2.39658557044998     -1.72730951536996
  H          -3.96052932204312     -1.01890976584648     -1.64738632038351
  H          -1.51873449700507     -1.30846030110986     -3.62503061474518
  H          -0.87450586057232      0.32913880939887     -3.43864732016567
  H          -2.61298548260460      0.07393220700302     -3.62727828169891
  H          -0.37803323677032      3.85377109517247     -0.17573017599601
  H           0.93552963393546      3.15418640005775     -1.14551600601206
  H           3.49186198889096     -0.52760536718033      3.16351349612696
  H           4.66240683837264      0.69048444345739      2.61023323482332
  H           4.21729160299588     -0.66480234816002      1.53872707846861
  H           1.26043989209261     -0.70111265246039      3.10355445296299
  H          -0.76525038467430     -0.90259000102372      1.17632506803362
