46
Coordinates from ORCA-job goat_0_235 E -1252.758359634039
  O           0.17146787639691      1.92145164165415      3.66467292042707
  C          -0.47195217221430      1.05963451575153      2.73169987482548
  H          -1.46299791100572      0.76790512698060      3.10151989725217
  C          -0.66151744445674      1.77802312148430      1.39068131026618
  H          -1.00585300492225      2.79887536196002      1.60188900793810
  O          -1.65630420736223      1.09040323909103      0.64730644333068
  Si         -1.77258200892375      1.14015908691564     -1.00727304259461
  C          -3.19918057613686      2.25203891185752     -1.49344628929079
  C          -4.55899132838493      1.70741177330145     -1.03660150490653
  C          -2.97266972666085      3.67100293817718     -0.95123866679606
  C          -1.88284241560725     -0.60671527036203     -1.66480697851274
  C          -2.82467600976758     -1.51450771400874     -0.86295185840738
  C          -2.23580534101351     -0.61649480688864     -3.15901726096560
  O          -0.36150759855249      1.80737504213993     -1.57645819634727
  C           0.53174795258472      2.51131625862953     -0.72045286752076
  C           0.66588876553299      1.87413200900994      0.64851187538614
  H           1.34052602115269      2.49823935976113      1.24432538640995
  O           1.23227815411945      0.57492321121671      0.46827479883631
  C           1.58234117679793     -0.05383918841781      1.68213034897373
  H           1.93377305737607     -1.04896797982170      1.38589212409009
  O           2.59361810233061      0.63603233314506      2.36377116064814
  C           3.81263023411717      0.69777764280905      1.62829262531719
  C           0.38757674257733     -0.20745739442579      2.62518858179891
  O          -0.35514692571660     -1.30882509499952      2.11754771449290
  H          -0.41938447402466      2.66305425255105      3.84022938233929
  H          -3.19689945187951      2.29987773444311     -2.59046711651885
  H          -4.57851978509958      1.55135486998604      0.04701844198284
  H          -4.80064060088256      0.75640178636990     -1.51654606854782
  H          -5.35822137458558      2.41528884662716     -1.28162136410942
  H          -3.78950537746006      4.33479566936135     -1.25400780716552
  H          -2.03816730824456      4.10364235218579     -1.31810054355272
  H          -2.93757950150825      3.67235891687235      0.14316083717991
  H          -0.86265299987601     -0.99674328756468     -1.55004325617128
  H          -3.86548535140713     -1.19235195988364     -0.95157408185380
  H          -2.56525162369160     -1.52517081914642      0.19813061443236
  H          -2.76892872141967     -2.54337060207491     -1.23476233268856
  H          -3.25013483028427     -0.23998551586786     -3.32454915469545
  H          -2.19180231747934     -1.63407463787106     -3.56118088597077
  H          -1.55037008305076      0.00364193890459     -3.74472987648388
  H           0.19576583097615      3.54616646507015     -0.58848980859249
  H           1.51084670545188      2.52664094767512     -1.20497520731882
  H           3.70986608490467      1.33041188868771      0.74233030841412
  H           4.12691894105680     -0.30596678994502      1.31918321490323
  H           4.56177349075204      1.12480075403499      2.29465550092315
  H           0.77518258613994     -0.43175491339269      3.62457406366419
  H          -1.17268125064885     -1.38266202198360      2.62256773517890
