46
Coordinates from ORCA-job goat_0_124 E -1252.756708056647
  O          -1.56355949674507     -0.15795438869599      3.09856909009836
  C          -0.43073135915847     -0.02422302212999      2.24743783886633
  H          -0.24604539881621     -1.02282148989312      1.84394109730064
  C          -0.67006291763253      0.93715757185320      1.09320135245562
  H          -1.16549056121725      1.83190265817639      1.49475927112712
  O          -1.52094389664500      0.31631216848185      0.13279998404497
  Si         -1.97258582754133      1.31962957444943     -1.12087182679634
  C          -3.21650924676738      2.60520104507592     -0.56773665135575
  C          -3.89034416275980      3.28888734077615     -1.76607245604893
  C          -4.25516754483119      2.04652070647389      0.41463391219479
  C          -2.52536227654091      0.23879905018801     -2.53813505987569
  C          -1.38602650135932     -0.65483894212364     -3.04718006061109
  C          -3.75666062914810     -0.60059391604039     -2.16614076565408
  O          -0.55681220179350      2.13948154237942     -1.46067641886356
  C           0.63985411336348      1.49435877450610     -1.02944370642811
  C           0.68666342322440      1.37436734030224      0.49252892415554
  H           0.96759834515141      2.33622519878503      0.93378259885366
  O           1.70013928919998      0.40941326583758      0.77726185644945
  C           2.03505606128718      0.34829367707140      2.14958632222009
  H           2.51796939807369     -0.62625455303434      2.28166264688268
  O           2.90574841619079      1.37764589061825      2.52821273159902
  C           4.20627860977160      1.24578344028574      1.95689826700021
  C           0.79199088242497      0.43299591170614      3.03593005057768
  O           1.01035381738143     -0.38339338152587      4.17502829943502
  H          -1.85501265347658      0.72442433283481      3.36317798929259
  H          -2.62355936103413      3.36107974132193     -0.03679195422942
  H          -4.51079010865277      2.58071211174015     -2.32377121946755
  H          -3.15801547175325      3.71029142836901     -2.46150298943375
  H          -4.53962996304343      4.10407813973375     -1.43038023457300
  H          -4.88609462870814      1.28822962066958     -0.05689666028934
  H          -4.91370131988464      2.84678767179305      0.76855275815362
  H          -3.78169695037683      1.58873777007597      1.28725767849869
  H          -2.80931327877037      0.92436975927902     -3.34727845545497
  H          -1.73020705974366     -1.26992161691116     -3.88525137597854
  H          -1.03460028156668     -1.33133910067266     -2.26217748019846
  H          -0.53236887609814     -0.06666795095559     -3.39351238779907
  H          -3.54644518825913     -1.25275277210062     -1.31274418914256
  H          -4.04981852216529     -1.23897633642110     -3.00609461087531
  H          -4.61572632068904      0.02336490371704     -1.90888622742056
  H           1.48906676435664      2.08246296927698     -1.38055667991749
  H           0.72099113545595      0.48936250245047     -1.45510735618768
  H           4.81776440111663      2.04542911920175      2.37404527311040
  H           4.17032228074982      1.34444413533045      0.86879346320746
  H           4.64355014757797      0.27577684556243      2.21941404955064
  H           0.64892991412372      1.47847498735138      3.34436451135098
  H           0.15495500572857     -0.47501372517009      4.61562880017579
