46
Coordinates from ORCA-job goat_0_31 E -1252.762445516906
  O           0.24565198467500      2.05947241482021      3.39973319041910
  C          -0.43882058669111      1.10159527779529      2.60685902687023
  H          -1.39929012538640      0.83331981483981      3.06250905180285
  C          -0.71370007805595      1.77264837152811      1.26211771992646
  H          -1.12281779349683      2.77052751508204      1.44886701619751
  O          -1.67025703760383      0.96582437418406      0.56830437566420
  Si         -1.98253215609066      1.21233549924839     -1.05613804954604
  C          -3.38992502825496      2.42573303284138     -1.29115959937051
  C          -4.77156673551965      1.84141827445809     -0.97079527289786
  C          -3.15611327501440      3.72081178046009     -0.50003723571417
  C          -2.29456402240466     -0.45424151686714     -1.84940750433317
  C          -0.98495823633686     -1.18555984459003     -2.17554850246213
  C          -3.20383290786306     -1.35362684458250     -0.99597799976379
  O          -0.60080882435547      1.87261081714971     -1.69029784673402
  C           0.36885312203326      2.54597366065699     -0.89374065705825
  C           0.57981517848465      1.90761142159421      0.46513913709716
  H           1.26349741085542      2.54792071987064      1.03194195818825
  O           1.16802998558973      0.62203225151248      0.25916402061402
  C           1.54971728132915     -0.02319427400932      1.45776332659385
  H           1.89636435647169     -1.01267885536468      1.13770389753016
  O           2.57380694820252      0.65783208344602      2.12787947958330
  C           3.78323505395235      0.71709244833185      1.37621634848674
  C           0.36291975104708     -0.19433409965389      2.41157286449736
  O          -0.48900545799045     -1.22164989354350      1.91952722006571
  H           0.53196881130535      1.63236390112886      4.21503485306650
  H          -3.36524650462428      2.67225096542277     -2.36212210758115
  H          -5.02023789712203      1.00060304107004     -1.62238098861958
  H          -5.54683898859481      2.60396175697683     -1.10164637891329
  H          -4.82508387800082      1.49302163131243      0.06587536869058
  H          -3.19838261764420      3.53292721552342      0.57729061341414
  H          -3.93163585175933      4.45767659364641     -0.73384565055221
  H          -2.18801432366611      4.17564098906965     -0.72586482072951
  H          -2.81720072934802     -0.24103244791380     -2.79192254169653
  H          -0.34674772183222     -0.60079895684683     -2.84120740739517
  H          -1.19511309506844     -2.14611438816738     -2.65791690030658
  H          -0.41638611146886     -1.38870786917735     -1.26292117997612
  H          -4.14679420273720     -0.87279287371814     -0.72949478024750
  H          -2.70701369244653     -1.64521846989020     -0.06657729651642
  H          -3.44018217615993     -2.27413475729048     -1.53950393910947
  H           0.07231445321065      3.58958481973532     -0.74230100566067
  H           1.31341984993014      2.53341342453286     -1.44248035410184
  H           4.54264498508141      1.14281545721499      2.03174197478846
  H           3.66875020881181      1.35019492509244      0.49198968884028
  H           4.09143036952558     -0.28715890694398      1.06259239341082
  H           0.74818104403936     -0.53285591385700      3.37708996342349
  H          -1.03358073900818     -0.81886456612931      1.22663453011476
