46
Coordinates from ORCA-job goat_0_150 E -1252.753737348422
  O          -1.00497186914604     -1.34537176553409      2.61261058846828
  C           0.07949970548741     -0.67026094358592      1.99350981484584
  H           0.56651220125968     -1.33270420936201      1.26426729220396
  C          -0.40068207501113      0.57138314753541      1.25629849919303
  H          -0.84668039159271      1.26387670560043      1.97782221054470
  O          -1.41547524708201      0.14298810348201      0.35088166405217
  Si         -1.76441393740360      0.97293211538728     -1.04832046741840
  C          -2.75364928962723      2.51586597192688     -0.68101930608768
  C          -2.71449403020835      3.54808241963802     -1.81623869201059
  C          -4.19580936129095      2.20548707636705     -0.26020876961381
  C          -2.51199333449795     -0.28754164206534     -2.20628704272299
  C          -3.60997978676089     -1.14036217475861     -1.55599084811610
  C          -3.00070284128568      0.34274390480597     -3.51740069237427
  O          -0.27219402432178      1.47008228447068     -1.60234699713582
  C           0.85703731992726      0.91025980238287     -0.93738926269961
  C           0.79594988674423      1.25089042491385      0.54621133706729
  H           0.70161392544786      2.33741318479411      0.63954026698090
  O           2.04356164249404      0.83172377079299      1.10423774203202
  C           2.04967554954571      0.78932212484026      2.51881543222978
  H           3.08084888822372      0.53256474499150      2.78483125242543
  O           1.68509170930258      2.01902380981422      3.08158351552515
  C           2.61810500767069      3.06120586520306      2.79908876988970
  C           1.09043421916793     -0.28740839673232      3.06119800988030
  O           1.79655077551750     -1.41962851967479      3.55105613501683
  H          -1.67002671311258     -1.48388731604868      1.92569743856553
  H          -2.23407654463960      2.95258483745025      0.18456390652046
  H          -3.20762151073600      4.47544532294624     -1.50590633635962
  H          -3.23619129495268      3.18165429690848     -2.70442863352245
  H          -1.68940816024105      3.79236967528891     -2.10545646631616
  H          -4.77342684708461      1.81290651022589     -1.10201371558458
  H          -4.69875185506697      3.11364103423313      0.08814410752706
  H          -4.23780887209081      1.46882953939683      0.54752061648891
  H          -1.66763543676614     -0.95057248148350     -2.44250899092668
  H          -3.93491573712401     -1.92991033449083     -2.24196460258251
  H          -4.48871799972931     -0.53835700105189     -1.30993044824425
  H          -3.26068540541379     -1.61612173972548     -0.63628495918998
  H          -3.87464552868552      0.97764898764896     -3.34554625435162
  H          -3.29434619617965     -0.43465931866202     -4.23030846232790
  H          -2.22883295083009      0.95619740493630     -3.99169022010780
  H           1.75880518521059      1.35052464646010     -1.36685473510508
  H           0.90037812004375     -0.17571366348389     -1.07800255302561
  H           3.62384687339586      2.77033374235683      3.12212514057232
  H           2.29229587561526      3.93559231145123      3.36158920488685
  H           2.63650835334214      3.30000627890400      1.73235541661736
  H           0.56029134577057      0.12766708642258      3.92022901628857
  H           2.21508065671429     -1.86249762491689      2.80218107800109
