46
Coordinates from ORCA-job goat_0_145 E -1252.757241536902
  O          -1.34021133986343     -0.19466806741099      3.11939853899422
  C          -0.27538420763641     -0.06955915644509      2.18342745202097
  H          -0.06235491420370     -1.04129189907100      1.72428070178399
  C          -0.59813924765835      0.93282861192354      1.08639073265768
  H          -1.09233736193168      1.79148591149994      1.55661939275350
  O          -1.49625008794511      0.31706382158166      0.16232933357710
  Si         -2.02995573711257      1.33168954493339     -1.04911926325057
  C          -3.25660703505897      2.59380308581571     -0.41019116700336
  C          -4.00505812166144      3.28293488019420     -1.56013312130913
  C          -4.23105390335256      2.01065006293830      0.62228620225420
  C          -2.64866160868097      0.26270363291276     -2.44812103541998
  C          -1.52732712056220     -0.60650549872150     -3.03377144586226
  C          -3.84491226462927     -0.59980453012682     -2.01965886625215
  O          -0.64604846790730      2.17241464668414     -1.45955598065772
  C           0.58267865819552      1.54599767225713     -1.09589909296155
  C           0.70811496247741      1.42248900384016      0.42063195633152
  H           0.97405966699582      2.39292532333702      0.85211829560147
  O           1.77148588036679      0.49674015979338      0.65232306557049
  C           2.15839313779707      0.42651200473922      2.00984690839109
  H           2.70921767150950     -0.51639296818511      2.09896528385534
  O           2.97260333102679      1.50260539431367      2.38520189478269
  C           4.25190478072029      1.48068720492592      1.75492652014249
  C           0.94901977558254      0.40563534144322      2.94765861866580
  O           1.25890779257058     -0.45296194199830      4.03406107735284
  H          -2.05415082436506     -0.68504492328139      2.69629510896301
  H          -2.64377168288958      3.35063795069829      0.09621380471110
  H          -3.31832377328674      3.71928065259851     -2.29193460946665
  H          -4.64195762394102      4.08778499149488     -1.17882894344951
  H          -4.64964632583301      2.57419759400558     -2.08903735499105
  H          -4.87787521263964      1.24867572682492      0.17890769329544
  H          -4.87907545760440      2.79805591105649      1.02157411143398
  H          -3.70287270176355      1.55122686524341      1.46196182207207
  H          -2.98745923227214      0.95472361750438     -3.23020618936049
  H          -0.70175039176011     -0.00080946582206     -3.41609175975956
  H          -1.90864023305091     -1.21305476251158     -3.86196822027009
  H          -1.12400697463152     -1.29071214726152     -2.28095115524166
  H          -3.57573170174017     -1.26467488671594     -1.19299356878064
  H          -4.17999162405083     -1.22675473182528     -2.85252823319252
  H          -4.69477074091536      0.00741909440479     -1.69938637018369
  H           1.40207880107788      2.15070914261277     -1.48736262681783
  H           0.65822512743275      0.54446450022408     -1.53093196741079
  H           4.82530568379681      2.30660569165842      2.17499173452987
  H           4.16077813870006      1.61285794426991      0.67363104680324
  H           4.76607502963865      0.53546299178489      1.96300152525113
  H           0.76616718821551      1.42496615938891      3.31323575527409
  H           0.44326029284409     -0.56775015752721      4.53865239457183
