46
Coordinates from ORCA-job goat_0_135 E -1252.749195373354
  O          -0.78665485246948     -1.03279159900202      2.56276277770607
  C           0.02160098293883     -0.54738139636683      1.49724514562236
  H          -0.22966722574789     -1.17077239456418      0.63831160581617
  C          -0.32709986639230      0.90217653730392      1.16569278985546
  H          -0.36812150738875      1.46834230787782      2.09876195101750
  O          -1.61939629701463      0.96687768295057      0.57881104908980
  Si         -1.97573925782322      1.28511426756496     -1.00961970347357
  C          -2.75280479979719      2.98228353056944     -1.16098127595027
  C          -3.32192251907998      3.21373757949148     -2.56806341022817
  C          -3.79593232948029      3.28773817584102     -0.07823359102633
  C          -3.01894930234935     -0.10990239196092     -1.69122262860183
  C          -2.28271352837175     -1.45056147516453     -1.56366455572985
  C          -4.41016947050865     -0.19225999305463     -1.04874217024242
  O          -0.52714118775943      1.32578735914161     -1.82610679302883
  C           0.68911968132530      0.98448501392459     -1.16852994393110
  C           0.72235558797042      1.54707132105685      0.25277089981405
  H           0.50375143822755      2.61930615923373      0.19660541688864
  O           2.05857771525487      1.41436588461743      0.74685891710270
  C           2.26327795301219      0.59208200203406      1.87163361210328
  H           3.34857682710421      0.43157610915905      1.89395782223170
  O           1.84404454866550      1.19058385376719      3.07041386894758
  C           2.54379098538710      2.39475822521008      3.37397341887237
  C           1.52619343245698     -0.73960918005388      1.76571041514631
  O           2.05897369792592     -1.51437203798428      0.69633707409298
  H          -0.64054183297295     -0.46890955984104      3.33253318357914
  H          -1.91010952577867      3.67249947963635     -1.01715927598766
  H          -2.57505955140407      3.02796745081257     -3.34599057784400
  H          -3.67175479160807      4.24530458877812     -2.68035246226765
  H          -4.17375859585359      2.55386910689510     -2.75971668473143
  H          -3.38788702824557      3.14400283930600      0.92538472887256
  H          -4.67637720942057      2.64726374955446     -0.17598943537552
  H          -4.13673511450969      4.32562305289663     -0.15862604679817
  H          -3.14516134133156      0.11152647424246     -2.75975142044415
  H          -1.28122219664796     -1.41305266826002     -2.00170212847360
  H          -2.84099353754077     -2.24617700339153     -2.06803595545358
  H          -2.18002048339289     -1.73717974342412     -0.51269864485403
  H          -4.33662009546702     -0.31808812394092      0.03644143772387
  H          -4.96360728285519     -1.05142368211325     -1.44274183909729
  H          -5.00576011287627      0.70234839377457     -1.24337195527150
  H           1.51392643889236      1.42596566522049     -1.73241764462892
  H           0.82720008659482     -0.10071464594321     -1.15511544106943
  H           2.22593115355742      2.70224993855912      4.36981854650816
  H           2.30390391923761      3.18200216340663      2.65445889373176
  H           3.62584453639728      2.22037755072734      3.37269669094558
  H           1.64342592170084     -1.26635015123860      2.71740552006477
  H           2.98537593743894     -1.70149041724996      0.89050781877626
