46
Coordinates from ORCA-job goat_0_45 E -1252.765839290861
  O           0.25006795407855      2.05167248167214      3.59397722577316
  C          -0.42586141955576      1.14116028305532      2.73765612884190
  H          -1.40051393683112      0.93650253117130      3.18703012132379
  C          -0.65306870451093      1.77171638484013      1.35779083945785
  H          -1.06270832394917      2.77701487184280      1.49635066259340
  O          -1.59407417592509      0.94718561370711      0.66124724456729
  Si         -1.81093374176620      1.05217884531834     -0.99247237031562
  C          -3.23438633059062      2.20081010836703     -1.38791955575384
  C          -4.59397952761669      1.64228641382841     -0.94696720235881
  C          -3.00164932540099      3.59302522580755     -0.78211646795935
  C          -1.97699021275506     -0.68600637941083     -1.65583595432952
  C          -2.97795548069085     -1.57000232069278     -0.89900905149035
  C          -2.28610503300528     -0.66854681007446     -3.16025009454682
  O          -0.40657144472070      1.68749278709740     -1.60432870132752
  C           0.50466663715703      2.43169482172694     -0.80339229569809
  C           0.66548941558190      1.87649011026749      0.59842446181963
  H           1.32041017514375      2.56607930676080      1.14240846521648
  O           1.28614184512525      0.59055463158625      0.49221018294589
  C           1.59095313131792      0.00523779405514      1.74036281819661
  H           2.03746255240208     -0.96425862281131      1.49707865505566
  O           2.49139195561348      0.78929173364682      2.48754081949858
  C           3.75731127692690      0.96912440866484      1.85138519242943
  C           0.33850833288250     -0.18299205551492      2.60148274160682
  O          -0.47795700408888     -1.20167126089469      2.04594331263206
  H           1.19930438670402      1.97684904332811      3.41470673569884
  H          -3.24132937610281      2.30182226145253     -2.48156217820599
  H          -4.85758512314700      0.73236848306857     -1.48986092863504
  H          -5.38499179067462      2.37756738176407     -1.12895859723482
  H          -4.60015032867606      1.41036658911362      0.12314632694819
  H          -2.99510795616231      3.54859836907099      0.31140749776986
  H          -3.80497751360284      4.27652718289807     -1.07611335263284
  H          -2.05570284012047      4.03269131138625     -1.10861117893506
  H          -0.97528361848006     -1.11510401404922     -1.51631420026677
  H          -2.80058045303855     -1.57416474507973      0.17954746846892
  H          -2.90841374112001     -2.60451402766640     -1.25083752863028
  H          -4.00598109570626     -1.23893134246169     -1.06241295476838
  H          -1.55496994491479     -0.07826295867679     -3.72040086710195
  H          -3.27672832866920     -0.24351490604785     -3.35043223488119
  H          -2.27875605364067     -1.68470068934699     -3.56767926889143
  H           0.17558027941394      3.47340196628981     -0.72357410738502
  H           1.47504035586693      2.41517375815904     -1.30473024587434
  H           3.66222194552423      1.58183275529031      0.95153325291878
  H           4.18689899949618     -0.00266414562099      1.58668531814294
  H           4.40196412494436      1.47198533777538      2.57109179223862
  H           0.65116756472554     -0.51840262203785      3.59273679251798
  H          -0.98731810744172     -0.78871589262589      1.33229528056039
