46
Coordinates from ORCA-job goat_0_181
  O           0.38899224840264      2.17793195579454      3.47135009221060
  C          -0.37807126303254      1.24170011180135      2.71582044949957
  H          -1.31971576365937      1.09393557986998      3.24849579940564
  C          -0.68789023192453      1.82901717626231      1.33390585680520
  H          -0.98392314348416      2.87383456332252      1.48078314508555
  O          -1.76324753240203      1.09946188632336      0.75597127105912
  Si         -2.09606882635509      1.11162657115527     -0.87012585381465
  C          -3.50015411945099      2.30109649874501     -1.19769144836307
  C          -4.81764113130656      1.79034335076840     -0.59990677334217
  C          -3.16473986936070      3.70070147043576     -0.66437936073070
  C          -2.48567382078565     -0.61347523303666     -1.46117134655600
  C          -2.93727030357541     -0.58718234165143     -2.92971631549094
  C          -1.30368331951438     -1.57111508279787     -1.27066771581314
  O          -0.72121548337037      1.63560371598687     -1.63651725269135
  C           0.32402124620173      2.31196098735204     -0.94841167941372
  C           0.55915959845681      1.80286194351418      0.45962620303410
  H           1.30759403337034      2.46557872607165      0.90915662511272
  O           1.07899575542283      0.47192313764595      0.37143713149246
  C           1.49185757358236     -0.04830697256760      1.61421665310875
  H           1.85747291670133     -1.05749280428017      1.39097069833862
  O           2.51823800140041      0.72563397930270      2.19519433857513
  C           3.69635709571972      0.78982316507328      1.39067589254797
  C           0.35704698269889     -0.09973691564511      2.64377902717677
  O          -0.57384349681906     -1.12340029269064      2.32335998893178
  H           1.31585036216668      2.08106557800215      3.20972870344260
  H          -3.61454644035892      2.36582840541181     -2.28721480679046
  H          -5.63090041544292      2.50012041586950     -0.78555149613706
  H          -4.73371732417902      1.66585150648575      0.48466077583559
  H          -5.11433351699608      0.82721787997516     -1.02372424795600
  H          -2.24252494519075      4.09511681477471     -1.09982066823223
  H          -3.04234127492851      3.68649695967708      0.42300160805540
  H          -3.96879194664766      4.40846853639454     -0.89284029859029
  H          -3.32514140313791     -0.97051845202651     -0.85038531723310
  H          -3.82622994878793      0.03099096985058     -3.07846674137405
  H          -3.17298349706131     -1.59837114586311     -3.27748015377147
  H          -2.14607560793399     -0.19483657141139     -3.57691522085846
  H          -1.55650139759308     -2.57058610198354     -1.64133774602696
  H          -1.01705916750914     -1.65613908986261     -0.22101484748747
  H          -0.42577963933660     -1.22215171390266     -1.82289219475276
  H           0.10065271891760      3.38325871170938     -0.89249267244215
  H           1.24174903170347      2.18213338455545     -1.52713711368121
  H           4.10210653149364     -0.21604362540226      1.23835798349827
  H           4.41785355490097      1.39862484835729      1.93386732969804
  H           3.48435163348013      1.24636535614236      0.42094769990432
  H           0.80563998465856     -0.28754433858826      3.62499202241670
  H          -0.13392443913320     -1.97142350492135      2.45582197631443
