46
Coordinates from ORCA-job goat_0_196 E -1252.753386565003
  O          -1.08651011525759     -0.14298608483790      3.23786289640748
  C          -0.32408974643098      0.17804415691321      2.07814391419622
  H          -0.56369408461672     -0.52571718420651      1.27443909732258
  C          -0.58908431879573      1.59881899575575      1.59111443861382
  H          -0.69538502040874      2.24516351165224      2.46735713731740
  O          -1.83354330550904      1.64919862235568      0.90061488661737
  Si         -1.97881251176272      1.63455781770636     -0.75549312867302
  C          -3.48648098542278      2.67756402939832     -1.12700514518599
  C          -3.85472276102230      2.68378379231230     -2.61630426709866
  C          -4.70293021945520      2.32522930047566     -0.25993878897628
  C          -1.95667182287194     -0.10917694968501     -1.43506303390839
  C          -3.20395698194558     -0.91145511986956     -1.04396905176216
  C          -1.70777254536039     -0.16970714366040     -2.94856796281569
  O          -0.60256486234482      2.38522914990637     -1.31532120691462
  C           0.23155058947687      3.02982543514332     -0.35807720550575
  C           0.61790888611305      2.09748045085687      0.77448021080010
  H           1.28984203537301      2.64410597559604      1.44391746749412
  O           1.32398812243904      0.98410219209737      0.20972901791488
  C           2.00015045502668      0.23011008140994      1.17626517231347
  H           2.20514480084350     -0.74834576897978      0.72479206032145
  O           3.21558784450376      0.89513426905974      1.44943853717884
  C           4.11851394049911      0.12464796854591      2.23613720510074
  C           1.14287787640776      0.01845945047772      2.43914223277545
  O           1.40336137155890     -1.28544671600753      2.93869978527932
  H          -1.99043601297855     -0.33092451180210      2.96097702954458
  H          -3.16309034708950      3.69227854180859     -0.85354278235458
  H          -4.24675746262576      1.71064897643442     -2.92550643745220
  H          -2.99611745401677      2.91717262109417     -3.25292595076957
  H          -4.63167459829394      3.42909005557479     -2.81630555448627
  H          -5.08256352145106      1.32717275115030     -0.49484329008935
  H          -5.51718991938464      3.03574017170509     -0.43866370164804
  H          -4.46123243611439      2.35057346701293      0.80524042406215
  H          -1.08819630706296     -0.56732062160546     -0.94289426355855
  H          -4.09225449292997     -0.52712814871873     -1.55370517094469
  H          -3.39352841542259     -0.87537727307775      0.03313123840380
  H          -3.09122534844497     -1.96277527686363     -1.32895739823175
  H          -0.80884378662920      0.38334146242508     -3.23241724755830
  H          -2.54922047519583      0.24563611907745     -3.50882459815969
  H          -1.57988473377743     -1.20836987716463     -3.27186220270782
  H          -0.26606033053514      3.90973211726348      0.06627373679295
  H           1.13491207244342      3.35990533308045     -0.87452358329852
  H           3.74976438990410     -0.01160506559221      3.25711154656206
  H           5.05836351950495      0.67567318035743      2.26320042792311
  H           4.28593706983095     -0.85969207354354      1.78332701340355
  H           1.41423794696626      0.77285727040315      3.19044563971609
  H           0.71630400226569     -1.46899945143531      3.59313085603865
