27
Coordinates from ORCA-job goat_0_234 E -727.014653031145
  C          -1.15689504871053      0.53785736993249     -0.47396625429685
  C          -1.09817517468887     -0.73722783082018      0.36967807388444
  O           0.14346135334250      1.13527799856957     -0.62413293977549
  C          -2.04657534022143      1.60776423445204      0.13489806432543
  H          -1.54987189075572      0.29108811956208     -1.46810988364209
  C           1.25803211129013      0.27352564392024     -0.59457226586288
  C           0.92531876806035     -1.10771654710758     -1.13284180557864
  C          -0.14282769541456     -1.77098893774421     -0.24296807790529
  H           1.83087457383498     -1.72104298773919     -1.10420204319271
  O           0.47313036390675     -0.92870813677292     -2.46824278986254
  O           0.44400015769735     -2.59343563391281      0.75980827562228
  H          -0.72319012847428     -2.44484859340729     -0.88053578347114
  O          -2.40069767915204     -1.27348421662542      0.57202631146059
  H          -0.73314513775375     -0.47490088685595      1.36319654765074
  H          -2.04898271999304      2.47978176886806     -0.52935777096299
  O          -1.64032431783662      1.97800483197802      1.44774583150671
  H          -3.06556045663281      1.22787374552347      0.21165794776274
  H          -0.74997149128352      2.34180171627088      1.37751377283817
  H          -2.75290841211794     -1.54862109201392     -0.28367582013476
  H           0.99822706413024     -2.01692795714037      1.30269597356749
  H           0.36407660770647     -1.80138733242830     -2.86326538330652
  O           1.73353064365906      0.06486153131102      0.71473069461864
  H           2.02702811311489      0.76752628258543     -1.19788182010173
  C           2.35419908859921      1.21404934399284      1.28502052005916
  H           3.19786050752376      1.53842206393121      0.66602555930457
  H           2.71566149677416      0.92325412739111      2.27077453282436
  H           1.64372341319515      2.03820117427974      1.38797854266829
