27
Coordinates from ORCA-job goat_0_81 E -727.013285011099
  C          -0.92564627790520      0.65215794575372     -0.45621343766492
  C          -1.06000429241668     -0.71164997077637      0.22840730065949
  O           0.38689710881760      0.86455655291626     -0.99626204554094
  C          -1.31748270823170      1.80812734017804      0.46128468043808
  H          -1.60142337499362      0.65881236914401     -1.31973456169257
  C           1.43256854767617      0.11464491204009     -0.40983173941810
  C           1.20882543850021     -1.40324434547371     -0.53147799685778
  C          -0.27657878953623     -1.74794134592583     -0.56120760211230
  H           1.65476254056183     -1.87532436383318      0.34511403431503
  O           1.89822003263962     -1.93885343563657     -1.65369032644252
  O          -0.44633689708510     -3.05437144653118     -0.03159888790610
  H          -0.62496391482749     -1.71709539567490     -1.60499596277208
  O          -2.43413004097693     -1.07770798583233      0.35943537433276
  H          -0.67927041824717     -0.66973514530238      1.25146386516970
  H          -0.75647449378915      1.74462675075259      1.40073984930920
  O          -2.72102154547810      1.82722364507865      0.70764147361015
  H          -1.06819454429739      2.75112050826267     -0.02958207021615
  H          -2.97808952512272      0.94088426903102      0.99485206269445
  H          -2.83812418181055     -1.07413661963282     -0.51925747135133
  H          -1.39607184369531     -3.20164714397667      0.06383839238886
  H           1.49166315328586     -1.58709030008856     -2.45550559824945
  O           1.61323036493590      0.42558663128168      0.94605191655250
  H           2.32210855797487      0.39073079278849     -0.98548257252407
  C           2.16947609907755      1.72413295998649      1.14946146970182
  H           3.14897034216815      1.79679254127965      0.66413455978415
  H           2.28400275606466      1.85435893752291      2.22511102548979
  H           1.51308667651087      2.50504114266826      0.75730227830230
