27
Coordinates from ORCA-job goat_0_74 E -727.011136983347
  C          -1.25618833437644      0.63944251958697     -0.45478099731752
  C          -1.08425986323903     -0.73306702294977      0.20499150842306
  O          -0.06212396165433      1.09247039572815     -1.11172120928660
  C          -1.74938056291108      1.69684200782420      0.52887682959822
  H          -1.99831899504888      0.52094161240302     -1.25116271138247
  C           1.15011873354671      0.60560191878053     -0.61034860875988
  C           1.23478092642525     -0.93260312064237     -0.64522215102724
  C          -0.14958559365796     -1.56088816047043     -0.65494972006818
  H           1.74943039018607     -1.26941339998095      0.26097453949868
  O           1.98890872374578     -1.29304927627611     -1.79854686197132
  O          -0.02558834912879     -2.89776504805037     -0.18424557335392
  H          -0.53037604048388     -1.56004668966487     -1.68461225650107
  O          -2.33050716973033     -1.41640926062171      0.27952652684023
  H          -0.65854023388720     -0.62663754108573      1.21040533683202
  H          -1.04238771675351      1.79620502663781      1.35283934300502
  O          -3.00045639875798      1.30049758326552      1.10114697589880
  H          -1.83758967259006      2.66239940957514      0.02185356677729
  H          -3.69464995329622      1.47772501041123      0.45539119234188
  H          -2.91831481948654     -0.85609015651439      0.80485702524546
  H          -0.91502564436804     -3.27092702376773     -0.14835812818524
  H           2.05861110259413     -2.25523709608230     -1.81545410257055
  O           1.32471810696131      1.10072024615142      0.70249569663223
  H           1.92522097539753      1.01262805856233     -1.26854553494859
  C           2.69229820590364      1.17163489299163      1.09116920313339
  H           3.25509116627666      1.81352756782848      0.40375940483629
  H           3.15869465288584      0.18081261120502      1.11726286793871
  H           2.71541909524727      1.60068473515526      2.09239584837127
