27
Coordinates from ORCA-job goat_0_33 E -727.019211448459
  C          -1.17515057505637      0.61675557281430     -0.44298880101762
  C          -1.51664722638819     -0.87570633581369     -0.50494610546361
  O           0.12958064534446      0.89640533432457     -0.97417838692643
  C          -1.44506726315843      1.29799911242127      0.89583218190549
  H          -1.84903574011883      1.12402016943018     -1.14167187137402
  C           1.21653789593288      0.12891312736817     -0.51030317502304
  C           0.95026564460065     -1.37913720200616     -0.55580121029469
  C          -0.40896094773755     -1.79127587507967      0.03068999904046
  H           1.74250779403579     -1.87949834705944      0.00341892242204
  O           1.05231746218769     -1.81084882222882     -1.90957145584565
  O          -0.40007107308642     -1.87714512868873      1.44179583938109
  H          -0.61712005862806     -2.79703217677796     -0.34279578163714
  O          -1.69943354746552     -1.28061961056032     -1.86833488639556
  H          -2.43427424613436     -1.05108753605328      0.06710108739012
  H          -1.19076275078984      2.35800289649082      0.79245453534602
  O          -0.77093304987077      0.74397040168351      2.02428446127007
  H          -2.51484445741251      1.21987397835778      1.10155306283397
  H           0.18425312040288      0.80192359778488      1.83284633116576
  H          -2.33360115758417     -0.68775264809046     -2.28860474383025
  H          -0.60280074940430     -0.99599344762861      1.81073264855193
  H           0.21322594638086     -1.58790406169896     -2.34094124831113
  O           1.62685983159348      0.50408392790520      0.79154195394543
  H           2.02598648094385      0.35203189122785     -1.21092580663764
  C           2.32028967046708      1.75869311506449      0.81113670801668
  H           1.67379063462590      2.56741357893052      0.46050390807267
  H           3.21323267116018      1.70166565182585      0.18195730497876
  H           2.60985381495954      1.94224863605665      1.84521253843626
