27
Coordinates from ORCA-job goat_0_206 E -727.010131849030
  C          -1.30349671356750      0.47364515214230     -0.06763782037143
  C          -1.35108427883022     -1.04644010981371      0.19397896956309
  O           0.00978371742929      0.99432654527939      0.17593193728362
  C          -2.25461942115628      1.23966016417293      0.82670619590301
  H          -1.56319919202361      0.65725621060954     -1.11831404514733
  C           0.92158598393983      0.52816178283164     -0.81258184358777
  C           0.95272220125747     -1.02392043535515     -0.83255664432098
  C           0.07521436883844     -1.60911146642782      0.27631682655941
  H           1.98135369309394     -1.37330710074095     -0.71050068412896
  O           0.40708822155740     -1.51729117526017     -2.05865512653384
  O           0.64756920612161     -1.37950870143318      1.55677315300430
  H           0.02581998032687     -2.69192529865433      0.14689934172695
  O          -2.13870008978233     -1.71041815250303     -0.78610328072910
  H          -1.83477724152644     -1.24573190185567      1.15402286865157
  H          -3.26324298063136      0.84301993954494      0.69150210877084
  O          -2.30065581574555      2.62356915215259      0.50618014501036
  H          -1.96061616424977      1.08879382981502      1.87372496651552
  H          -1.40020305661960      2.96267486354125      0.57954222733845
  H          -1.63916797720349     -1.67947041387720     -1.61466017977135
  H           0.59145639457406     -0.43123193075533      1.73300493806207
  H           0.94622591799720     -1.20061532482036     -2.79277162253685
  O           2.15532914573280      1.14057399285086     -0.61999433229728
  H           0.57767611468923      0.87350877514700     -1.79522036772254
  C           2.79371673574705      0.90517043878578      0.63720289773233
  H           2.20642958538545      1.32016086199628      1.45983927632187
  H           3.75312614896794      1.41873049863144      0.58713891828216
  H           2.96466428547767     -0.16028039600406      0.81022918642185
