27
Coordinates from ORCA-job goat_0_245 E -727.013638380861
  C          -1.10322413079394      0.50565754542801     -0.25652082509618
  C          -1.09059346125168     -0.90253536627200      0.34691678651939
  O           0.10044104332122      0.80237211956496     -0.97889033229681
  C          -1.41697998694408      1.55012491740211      0.80641572697858
  H          -1.89274827958871      0.53426121476330     -1.01747346288521
  C           1.27040031786275      0.14794834590339     -0.53620006441386
  C           1.15653415570201     -1.38739894319419     -0.60255717920852
  C          -0.29336042067973     -1.83241200429551     -0.55518234406135
  H           1.67628209381851     -1.80175366366059      0.26652665606416
  O           1.72013405039270     -1.89206260240206     -1.80840544767950
  O          -0.34544903649432     -3.17308136196031     -0.08790808471890
  H          -0.70719866924025     -1.77125118534101     -1.57198492733299
  O          -2.41459678406153     -1.38999215093029      0.54201494086143
  H          -0.63845332328032     -0.89331473204711      1.34279595901816
  H          -2.33766857530984      1.24508148882714      1.31751887933436
  O          -1.54172695550865      2.86517095721496      0.27612159929793
  H          -0.61332603596798      1.58444471722674      1.54175112267087
  H          -2.32445816344240      2.88855428432060     -0.28647136637667
  H          -2.89074324069802     -1.32134137770620     -0.29615842402664
  H          -1.27376083319990     -3.36363250619231      0.10043971735869
  H           2.67953126132993     -1.81563201443046     -1.74815984053552
  O           1.61799680262258      0.50185637738739      0.77747428368236
  H           2.04663077221960      0.47988333323608     -1.23472378081561
  C           2.06393821630564      1.85321428145193      0.88533758168476
  H           2.95489280432114      2.00831448451705      0.26672257352286
  H           2.31277727089572      2.02220970565913      1.93269573140738
  H           1.28472787746956      2.55531393552922      0.57790253104686
