27
Coordinates from ORCA-job goat_0_248 E -727.014847976471
  C          -1.13050879786031      0.55310704097467     -0.53274406198054
  C          -1.14108868649051     -0.77681074522145      0.22179195072309
  O           0.19034064687437      1.12457261738288     -0.55474632664391
  C          -2.03448749797452      1.60124017395298      0.09045125467881
  H          -1.46489008255745      0.38114076832389     -1.56194753920283
  C           1.27552551824671      0.22512315264388     -0.55758097010759
  C           0.92398250006581     -1.10147287588205     -1.22113028641934
  C          -0.21333747121468     -1.78957056801057     -0.45085850878785
  H           1.80433504494054     -1.74997428305543     -1.18854935251151
  O           0.49147136165785     -0.90052227595343     -2.56060917489352
  O           0.28383708505788     -2.73763197826573      0.48717525595880
  H          -0.79916621587303     -2.35693634798922     -1.17754397296390
  O          -2.45328153796083     -1.33288975573826      0.24621192451098
  H          -0.78889937320159     -0.60192924479545      1.24105950239930
  H          -1.94901861834109      2.52665056861671     -0.49049774153656
  O          -1.73745091084247      1.83886687869676      1.46272166396067
  H          -3.07115980797536      1.26411691905654      0.04267247803692
  H          -0.82824245754374      2.15817832234757      1.50618721710469
  H          -2.93339790428953     -0.94504647967121      0.98597266162518
  H           0.83179581434240     -2.24945063527749      1.11582000492023
  H           1.21638628973606     -0.50097765140929     -3.05596135123485
  O           1.69935106510653     -0.10386920902385      0.74478744476434
  H           2.08348378162538      0.74274031679143     -1.08882117442015
  C           2.31399382803711      0.98141171767891      1.43445212756991
  H           1.60726894185166      1.80013707147574      1.59270419842132
  H           3.17709320331169      1.35166653182369      0.87020689302492
  H           2.64606305107115      0.59812977052782      2.39877389300339
