27
Coordinates from ORCA-job goat_0_64 E -727.012880679966
  C          -1.55985549658356      0.67309352914435     -0.26215925196914
  C          -1.58393446691341     -0.86491765997112     -0.11302546864897
  O          -0.44142407750206      1.14227723074304     -1.03871441538413
  C          -1.70577972690427      1.40299279856918      1.06749299706328
  H          -2.42115605426305      0.95298813123074     -0.87337404998041
  C           0.83906750377703      0.70419181436387     -0.70337430877027
  C           0.87790890633425     -0.78198274573840     -0.31581940635818
  C          -0.38143336046284     -1.48253970065882     -0.81003240276562
  H           0.91859239693419     -0.87067616519654      0.77851626030350
  O           2.04034344209976     -1.35666704706910     -0.89568683816514
  O          -0.28058525004372     -2.88627772466789     -0.60038027392053
  H          -0.46734495970663     -1.35198677066893     -1.89340444561867
  O          -2.81779607458273     -1.41350217629098     -0.55873022736737
  H          -1.52626397893098     -1.12341486322312      0.94831292174430
  H          -1.67396801589649      2.48297998059369      0.88210144313773
  O          -0.74705532521302      1.02698951269264      2.04620921625432
  H          -2.68968784134039      1.15422984322535      1.47468416688468
  H           0.12122308265530      1.30242954266251      1.70568539174002
  H          -2.89399679230417     -1.25623251645575     -1.50830109939935
  H          -0.36622763945782     -3.06046642608289      0.34625692217897
  H           1.93757117164325     -2.31487620978117     -0.81759043330720
  O           1.33856004347309      1.55256100456530      0.32372342324048
  H           1.45296549180991      0.84503919061829     -1.59994807929091
  C           2.73929058342985      1.39941279876926      0.55527123662195
  H           3.02410730775447      2.17310533793655      1.26716749867493
  H           3.29599382305000      1.53550978941892     -0.37790228056488
  H           2.97088407694400      0.41573930127099      0.97301951366655
