27
Coordinates from ORCA-job goat_0_43 E -727.013738736490
  C          -1.09221508251887      0.73926370718354     -0.21250860345793
  C          -1.50503916677691     -0.73745057412322     -0.32354945715505
  O           0.13419839370327      1.00509441272149     -0.89993067036186
  C          -1.06374523869407      1.23948073029917      1.23374095584924
  H          -1.83808103242460      1.32710496201082     -0.75333377320620
  C           1.26602942390903      0.26838495700161     -0.48152176856566
  C           0.92883333244502     -1.18507187862628     -0.15030003279388
  C          -0.35523949789034     -1.57514268691011     -0.86547963987259
  H           0.78058203005792     -1.28253696062935      0.93388250899490
  O           2.02579082231441     -1.98719452097730     -0.56082764598500
  O          -0.61657347876108     -2.97126783812013     -0.74558338208470
  H          -0.24468640567664     -1.38957309712537     -1.93687085033696
  O          -2.65085348582686     -0.82853990027091     -1.16619573332430
  H          -1.75937778537644     -1.10998265440207      0.67762648043397
  H          -0.42071827272214      0.61749482222135      1.85687877266505
  O          -2.36587169861347      1.16979602784596      1.80792846053819
  H          -0.67398592077947      2.26233815709945      1.25040084000956
  H          -2.92940053359160      1.80702763530389      1.35327782375032
  H          -2.87674418534419     -1.76396173929839     -1.24494317811432
  H          -0.79855485820203     -3.16866616978043      0.18318695982458
  H           1.72821278617584     -2.90560906043844     -0.52324904827968
  O           1.89662371319840      0.83223833814511      0.63588779913118
  H           1.94283781949461      0.29271795914379     -1.34317423807003
  C           2.50010636356706      2.09449770679457      0.36178177895950
  H           3.03586744285742      2.39125255075182      1.26309968521587
  H           1.74566297841239      2.84849840222229      0.12195052470232
  H           3.20634030686329      2.00980651195713     -0.47217655846653
