27
Coordinates from ORCA-job goat_0_223 E -727.017808521374
  C          -1.14526064008204      0.88553940657225     -0.25193361294958
  C          -1.35300213869801     -0.58778546244576      0.08654290734901
  O           0.18385916214078      1.26658862035184      0.09535270349722
  C          -2.11265746367471      1.80896720538128      0.47009242187959
  H          -1.29660797362254      1.02524085785627     -1.33272417351183
  C           1.16689831717614      0.57026472053371     -0.65785814823130
  C           1.08604586681553     -0.92279986065645     -0.32300602200679
  C          -0.31729560983461     -1.42609538945724     -0.64067245177777
  H           1.27484629669852     -1.06950860365131      0.74260678831297
  O           2.07161161637062     -1.68294280045635     -1.00772078144204
  O          -0.49205481423767     -2.77709624747510     -0.23142685510208
  H          -0.49131984619252     -1.33858704285483     -1.72342974584150
  O          -2.67558731647159     -0.94497780631867     -0.29390010026446
  H          -1.21467436135527     -0.72819655596148      1.16598265429850
  H          -1.81677767829719      2.84045409315457      0.26696689141374
  O          -2.10242728916938      1.64924624235937      1.88544655397872
  H          -3.11664088407811      1.65144617059237      0.06673350217090
  H          -2.65777248428766      0.89389813388100      2.10756990514380
  H          -2.76382220043323     -1.89678636895131     -0.16095014217406
  H           0.16753501606105     -3.30887609078886     -0.69346787879685
  H           1.98343129282063     -1.51823926615062     -1.95558314743168
  O           2.40589896629571      1.15364546595608     -0.42310147344162
  H           0.97466754592566      0.71587870031027     -1.73069767873794
  C           2.94477922407798      0.96043997436775      0.88788070957643
  H           3.31472699433918     -0.06059305025083      1.01450692319863
  H           2.20340230863395      1.18442960755072      1.65828239273089
  H           3.77819686287877      1.65644514655131      0.97850586815907
