27
Coordinates from ORCA-job goat_0_216 E -727.012813091300
  C          -1.09689553251216      0.54553821253292     -0.39801885299756
  C          -1.17996226746063     -0.87074734579459      0.17233307455913
  O           0.17368054792001      0.81184166694502     -1.01125125383120
  C          -1.46521554777718      1.58028000567197      0.64784937261113
  H          -1.81956943595362      0.60789311474637     -1.21685360816131
  C           1.28794485868081      0.12602898589104     -0.48186097570480
  C           1.13560673927435     -1.40773672722092     -0.55959345194629
  C          -0.33173714031146     -1.80034838726151     -0.68313778571932
  H           1.53970892131449     -1.82393099761882      0.36665994213508
  O           1.92431381062180     -1.96106612810865     -1.60415085788022
  O          -0.56698589941038     -3.16388409098244     -0.34923506739673
  H          -0.64893673057077     -1.69678749341589     -1.72600706794164
  O          -2.54666015166473     -1.26013992620287      0.15198781870467
  H          -0.80397184691917     -0.89206905584370      1.20507623759544
  H          -2.43671806696502      1.29587742532835      1.06976920097200
  O          -1.54271182335118      2.85841013511926      0.02075702460697
  H          -0.72443153919363      1.58166614093745      1.45250255579361
  H          -1.78406287945408      3.50307176053677      0.69451931612594
  H          -2.56093229183045     -2.21472507198599      0.30286014764615
  H          -0.17572298365105     -3.33804003504395      0.51668858470252
  H           1.56260969288808     -1.66431510202563     -2.44885159513427
  O           1.54965724677242      0.47043556199538      0.85370604758325
  H           2.12354772284811      0.43266869493849     -1.12047675533651
  C           2.00544594622384      1.81500995028986      0.99837122255887
  H           2.92912432077219      1.96559733041504      0.42849564837485
  H           2.20165748179901      1.96999303672574      2.05900031904321
  H           1.25121561771043      2.52947813943128      0.65885876903699
