27
Coordinates from ORCA-job goat_0_229 E -727.011310870370
  C          -1.51338628295066      0.52934699006245     -0.18129702807414
  C          -1.22346344501964     -0.84360089799349      0.42132707129875
  O          -0.43037169739393      1.01655742982017     -0.99480063415896
  C          -1.88798351182501      1.55782801299952      0.87456922419764
  H          -2.34983966939306      0.41355822249307     -0.87600078789097
  C           0.85754428924513      0.58687447805484     -0.65350993276081
  C           0.99469652043873     -0.95307105642355     -0.68733317759125
  C          -0.35934471777049     -1.62996782067574     -0.54605150999885
  H           1.61903787883248     -1.26205262771726      0.15652087483097
  O           1.56129315166437     -1.40443222970049     -1.91372872890809
  O          -0.24282395065300     -2.95548887652819     -0.03838704951118
  H          -0.85034379265060     -1.64538578632708     -1.52646709631125
  O          -2.47745712995865     -1.47780613106458      0.63483251954172
  H          -0.69040863891143     -0.74267284216265      1.37602563919393
  H          -2.78775943727399      1.21867330529881      1.39284948907093
  O          -2.19477206322895      2.81740966728400      0.28669658316359
  H          -1.07674517072105      1.65495040689233      1.60213065307957
  H          -1.42148167280976      3.07732805571524     -0.22932394790812
  H          -2.28689077783954     -2.39554013641980      0.86764968741642
  H           0.09848423909671     -3.51895586318399     -0.74182992045516
  H           2.50531329744195     -1.20798854863982     -1.90289968129374
  O           1.18694895840432      1.10541456753318      0.62063659883736
  H           1.51950195810182      1.01894261320218     -1.41312723249192
  C           2.59094530228963      1.22967018588075      0.81947670325584
  H           2.73455144104227      1.66669665220983      1.80711862723399
  H           3.03091062183348      1.88679520791188      0.06046430768230
  H           3.09384306980892      0.25691682147840      0.78445675855146
