27
Coordinates from ORCA-job goat_0_182 E -727.012965546474
  C          -1.09140062200889      0.79379654966165     -0.45519213464175
  C          -1.53361113838743     -0.66531294936243     -0.55059007415893
  O           0.21306861817919      0.98236940087370     -1.02570479504776
  C          -1.20288537456250      1.42187623831332      0.93861470840128
  H          -1.75526763468823      1.36200294033110     -1.11175209035418
  C           1.25369236623255      0.16070837047844     -0.54112737164092
  C           0.89765202276299     -1.32477026587480     -0.57677586357351
  C          -0.48810851407242     -1.63504697530615      0.00439684875046
  H           1.66675704301080     -1.87106142534944     -0.02117109391476
  O           0.92685904735985     -1.68840325173491     -1.96103129743248
  O          -0.51541377687355     -1.54264917940925      1.42160044855986
  H          -0.76641049165089     -2.64712018572416     -0.31588852489981
  O          -1.84261677492600     -1.00261343382445     -1.90155471357718
  H          -2.45859123658624     -0.79021113175965      0.01572022649704
  H          -0.62243691465703      0.87293698025127      1.67648361958213
  O          -2.57403639499446      1.51279866900451      1.33174452858267
  H          -0.81843133388171      2.44252855894854      0.87613450934757
  H          -2.79964187142130      0.71459472482377      1.82059190266634
  H          -0.99880810081329     -1.09737229028438     -2.36731365585276
  H           0.16013509116793     -2.13159611549212      1.77719006765763
  H           0.85859568287715     -2.64914183036240     -2.02047344645082
  O           1.65575800064141      0.48509542404772      0.76092454704567
  H           2.07880100410454      0.33721359658669     -1.24076536545205
  C           2.30907171105008      1.74950276140948      0.84082328622258
  H           3.18519308153873      1.76967879914927      0.18237252444736
  H           2.62818738986285      1.87576993990931      1.87508668027524
  H           1.63388789053585      2.56442588069532      0.56765453896096
