27
Coordinates from ORCA-job goat_0_42 E -727.017935603983
  C          -1.12879187289020      0.87339925198959     -0.09448356915527
  C          -1.27839969380394     -0.60029551408873      0.27951422096353
  O           0.21790918513037      1.27650589947714      0.13006582950374
  C          -2.00722928506569      1.78758911953055      0.75300095169516
  H          -1.38996543817752      1.00649591543465     -1.15409894145944
  C           1.14552582094061      0.58535637749310     -0.69868023573222
  C           1.11976985123408     -0.90316832334266     -0.33764218956218
  C          -0.29604762648064     -1.43834601292319     -0.51793309682876
  H           1.40699549409728     -1.02966182878166      0.70839492270502
  O           2.05299198286315     -1.65760315848127     -1.09760845425234
  O          -0.40478971683765     -2.78200252247834     -0.06676499124343
  H          -0.56851778402483     -1.37673744296153     -1.58193495942646
  O          -2.62509389496303     -0.98946978248959      0.01640788986157
  H          -1.05555986010539     -0.71331223830395      1.34832223940153
  H          -1.83405731926450      1.57182684766161      1.81534008127866
  O          -3.38473757049428      1.66769541349804      0.42238237622559
  H          -1.71902521095086      2.82303899547104      0.56132669713793
  H          -3.59509525924648      0.72312001502121      0.44318490427437
  H          -2.73113190992655     -1.90297040783172      0.30776016137147
  H           0.24427546960799     -3.30421820650806     -0.55420527328752
  H           1.86586343602558     -1.52366248290223     -2.03603056193816
  O           2.38851723296028      1.19222999263925     -0.57664135685721
  H           0.85746581615955      0.71494168010451     -1.75149575211953
  C           3.04292929214085      1.02070430629864      0.68440341951399
  H           3.44685258570430      0.00957461936454      0.78318956602866
  H           2.36544076413309      1.23212604112496      1.51475765080853
  H           3.86390428103437      1.73684324598406      0.69946648109278
