27
Coordinates from ORCA-job goat_0_94 E -727.019043337185
  C          -1.30545493193998      0.55405081511681      0.03028733205796
  C          -1.19421321931089     -0.93287356024464      0.37017304929805
  O          -0.02322567633649      1.17126882559946      0.13842376707069
  C          -2.22534509468605      1.29861069378865      0.97729449231308
  H          -1.67555828095298      0.66522722586651     -1.00053184346664
  C           0.92217806609515      0.64579324083699     -0.78446685555036
  C           1.18100576278239     -0.81747000510474     -0.42935541438642
  C          -0.13124412692950     -1.58060689499877     -0.50866721648309
  H           1.55479123992471     -0.87941947744904      0.59986104803176
  O           2.13593820660107     -1.33530476937438     -1.34199503864686
  O           0.13922017184518     -2.92020098851203     -0.11349694452925
  H          -0.48133313995939     -1.56327835172754     -1.55147958869385
  O          -2.44069603237187     -1.60646859979857      0.23553573021593
  H          -0.90499999313073     -1.04295471026191      1.41949621273457
  H          -3.21799454524765      0.84867954943386      0.94866118356341
  O          -2.37326032498588      2.66310655298731      0.60252168578923
  H          -1.83082471553509      1.21460852926816      1.99786347898998
  H          -1.48818569306055      3.04674586526989      0.57533740567015
  H          -2.74343803284187     -1.50575631885224     -0.67678459136533
  H          -0.67489147790801     -3.42686072137543     -0.22002008104670
  H           2.16971600653612     -2.29023349627193     -1.20359061728228
  O           2.05010638994543      1.45546855686829     -0.77774354721696
  H           0.51766331009575      0.71138656818215     -1.80256059607604
  C           2.84806847769383      1.40314553891004      0.40834378521201
  H           2.23538275173348      1.52170116789739      1.30497808721018
  H           3.54776717427050      2.23542180713305      0.33882695084524
  H           3.40882649747339      0.46621275681263      0.46308613574151
