27
Coordinates from ORCA-job goat_0_207 E -727.013312091974
  C          -1.15291649917010      0.78124685165953     -0.40823617864583
  C          -1.57644014222102     -0.69441295447992     -0.34924572936584
  O           0.15353319425647      0.98466559575627     -0.98227730354921
  C          -1.40036758643704      1.58831551726270      0.86501833487325
  H          -1.82152179643200      1.24005939767519     -1.14214796000403
  C           1.20396065336332      0.10461770603297     -0.67611458254622
  C           0.80753652534605     -1.36375185988382     -0.79215047137033
  C          -0.44025805582946     -1.64799076419481      0.04964374456741
  H           1.64281355664637     -1.97252392364350     -0.43612043663734
  O           0.55692218684946     -1.61217626481534     -2.17561238156891
  O          -0.14670986883438     -1.57020039665299      1.44116771571917
  H          -0.78120693989624     -2.66672341755234     -0.15345073818339
  O          -2.13482894771083     -1.10766540200344     -1.59606053306943
  H          -2.37874519574715     -0.79207806566717      0.38681122118915
  H          -1.04196839371800      2.60612677751253      0.69516138884441
  O          -0.78343181543000      1.14120909362534      2.06232372934921
  H          -2.49045605030040      1.63352598076810      0.99239150770886
  H          -1.02139822195965      0.21475759746008      2.19869424230950
  H          -1.39075638988502     -1.22455725759525     -2.20611869205621
  H           0.56601332742152     -0.91811206237094      1.54988992008288
  H           0.57640657227824     -2.56661027978958     -2.31553361517151
  O           1.71529890908113      0.26325526213417      0.62650293345026
  H           1.98027652197252      0.34623592563760     -1.41021201596441
  C           2.23425166093659      1.56612597622480      0.88627495450530
  H           2.69321126811218      1.52993068524220      1.87336771573118
  H           1.43997148354875      2.31390376458382      0.87926692561117
  H           2.99080881355863      1.82282631707382      0.13676431419093
