27
Coordinates from ORCA-job goat_0_267 E -727.020202073267
  C          -1.16078506237205      0.53358274840065      0.09844757865946
  C          -1.46768966952883     -0.96172958926149      0.22196859833572
  O           0.13713391991017      0.80356779616587      0.62348798664507
  C          -2.13291726903611      1.38848408083483      0.88729185904454
  H          -1.19625640868503      0.82659998106698     -0.96183639032249
  C           1.17145847146400      0.17867208710542     -0.12449176019168
  C           1.01858012559435     -1.33315957064893      0.00130015290973
  C          -0.37121689960118     -1.76228712251219     -0.46591379112042
  H           1.14511456724362     -1.59801724931432      1.05454515369885
  O           2.01895636710368     -2.05013550975811     -0.70905716824011
  O          -0.57775149975266     -3.14353191042312     -0.20997663436578
  H          -0.43970046488778     -1.56913298451625     -1.54958265481759
  O          -2.75402959313180     -1.26997973574714     -0.29792615675631
  H          -1.49653218578679     -1.23441953136424      1.28124931393663
  H          -3.14756205976300      1.20404485361182      0.53478374453243
  O          -1.87351844320512      2.77670365467501      0.71182169946152
  H          -2.07327429122822      1.11144031526100      1.94747121049151
  H          -0.96350836272655      2.93304902448452      0.99198681201278
  H          -2.73786807371247     -1.12527729904352     -1.25267339985378
  H           0.18833040601842     -3.61185762200699     -0.56589804541796
  H           1.95594606796795     -1.81863766217914     -1.64511927455987
  O           2.39101384814273      0.56036465097082      0.40738386556059
  H           1.09011441728951      0.49307145878765     -1.17947541428897
  C           2.74113188514792      1.91186407772208      0.10474328300197
  H           2.74292928545427      2.07217533107563     -0.97894336110115
  H           3.74427556004651      2.07144813176679      0.49869930135048
  H           2.04762413183446      2.61309739484640      0.57571150139484
