27
Coordinates from ORCA-job goat_0_276 E -727.013651308748
  C          -1.07778735010130      0.81204984884826     -0.50497781844722
  C          -1.54685333410814     -0.64568730845669     -0.48483159778446
  O           0.25865941070861      0.95754160624278     -1.01852997478240
  C          -1.33365542614805      1.62868647033697      0.75960412473732
  H          -1.68915041756671      1.30115815805156     -1.26784344309161
  C           1.25399289397983      0.10205776967114     -0.51058874396378
  C           0.86548532647166     -1.36918102122803     -0.64791181945492
  C          -0.50028538718253     -1.66981731924032     -0.02214894051468
  H           1.63249154622625     -1.97344321316061     -0.15729846518439
  O           0.87269838232287     -1.72581430965214     -2.02425034031246
  O          -0.45558809415821     -1.68191390629999      1.39483670741996
  H          -0.82107796545830     -2.65111969344158     -0.39352237086198
  O          -1.89129453907222     -0.94813720843658     -1.84771092424779
  H          -2.43001871718213     -0.72310617026232      0.15660448078255
  H          -0.88554070568820      2.61716385401757      0.59204883577923
  O          -0.90309686695043      1.08355449265602      1.99429558571213
  H          -2.41637042399180      1.76520629949055      0.83811865247404
  H          -0.06940768981470      0.61380288721258      1.83647464442476
  H          -2.32067581317570     -1.81243092024584     -1.86709328382385
  H           0.18609826260072     -2.34950267628879      1.66427253100686
  H           0.04909151948745     -1.39061628152313     -2.40974701773918
  O           1.56890433511703      0.36874146295016      0.83632857672328
  H           2.12887813284094      0.29909710926472     -1.13863787587202
  C           2.24882880241448      1.61467522147448      1.01217808094530
  H           3.17462498265174      1.62453638632586      0.42805568912843
  H           2.48342488408666      1.69858873336833      2.07273050313855
  H           1.61762302149019      2.45390952832500      0.70954221380827
