27
Coordinates from ORCA-job goat_0_47 E -727.021027820510
  C          -0.96798202224043      0.61546468771356      0.17807760705735
  C          -1.27979433383862     -0.88374159339671      0.15204060971158
  O           0.34964905094489      0.81415280588884      0.67736688499092
  C          -1.88454847272217      1.39337996415560      1.11654240889526
  H          -1.05326043704131      1.01738311883148     -0.84253580295233
  C           1.34955792543272      0.24263259383347     -0.15749110520527
  C           1.17769367770703     -1.26901273361727     -0.18572609866739
  C          -0.22431088628551     -1.60484642900155     -0.66800090283966
  H           1.31357684198608     -1.64544727866731      0.83649632565982
  O           2.15385223565167     -1.81966259185007     -1.05658596948263
  O          -0.36040848533636     -3.02068349237020     -0.59214274149845
  H          -0.31969632824782     -1.27913162760306     -1.71269999582244
  O          -2.53843738229798     -1.15855727642361     -0.45083698222057
  H          -1.25497617194266     -1.26387293623596      1.18282635698085
  H          -1.79157776725366      0.98654174036660      2.12609607869647
  O          -3.26023431784903      1.26653903234964      0.74935841748810
  H          -1.58032372359643      2.44376896389855      1.13391063308989
  H          -3.42249469779612      1.83522881868185     -0.01302565168677
  H          -3.17592480523965     -0.54709842380576     -0.05134171460094
  H          -1.18936230524601     -3.26000674204851     -1.02286944864769
  H           1.91379956578521     -2.74482695911775     -1.19406225015436
  O           2.58945113082630      0.54835434081878      0.37809833531682
  H           1.25062954848019      0.65825655618831     -1.17354026049933
  C           2.96785382758944      1.91165941398111      0.18239980351712
  H           2.30493056857827      2.58680500285248      0.72935240588450
  H           2.94816159285690      2.16395839515794     -0.88341684812030
  H           3.98417494089510      2.01276244941945      0.56170791510945
