27
Coordinates from ORCA-job goat_0_168 E -727.013535892302
  C          -1.10696992857564      0.48096070249443     -0.32407279678580
  C          -1.11445808524281     -0.94746857328442      0.23408978879793
  O           0.11976319886249      0.79794915041834     -0.99756488719032
  C          -1.46665382532430      1.48883947330626      0.75064804157472
  H          -1.86589235127387      0.53646354403774     -1.11221355696095
  C           1.29743035978721      0.19608791896201     -0.50474711859869
  C           1.22176284844270     -1.33803782264834     -0.47144413229995
  C          -0.21015436635085     -1.81631902318936     -0.62614832126223
  H           1.58844534881240     -1.67589596619194      0.50352457060640
  O           2.06101369935957     -1.83470744933505     -1.50912289448573
  O          -0.25469335157042     -3.18121615158568     -0.23230976153370
  H          -0.51092097809501     -1.71653760753757     -1.67821392518021
  O          -2.43644402251631     -1.47043553440553      0.30145628634006
  H          -0.74769365442940     -0.96399943599281      1.26511361094472
  H          -2.39658662181740      1.15145680596456      1.22435908393938
  O          -1.64553993775230      2.76568036692222      0.14208659191562
  H          -0.68115359399213      1.52230431725710      1.51061795809303
  H          -1.84327930077159      3.39960331958651      0.83985602639577
  H          -2.83910808325278     -1.39706847134510     -0.57392889452104
  H          -1.18433575611875     -3.44170121797900     -0.21234548712087
  H           2.03073385874422     -2.79834063542876     -1.46858860776001
  O           1.62778690658168      0.63629156003831      0.78702090086870
  H           2.07204143815191      0.50035572891631     -1.21660926140169
  C           1.99552238124911      2.01439550685300      0.82486563978756
  H           2.84717132373736      2.19836235814316      0.16027352952300
  H           2.28051818224314      2.23629806377246      1.85299556568449
  H           1.16169308091174      2.65667887225119      0.53040006062980
