27
Coordinates from ORCA-job goat_0_236 E -727.008383963039
  C          -1.41733713776420      0.65191953300596     -0.36144267406757
  C          -1.50279815877340     -0.87407992373186     -0.16096051740735
  O          -0.29879878157412      1.02399352472215     -1.17587900575501
  C          -1.44712514374506      1.42021436875158      0.95614601887299
  H          -2.28841258116091      0.96409618552272     -0.94190114828377
  C           0.97046173336029      0.63987808520344     -0.72581792754121
  C           0.97873241342195     -0.77487122940221     -0.12216058226210
  C          -0.22234984118832     -1.54624347146445     -0.63475975067457
  H           0.92040911358709     -0.70631014818292      0.97204428127421
  O           2.19516270044675     -1.40342243119496     -0.50603988859434
  O          -0.11371715689988     -2.87723731643575     -0.14281771759406
  H          -0.19818105365880     -1.55091641975764     -1.73251260596685
  O          -2.64047195217394     -1.45761076709975     -0.79220391404467
  H          -1.62849704781573     -1.09055735134612      0.90215898091570
  H          -0.67411143552317      1.05814809227623      1.64005263003202
  O          -2.74639882768918      1.21412374493440      1.50992092635244
  H          -1.26669269851145      2.48125371438499      0.75585911653462
  H          -2.73082720902816      1.51374537290104      2.42503521947952
  H          -2.58121103436576     -1.28282424658515     -1.74025594401642
  H          -0.83176093243207     -3.39319607388294     -0.52808493511930
  H           2.12157038112320     -2.33087393972440     -0.24641970710156
  O           1.42810810589595      1.62429265472789      0.17770785479376
  H           1.61489118910933      0.63487835283231     -1.61391910280020
  C           2.82000853285466      1.52341182899196      0.46267084721608
  H           3.04903095937902      0.62322253319514      1.04069581922312
  H           3.08439693888560      2.40460120711579      1.04681246338646
  H           3.40591769404028      1.51036392024257     -0.46393072685194
