27
Coordinates from ORCA-job goat_0_87 E -727.011408757280
  C          -0.99899173249577      0.62271760901884      0.02160634131973
  C          -1.48372310169241     -0.83742018825832      0.09463352071133
  O           0.31886318073738      0.70378109345102      0.56602692399716
  C          -1.88187545449062      1.57884680584962      0.80762069824033
  H          -0.98149433319176      0.94002590479969     -1.02883101973351
  C           1.27474943163849      0.13339343366779     -0.32954969152696
  C           0.81820620978462     -1.25641350095363     -0.82164503734654
  C          -0.27861575854352     -1.79432070643910      0.09383931168383
  H           1.68213015450792     -1.92613181923139     -0.81079562895521
  O           0.24312257063744     -1.18726339040591     -2.12493069231074
  O           0.22541940104420     -2.00671329524700      1.40590665791294
  H          -0.61209186499298     -2.76584964482935     -0.27551615708994
  O          -2.41386249860708     -1.12146309939085     -0.94520105881125
  H          -2.02330528094295     -1.00305823306180      1.03160329713318
  H          -1.92306687343562      1.25782127027589      1.85635196996406
  O          -3.18663461066855      1.66135935167589      0.24429147750193
  H          -1.45783481387602      2.58390523303164      0.76815327339566
  H          -3.52840789226124      0.76588281042275      0.13034510313915
  H          -1.93495133453406     -1.03618284499815     -1.78122568799144
  H           0.48278385812088     -1.14388282001810      1.75771192773119
  H           0.91316058025188     -0.88071697258848     -2.74671454649744
  O           2.47435712643310     -0.00549684835727      0.35250100929256
  H           1.38787462338476      0.81591330882236     -1.18676302118242
  C           3.09309996531446      1.24364219579492      0.66933001308844
  H           3.19603352095900      1.85511027517696     -0.23386154875466
  H           4.07997713973348      1.01129544039912      1.06793840569016
  H           2.51507655698497      1.79121843139282      1.41717216939847
