27
Coordinates from ORCA-job goat_0_191 E -727.013309452342
  C          -1.11863170438021      0.43548839809709      0.05235198757264
  C          -1.47518511737802     -1.06089502920936      0.14572102541120
  O           0.20784245638760      0.64621496499646      0.54131904938438
  C          -2.07234241460699      1.28670013409895      0.86599399243860
  H          -1.16549470787382      0.74330900864435     -1.00123422099727
  C           1.17933351558325      0.12955974239817     -0.36542504211897
  C           0.85516045132239     -1.32707353516279     -0.75986601981014
  C          -0.18887011696785     -1.90270424909614      0.19508619151343
  H           1.77648429179950     -1.91307417968554     -0.70639945127406
  O           0.28057318755076     -1.39901713451697     -2.06387812560741
  O           0.33451995251166     -1.98612888631106      1.51412281009584
  H          -0.43295348576700     -2.92151524846426     -0.11152134261891
  O          -2.33798167931345     -1.44734461632753     -0.91683348569841
  H          -2.02626890906870     -1.25717196240928      1.06952588312142
  H          -3.09757283482264      0.99262992843797      0.61224471699607
  O          -1.87861138508813      2.68380821569975      0.68217803614280
  H          -1.91123565125592      1.08562380116339      1.92843992425621
  H          -2.15004460491837      2.90627063320263     -0.21592670827819
  H          -1.81925310426750     -1.38457042510334     -1.73116737840103
  H           0.50756086475477     -1.08155067549609      1.80875434742251
  H           0.92093532216473     -1.07526382191919     -2.70773163244996
  O           2.41516603175134      0.15789448392149      0.26560903386195
  H           1.18389370848941      0.76837220401880     -1.26336573088097
  C           2.90017889357899      1.48259984776318      0.49630461500424
  H           2.90322253782520      2.05340990867968     -0.43892665579637
  H           3.91990841312304      1.38225604474894      0.86642055457491
  H           2.28966485866605      2.00217224783078      1.23820163613554
