27
Coordinates from ORCA-job goat_0_280 E -727.010040694277
  C          -1.24858695563515      0.79127050987106     -0.24464455626653
  C          -1.72370051067209     -0.67513101777107     -0.36615367128168
  O           0.02946926685785      1.00932341653399     -0.85771780623441
  C          -1.36729466965386      1.34955066772785      1.16630180167211
  H          -1.92251711109952      1.39442902660337     -0.85686232510332
  C           1.11579330883019      0.19007890354898     -0.47856942525081
  C           0.68257352074532     -1.20699206283881     -0.04636173135884
  C          -0.58431759594247     -1.58957340153627     -0.79226243258347
  H           0.48913469900483     -1.21300617570181      1.02844843239616
  O           1.68513568566031     -2.16640131791599     -0.37391481219999
  O          -0.95070650890710     -2.93329168874425     -0.51371111635288
  H          -0.40890733619958     -1.46653978163271     -1.87137786323205
  O          -2.84726798098733     -0.79975805476260     -1.23518954070562
  H          -2.07764559093488     -1.02066972742114      0.60637146191048
  H          -0.86512947057900      2.32251657886089      1.19997510237574
  O          -0.81328688127851      0.45595836232999      2.12810436910966
  H          -2.43540536270390      1.50098275529550      1.36646546248101
  H          -0.91771466348539      0.85671236327670      2.99740897238710
  H          -2.56645415688776     -0.55664233431180     -2.12636677581996
  H          -0.14283950818201     -3.45655583736740     -0.60030544655485
  H           2.31437739166014     -2.20774267822521      0.35417585834510
  O           1.88561572701551      0.74560391823924      0.55241722481206
  H           1.72937018350790      0.10890899272799     -1.38479036080292
  C           2.59233806927032      1.91649218877083      0.15476471042688
  H           3.22567492052589      2.20612740201183      0.99323589923255
  H           1.90366308944549      2.73351064776164     -0.07810827172861
  H           3.21862721042475      1.71083814466916     -0.72133514967296
