27
Coordinates from ORCA-job goat_0_186 E -727.014057564951
  C          -1.09612701755414      0.57212838663095     -0.26308174936854
  C          -1.14032114924873     -0.87586624817309      0.23048150567824
  O           0.12156035600077      0.87617821448128     -0.95801553901563
  C          -1.39028398417633      1.54848164425260      0.86738859067379
  H          -1.87692378741471      0.67323858871420     -1.02443669212144
  C           1.29289258247872      0.22492546052308     -0.51624424083917
  C           1.16728428854592     -1.30658035690443     -0.52323493529144
  C          -0.27955470084403     -1.72990693374068     -0.68714159251386
  H           1.52647474673465     -1.68208458248456      0.44138536833825
  O           1.98351798991441     -1.80628874018792     -1.57665040772954
  O          -0.35791810238535     -3.11513616665183     -0.36334869147942
  H          -0.58985595184343     -1.56812193875323     -1.72576656981106
  O          -2.50478416601343     -1.28299967860612      0.20809343369400
  H          -0.75096697490321     -0.94864525412169      1.25403786855112
  H          -2.31303313996200      1.22149271760165      1.36156299203408
  O          -1.50267959212899      2.89660501916121      0.42347173187974
  H          -0.58311043971104      1.52654251729488      1.59944383051750
  H          -2.27133152253592      2.95690096927375     -0.15578977354571
  H          -2.59374645800732     -2.04978512515726      0.78536455279572
  H          -1.16139344716085     -3.47097744390788     -0.75885245879358
  H           1.87394097997241     -2.76530773409027     -1.58898260305301
  O           1.67485650223484      0.61900579005399      0.77653856535338
  H           2.05697701478460      0.52361255437220     -1.24171844242427
  C           2.09296475292857      1.98174226501512      0.83759118150756
  H           1.27466267677148      2.66059746974785      0.58493790904169
  H           2.93012801186186      2.15319258639734      0.15149778748410
  H           2.41676930146125      2.16705581925887      1.86146638843750
