27
Coordinates from ORCA-job goat_0_213 E -727.020683868225
  C          -1.04026392544183      0.76120969194016      0.05769191837576
  C          -1.49862972240719     -0.70115391023116      0.02206606754232
  O           0.26245221296165      0.84557957983231      0.63111760121015
  C          -1.97077369545361      1.66004423799052      0.85499773611265
  H          -1.01154674505692      1.14818500603672     -0.97339176670258
  C           1.23056925370761      0.17340141657193     -0.15778848600285
  C           0.91683872342531     -1.31560291879913     -0.18224612260639
  C          -0.48212408478454     -1.54526341629553     -0.73299966421877
  H           0.96663681310906     -1.68979297445813      0.84776176525472
  O           1.81694002785852     -2.02726220567292     -1.02035648063339
  O          -0.84858653885696     -2.91392388284597     -0.62644144791107
  H          -0.48901377547979     -1.23784725673148     -1.79015690777818
  O          -2.80254636753444     -0.81348882130272     -0.53229917821703
  H          -1.57319590369616     -1.07682535193093      1.04592316734115
  H          -1.51890506298004      2.65280436960246      0.91280353940364
  O          -2.17357050743327      1.22080396273575      2.19479074254043
  H          -2.92236623986491      1.74402875064344      0.32372455378647
  H          -2.87206918103151      0.55733518708416      2.19319618997829
  H          -2.76402031681260     -0.54183352467585     -1.45830949213296
  H          -0.14594261286313     -3.42626521216693     -1.04568405221737
  H           2.68949952538802     -1.99510484270799     -0.61071466647828
  O           2.47951267281268      0.34349334083555      0.42210636508146
  H           1.21829230479966      0.58768457902760     -1.17969189184282
  C           3.02015663705916      1.65230777426976      0.23376386965828
  H           2.41691861082280      2.40283556069464      0.75066744744208
  H           3.07001146326642      1.89400895417893     -0.83334954521065
  H           4.02572520428592      1.64064170637483      0.65281674822493
