27
Coordinates from ORCA-job goat_0_83 E -727.016722778168
  C          -1.23760469688560      0.50453318933921     -0.31796576173843
  C          -1.47896932985605     -0.99922673812069     -0.23099761988537
  O          -0.00834775929243      0.85330303954029     -0.98476513697813
  C          -1.37515771143917      1.24197938320628      1.00896186846824
  H          -2.01008261918335      0.90512306273898     -0.97880850794404
  C           1.15991199668360      0.13380940748766     -0.64840397065519
  C           0.95624424016453     -1.38052355722607     -0.72041309778339
  C          -0.22841285890857     -1.80144710315217      0.15465981519871
  H           1.86550037381067     -1.85879049332904     -0.35043493674696
  O           0.78344416445175     -1.78554588069723     -2.06824708878435
  O           0.05703195614657     -1.66965560370386      1.54080383008544
  H          -0.43484088626456     -2.85970719809812     -0.03004221417428
  O          -1.93057277805244     -1.41120928276204     -1.53153374159030
  H          -2.26096521243702     -1.18511028128020      0.51124312652264
  H          -2.34637394921056      0.99852083428205      1.44519462641101
  O          -1.36375070125257      2.65216638639562      0.79618281752031
  H          -0.59548047433796      0.95552391178162      1.71786705271121
  H          -0.63231053873359      2.84728845274255      0.19801931258774
  H          -2.24710877388755     -2.32080430098312     -1.46501158056948
  H           0.63971205528229     -0.90434909122490      1.65568316324572
  H          -0.14299100984845     -1.61653153069061     -2.30211901788134
  O           1.63493845581928      0.41712248991144      0.64779998320920
  H           1.89715528037790      0.44734711471067     -1.39403514694302
  C           2.20869583410074      1.71439634874548      0.79818510778504
  H           2.99466897790201      1.86667645098763      0.05173409045020
  H           2.63906346558895      1.75528079493402      1.79791674499187
  H           1.45660126906159      2.49982999446456      0.69852429248696
