27
Coordinates from ORCA-job goat_0_196 E -727.011809722538
  C          -0.95178834913252      0.59165900468481     -0.54724742472925
  C          -1.12736668879609     -0.80959940997958      0.05828357117952
  O           0.36984262202885      0.84213725513336     -1.04109570408578
  C          -1.35829102223658      1.69216613975988      0.42411752320713
  H          -1.60787569570915      0.63976070328485     -1.42240516207844
  C           1.40303765566323      0.08801171875271     -0.44164370438819
  C           1.19311704976293     -1.42733120321656     -0.60948113568691
  C          -0.28774641094113     -1.79229368254224     -0.74139258441967
  H           1.59591077521175     -1.91291746500989      0.28196594226499
  O           1.95399227880168     -1.93409340742920     -1.69881620705205
  O          -0.52286791020396     -3.14820735709856     -0.38982303707613
  H          -0.58082880968861     -1.71107226088967     -1.79367077523657
  O          -2.49361570069546     -1.19619693415030     -0.01073630584130
  H          -0.79275079043308     -0.81349946737715      1.10454116741521
  H          -0.77590316511792      1.61217064739055      1.34575123649056
  O          -2.75371726496752      1.51653164518987      0.69826045316650
  H          -1.17426228824405      2.66977682648070     -0.03408106194489
  H          -2.97193271942210      2.01099109990711      1.49540450445444
  H          -2.99337127811506     -0.46984834572107      0.39129174469934
  H          -0.33658693524894     -3.25143917584428      0.55177799178657
  H           1.59092687776522     -1.57158432722545     -2.51668517599598
  O           1.54134753565903      0.36602951186705      0.92719246630142
  H           2.30803945518173      0.38532002158928     -0.98170158682664
  C           2.08630145880825      1.66054255768558      1.17871556800966
  H           1.44645976553875      2.44872616973419      0.77338728411832
  H           3.08563796065422      1.74350327100509      0.73748228922275
  H           2.15429036367654      1.77075626401885      2.26060613304543
