27
Coordinates from ORCA-job goat_0_268 E -727.007823479956
  C          -1.02982883648434      0.58707423841639     -0.38633922090531
  C          -1.14507917182262     -0.84119377481433      0.17481759079168
  O           0.23846557485319      0.82494707438294     -1.02033377975331
  C          -1.29665207546376      1.69237752305226      0.63106478063666
  H          -1.76998043152007      0.68049690854133     -1.18855697793324
  C           1.33856660206896      0.11435868558384     -0.49026269172048
  C           1.15621997863011     -1.40903001755740     -0.60936496367264
  C          -0.32128848434009     -1.78243921534794     -0.70405656801654
  H           1.57755817860822     -1.86564327619444      0.28907374861172
  O           1.90470690266020     -1.93839816700300     -1.69639880268884
  O          -0.53572778552609     -3.15289004872263     -0.40408158223137
  H          -0.65052151374325     -1.65870573215366     -1.74269091917984
  O          -2.50108103192001     -1.24687351794531      0.26643854463644
  H          -0.76296279848698     -0.87643550535909      1.20001599015277
  H          -0.73117476186229      1.50543436878356      1.54975626075626
  O          -2.69640436784563      1.74209147237517      0.90030298444222
  H          -0.95589807821650      2.63794035764160      0.19428458380271
  H          -2.84096934930753      2.43101088223885      1.55780695702271
  H          -2.86000887812916     -1.30490211858999     -0.62789345880572
  H          -0.32613503433556     -3.29390494669108      0.52771408418995
  H           1.52130758848915     -1.60657231928689     -2.51806471379098
  O           1.57904507134462      0.42404804040422      0.85696944874450
  H           2.18788970759195      0.42437243944508     -1.10824279037823
  C           2.12231076857159      1.73059675660682      1.04116383827342
  H           2.27358201966575      1.86252328244211      2.11213474096039
  H           1.44137953731927      2.50213370664923      0.67345899021199
  H           3.08267943900093      1.81758270310233      0.52128193584304
