27
Coordinates from ORCA-job goat_0_284 E -727.020303409629
  C          -1.03411756831527      0.73978339853729     -0.03423121587606
  C          -1.45017815803224     -0.72702026202648     -0.11321564845745
  O           0.24494330810466      0.82178004783886      0.59174923874112
  C          -2.00652394095291      1.60274209969968      0.73994626750650
  H          -0.97438314701518      1.14539943390950     -1.05472994998411
  C           1.24891086393380      0.18157146099936     -0.17669204576655
  C           0.97511987110980     -1.31705822469951     -0.27018881669034
  C          -0.40277840627927     -1.53224334586480     -0.87559086864377
  H           0.99901770765606     -1.72898196521516      0.74838798610032
  O           1.94043591530711     -1.95089952981073     -1.09326958761157
  O          -0.77513498387378     -2.90561305551730     -0.93310648812517
  H          -0.38678022791450     -1.19215763133207     -1.91621910885430
  O          -2.70925660890201     -0.80153971190064     -0.76742754852431
  H          -1.52726873130723     -1.12313866872568      0.90724908771414
  H          -1.59550285801330      2.61666515830894      0.80236842472412
  O          -2.20349905328005      1.05624470778220      2.04180887526604
  H          -2.94958044151449      1.64003480809319      0.18547116512511
  H          -2.83082898481514      1.62169002457222      2.50459396710272
  H          -2.87179600618918     -1.73552871242214     -0.95218218044853
  H          -0.73117733930116     -3.26689568503140     -0.03812413120151
  H           2.80559222595577     -1.77576605238133     -0.70277264187828
  O           2.47363617744652      0.35164681621878      0.45412307842197
  H           1.26998167740649      0.62336792299110     -1.18689440975822
  C           3.01074107009688      1.66768834245269      0.30892408939962
  H           3.99834781204559      1.65690756921738      0.76864998834066
  H           2.38041060740882      2.40469889041272      0.81268093157369
  H           3.10166798903412      1.92662196389340     -0.75131044819588
