27
Coordinates from ORCA-job goat_0_242 E -727.021929369712
  C          -1.13330064057734      0.52010326317361      0.01677856282549
  C          -1.39177601806732     -0.98620256686173      0.05907686743925
  O           0.14572359815734      0.78391596924081      0.59407146122645
  C          -2.14372142115582      1.31379366384782      0.82073396849313
  H          -1.14602772370539      0.86285571480506     -1.02745329806110
  C           1.19408086674133      0.20390473628821     -0.16501006189221
  C           1.08294521839056     -1.31764537971543     -0.13745414580227
  C          -0.27736885596400     -1.73322982606882     -0.66411259717022
  H           1.18774559844967     -1.64761440666868      0.90417612357109
  O           2.08378314720711     -1.90202885840434     -0.95609344380306
  O          -0.42564999954134     -3.13656787332940     -0.50136304031957
  H          -0.32916395697279     -1.47218654337988     -1.73108391592269
  O          -2.60631957208878     -1.33090346312045     -0.60385565794080
  H          -1.41949569379711     -1.31681685074709      1.10372474614839
  H          -3.14542866610298      1.13473149914084      0.42725808430800
  O          -1.90768618042110      2.71356576959382      0.72793172448009
  H          -2.11175934583704      0.98086933813672      1.86610975842291
  H          -1.00509679806694      2.86990726251131      1.03148795896727
  H          -3.32308904839692     -1.33449763137956      0.03921274443083
  H          -1.32553957145288     -3.35040735627652     -0.77919079329547
  H           2.93724877750768     -1.60459216374914     -0.61754526237681
  O           2.40870872245065      0.55219499432185      0.40729136094714
  H           1.13443724843634      0.57026187506908     -1.20268608267409
  C           2.79536480042261      1.90247375511345      0.14340965205618
  H           2.84249125582093      2.08114494797986     -0.93598599036713
  H           3.78421209652752      2.03720009388505      0.58015061650389
  H           2.09468093183599      2.60576983659355      0.60041866980529
