27
Coordinates from ORCA-job goat_0_88 E -727.013794428411
  C          -1.01199939069093      0.61318436862851     -0.32017212547455
  C          -0.95371902174287     -0.74469869516119      0.38434050199825
  O           0.28990785926029      1.17172576972774     -0.54464619263461
  C          -1.74149738552447      1.66565532875788      0.51271331794102
  H          -1.51934334170828      0.48833937371920     -1.28396072933488
  C           1.36986656116129      0.27527779230239     -0.65330964134995
  C           0.95183533267100     -1.04541076025739     -1.27700779029213
  C          -0.07313647078698     -1.74723418695348     -0.36866554290092
  H           1.83381038684404     -1.68701083950440     -1.36436418631365
  O           0.41413791557465     -0.74025122582551     -2.55663549554054
  O           0.55986392417476     -2.65554495968092      0.52725671875837
  H          -0.72312765086578     -2.35291127342893     -1.00454257603671
  O          -2.25673244434399     -1.30748941612769      0.50000874817175
  H          -0.51982531147422     -0.59249518159590      1.38040444933106
  H          -1.27063950014443      1.73407395346248      1.49628551038865
  O          -3.11304600192567      1.33188877949341      0.74016627505011
  H          -1.65543151418786      2.63713682902201      0.01706626185916
  H          -3.59908604959353      1.47396015396192     -0.08113207687684
  H          -2.84119309142046     -0.60027349489527      0.81551823604890
  H           1.17279498086128     -2.13443394001237      1.06318181853000
  H           0.23399004864343     -1.57301656971493     -3.00799461441879
  O           1.91801799919301     -0.05621913454104      0.60116826365931
  H           2.11697892582249      0.79597998514583     -1.26197098367214
  C           2.48952628069540      1.05665872405155      1.28450763492995
  H           2.96561581572291      0.66506907918051      2.18285907338565
  H           1.72140244776083      1.78200020503420      1.56392618266170
  H           3.24102746582410      1.54603913521140      0.65499697213179
