27
Coordinates from ORCA-job goat_0_279 E -727.014323493872
  C          -1.07372617136186      0.54053072578057     -0.59231094339781
  C          -1.08723797218359     -0.74999460246917      0.22595323561011
  O           0.24376794366160      1.11670648850476     -0.61433741930542
  C          -2.00551760010498      1.60809047504652     -0.04943641462891
  H          -1.37983607046154      0.31087722866355     -1.62116906976649
  C           1.33527271731834      0.23480315862029     -0.45601304292694
  C           1.06344985229866     -1.14978990576479     -1.04151966189189
  C          -0.20765040253181     -1.78171689942778     -0.46210814687255
  H           1.91379248305184     -1.79318352919360     -0.79912519345151
  O           0.88532618145907     -1.05172084322848     -2.45146364796414
  O           0.16038936324399     -2.83570618376962      0.42106753327747
  H          -0.77654614344417     -2.18350423774204     -1.30928448545956
  O          -2.39904104756719     -1.30292264095937      0.30702160888733
  H          -0.69897023621495     -0.55005593082878      1.22574136062887
  H          -1.90816626928255      2.50676187034512     -0.66920064787536
  O          -1.75481859398238      1.90870207132712      1.31944626701689
  H          -3.03694956362823      1.25834131506610     -0.11523362479267
  H          -0.85112362656478      2.24087066775183      1.37720508783587
  H          -2.85423360120626     -0.89530066766563      1.05205222963315
  H          -0.65708873833646     -3.20892654444966      0.77327615423998
  H           1.70087860467948     -0.70767079799370     -2.83510765685035
  O           1.68392275639528      0.05324423675596      0.89189903221521
  H           2.16721844833468      0.71408286302707     -0.98722133725013
  C           2.26763989532287      1.21179980202224      1.48051862108001
  H           3.16055110895522      1.51668777170016      0.92273566366368
  H           2.54867747713092      0.94402606081486      2.49871817613213
  H           1.56001797481881      2.04496784806648      1.50789433221300
