27
Coordinates from ORCA-job goat_0_205 E -727.009138622244
  C          -1.40547824938145      0.73653660018613     -0.29631549974828
  C          -1.56877040753851     -0.78222628600125     -0.13541430656582
  O          -0.26392762325603      1.08249839109182     -1.09135498704413
  C          -1.41369787567755      1.47439534267394      1.04392498495586
  H          -2.25433519395167      1.09496037107685     -0.88344555826640
  C           0.98177921314150      0.61018448535243     -0.66024407956225
  C           0.90815101731898     -0.83027150651621     -0.11608343386892
  C          -0.34258762215583     -1.50861758254382     -0.65554972888176
  H           0.86371105853539     -0.80813211395185      0.97639395113344
  O           2.07676012841187     -1.57800821183004     -0.43477069874168
  O          -0.42896079723984     -2.86150260056371     -0.22767325046629
  H          -0.33420454207714     -1.46057172004029     -1.75282938816395
  O          -2.74744812892565     -1.18700066942410     -0.82931170210552
  H          -1.67314881336078     -1.02358456021959      0.92878349875098
  H          -0.64368666714117      1.08506056288015      1.71092899836410
  O          -2.65882895875792      1.28063164581845      1.70792967558836
  H          -1.21353681269697      2.53636489484256      0.87070776123538
  H          -3.34433989892944      1.72535331696735      1.19552802225868
  H          -2.86128349790431     -2.13306093876926     -0.67541681897302
  H           0.39953243197403     -3.29259480643950     -0.47250669504213
  H           2.20401744113594     -1.55483316468351     -1.39222062546392
  O           1.49639063236397      1.52815565528228      0.28148420161217
  H           1.62312986570414      0.61661173721680     -1.55296343835317
  C           2.88093471037667      1.33775725647732      0.55774738415687
  H           3.19968100194287      2.18850525378499      1.15968267451440
  H           3.46177900563740      1.31024777778911     -0.37182167872140
  H           3.05836735225145      0.41314066954292      1.11480874739832
