27
Coordinates from ORCA-job goat_0_93 E -727.015793590939
  C          -1.39091992282632      0.58893848518511     -0.15242017315943
  C          -1.69424793140840     -0.91489632615276     -0.21002226612604
  O          -0.21275583638113      0.92847263460666     -0.89689034616949
  C          -1.33711256624090      1.09104959271478      1.28932156284840
  H          -2.19162658535053      1.11765700818290     -0.67183606252873
  C           0.98614512896632      0.29627606779246     -0.49978430126295
  C           0.76633765389819     -1.13136448833081      0.00473598552304
  C          -0.47249662613365     -1.69752786650583     -0.66708879719943
  H           0.62749880266694     -1.12994969873710      1.09060993649266
  O           1.87161397313766     -1.95867441967288     -0.33674554783334
  O          -0.68006074797240     -3.06206769608774     -0.32997206023529
  H          -0.36896842877934     -1.58949282438072     -1.75441453243265
  O          -2.80233999082328     -1.12185376944033     -1.08188420970411
  H          -1.95138194374927     -1.26910393816796      0.79693046118163
  H          -2.33093565611766      0.96334934431395      1.72536002627895
  O          -1.02193027881735      2.47234195133698      1.36396851982268
  H          -0.63196153603240      0.50322244194111      1.88637959466725
  H          -0.10931588633270      2.56345627189479      1.06560281606251
  H          -3.00825166938228     -2.06473695487201     -1.07060627468457
  H           0.13077994439800     -3.53572670410215     -0.55458648761555
  H           2.56177369839247     -1.83342033545050      0.32406982824850
  O           1.66101921147016      1.02223728560506      0.49872235775995
  H           1.60147733703890      0.25717137499747     -1.40513340526305
  C           2.36089250786914      2.15739742928794     -0.01453129256797
  H           3.12033354493013      1.84278143187494     -0.73779384381229
  H           2.84232963237833      2.64343745796516      0.83359859032706
  H           1.67410294100139      2.86102604420153     -0.49559206861777
