27
Coordinates from ORCA-job goat_0_179 E -727.021443244385
  C          -1.10809128043827      0.52887996804884      0.05248261675985
  C          -1.34555056513289     -0.98173857260755      0.09320843129224
  O           0.17760821412206      0.81005771718529      0.60439978964849
  C          -2.11282534740130      1.30633733122034      0.87892463039851
  H          -1.14760976354295      0.87350769013528     -0.99058332835144
  C           1.23865369056252      0.26694387683554     -0.17036178384349
  C           1.14473009881085     -1.25207358446742     -0.14761326682346
  C          -0.22283182424094     -1.68095125392474     -0.65608223202451
  H           1.26703937947605     -1.58356307125954      0.89181854398989
  O           2.17488960073332     -1.78136097137560     -0.96796563866804
  O          -0.29410862310513     -3.09519782647878     -0.52015816804650
  H          -0.29892008108231     -1.40542124788543     -1.71736732553983
  O          -2.56370730392378     -1.33898299599222     -0.55539881042509
  H          -1.35085758713041     -1.32076398288643      1.13531120229677
  H          -3.11995292514321      1.11153656457809      0.50725160532828
  O          -1.90088593224720      2.70979783464528      0.78270444343212
  H          -2.05289466934138      0.97323985085101      1.92302099145524
  H          -0.99446181195279      2.87962251450049      1.06703677877801
  H          -3.26898338765026     -1.36658797448888      0.09959395706864
  H          -1.12734357529485     -3.38058587636781     -0.91406533188281
  H           2.00236835178822     -2.72676075951698     -1.06061793943945
  O           2.43923079194645      0.65727485423081      0.39896950926301
  H           1.15734692257306      0.63965447100742     -1.20433122448316
  C           2.75540029361662      2.02967366458582      0.15994334364297
  H           3.74494956154668      2.20187587838268      0.58193925345849
  H           2.03179945677174      2.69069261935730      0.64384028857709
  H           2.77500708548017      2.23489308168720     -0.91590232586182
