27
Coordinates from ORCA-job goat_0_8 E -727.014296727197
  C          -0.96898548139317      0.61047070835660     -0.50838438350029
  C          -1.09806282218535     -0.80627132824221      0.06419277488162
  O           0.33398463207302      0.88229295619601     -1.04007406182645
  C          -1.36760743801377      1.67467536126349      0.50409290225186
  H          -1.64990186737844      0.67101522765024     -1.36319514835081
  C           1.41078191894529      0.17309410272429     -0.46275314183482
  C           1.23422546412959     -1.35140815036403     -0.53438449917229
  C          -0.21990903873021     -1.73134207472258     -0.75458328751424
  H           1.55519438033527     -1.77223571614798      0.42409588577138
  O           2.06880236096785     -1.82980715046674     -1.58439453934023
  O          -0.36881261817832     -3.09565053188971     -0.38076547069355
  H          -0.46628970296608     -1.60414025423740     -1.81666284260684
  O          -2.44096979251572     -1.26644232385317     -0.03162870578045
  H          -0.77238716393873     -0.82811987503519      1.11225262295637
  H          -0.74374826534896      1.59473614444829      1.39826583687516
  O          -2.74191540006750      1.43372187902767      0.82911977547109
  H          -1.24074903122907      2.66960171832457      0.06393019135882
  H          -2.95306207979831      1.91645646241522      1.63522821592518
  H          -2.98504707093132     -0.60989775289764      0.42645052514274
  H          -1.29696108400780     -3.32827811749867     -0.50617343181300
  H           1.97048033913721     -2.78914330780779     -1.61791850384086
  O           1.61611870434077      0.52109991377492      0.88148623759336
  H           2.27783945573236      0.46088195560287     -1.06602690808366
  C           2.11297499573732      1.84893283693934      1.04082416516261
  H           1.40555216711264      2.58906667508820      0.65814009258967
  H           3.07021046570724      1.96080759371831      0.51962332385695
  H           2.25824274226422      2.00588284763309      2.10924038452067
