27
Coordinates from ORCA-job goat_0_56 E -727.014755910290
  C          -1.22590159291864      0.56082470229955     -0.18839422620920
  C          -1.17251426411234     -0.88324778228407      0.30595804819957
  O          -0.04943041414171      0.93609439393794     -0.92812573031226
  C          -1.48950728261105      1.55162544593340      0.93220137707505
  H          -2.04292356837606      0.62437512276042     -0.91295908316414
  C           1.15159866929344      0.26346635034466     -0.60727991597992
  C           1.03666622114971     -1.26221609170295     -0.75529366463741
  C          -0.41747838035842     -1.71056854797969     -0.72256396407259
  H           1.56196366093083     -1.71507331356239      0.09443368189277
  O           1.67383703575375     -1.62550290468955     -1.97423817910439
  O          -0.53799821978422     -3.10856478142061     -0.47518379669986
  H          -0.86659965579090     -1.54818307774593     -1.70621575410768
  O          -2.51402148053347     -1.32786959671476      0.45135878297774
  H          -0.65359212059898     -0.94376876318534      1.27300900957590
  H          -2.41925441738754      1.27720341124192      1.43552208243170
  O          -1.66482485522475      2.87348799559827      0.43153831993964
  H          -0.67432047345306      1.51404444927037      1.66246399142562
  H          -0.90587795638094      3.06843951413860     -0.13195666405241
  H          -2.47868350693957     -2.28822651649999      0.55150246368218
  H          -0.05433098250228     -3.31783973064160      0.33482844151739
  H           1.58944390278056     -2.58192373310335     -2.07326735189448
  O           1.59102298534935      0.53313574630798      0.69787368026647
  H           1.87574881835204      0.64000688193712     -1.33687326593790
  C           2.07281739360479      1.86424819567982      0.86758134222890
  H           2.46321480232345      1.93131529352028      1.88261137675946
  H           1.27614250937664      2.60147029077585      0.74029438948896
  H           2.87480194199932      2.07324684578405      0.15117261871088
