27
Coordinates from ORCA-job goat_0_265 E -727.013373246136
  C          -1.09385824481275      0.50941640209262     -0.37729511893316
  C          -1.11972632782546     -0.93440413853077      0.13784576162612
  O           0.14761877752494      0.84181722967730     -1.01802170467340
  C          -1.46672136394609      1.48844903608758      0.71902091385522
  H          -1.84069975805282      0.57902363609679     -1.17339537250294
  C           1.30849365629482      0.20462426967837     -0.53299827113023
  C           1.21387038560754     -1.32842487648485     -0.57099601501223
  C          -0.22357385345259     -1.77985994361468     -0.74970698736699
  H           1.57628057016860     -1.71584241391064      0.38711107687213
  O           2.04713827760204     -1.78646051824342     -1.63105475932952
  O          -0.29295964128177     -3.15824988953545     -0.41258429547816
  H          -0.51920033146800     -1.63202686536936     -1.79667794948207
  O          -2.44773056498353     -1.45135910915902      0.06593299434587
  H          -0.75787558782926     -0.99153371914794      1.17037616194132
  H          -2.40691478867940      1.14440950421056      1.16869807310027
  O          -1.63042732584660      2.78368538860186      0.14620580413261
  H          -0.69467397832125      1.49581675128959      1.49349138721580
  H          -1.80848075225628      3.40269069461853      0.86240799102101
  H          -2.81712578337560     -1.47746229430894      0.95419626873296
  H          -1.22636134620190     -3.40472734002735     -0.44310495806002
  H           1.99586632894638     -2.74997284426213     -1.64267008317439
  O           1.61977602996587      0.58225139967022      0.78380433681914
  H           2.10067584220448      0.53033563877776     -1.21549543640641
  C           2.00527821504248      1.95179399101750      0.88867523252984
  H           2.26730844055907      2.12677070854367      1.93187647580313
  H           1.18817148886215      2.61815794186780      0.60071742863305
  H           2.87585040535491      2.15108116036447      0.25363905492101
