27
Coordinates from ORCA-job goat_0_237 E -727.012448603094
  C          -1.11960752561583      0.70972965496642     -0.38253427029507
  C          -1.58066351157615     -0.76064064873689     -0.47019243735500
  O           0.15171937818936      0.91039567699509     -1.00366492499266
  C          -1.16369065348000      1.26297056030545      1.03940065886952
  H          -1.81211433096317      1.30669096277488     -0.98026098984849
  C           1.22729087818833      0.16974496779939     -0.46475817416216
  C           0.80865588266962     -1.22732248663847     -0.00399276684199
  C          -0.41283228142709     -1.67785491350730     -0.78663690498195
  H           0.56559389602006     -1.20482470864665      1.06327698010542
  O           1.84864582437778     -2.17060812489810     -0.23894052044914
  O          -0.76979503749409     -3.00982067277747     -0.44489778283234
  H          -0.19254125395119     -1.61036059050857     -1.86032456443825
  O          -2.56111785298202     -0.95543122263680     -1.48807345481042
  H          -1.99314708566442     -1.05991583916446      0.49925356539955
  H          -0.61861945633954      0.62302456185061      1.73866408025909
  O          -2.54482515915072      1.33027677346060      1.39485663014576
  H          -0.70529143167504      2.25742611962732      1.04870920221781
  H          -2.60337195411455      1.44851743160572      2.34869290425189
  H          -3.37857031659567     -0.53694840325982     -1.19425684316109
  H           0.04074161232285     -3.53239411734109     -0.50231127006025
  H           2.46179624152549     -2.14018807874413      0.50384840670157
  O           1.83195440518584      0.81024185171746      0.62739339229531
  H           1.94532258919245      0.08083464698290     -1.28820948357311
  C           2.50842665886469      2.01320461716392      0.27002015642165
  H           3.25382811095035      1.81785386707833     -0.50940284957112
  H           3.00809589497798      2.37477742689197      1.16846294090230
  H           1.80411524836468      2.77062048763972     -0.08412367019688
