27
Coordinates from ORCA-job goat_0_72 E -727.018606059267
  C          -1.13560734503625      0.72455449471065     -0.02749571889921
  C          -1.15738627137280     -0.78432199096007      0.23554798386913
  O           0.17934634125986      1.23374724875445      0.16772066760975
  C          -2.02346259265178      1.50231017032481      0.93855059987931
  H          -1.46087521182843      0.90961438113973     -1.06228906294926
  C           1.12983641063541      0.67154021411350     -0.72868097612681
  C           1.24493006777694     -0.82594251211884     -0.44942311319951
  C          -0.11930703528470     -1.46766533421696     -0.63765005984595
  H           1.55959368647328     -0.97817324974897      0.58997627002572
  O           2.19917861192778     -1.37186141171764     -1.34635753972728
  O           0.02317800837952     -2.84874939147833     -0.31929616711870
  H          -0.42039234166997     -1.35824701075661     -1.68815519464035
  O          -2.41919406172687     -1.36028655984432     -0.07807134681837
  H          -0.90537037070561     -0.95990944245229      1.29080200601693
  H          -1.69876163607103      1.30396451789131      1.96257425565019
  O          -3.39075757166939      1.09324169658081      0.85648447931236
  H          -1.92399475828177      2.57344323498753      0.74156636652505
  H          -3.77581643670166      1.48675433057959      0.06416858701907
  H          -3.09099341609395     -0.79459335991289      0.33271801863808
  H          -0.79291820334973     -3.29575252968089     -0.57252781979755
  H           2.13329856213038     -2.33257887110611     -1.27458108805460
  O           2.32019827542102      1.37719043361956     -0.61022050280368
  H           0.79598806619171      0.82662455104026     -1.76269756903480
  C           3.03484610465948      1.19130080392279      0.61493750500104
  H           2.37830344236026      1.31094124814188      1.47984944918154
  H           3.80260657833665      1.96408604076121      0.63748179170266
  H           3.51353186669167      0.20876809742579      0.64506618858520
