27
Coordinates from ORCA-job goat_0_60 E -727.017783198579
  C          -1.23579422233305      0.79849568837949     -0.27012988923401
  C          -1.63061530939562     -0.68700114162044     -0.22847423596030
  O           0.03761786912127      1.00687765239500     -0.90603715178793
  C          -1.34081480259963      1.49182770166161      1.08291251815844
  H          -1.93997673336607      1.29926301774355     -0.93831658388593
  C           1.13846053359892      0.25309503030710     -0.46020310943398
  C           0.77695447303345     -1.19173932809891     -0.11926795928650
  C          -0.52948404835335     -1.55659254152585     -0.80745135329252
  H           0.64062053902569     -1.28600408068311      0.96373021679884
  O           1.85982332470636     -2.00818208032343     -0.54505267353064
  O          -0.88099325066508     -2.91618761863221     -0.56143244571082
  H          -0.44669116129181     -1.37800603506555     -1.88478051880368
  O          -2.84874961937520     -0.83880508469441     -0.95332848292670
  H          -1.78332558646215     -0.99777704541777      0.81166250090077
  H          -1.03761609602156      2.53871391384962      0.96300049781767
  O          -0.60459903519943      0.86739970456339      2.12564736972846
  H          -2.39181185692945      1.47326883435603      1.38402655902882
  H           0.33508955296797      0.92450076730470      1.88449029671446
  H          -3.09071842358477     -1.77210134461845     -0.90157139579103
  H          -0.48703580872595     -3.46188902955822     -1.25052513348213
  H           1.74117885722865     -2.87933461766061     -0.14886018218590
  O           1.76551104592503      0.82311516638627      0.66962463478906
  H           1.84123993969712      0.26161927768208     -1.29973224239692
  C           2.40157534341400      2.07337686939172      0.39099506133905
  H           2.90462446617127      2.38077185787081      1.30698071545683
  H           1.66812236173286      2.83008794704175      0.10245518477978
  H           3.13740641748051      1.95120631896589     -0.41036418780318
