27
Coordinates from ORCA-job goat_0_39 E -727.020430905697
  C          -0.96909709748615      0.76320443008560      0.14756572388681
  C          -1.40123386915877     -0.70148995062376      0.17468401014674
  O           0.34017253090772      0.85607979498093      0.69743494213766
  C          -1.86715865635443      1.66112075880046      0.99131318925500
  H          -0.97222284320360      1.12637581161429     -0.88994517225406
  C           1.31573898742656      0.18466991487516     -0.09173603536917
  C           1.01471331413294     -1.31188011680543     -0.10687275305028
  C          -0.40851678878240     -1.54484995602435     -0.60443639783440
  H           1.11102286181814     -1.68790191874306      0.91517260676818
  O           1.94559761569796     -2.04658554730510     -0.88898420725344
  O          -0.79180835897007     -2.90647448907768     -0.46133761381268
  H          -0.46315745879891     -1.25013932017107     -1.66300448266822
  O          -2.70862178806599     -0.79314679266532     -0.38850144131807
  H          -1.41653120880615     -1.04001810295420      1.21854147061953
  H          -1.95924890702310      1.23670271972029      1.99946860426744
  O          -3.14433307386922      1.85467709192911      0.39719339415886
  H          -1.39843453935627      2.64377344336432      1.07362520976987
  H          -3.48981066088232      0.97534809531129      0.18714222647770
  H          -2.99670599864617     -1.71113849326419     -0.31773326341035
  H          -0.16074587090171     -3.44051053572550     -0.95916688318840
  H           1.91641710495714     -1.71044691299898     -1.79440019553842
  O           2.55855814291739      0.39187070794411      0.48105960715309
  H           1.28632999361788      0.59510813751733     -1.11617896893721
  C           3.05865242227918      1.71550370261120      0.28452456849935
  H           4.06824456525518      1.73329975893712      0.69362045410901
  H           2.44014366758303      2.45115683436414      0.80469018474230
  H           3.09203468351210      1.95569073430327     -0.78374076735687
