27
Coordinates from ORCA-job goat_0_63 E -727.013868501205
  C          -1.09319487489788      0.51693565322935     -0.23992655853211
  C          -1.09869462324359     -0.91752200751097      0.30379453955688
  O           0.11047416269004      0.82500418575920     -0.95714201857054
  C          -1.39802215669800      1.52144774408464      0.86307212311924
  H          -1.88103948648425      0.58652356512354     -0.99953848652056
  C           1.29739030281023      0.20397487042162     -0.51162000336668
  C           1.20388634023238     -1.32944052176569     -0.49377409432395
  C          -0.23871285994068     -1.78928513545623     -0.59776988352360
  H           1.60454740038244     -1.68362538091909      0.46182627538040
  O           1.99539303486194     -1.82313550352067     -1.56975576539893
  O          -0.28433174394494     -3.15735617256867     -0.21531376079777
  H          -0.57779196681464     -1.67584606197636     -1.63672211599926
  O          -2.42434924762628     -1.42329955222382      0.41672105374063
  H          -0.69366418848609     -0.94846613958921      1.32016939456110
  H          -2.31355858234132      1.19481646732513      1.37081734580901
  O          -1.53206576386044      2.85446441706066      0.38205762568018
  H          -0.58800764374653      1.53198376067236      1.59214993579383
  H          -2.31344940742183      2.89169979451876     -0.18182005135485
  H          -2.85818350307332     -1.33790500328035     -0.44245048051672
  H          -1.21543340051547     -3.40813827575187     -0.16431489149304
  H           1.95133557538348     -2.78671540157098     -1.54170277226127
  O           1.67536531474359      0.62532309068874      0.77324023381697
  H           2.05134294699140      0.50735327615197     -1.24561188989756
  C           2.07347835154022      1.99511253874709      0.81127600375382
  H           2.91424931861894      2.16458817424383      0.12930285965986
  H           2.38529412473876      2.20444113983964      1.83421434522805
  H           1.24774134590191      2.65706627826733      0.53881904645685
