27
Coordinates from ORCA-job goat_0_57 E -727.013563926217
  C          -1.49811587227023      0.65342363174091     -0.44444696521786
  C          -1.50229880433522     -0.86119325842010     -0.15759424252866
  O          -0.31843474790296      1.07976807601382     -1.15607924275856
  C          -1.76885471223379      1.49672340777754      0.79528415458536
  H          -2.30365864238734      0.85085252942457     -1.15489297439834
  C           0.93188640410775      0.67047862522215     -0.69619422329735
  C           0.95857431804748     -0.79551064302271     -0.23118902138748
  C          -0.27007387967907     -1.51895866355557     -0.74581086416581
  H           0.94833551681408     -0.83076866762277      0.86568982595161
  O           2.15595348001797     -1.37969355919783     -0.72748390303075
  O          -0.16305100000224     -2.87837261615517     -0.34190654348873
  H          -0.30455270852836     -1.45308887388336     -1.84053216816644
  O          -2.64037050007781     -1.50546512746493     -0.73199514025253
  H          -1.49210060818257     -1.03430561070661      0.92250847406266
  H          -1.72917907823732      2.55628919476646      0.51634982291813
  O          -0.89908721700162      1.22500316182467      1.88553032238266
  H          -2.78328235365219      1.27135954434611      1.13681883664350
  H          -0.00089740708977      1.45510008446515      1.59148588099446
  H          -3.37602186584965     -1.43153524877161     -0.11428831509595
  H          -0.96394106037103     -3.32791358072549     -0.63846373498036
  H           2.12599189818431     -2.31798679381264     -0.50135641610722
  O           1.34284805681282      1.57321619255849      0.32358864333329
  H           1.61490450957029      0.77360260029265     -1.54682520948671
  C           2.72043546851435      1.44554035813728      0.67613158396330
  H           3.35111645656834      1.54795683484295     -0.21324295900061
  H           2.92453545022631      0.48343423845395      1.15408830368688
  H           2.93933766873750      2.25204396347209      1.37482408484148
