27
Coordinates from ORCA-job goat_0_40 E -727.015452979881
  C          -1.14244561887930      0.64837938942362     -0.30913603434195
  C          -1.54607335781808     -0.82586468188783     -0.25556287462282
  O           0.09738655135246      0.86507041817123     -1.00600655358215
  C          -1.16899278929134      1.36377069018899      1.04733801288285
  H          -1.88471574528242      1.14774168951180     -0.93834602950746
  C           1.18506906248069      0.04607914317498     -0.65676939523578
  C           0.84855931633902     -1.44538546738676     -0.72781766490653
  C          -0.38493852302107     -1.76083831513508      0.11853638467692
  H           1.70587693837579     -2.01238499910466     -0.35241235265633
  O           0.54055391577033     -1.81937795215008     -2.06763442112028
  O          -0.08130877405110     -1.71130684138769      1.50710250071350
  H          -0.70259918333953     -2.78262315501750     -0.10253261092236
  O          -2.12073750339397     -1.23648832492617     -1.49656616135075
  H          -2.32904589106726     -0.93216039550379      0.49725154444671
  H          -0.59202848474482      0.83969180202856      1.80600600571091
  O          -2.50233385720785      1.43940183042763      1.54485899391876
  H          -0.74161310011846      2.36329213001612      0.91724422186660
  H          -3.00478692637152      2.02579413340844      0.96708324741092
  H          -1.39016594608715     -1.34181129768459     -2.12351451406274
  H           0.55954884497789     -1.00012823772087      1.64898850230195
  H           1.28732747779636     -1.59448936765977     -2.63566941354107
  O           1.65969825736277      0.28632920716531      0.64719581719872
  H           1.96335128740830      0.29508738160198     -1.38804974656271
  C           2.30822210246770      1.54975080228141      0.80137462760558
  H           2.64214025765556      1.60895995344884      1.83631075501851
  H           1.62248718233525      2.37288668624640      0.58989035524264
  H           3.17156327615180      1.61062357846957      0.13083481341842
