27
Coordinates from ORCA-job goat_0_197 E -727.021033920191
  C          -1.00273480104821      0.81398276244841      0.02566791183028
  C          -1.46401446244387     -0.63391400733164     -0.10598687826655
  O           0.28376549733602      0.82593001995559      0.64088453312389
  C          -1.94165451788173      1.67587325331578      0.85312587567293
  H          -0.93835599811844      1.26108122779273     -0.97749124186889
  C           1.25812027927340      0.18902140610706     -0.16774549923174
  C           0.93425134206567     -1.29412696921300     -0.33029061630984
  C          -0.45865786990543     -1.43885197061000     -0.92309098661173
  H           0.95939363609945     -1.75589033399909      0.66673261148505
  O           1.86803693842838     -1.91631465464557     -1.19707780943268
  O          -0.87785798511924     -2.79496165356682     -1.03329662510635
  H          -0.44822253714169     -1.05326430325372     -1.94774277058451
  O          -2.74245551385835     -0.64393803538843     -0.72510571364104
  H          -1.52403932920454     -1.07253682401037      0.89962372761655
  H          -1.46951480892860      2.64945702441649      1.00245711476649
  O          -2.20921642633603      1.14478970273047      2.14727468501133
  H          -2.86884902522520      1.82438036257528      0.29291603163196
  H          -2.90586474115512      0.48451771944764      2.06337181410953
  H          -2.94197743058817     -1.56468407371943     -0.93829004252789
  H          -0.81068828452399     -3.20348779065838     -0.16036869194456
  H           2.74289122977808     -1.79148630232581     -0.80871540810857
  O           2.49369584144226      0.28694746398464      0.45676220539742
  H           1.28441201231106      0.67754411313728     -1.15603646821591
  C           3.07463278252590      1.58935083497192      0.36905704307526
  H           2.47309315803140      2.32264581209137      0.91192754028092
  H           3.16768166558741      1.89478867227365     -0.67854344411097
  H           4.06412811839940      1.52314634347401      0.81997911195959
