27
Coordinates from ORCA-job goat_0_29 E -727.015000208552
  C          -1.19129808789256      0.46071713673233     -0.13633356724439
  C          -1.05290504657238     -0.96194256646038      0.40905473982593
  O          -0.05347767002748      0.86921745521691     -0.91674496496355
  C          -1.48487019003207      1.47615282172237      0.95446702314378
  H          -2.02476884860743      0.46565934521474     -0.84784293819911
  C           1.18679873464389      0.26954370102258     -0.59600545599169
  C           1.15099390698820     -1.26295956734702     -0.68978409524212
  C          -0.27102320018833     -1.79066621912910     -0.59843682786303
  H           1.71694933579345     -1.66353901990053      0.15716450204045
  O           1.77469520642712     -1.63028750296819     -1.91627078393555
  O          -0.20454492682825     -3.15993809101275     -0.22445082168231
  H          -0.74941180300396     -1.69126812542414     -1.58288717375440
  O          -2.33063920262007     -1.52990366985963      0.67567384846381
  H          -0.52763569895186     -0.96599741502950      1.36852572287288
  H          -2.38705916336992      1.17089477714323      1.48887037687881
  O          -1.74203611811905      2.76728660231861      0.41129829713830
  H          -0.65304674546827      1.50788609045806      1.66571727717886
  H          -1.00260174572998      2.98512065742559     -0.16948324754404
  H          -2.87203517015523     -1.44807152000909     -0.12089276740177
  H          -1.10942242629463     -3.45360147255679     -0.05878744138671
  H           1.79667446249914     -2.59410998704310     -1.95530108692475
  O           1.63076335982961      0.60867788736192      0.69116480131524
  H           1.87799126024879      0.65779148402664     -1.35072106328616
  C           2.04437323590047      1.96860689661107      0.80385112694531
  H           2.44461391331238      2.09464675448965      1.80937068854958
  H           1.20861341573097      2.65840133507826      0.66116730009487
  H           2.82430798228756      2.19168201191822      0.06761454097173
