27
Coordinates from ORCA-job goat_0_49 E -727.016816009125
  C          -1.14518617222018      0.54426010729323     -0.27903480096498
  C          -1.44433815144656     -0.95227057105345     -0.23209650312701
  O           0.05917172089461      0.84673074307188     -0.99968621596711
  C          -1.22088732727712      1.21963685231730      1.09076332664781
  H          -1.93120321971451      0.99497349720605     -0.89257239156799
  C           1.21344551700723      0.09622458664513     -0.69910050407291
  C           0.96783731758877     -1.41149968756615     -0.77979246370707
  C          -0.21463142130511     -1.80567815952273      0.11096635672527
  H           1.86778469596075     -1.92164129349618     -0.42992392381950
  O           0.75984383246665     -1.79873539481668     -2.12833428910786
  O           0.10641370629998     -1.70634398016819      1.49262858877745
  H          -0.46228542911997     -2.85283583627453     -0.08640442266087
  O          -1.92943489987267     -1.31171305973549     -1.53612194388236
  H          -2.22088027102660     -1.13438532363898      0.51665311665977
  H          -2.17355834227574      0.93357415845146      1.55163731297791
  O          -1.11782012039621      2.63617892664782      0.98830141827229
  H          -0.41654049782377      0.90457556220506      1.75100574402176
  H          -1.88033900525402      2.95677869547097      0.49234811287032
  H          -2.27299857916404     -2.21266554999845     -1.48939924845611
  H           0.72546794792106     -0.96904483155809      1.60121396216145
  H          -0.15893000439044     -1.57800328410096     -2.34832428183264
  O           1.72811004386335      0.35787113360770      0.58704914340344
  H           1.94037885426406      0.39736006835308     -1.46066536360372
  C           2.20757224088660      1.69355182343029      0.75469126671932
  H           1.39076631665748      2.41388302950931      0.68106774331728
  H           2.96641576700266      1.91504619107319     -0.00322901782655
  H           2.65582425027376      1.74417139664741      1.74635728804262
