27
Coordinates from ORCA-job goat_0_32 E -727.013763510896
  C          -0.95733203057914      0.75881708901332     -0.44634274233034
  C          -1.02153354956887     -0.57302662769662      0.29451321160510
  O           0.39479998405375      1.22630208547969     -0.54242876044235
  C          -1.72991022413318      1.86225454504541      0.27145558447168
  H          -1.36887863316655      0.63394042475852     -1.45412718245894
  C           1.41803498266598      0.25688007219606     -0.56896198513317
  C           0.96387739100321     -1.03724361072515     -1.22365834394775
  C          -0.19619581623881     -1.65077861774122     -0.41578264256173
  H           1.80035492556400     -1.74258718779889     -1.22045288438544
  O           0.57720847683994     -0.70920187090017     -2.55081878920237
  O           0.25795828196570     -2.63476232625552      0.50831935423465
  H          -0.85168538941705     -2.17258654991133     -1.11739964076395
  O          -2.39917674551207     -0.94427934209956      0.39146502950274
  H          -0.61191019698092     -0.42332091741193      1.29860290318139
  H          -1.43835477452172      1.87762736619810      1.33013675038227
  O          -3.13712936577339      1.72157205474903      0.12695399338717
  H          -1.45538585881722      2.82142263730552     -0.17267727919010
  H          -3.34536609763847      0.81475108877236      0.39445869230019
  H          -2.47228752126462     -1.65834584028138      1.03531101150700
  H           0.87055694518447     -2.19190965690093      1.11077769672001
  H           0.38555857030028     -1.53167962583701     -3.01617575199192
  O           1.84582901162908     -0.10513604523490      0.72304408084671
  H           2.24265458121986      0.72288512266146     -1.11898858778064
  C           2.43897626044233      0.97105831882612      1.44589760595006
  H           3.26296660629595      1.40821054447225      0.87097194802702
  H           2.82443019590520      0.55314267708891      2.37531984980373
  H           1.70193876034223      1.74599399222795      1.67058488826899
