27
Coordinates from ORCA-job goat_0_243 E -727.019478819011
  C          -1.06796713069730      0.51450971348859      0.09654675387111
  C          -1.29593458325720     -0.99598618520140      0.21057786887999
  O           0.22794210967824      0.82255136172866      0.60264434209861
  C          -2.07938614719282      1.30362764334500      0.89535940105642
  H          -1.13275637371140      0.81253990247646     -0.96131508502696
  C           1.27488271765349      0.24645170673992     -0.16460496794228
  C           1.19620833215036     -1.26938334927334     -0.05896483756667
  C          -0.17780197445894     -1.73151997076121     -0.51830173688370
  H           1.33798927873010     -1.54361143403701      0.99451489465592
  O           2.21557466373026     -1.83701764528513     -0.86744461054372
  O          -0.23815769767378     -3.13650968224466     -0.30271970386149
  H          -0.26914637260184     -1.51639911397791     -1.59359759873248
  O          -2.56578446319201     -1.39870364530657     -0.29083840602823
  H          -1.28666542371694     -1.28100026514578      1.26662912884721
  H          -3.08235323095482      0.95043741275727      0.63813886669032
  O          -1.93068779963295      2.68632599592487      0.57882425785161
  H          -1.90514433187623      1.12608497087825      1.96348609292466
  H          -2.57360638925847      3.17813761591619      1.10104752018124
  H          -2.62322349675965     -1.13882153563622     -1.21977539355233
  H          -1.08090433390460     -3.44986126699137     -0.65240819153251
  H           2.05107111990232     -2.78776251959139     -0.90022552149184
  O           2.48406944291596      0.67554338770912      0.35891915965846
  H           1.17063064156948      0.56320278512732     -1.21552729462460
  C           2.77172852416431      2.04296020769431      0.06331741301412
  H           2.76096989859189      2.20994228448728     -1.01934628704956
  H           3.76882490165591      2.24502100340338      0.45322980199730
  H           2.04962688794644      2.70924042177542      0.54183214310941
