27
Coordinates from ORCA-job goat_0_274 E -727.020386504164
  C          -0.97192164746806      0.81533044273629      0.01034077280071
  C          -1.41268754911570     -0.64090179970221     -0.10599720159344
  O           0.30408203055944      0.85443035857876      0.64363757089724
  C          -1.93431203323876      1.67718216557926      0.81051122628855
  H          -0.89997287437917      1.24661265750680     -0.99922674595785
  C           1.32080869036377      0.23616563429791     -0.13310168922285
  C           1.01617443075074     -1.24872525021311     -0.27987362125873
  C          -0.36896653242721     -1.41721136491444     -0.89388908404316
  H           1.02879489464763     -1.69575907158234      0.72418325265805
  O           2.00869816143261     -1.83951390656697     -1.10358702215934
  O          -0.71498450399629     -2.79563291614485     -1.01374591682919
  H          -0.34760818499355     -1.03590154092906     -1.91990451409638
  O          -2.67846483922212     -0.67732901656985     -0.75027407715473
  H          -1.48457612053799     -1.06773069403396      0.90379623584126
  H          -1.47799801547412      2.65958377214777      0.95073209071194
  O          -2.21257148523531      1.16272299976961      2.10912265996118
  H          -2.85550532764099      1.80343817339467      0.23509186905903
  H          -2.89781090276397      0.49052535586240      2.02605619217824
  H          -2.86935221015756     -1.60235407809742     -0.95069656566519
  H          -0.74892245450802     -3.17647521064102     -0.12573849212559
  H           1.68945983653581     -2.71975130728828     -1.34029645105601
  O           2.52859231476705      0.38830517451964      0.52833191136377
  H           1.35764953176349      0.71456446085550     -1.12598225072763
  C           3.04606376902681      1.71768073827670      0.46004312817618
  H           2.40008746134521      2.41964649129125      0.99336141400458
  H           3.14685199781640      2.03454865166139     -0.58373994099951
  H           4.02839033194994      1.69654888020556      0.93084325894889
