27
Coordinates from ORCA-job goat_0_99 E -727.013496873878
  C          -0.99451799980305      0.71727549861964     -0.35075070985593
  C          -0.98073441421801     -0.61283312800437      0.40576457021707
  O           0.33416686124586      1.21616268475663     -0.56232567356153
  C          -1.72428676746182      1.81289140907745      0.42232551947421
  H          -1.48361795197859      0.57743439235248     -1.32212811976350
  C           1.37631323696158      0.27160856860969     -0.63026986079073
  C           0.91433958915521     -1.04551294632294     -1.23118726052227
  C          -0.16155611024661     -1.68059381448613     -0.32820705151995
  H           1.76877270331515     -1.72674808563562     -1.28237534362028
  O           0.41787341985329     -0.75179069154950     -2.52957335647131
  O           0.39691480303349     -2.62009749679804      0.58199347083812
  H          -0.83187351763680     -2.25301992012850     -0.97660796565763
  O          -2.31280403632705     -1.05578974841998      0.67739425188406
  H          -0.52924647725861     -0.44247306214935      1.38528651274400
  H          -1.32749542095439      1.85526682101148      1.44541893067649
  O          -3.13468350051454      1.63456049026090      0.42596927279113
  H          -1.52338454971524      2.77079237828115     -0.06203629912276
  H          -3.29195788842226      0.73640157678954      0.75033469798861
  H          -2.70193238850705     -1.37399332993139     -0.14753750579313
  H           1.03275437632043     -2.13793340975882      1.12754742976079
  H           0.24836583791890     -1.58805378652418     -2.97854318954254
  O           1.88750949374434     -0.05496028413803      0.64092040495042
  H           2.15579133534675      0.74448721261104     -1.23723278097064
  C           2.49507011342234      1.04801470137208      1.30961945279773
  H           2.93877912574142      0.65698335455392      2.22461278004520
  H           1.75419822943119      1.81162345786877      1.55894974487494
  H           3.27724066735412      1.49029695768189      0.68263608814943
