27
Coordinates from ORCA-job goat_0_52 E -727.012589006369
  C          -1.15270858635971      0.49291125213195     -0.30849904180968
  C          -1.00629431673956     -0.83816611722037      0.42201596136269
  O           0.11230489996573      1.04325336056887     -0.73228031281916
  C          -1.80625061629204      1.54390926845740      0.57305843501957
  H          -1.77124593271547      0.34149652629061     -1.20192149522780
  C           1.24255302645355      0.19370558375532     -0.71007287621374
  C           0.88108693535607     -1.16915920967521     -1.27644845691102
  C          -0.17255478786486     -1.84649581016865     -0.37742140297594
  H           1.76986154311140     -1.80173671322951     -1.30147784715915
  O           0.43371054435594     -1.03139732320829     -2.61894355875251
  O           0.41017659714772     -2.80833832226834      0.49895175965820
  H          -0.84575551151083     -2.40265350964632     -1.03289345912032
  O          -2.32727082762383     -1.32060001409401      0.65331528323504
  H          -0.50651837472218     -0.65936662583589      1.37912872331065
  H          -2.80655782862332      1.21493184860452      0.85470707576184
  O          -1.95158637268614      2.78438246856957     -0.10849889690010
  H          -1.20439516185546      1.66762680778610      1.48243636550769
  H          -1.06826098013830      3.06225519957886     -0.38023042624640
  H          -2.25603248432202     -2.10273591858619      1.21303150221903
  H           1.02405763791168     -2.33469810035249      1.07559940049874
  H          -0.08639012211670     -0.22121582981135     -2.68859408651581
  O           1.74436526081780     -0.02461752899399      0.58016601275534
  H           1.98577955054819      0.70901997252098     -1.32795886231362
  C           2.23965436410951      1.15769823422350      1.20647039453328
  H           1.42867616333771      1.86159269346469      1.41033171085955
  H           2.99072283779340      1.63991163194301      0.57135058259321
  H           2.69887131246172      0.84848597519523      2.14467552565041
