27
Coordinates from ORCA-job goat_0_62 E -727.013266606042
  C          -1.09867421947195      0.58370189451407     -0.27215438536115
  C          -1.16801094053433     -0.85132209934654      0.25240749817361
  O           0.13210419910162      0.85338077803072     -0.95904688658739
  C          -1.38243201947397      1.58842802388162      0.83604809750609
  H          -1.87207983468538      0.68138893615250     -1.04105849011853
  C           1.27088525323449      0.14658217829642     -0.51642543736423
  C           1.09924475187079     -1.38433425281175     -0.61528033501470
  C          -0.37596644303413     -1.76024283676144     -0.67611529732438
  H           1.54187277582179     -1.82188214668468      0.28318179001370
  O           1.83170618087531     -1.92515794356375     -1.70592541277242
  O          -0.60760987904941     -3.13164205488434     -0.37343387318603
  H          -0.74504984903284     -1.62012915770972     -1.69747571779269
  O          -2.53823089678229     -1.22676785101734      0.29209230574887
  H          -0.73826086153969     -0.91179306397169      1.26271292624851
  H          -2.32822806982822      1.30436069415560      1.31317161345761
  O          -1.43247865323048      2.93228709649037      0.36917136047156
  H          -0.59507898402041      1.54815555285864      1.58863221613978
  H          -2.18625616280869      3.01357017374104     -0.22681969888211
  H          -2.55522873073341     -2.18602303854961      0.40982480630852
  H          -0.17214064968366     -3.33731580333137      0.46403222648370
  H           1.42879877222655     -1.61434509559247     -2.52645326924219
  O           1.62023249740404      0.46120417862497      0.80643206654633
  H           2.06720643201903      0.45897196013360     -1.20079214469222
  C           2.10364850122520      1.79688184767717      0.94677873910542
  H           1.34086770926033      2.52750272113284      0.66594429022498
  H           2.99326534368035      1.94486199140188      0.32448986951730
  H           2.36589254698932      1.92967711713323      1.99605915239205
