27
Coordinates from ORCA-job goat_0_96 E -727.012941478753
  C          -1.17309354787482      0.70758311899285     -0.14338104058996
  C          -1.64510041356898     -0.75694664344575     -0.24996644058841
  O           0.02594794109985      0.93838892625234     -0.88999292792025
  C          -1.05609575761899      1.19766687668169      1.30301241525420
  H          -1.92438086312970      1.32864362754874     -0.63827866792740
  C           1.15415312778591      0.17908137564840     -0.50397939770521
  C           0.78700121103794     -1.23526322732789     -0.05160750084388
  C          -0.51085893982708     -1.65940733252325     -0.71704530428654
  H           0.66014319838908     -1.25402329539483      1.03573276273141
  O           1.79378975731669     -2.16662203364921     -0.43311270628482
  O          -0.83392055993822     -3.00321130913748     -0.39198578240397
  H          -0.39452459033953     -1.55385766699015     -1.80539435570225
  O          -2.79573332302433     -0.89859388961413     -1.07903225813038
  H          -1.96470337449139     -1.09710594274679      0.73751771060548
  H          -0.40972411477996      0.54932151401867      1.89511849011699
  O          -2.33011460531765      1.17824238070639      1.93969796410615
  H          -0.62447464230090      2.20371542761089      1.30346092047640
  H          -2.88537603549355      1.84708844102516      1.52183452662067
  H          -2.55054238863407     -0.64872274400335     -1.97875599148319
  H          -0.03424248449074     -3.52251249608999     -0.54775708199632
  H           2.49030460185787     -2.15426807166796      0.23262229467913
  O           1.88123166780584      0.77895692750979      0.53480833983276
  H           1.77350399801740      0.12174336158002     -1.40667580964012
  C           2.51394740623330      1.99673471721488      0.14838469721260
  H           3.11351750978311      2.32553879936523      0.99684442472305
  H           1.77458990241470      2.76472658667976     -0.09390686912460
  H           3.16475408888818      1.83310237175598     -0.71816440173155
