27
Coordinates from ORCA-job goat_0_176 E -727.020707204419
  C          -1.01168508372937      0.65469820411454      0.07678541522424
  C          -1.41307954837560     -0.82737274704101      0.04641330562022
  O           0.29507699917932      0.80203626710757      0.61960500568857
  C          -1.91209106775872      1.49165272726878      0.97353160517879
  H          -1.04356569988777      1.04995405432740     -0.94875523913197
  C           1.27901828375050      0.16250395760182     -0.18021066728847
  C           1.02999093776185     -1.33810630811157     -0.17118974062298
  C          -0.36474463562291     -1.63690203636731     -0.69722055953554
  H           1.11437155453316     -1.68969644031603      0.86437051919645
  O           1.94642616233384     -2.02437579639848     -1.01273957459066
  O          -0.66985648454955     -3.01888449672701     -0.55535407817335
  H          -0.40205717437885     -1.35235157010850     -1.75819991991922
  O          -2.65699948376398     -1.00925116971335     -0.61654936667277
  H          -1.47008084757842     -1.19313127333705      1.08156588542623
  H          -1.89233489377207      1.07777864940956      1.98723196766427
  O          -3.23944319022388      1.46148076903068      0.44133986149326
  H          -1.53127195911139      2.51749685580429      1.00166117183581
  H          -3.84406691966328      1.78611880542293      1.11752467721256
  H          -3.25322825719447     -0.32545763013793     -0.27307849499522
  H           0.03592309008339     -3.50924636799787     -0.99478061458216
  H           2.82306996437484     -1.94997681470669     -0.61784628990692
  O           2.52746750419076      0.40036934896444      0.37382810690933
  H           1.22595128064910      0.55982024731096     -1.20687062876234
  C           3.00546200198443      1.72846230958464      0.15145025665005
  H           4.01620548569748      1.77065140941696      0.55574298241572
  H           2.37621818596680      2.46139670205324      0.66251133842068
  H           3.02932256490476      1.95033214354505     -0.92076891475460
