27
Coordinates from ORCA-job goat_0_271 E -727.016950028387
  C          -1.24225551566826      0.66553532257949     -0.00093770554388
  C          -1.27053327959374     -0.82291392661272      0.33890236090904
  O           0.09590300452330      1.14374569500152      0.11068641369587
  C          -2.10687023930737      1.48041991279000      0.94322957284479
  H          -1.59723286358604      0.80130797851763     -1.03362003858659
  C           0.97064795500475      0.52225523583461     -0.81066115461847
  C           1.07917171119835     -0.97636331745294     -0.50740402771962
  C          -0.31097072386985     -1.58736845505757     -0.56788348118588
  H           1.48387612209085     -1.11530512629990      0.50367912340523
  O           1.89760633475016     -1.61938050919491     -1.47169843004468
  O          -0.32490714082874     -2.97506671586791     -0.24906758538774
  H          -0.67955357025104     -1.52295276490353     -1.59686996978085
  O          -2.59584785355973     -1.30539251610202      0.17047754121788
  H          -0.94858223763934     -0.94907900349988      1.38328665258286
  H          -3.09918526374294      1.02409844521424      0.99769121828543
  O          -2.19422420133271      2.85023110788607      0.56429986612382
  H          -1.65950732846071      1.46028407661488      1.94021260597179
  H          -2.73479578594876      2.90370814497994     -0.23220503968559
  H          -2.54510836080362     -2.26967159284515      0.20375632531737
  H           0.08393253440724     -3.09057997086067      0.61868634626781
  H           2.75648072274745     -1.17959176889741     -1.47167787008421
  O           2.20024988698934      1.18055396439793     -0.78936122725685
  H           0.59147033434529      0.65073342747125     -1.83314281987262
  C           2.89267908162212      1.17276482975497      0.46454370856241
  H           3.28975114176049      0.18049811463471      0.69751512660840
  H           2.24440323970095      1.50908026956915      1.27550035009120
  H           3.72340106525250      1.86844894234815      0.35206014788308
