27
Coordinates from ORCA-job goat_0_3 E -727.023139229839
  C          -1.17273937387816      0.59682464687158      0.13231185548697
  C          -1.48519589209274     -0.89633689347979      0.17416646534524
  O           0.15180833388939      0.81149596999716      0.61811798294889
  C          -2.09891307252848      1.40858649661641      1.01638422964215
  H          -1.24876853824574      0.95574320964171     -0.90363896971365
  C           1.13115809766711      0.21013749374409     -0.21653867685671
  C           0.96086298029468     -1.30407940858193     -0.18466090128195
  C          -0.44711698163532     -1.66218065524832     -0.63077892391243
  H           1.11785441999824     -1.64400366507535      0.84633382013202
  O           1.86390257978607     -1.94593113168404     -1.07300443856931
  O          -0.72108707222561     -3.04843200370624     -0.46047437558140
  H          -0.55763684761652     -1.38732831589792     -1.68853417246793
  O          -2.78673614167577     -1.09417458187902     -0.36134772504317
  H          -1.44484743029551     -1.23762226595281      1.21747289880426
  H          -3.12945220697119      1.26417811827498      0.69165836352159
  O          -1.82247221411255      2.80137693037520      0.92593048492821
  H          -2.00425923501159      1.05800763626141      2.05195194161928
  H          -0.89820486450171      2.92425134888559      1.17431588470619
  H          -2.92125222677500     -2.04735845451753     -0.43406873684904
  H          -0.14779394664719     -3.53888930677752     -1.06113776430097
  H           2.75734467593656     -1.80454417719414     -0.73833962191117
  O           2.38997548302439      0.51787857114659      0.27650288629805
  H           1.01214508354169      0.58867239472965     -1.24474241237907
  C           2.78885595808827      1.86500417111399      0.01499711000353
  H           2.14447562270805      2.57306868433908      0.54210740232808
  H           2.75604896729126      2.07020913313034     -1.06029151249779
  H           3.81204261178747      1.96544585486684      0.37530491560015
