27
Coordinates from ORCA-job goat_0_65 E -727.015115814301
  C          -1.22467996367224      0.56314955053114     -0.22390894588273
  C          -1.21065382590571     -0.84388720594874      0.36870127288524
  O          -0.01872181551054      0.87781842259713     -0.94325253298189
  C          -1.50569174434747      1.62837291429018      0.82253488401695
  H          -2.01748351297222      0.59121759344376     -0.97713260989554
  C           1.15095713145488      0.18921141716875     -0.54746223530746
  C           0.99960745498571     -1.34044939178488     -0.65073428720335
  C          -0.46007071293290     -1.76189450002461     -0.57726828081105
  H           1.53396400378805     -1.78684504430427      0.19274139327516
  O           1.51292620778092     -1.83448838325168     -1.88344010344788
  O          -0.60699484056349     -3.09359277015720     -0.09468195076916
  H          -0.90329823825614     -1.67436335802732     -1.57651022949117
  O          -2.56577969661508     -1.24615363579629      0.51682944930689
  H          -0.71246153770694     -0.84894095290743      1.34689199568862
  H          -2.46449761805359      1.41523858017006      1.29992623527504
  O          -1.61352223112220      2.92087449420991      0.23367760859131
  H          -0.72354171836688      1.61129402094907      1.58882643129822
  H          -0.82453024025096      3.05176402027257     -0.30686149304010
  H          -2.55106235843581     -2.18718343049208      0.73432665713353
  H          -0.36093956944166     -3.69936939699484     -0.80270394851445
  H           2.47602448777685     -1.81225268828707     -1.84276046139865
  O           1.53738825116986      0.49305278219319      0.76720027111366
  H           1.91578840058014      0.52745875058109     -1.25524371092630
  C           2.05451262265428      1.81333459108537      0.91393303677757
  H           1.29649008573190      2.57019011241846      0.69614737782844
  H           2.91265679403730      1.96210983019495      0.24934989451527
  H           2.37361295399397      1.91433347787075      1.95087229196386
