27
Coordinates from ORCA-job goat_0_231 E -727.020230886418
  C          -0.97980567055424      0.80394742629536      0.00832105627427
  C          -1.46041861717507     -0.64344145173685     -0.01412873822036
  O           0.28830058012578      0.84978163306396      0.65731382118670
  C          -1.92781490550166      1.74594842991958      0.73129264259312
  H          -0.88066439379867      1.16411553913923     -1.02653184239689
  C           1.29772189571669      0.16138034669111     -0.06867957915680
  C           0.95226087291650     -1.32371390325775     -0.14638525199321
  C          -0.44022893541211     -1.49825279618062     -0.74360687169596
  H           0.96818097468664     -1.73063412509312      0.86818804903171
  O           1.91120933044567     -2.06575595825501     -0.88727649401165
  O          -0.87375678541172     -2.85082066481040     -0.66312327554340
  H          -0.41288322050090     -1.17823759100922     -1.79597884951943
  O          -2.72703631702278     -0.68375271616550     -0.65906831618920
  H          -1.54546496786571     -1.00384097624108      1.01868120808530
  H          -1.44506475607752      2.72267097535007      0.80899447468757
  O          -2.23880567384784      1.33308413661215      2.05837040178010
  H          -2.83669814675798      1.85677244166605      0.13367460028766
  H          -2.94331249539664      0.67735111639075      2.01251909472304
  H          -2.97209691968111     -1.61283453828560     -0.74935078128721
  H          -0.23511274841097     -3.39090847986882     -1.14433613157415
  H           1.95130835038048     -1.70386045230652     -1.78237850620118
  O           2.49985576788605      0.31068726630241      0.60282143745883
  H           1.36419585512692      0.59323401893053     -1.08299135437820
  C           3.05514923816660      1.62105390423553      0.48498380971888
  H           2.42212267291140      2.36305223651823      0.97805877923363
  H           3.17873789079087      1.88949885585543     -0.56995197151984
  H           4.03011989406127      1.59347512624008      0.97056659862667
