27
Coordinates from ORCA-job goat_0_195 E -727.016690870762
  C          -1.26803647366298      0.75266435193304     -0.31734624263836
  C          -1.70092107092020     -0.73036059169197     -0.26031847874513
  O           0.02037307193153      0.93128125323455     -0.93081892681286
  C          -1.38851417543800      1.46672218247587      1.02383736906362
  H          -1.94807997403338      1.26267189320540     -1.00394086985966
  C           1.09768505827883      0.16897384207511     -0.44502207554814
  C           0.69951038987761     -1.25672290312200     -0.05632326835844
  C          -0.59091163994575     -1.64047240610091     -0.76119250480470
  H           0.53638066750048     -1.31029274093828      1.02440963274378
  O           1.70479533441858     -2.18824573498706     -0.44161899364226
  O          -0.93705441749397     -2.98612299419348     -0.47185088945318
  H          -0.46525651672982     -1.50714556629064     -1.84543703459586
  O          -2.92585914570971     -0.94421772190451     -0.95369051748858
  H          -1.90893790739344     -1.00815651099289      0.77530331425494
  H          -1.06538654137603      2.50684885740275      0.89764997930184
  O          -0.68229005852731      0.84273605035440      2.08779672518907
  H          -2.44511533868928      1.46878943089378      1.30505911514277
  H           0.26334489189352      0.89655207999370      1.87109413374821
  H          -2.78061725805460     -0.75555612138450     -1.88939835880155
  H          -0.13395499951591     -3.50721163643735     -0.60328936871084
  H           2.34927114785686     -2.25648742809545      0.27127639027028
  O           1.71980999677526      0.75953397057328      0.67803568849892
  H           1.81348134073969      0.13394138681326     -1.27250374966260
  C           2.37868092283967      1.99265070462742      0.37723724849187
  H           3.11998336957279      1.84043624256076     -0.41384531889057
  H           2.87765238347501      2.31356618212617      1.29082098861154
  H           1.65996571213051      2.75362372786960      0.06407402269586
