27
Coordinates from ORCA-job goat_0_76 E -727.012503238945
  C          -1.12449913204027      0.54251561725657     -0.20052316226567
  C          -1.15493153377992     -0.92006200205608      0.27379879442022
  O           0.05877303900060      0.86401703982552     -0.94466716636608
  C          -1.37220013651957      1.49809897905391      0.95832456940597
  H          -1.93700620020987      0.66061320265829     -0.92677965032757
  C           1.24975205552231      0.21062209593415     -0.56420974393022
  C           1.12168598393210     -1.31999042793661     -0.58565463101144
  C          -0.33307937587017     -1.75479273127978     -0.70028593538680
  H           1.51903339485482     -1.70499567336725      0.36153177312660
  O           1.89620545500357     -1.80859235301103     -1.67404594143367
  O          -0.45684532458088     -3.15670812164696     -0.50434098279542
  H          -0.68258793389923     -1.56983285869297     -1.72104442551010
  O          -2.49338095780475     -1.36867869611050      0.41779665867927
  H          -0.71569717388743     -1.00576279924232      1.27435075098811
  H          -2.27376979774344      1.16142944987720      1.48385005602811
  O          -1.50260522918318      2.85411566227369      0.54412940052427
  H          -0.53576439211357      1.46373169092445      1.65646661630363
  H          -2.29404359073773      2.92486384112616     -0.00232609052623
  H          -2.89779570253521     -1.40297866224324     -0.45837055717842
  H          -0.24171690185413     -3.35545853064247      0.41606714307491
  H           1.76814038130242     -2.76516226058464     -1.70471664169760
  O           1.68680489188822      0.58757839104225      0.71593986516792
  H           1.98077234957539      0.52078704557374     -1.31841267260821
  C           2.09883158800263      1.95226027494029      0.77932059722976
  H           1.26559573088034      2.62869996142950      0.57345690442267
  H           2.90383573288917      2.13947606885460      0.05970306175234
  H           2.46649154970781      2.12420559604351      1.79063941991363
