27
Coordinates from ORCA-job goat_0_210 E -727.014666727394
  C          -1.10800946423404      0.66111482820247     -0.47969766583335
  C          -1.54831178770738     -0.80090417336878     -0.38268576308286
  O           0.18642175473015      0.81679903061906     -1.08535389987956
  C          -1.22507162694841      1.44376463889813      0.82844926755897
  H          -1.78908443343265      1.14365617184299     -1.18470584269406
  C           1.22377202282186     -0.00244787901429     -0.60848844421739
  C           0.86079504017473     -1.48919780517060     -0.63287067625877
  C          -0.44183761535292     -1.73785951503023      0.12821876080898
  H           1.67372574052523     -2.05240426936652     -0.16444784698681
  O           0.64788476986962     -1.92515860594940     -1.97228027581655
  O          -0.24578159587023     -1.62632286712985      1.53240036975934
  H          -0.76515244148146     -2.76305764092911     -0.06717631806675
  O          -2.03358967763865     -1.26457787301840     -1.64278084516161
  H          -2.38981491331821     -0.85282525237777      0.31029428973562
  H          -0.75459454264263      0.92866304536851      1.66675836221085
  O          -2.62252507880466      1.61413756339108      1.07120894728895
  H          -0.73536283679870      2.41391953386265      0.69247906457955
  H          -2.73169979628162      1.91848966213717      1.97826990527835
  H          -1.25882721574235     -1.41462204203681     -2.20420789309716
  H           0.38875217591945     -0.91291858801954      1.69079934637404
  H           1.43553167930706     -1.73202878137533     -2.49467391290017
  O           1.59598236030713      0.29604638754844      0.71665934629270
  H           2.06388978564218      0.19468366855050     -1.28516395589039
  C           2.26288332818917      1.55113943371552      0.86026187412429
  H           3.18765137039465      1.55208377565986      0.27418893304116
  H           2.49825040690338      1.66411296777354      1.91762785910954
  H           1.62412136126930      2.37571438521671      0.53691502372301
