27
Coordinates from ORCA-job goat_0_166 E -727.014553565143
  C          -1.51652351367804      0.33694360587633     -0.23166747625138
  C          -1.41914392882164     -1.18412241876210     -0.12943103026338
  O          -0.45661957669858      0.90980509671920     -1.01673121448309
  C          -1.66969021300191      1.02745198878364      1.12607392594047
  H          -2.41188123975915      0.57901559376215     -0.81143072545028
  C           0.85232955532487      0.50571890931487     -0.73389958251664
  C           1.01054123704122     -1.01654041847867     -0.77486112052092
  C           0.00261202459414     -1.68377996600435      0.16619986122950
  H           2.02074457401367     -1.26761277190020     -0.44274761766256
  O           0.88095356953160     -1.48498942462863     -2.10814718313772
  O           0.35546541078420     -1.48576189466320      1.52813795967450
  H           0.01585329269010     -2.76061348756636     -0.01865266851321
  O          -1.78032793676359     -1.79922612605137     -1.37356409653153
  H          -2.08552433787573     -1.52839406951431      0.66877309877957
  H          -2.64894154778253      0.75783759252235      1.52882933252943
  O          -1.65300111800903      2.44092002322290      0.98092880563955
  H          -0.91058642975790      0.70718773775030      1.84072748566833
  H          -0.80566713539771      2.66236848559881      0.57398059088355
  H          -2.63927214267429     -1.45827900869839     -1.64915109160179
  H           0.76064481962410     -0.60865893326193      1.59980513344062
  H          -0.06825601649551     -1.53681756977395     -2.30078916462300
  O           1.23275743149701      1.00767955820211      0.54425960639269
  H           1.47287227591905      0.96291872654095     -1.51026933204251
  C           2.60493372740299      1.39934040160415      0.61271233062086
  H           2.77365744962169      1.78186737458766      1.61853113374489
  H           2.81055056066272      2.18555809539802     -0.12050169062196
  H           3.27151797780826      0.55018269942001      0.43288273967602
