27
Coordinates from ORCA-job goat_0_221 E -727.011594676506
  C          -1.12311422134900      0.65549983073493     -0.24053531773502
  C          -1.51891552173555     -0.83269898801188     -0.23836915932784
  O           0.11523437735815      0.87456364382715     -0.92177337440568
  C          -1.12089292680356      1.26812381105628      1.16253917056346
  H          -1.86216587407901      1.19794338170618     -0.83677726101993
  C           1.23234790741829      0.16150409396496     -0.43321252992791
  C           0.89684587805029     -1.26165735013488      0.03399994884782
  C          -0.35864430480470     -1.72309598412544     -0.67709443286994
  H           0.71293141740683     -1.25453058652323      1.11486860582817
  O           1.97194975689709     -2.13976552137835     -0.26626467604454
  O          -0.62228017994723     -3.08017862446807     -0.35097668250624
  H          -0.21389921156621     -1.61941985721341     -1.76181509402456
  O          -2.67621230462031     -1.10836274131631     -1.02588919748918
  H          -1.79751372506689     -1.12580075759910      0.77661323145009
  H          -0.48304655842059      0.70073210929737      1.84106867176952
  O          -2.43053343334394      1.23545345648767      1.72123617815920
  H          -0.73563941140375      2.29138739916098      1.10509331317126
  H          -2.98802666317152      1.83706090696767      1.21386711341427
  H          -2.48800183053521     -0.85456095099677     -1.93856677346621
  H          -1.49047489711226     -3.28925063483328     -0.71821278695436
  H           2.70472400473277     -1.91940175930564      0.32070306071405
  O           1.86795927674119      0.81150362391514      0.63530169496396
  H           1.91460966680556      0.10149282365360     -1.28907015493770
  C           2.49676047442569      2.03380590140991      0.25656812555196
  H           3.20714532771821      1.86313159888483     -0.56040082049793
  H           3.03119113350017      2.40016863338688      1.13272772283539
  H           1.75766061270547      2.77635234145282     -0.05563056606216
