27
Coordinates from ORCA-job goat_0_68 E -727.022116848521
  C          -1.16614409717429      0.58580394610674      0.08284596361321
  C          -1.47118174140492     -0.90824855370783      0.07380945388854
  O           0.14608238048143      0.78391330265496      0.60812371522137
  C          -2.11552511635308      1.37016112509387      0.96668402084179
  H          -1.21599942055445      0.97531070063109     -0.94364159188574
  C           1.14031016520438      0.20736076876452     -0.22321407140517
  C           0.98329337090319     -1.31081138116782     -0.25110058036043
  C          -0.41605706932284     -1.65813217560347     -0.73533608851335
  H           1.12345631721361     -1.68157068580345      0.77392636235976
  O           1.92717538904010     -1.89564535403087     -1.13271150007601
  O          -0.67934444691725     -3.05697929349082     -0.71799188019588
  H          -0.50693248159788     -1.35878947435143     -1.78457325177438
  O          -2.76037919582917     -1.10311294731332     -0.48941529583472
  H          -1.44810352434230     -1.27504137394961      1.11051341037488
  H          -3.13753486280898      1.23143191823950      0.61350110432504
  O          -1.84318906588134      2.76604523952893      0.92134974928246
  H          -2.04426911900991      0.99131792199722      1.99414982006960
  H          -0.92678167119943      2.88648206390591      1.19827904347769
  H          -2.85863908784794     -2.05222424067812     -0.64012627772465
  H          -0.52753054253843     -3.38304543550009      0.17867314469526
  H           2.80430734710108     -1.64019249563988     -0.82127825243147
  O           2.39006812240011      0.49865445334767      0.30302013671296
  H           1.04257077004202      0.61681529441110     -1.24182564864277
  C           2.80142363358155      1.84894534355983      0.07871033398136
  H           3.81719915960204      1.93581490157873      0.46258340803760
  H           2.14941649879961      2.54878843842218      0.60738368761886
  H           2.79230705821308      2.07694779299446     -0.99234090565583
