27
Coordinates from ORCA-job goat_0_211 E -727.011663079830
  C          -1.11951962388165      0.51117985556300     -0.16171081858088
  C          -0.93912654066726     -0.79575332960545      0.61713965846862
  O           0.13887981748224      1.08781195725254     -0.54440447940188
  C          -1.85458893075686      1.55172585309309      0.66622357014854
  H          -1.69598491478202      0.30263101918295     -1.07297880372842
  C           1.22768650276938      0.21588854128941     -0.70804866932594
  C           0.79844067807468     -1.15477289232203     -1.21441803273618
  C          -0.11857882212964     -1.82154474920618     -0.17929083530740
  H           1.68803335384897     -1.77872652812487     -1.34198181167395
  O           0.07555974136536     -1.04404808605158     -2.43325642703483
  O           0.60758175935940     -2.68239462472573      0.68946136175756
  H          -0.81099557333204     -2.46175281577721     -0.73216782355852
  O          -2.19487841683029     -1.33448860256154      1.01558193364225
  H          -0.40810044090599     -0.57519056326869      1.54599393925208
  H          -2.77799629995909      1.11361077253849      1.05416638016558
  O          -2.12691832585899      2.74290092478923     -0.06831720659256
  H          -1.22454984305872      1.84548513276470      1.50971451535691
  H          -2.78771633245142      2.53203174914309     -0.73797047694488
  H          -2.68679993156541     -1.57403518333143      0.21999360787231
  H           1.26675410747445     -2.13413278231255      1.13573220591483
  H           0.65289409706869     -0.64195540183570     -3.09328655805893
  O           1.90812907384922     -0.03071510153147      0.50279512236851
  H           1.90036200505801      0.72106149442423     -1.41210464533445
  C           2.50053914634396      1.13456595769454      1.07107927700971
  H           3.08104093528532      0.80644536292504      1.93277426662538
  H           1.73584512152430      1.84555387823056      1.39371582405169
  H           3.16400642647544      1.61861796176356      0.34556293564486
