27
Coordinates from ORCA-job goat_0_165 E -727.015797262205
  C          -1.22725041309114      0.53318457873725     -0.24972537427751
  C          -1.56195499636214     -0.95881238680531     -0.15915892779596
  O          -0.02363959770179      0.78189867699533     -0.99753800272769
  C          -1.26433516386477      1.26145040399644      1.09345050973796
  H          -2.00918513023032      0.98236932632542     -0.86938060459487
  C           1.11417214180089      0.02047201299113     -0.68159166641089
  C           0.84353105431272     -1.48641664888062     -0.68124017975699
  C          -0.34723575715913     -1.81875469222005      0.21859158672670
  H           1.73628958073827     -1.99846492791085     -0.30960507919998
  O           0.51530187793106     -1.93280056918170     -1.99393446351884
  O          -0.00856703297918     -1.66949344193909      1.59153061855448
  H          -0.61881583036888     -2.86570732174985      0.06367426806172
  O          -2.13345043069155     -1.42118136243843     -1.38157276531318
  H          -2.32732089209521     -1.09660556112922      0.60784132703622
  H          -2.21249429763708      1.00950731451728      1.58308290245958
  O          -1.14108927955781      2.67246956910078      0.93598778854093
  H          -0.45328506850142      0.96028784926450      1.75193186916424
  H          -1.90540937165919      2.98519842291836      0.43777948308899
  H          -1.40626483844093     -1.51709653867039     -2.01447556060493
  H           0.62187586085025     -0.93819394187518      1.66766259912737
  H           1.23813085606808     -1.70630031027547     -2.59163459903996
  O           1.65962281312660      0.32145811750897      0.58233052742456
  H           1.83840261497531      0.27549527366453     -1.46515204622176
  C           2.16564734912521      1.65424348451220      0.68711588646004
  H           2.91202669613284      1.83185095948975     -0.09432280854763
  H           2.63552753628492      1.73455788412196      1.66660594967607
  H           1.35976848879443      2.38538362893225      0.60174477195131
