27
Coordinates from ORCA-job goat_0_184 E -727.012911304834
  C          -1.09355289500654      0.78155707300635     -0.47260452359950
  C          -1.58369890146165     -0.66448066169563     -0.52173347725482
  O           0.21873501391529      0.90965965251550     -1.04193760523544
  C          -1.18734205393045      1.45739645467648      0.89996136554678
  H          -1.73597834319067      1.34930535319335     -1.15046619345473
  C           1.22853808824010      0.06958188631180     -0.52781816191587
  C           0.82368816882149     -1.40777750386230     -0.51549967226364
  C          -0.57234185634663     -1.65041042609423      0.06698356893202
  H           1.56772154579744     -1.96122118944949      0.06764900993983
  O           0.76854182569597     -1.90103228908807     -1.85515217060539
  O          -0.59850865902836     -1.51020534893853      1.47962064537536
  H          -0.87839674011410     -2.66150276170909     -0.22477827040640
  O          -1.90580285464699     -1.03529355516517     -1.86056321643452
  H          -2.51183962023397     -0.74032198185517      0.04826412171148
  H          -0.61933262852867      0.91786924864413      1.65447553983535
  O          -2.55429257340662      1.59747688972046      1.29204110739139
  H          -0.77701217535083      2.46525094502851      0.80417687495645
  H          -2.80686721919812      0.81023449283485      1.78558815908127
  H          -1.06882480920176     -1.19891958701511     -2.31942138628554
  H           0.04915241313465     -2.11707015255712      1.85620397848886
  H           1.62030659269509     -1.74713480983325     -2.28086170878500
  O           1.64408995668849      0.42245183508830      0.76226297212381
  H           2.06314297774739      0.20312205460495     -1.22911961923631
  C           2.33931276596650      1.66638129807493      0.80272684324747
  H           3.20811777876596      1.64082521565675      0.13479220888612
  H           2.67426771221207      1.80841360552511      1.82990689757955
  H           1.68817525976491      2.49584406238171      0.51530072238140
