27
Coordinates from ORCA-job goat_0_97 E -727.021922348193
  C          -1.13883125846885      0.70913121940496      0.01260665704058
  C          -1.54813646940981     -0.76890944258853      0.02315805787334
  O           0.16827196395516      0.86368725451096      0.56430990048478
  C          -2.06562761523034      1.58376086573339      0.83767452569511
  H          -1.14995966004774      1.07483375856524     -1.02570150064895
  C           1.15801957240356      0.18596678559749     -0.19382406740316
  C           0.89105501054095     -1.31111198774958     -0.14675453271800
  C          -0.49810161396944     -1.60990733817405     -0.68816662184657
  H           0.95114286265539     -1.63438368975998      0.89977776393818
  O           1.81490510971606     -2.03100189496367     -0.95120796174132
  O          -0.81973954674146     -2.98403847220384     -0.52187600067351
  H          -0.50969083608789     -1.35041260233500     -1.75824895546675
  O          -2.83721446545324     -0.93735707637345     -0.55124695211488
  H          -1.63273183417445     -1.10543221706652      1.05898509940507
  H          -1.74159727198006      2.62629467170256      0.74139934075914
  O          -2.10558139886478      1.19375173463990      2.20615014712235
  H          -3.08145572926545      1.49667321910904      0.45150060161786
  H          -1.20538169256138      1.25275888190105      2.54816776566398
  H          -2.78034474405267     -0.72753165877428     -1.49218391208700
  H          -0.10602990700147     -3.49186218778081     -0.92756866499115
  H           2.68610883331790     -1.95035694597188     -0.54549459461794
  O           2.39966682143217      0.42381835425562      0.37637656827861
  H           1.13095418141720      0.55199498392510     -1.23328215354053
  C           2.89967892351073      1.73827481656438      0.12361209858319
  H           2.27156656663598      2.49425360645910      0.60142251222508
  H           2.94538117822851      1.92791805030444     -0.95408931758688
  H           3.90367178929534      1.77918711106835      0.54450220674934
