27
Coordinates from ORCA-job goat_0_275 E -727.009016693141
  C          -0.96638052877486      0.61904482618792      0.12173640162645
  C          -1.44676740487379     -0.83075313889997     -0.01292541414910
  O           0.37344772103481      0.63629133275420      0.61579550614079
  C          -1.78397383895143      1.44567473525489      1.10617128730147
  H          -0.99758394722579      1.08451273217842     -0.87301625636950
  C           1.29882370673516      0.20611664381724     -0.37976393316134
  C           0.91690414552748     -1.17784359683367     -0.93163467733304
  C          -0.23857627812751     -1.77705584346976     -0.12156716016343
  H           1.78423391319804     -1.83734425534398     -0.82870012119476
  O           0.58351363041917     -0.99620884608514     -2.30317302421779
  O           0.23296392357426     -2.14771681630858      1.17211705575192
  H          -0.56666303211784     -2.70270715422786     -0.60295546814907
  O          -2.29729718243708     -0.90524951215886     -1.15222531618155
  H          -2.00076659539069     -1.11919770714339      0.88738750404164
  H          -1.66415951111876      1.02179805996503      2.10644060416154
  O          -3.17476308614805      1.41404455295777      0.81732551407558
  H          -1.40287495759196      2.47276411204550      1.11737061636104
  H          -3.31248770281629      1.81554176767808     -0.04865916446735
  H          -2.79581740150281     -1.72828963344067     -1.09512451053375
  H           0.47549174119515     -1.33199458793344      1.63046265055861
  H           0.31164311572905     -1.84930325052332     -2.66110334817226
  O           2.55607401682911      0.13466842767451      0.20324339496850
  H           1.28775390638875      0.94067790937405     -1.19894824206521
  C           3.09357730067388      1.41426682439085      0.54345027992416
  H           2.52898624739407      1.87601359068407      1.35671000910562
  H           3.08267225365494      2.07548436530193     -0.33014160962368
  H           4.12202461452311      1.24676426210413      0.86172543176458
