27
Coordinates from ORCA-job goat_0_85 E -727.016439513157
  C          -1.15310365495761      0.45249163563554     -0.26259168879605
  C          -1.39892205925662     -1.05667407649320     -0.19328702542169
  O           0.02863419057927      0.78497542097083     -1.00465951433590
  C          -1.23643874089826      1.14474508587284      1.09897430109665
  H          -1.96186262254644      0.87892785444479     -0.86726586834049
  C           1.21337881298293      0.08269286984109     -0.70377225593605
  C           1.02556890057088     -1.43498403126245     -0.74711353390056
  C          -0.13785129200411     -1.85427809501745      0.15807003666365
  H           1.94521537171328     -1.89925781199639     -0.38465845667707
  O           0.83454157204303     -1.86589327693674     -2.08439171530482
  O           0.18616901111598     -1.71000722551530      1.53447727219028
  H          -0.35072350357476     -2.91159530912746     -0.01747297311285
  O          -1.82655638420072     -1.55982299485767     -1.46652858816446
  H          -2.16398787133497     -1.25861723185922      0.56292615508395
  H          -2.16645627885895      0.82270610514186      1.58166626525451
  O          -1.19995944985162      2.56318233258223      0.97443088163627
  H          -0.40716863482259      0.87659985437397      1.74846478870766
  H          -1.99520137516666      2.84388535537855      0.50658127857014
  H          -2.57768343246314     -1.03800869664601     -1.77200481253952
  H           0.78493351966581     -0.95358903808296      1.62206115747134
  H          -0.09592541146442     -1.70248803577419     -2.30590766339463
  O           1.73380743369225      0.39259456087712      0.56941221082155
  H           1.91880245421109      0.39356375451758     -1.48144014648007
  C           2.16209052729285      1.74950312371245      0.70046916720132
  H           1.31724620065398      2.43567344638440      0.61693938784140
  H           2.90513502347480      1.98190808778850     -0.06976611279283
  H           2.61631646320473      1.84176613604730      1.68638546265825
