27
Coordinates from ORCA-job goat_0_285 E -727.011099635758
  C          -1.06962072765104      0.90697767074667     -0.01889596432873
  C          -1.53307975299614     -0.41895497008874     -0.67755330324163
  O           0.18875395885763      0.76223458040956      0.64740926754685
  C          -2.05085890466934      1.46578656893383      0.99322170875033
  H          -0.96493494798032      1.64438604525654     -0.82553566647617
  C           1.12931283514644      0.11060075044722     -0.18201703825996
  C           0.77066393049761     -1.37231377095122     -0.33691649157073
  C          -0.73407243735986     -1.60517655702307     -0.14097893036434
  H           1.32496362743501     -1.94577872662565      0.41417586180396
  O           1.08260353802074     -1.83257730828461     -1.65174573572516
  O          -1.07959851329872     -1.76734481517043      1.22919386009068
  H          -1.01112907467597     -2.49977159907002     -0.70768057853970
  O          -1.42420800758000     -0.36753610289323     -2.09933893842236
  H          -2.59123932869180     -0.57480420295839     -0.45744607308261
  H          -1.62877710673324      2.38909678094634      1.40611523154110
  O          -2.36499435893021      0.57314123884235      2.05675488744329
  H          -2.97471471163772      1.72183579628519      0.46331243880441
  H          -1.79444022727097     -0.20882377582504      1.98645191731069
  H          -0.55079136528242     -0.69279521064105     -2.36084341706766
  H          -0.52141460005035     -2.44990587575041      1.61941632168608
  H           2.02111382642975     -1.67974779839682     -1.81733962195459
  O           2.38991226290696      0.20184264898227      0.39198654118361
  H           1.12496431131139      0.59769529264208     -1.17219168542123
  C           2.94889658624652      1.51535014619665      0.32135416648184
  H           2.98411359699509      1.85831780091508     -0.71835848097650
  H           3.96108052698620      1.44694008605124      0.71837758882401
  H           2.36749383377490      2.22132510702362      0.91907014396450
