27
Coordinates from ORCA-job goat_0_31 E -727.015606555543
  C          -1.02073929869912      0.58064160643974     -0.52409254935729
  C          -1.39303916835641     -0.89815449538833     -0.41106884208899
  O           0.27508806625640      0.78979775797090     -1.10010481571422
  C          -1.21835196979302      1.36860800550766      0.77185525863473
  H          -1.70621872484848      1.03257244351107     -1.24791585400537
  C           1.34105618007885      0.02672553519716     -0.58164363601388
  C           1.04778850070158     -1.47423236751089     -0.61255885727847
  C          -0.25799786224631     -1.77832130012869      0.12889258412373
  H           1.87175091165607     -1.99232665152288     -0.11725170880701
  O           1.00645752292694     -1.93109055944852     -1.95498305657698
  O          -0.11098161523584     -1.63950836483905      1.53601016076921
  H          -0.52960310276327     -2.81918939692173     -0.06298844220901
  O          -1.70428229547082     -1.44040059207549     -1.70362329943978
  H          -2.25755754764421     -0.98741670498214      0.25266955959067
  H          -0.76216363726083      0.87799183210264      1.63216044724394
  O          -2.62955718026628      1.48778599630636      0.95723955357750
  H          -0.76000896009550      2.35485432708486      0.64467703143763
  H          -2.78772229330897      1.77057822176409      1.86405589130545
  H          -2.36628463990819     -0.87858471371044     -2.12347303527283
  H           0.49607161606355     -0.90354186762987      1.70012701712363
  H           0.12484305274065     -1.71970575342873     -2.30084149679674
  O           1.65070734028608      0.36277366255283      0.75135930686168
  H           2.18797898900739      0.25586591328927     -1.23613281728447
  C           2.25697723476607      1.64757038133358      0.89698334501144
  H           3.20139990449756      1.67992120512943      0.34410453962228
  H           2.44890211396756      1.78835160517120      1.95987963880428
  H           1.59548563274857      2.43843407422596      0.53666208673884
