27
Coordinates from ORCA-job goat_0_5 E -727.017942426838
  C          -1.25575930459117      0.81399178412696     -0.26938900749988
  C          -1.68877110381364     -0.66146631161584     -0.25409086386257
  O           0.01722931048212      1.00629282928278     -0.90973269347509
  C          -1.33157447722684      1.47876634599496      1.09969268679732
  H          -1.95296159143067      1.34645677493959     -0.92014847022556
  C           1.10109952939318      0.21045952172654     -0.49507920673599
  C           0.70508169165958     -1.23356483219798     -0.16920007954902
  C          -0.61412846286292     -1.55432228314039     -0.84709162858130
  H           0.58284844357241     -1.34529238130181      0.91276246646136
  O           1.68397911468908     -2.14958226698719     -0.64540555421630
  O          -1.00152945614367     -2.90223050048042     -0.61773098448805
  H          -0.53074376954108     -1.36300621349204     -1.92456039917695
  O          -2.91240869796008     -0.76395157929587     -0.97970798371802
  H          -1.84928308964862     -0.98641676027681      0.78005642716323
  H          -1.00759502240601      2.52150262642769      1.00005245830544
  O          -0.59493748966359      0.81526190247120      2.11814311878871
  H          -2.37870409144435      1.47458090471166      1.41431771488629
  H           0.34283558766185      0.86039236780785      1.86715507361844
  H          -3.21257982060507     -1.67828593517918     -0.90664602140688
  H          -0.26672148562481     -3.46001294577820     -0.90244561706577
  H           2.37745964609851     -2.22840181363792      0.01891567906591
  O           1.76278928807358      0.73907570219589      0.63624676835909
  H           1.79070194218271      0.21310068969822     -1.34521496876689
  C           2.42688091493743      1.97865617836436      0.37515614409388
  H           2.95409425498355      2.25138508897751      1.28852225093522
  H           1.70821662712029      2.76034372843742      0.11788424984243
  H           3.14448028190820      1.85626717822103     -0.44246354954906
