27
Coordinates from ORCA-job goat_0_48 E -727.018953728909
  C          -1.31431339940571      0.63390209053111     -0.03017632647500
  C          -1.31144301847627     -0.84545783853605      0.34070303216563
  O          -0.00322855406767      1.17197726255628      0.13968196377281
  C          -2.23398438026850      1.45337173735539      0.85358949238651
  H          -1.62164135133617      0.74399312316657     -1.07979264452417
  C           0.95435549199943      0.58004529652023     -0.72898083365061
  C           1.09289710692229     -0.90116154051392     -0.36324077222196
  C          -0.26973569164268     -1.57317954216468     -0.49277565220966
  H           1.42857655807309     -0.99122435336707      0.67212258326000
  O           2.06931727618097     -1.56278633012188     -1.15481572010446
  O          -0.23063804136510     -2.92235909464340     -0.04419208006913
  H          -0.58345888731901     -1.53899263180338     -1.54654000645816
  O          -2.61320677123965     -1.36478727274281      0.10395835800407
  H          -1.04611264372083     -0.94680281157097      1.40187429644200
  H          -3.25240983968216      1.07378400325499      0.77001246435536
  O          -2.26178047253940      2.81910669876432      0.45552614017746
  H          -1.90710259835682      1.35722691413784      1.89679963654414
  H          -1.35022704521993      3.13573913669899      0.46871632414047
  H          -2.57072964055429     -2.31777425698163      0.25099399484194
  H           0.41457729347190     -3.39153405968932     -0.58703346981605
  H           1.84808065607770     -1.43647530677495     -2.08685203492914
  O           2.13228842942988      1.31231150171604     -0.66206437284841
  H           0.61005459303154      0.67388513475979     -1.76859888492510
  C           2.85621330681448      1.21495942902290      0.56814114270324
  H           2.19968837729436      1.36668757551645      1.42795400059932
  H           3.60382785198280      2.00712044641891      0.54307006336378
  H           3.36013416371582      0.24842448849025      0.65191731547511
