27
Coordinates from ORCA-job goat_0_241 E -727.018803297142
  C          -1.07112488358880      0.57452097218178      0.19170971097685
  C          -1.37505439952239     -0.92104120948619      0.20006982974652
  O           0.25551224273287      0.76776767341925      0.66961357991630
  C          -2.01034019679840      1.35342466729007      1.09410998687819
  H          -1.15655035509568      0.95189983904129     -0.83855015030738
  C           1.23629615185312      0.20010269658509     -0.18541008412656
  C           1.08325454217378     -1.32126415871849     -0.21287442390513
  C          -0.34214818014715     -1.66712168623883     -0.63863307243894
  H           1.27235386323303     -1.69540341311061      0.79842037083092
  O           2.04865748100927     -1.93319229058946     -1.05074306452950
  O          -0.60153960042966     -3.06635419053554     -0.61825219041075
  H          -0.47631998076952     -1.36553768440421     -1.68444573921802
  O          -2.67924323140220     -1.12918124149872     -0.32412676270886
  H          -1.31792721554447     -1.28221491506566      1.23756464560273
  H          -3.04171260052952      1.08272981488664      0.85107927739159
  O          -1.81581578212733      2.76154072215376      1.00425634582662
  H          -1.81353460746187      1.07764351843561      2.13318661655453
  H          -2.13299742409731      3.05065253743882      0.14096914647588
  H          -2.77143417558318     -2.07939852873565     -0.47172425971312
  H          -0.41216662549378     -3.39757770738949      0.26925836691648
  H           1.85645340672441     -1.69024236198025     -1.96519003155787
  O           2.48734667802462      0.52142268492733      0.31456917059810
  H           1.10726584408072      0.61174649341206     -1.20181904796026
  C           2.83946357238973      1.89027192265274      0.10899262209194
  H           2.17187994886355      2.55590964768500      0.66190959263889
  H           2.80034727935829      2.13809455986542     -0.95755054280617
  H           3.85907701794784      2.01080143777827      0.47360811723707
