27
Coordinates from ORCA-job goat_0_189 E -727.017292018002
  C          -1.24222991654574      0.67677557343486      0.03151704055001
  C          -1.26144165451595     -0.80863273610385      0.38906222427493
  O           0.08197803775993      1.18316326873719      0.17514104480665
  C          -2.14888667378521      1.48701190091936      0.94003817440532
  H          -1.57015055325940      0.79425136623299     -1.01241128583216
  C           1.00717352265656      0.57704889010489     -0.71545690577693
  C           1.12960704980798     -0.90741879260592     -0.35980239197398
  C          -0.24736544181170     -1.55145006481669     -0.46430170123919
  H           1.48638742065902     -1.00914026563950      0.66736812959729
  O           2.07495406647470     -1.58408726267852     -1.17660055118099
  O          -0.22759240501609     -2.90357998254444     -0.02224643161352
  H          -0.57967601301090     -1.50677106430660     -1.51207620630805
  O          -2.57388879824807     -1.30804423388979      0.16559769571242
  H          -0.98349164873064     -0.92320643348750      1.44586755289534
  H          -3.13274958387480      1.01106219746167      0.97534843543177
  O          -2.25401861316726      2.84910704359983      0.53857184605600
  H          -1.72763048968555      1.49053807840050      1.94850000854980
  H          -2.77330969652192      2.88008975517241     -0.27306077193320
  H          -2.53739437669769     -2.26501435183829      0.28647405200203
  H           0.40127526855162     -3.38179436411539     -0.57628297422722
  H           1.83550771870677     -1.44776920859649     -2.10279224015815
  O           2.20045481918011      1.28795741941299     -0.67389512002466
  H           0.64274274531771      0.67969103407300     -1.74771489514452
  C           2.94667519678822      1.17830987849805      0.54146391146507
  H           2.31054276028786      1.34385094585973      1.41397392731753
  H           3.70896691055364      1.95574321922656      0.50038799696209
  H           3.43355911792687      0.20230798948895      0.61732744538633
