27
Coordinates from ORCA-job goat_0_200 E -727.012669882822
  C          -0.91307917109524      0.73805491289969      0.18376839594020
  C          -1.40850048735430     -0.60339074049605     -0.38698979779229
  O           0.41845301807880      0.61799949707188      0.69282661488963
  C          -1.76323749887857      1.26814714080487      1.33302309171534
  H          -0.92449535345420      1.47375351195618     -0.62971860575978
  C           1.28492083038349      0.05757511022965     -0.29195718419566
  C           0.96835952170673     -1.43327994468123     -0.47306025402870
  C          -0.45653035349402     -1.73198835096458      0.02098096539371
  H           1.66591872066642     -2.00994440546696      0.13798842983010
  O           1.17524600714188     -1.83717695028483     -1.81907862667968
  O          -0.49075111055691     -1.94114904241057      1.42863718756603
  H          -0.78761694973113     -2.66573604551894     -0.43946482534894
  O          -1.43098438951369     -0.49263921204563     -1.81675647713548
  H          -2.41358640110557     -0.82531486144907     -0.01770575659521
  H          -1.82238027017716      0.52831021886649      2.13730729035631
  O          -3.06127197692051      1.63770000803393      0.88173383172912
  H          -1.28662497762594      2.16819900550968      1.72717244507977
  H          -3.63834658527402      0.86878044683595      0.93685084322552
  H          -1.96752336231458     -1.21518774406097     -2.16511440454912
  H          -0.06890834901477     -1.17535518338378      1.84051966180262
  H           0.49252330356012     -1.39847022030231     -2.34613739814553
  O           2.59668009066088      0.19783468543682      0.13085014065963
  H           1.12269671959624      0.59690516774145     -1.23880369039536
  C           3.07533222028970      1.54238633099281      0.05660787884486
  H           4.12960751142811      1.51526342519157      0.32992919305848
  H           2.53381912892327      2.19067744063190      0.74978222571775
  H           2.97027893387501      1.92804559886207     -0.96319316518333
