27
Coordinates from ORCA-job goat_0_261 E -727.011537190751
  C          -0.91217943341533      0.57913243787564     -0.04974517837920
  C          -1.36502605451315     -0.89207262578515     -0.07064929904386
  O           0.37863558866963      0.68406869746614      0.54218687780279
  C          -1.86724119775418      1.46655882453163      0.72952359368056
  H          -0.86660695717625      0.93866130270248     -1.08709367987352
  C           1.37794365387543      0.15777485814804     -0.33846592951738
  C           0.99949605085429     -1.25631101304962     -0.83628537285770
  C          -0.14428418611746     -1.81610752397124      0.01214248265449
  H           1.87959706439187     -1.89162291140375     -0.72395116843957
  O           0.65759089069867     -1.24816391768729     -2.21783715154486
  O           0.26843875946909     -2.00389697135525      1.35856078969624
  H          -0.42682460658436     -2.79886695307833     -0.37073000221048
  O          -2.05403242984152     -1.19265956034052     -1.28765666872703
  H          -2.00970433334317     -1.10726076523154      0.78841652751032
  H          -1.86386521044692      1.17837418008779      1.78476760075309
  O          -3.17556868420138      1.33949467417421      0.16695299101035
  H          -1.55459603335301      2.51030886343656      0.64994682115815
  H          -3.71423842067854      0.80769598614103      0.76166704956122
  H          -2.76345428453566     -0.54285934279267     -1.38249745865024
  H           0.48404699184021     -1.13136833971256      1.71521245252275
  H          -0.30049868429705     -1.12391573060328     -2.29657323026454
  O           2.57053740342515      0.08557162450663      0.36605493740740
  H           1.46668717240794      0.83793321212126     -1.19869836154237
  C           3.11885849457206      1.36640451565546      0.68464904008871
  H           3.20611568225557      1.97736537169964     -0.22053701969092
  H           4.10932368302405      1.18751309347971      1.10175479111235
  H           2.50084785057403      1.88824781298492      1.41888257578322
