27
Coordinates from ORCA-job goat_0_46 E -727.018708781495
  C          -1.25723375347294      0.70072513114024     -0.40718190761063
  C          -1.66646073075551     -0.77374632022175     -0.49393250338651
  O           0.05208703414999      0.92557033741534     -0.96369702877248
  C          -1.46263609543261      1.37954842036718      0.94301860237849
  H          -1.92068130777266      1.23525398792304     -1.09231306617036
  C           1.10881170028654      0.10638645160504     -0.53126788958671
  C           0.77605376918523     -1.38959837067310     -0.57216080755525
  C          -0.59301015273300     -1.74451036161463      0.02196761618266
  H           1.55591607190878     -1.93228138561900     -0.03083595313027
  O           0.71742488050566     -1.80930268052084     -1.93827642695987
  O          -0.55839167277783     -1.84462082267262      1.43186946472683
  H          -0.84953909891474     -2.73681762876624     -0.35707055815599
  O          -2.00358474774636     -1.09888994999357     -1.84228382116111
  H          -2.57584928115575     -0.91497283839224      0.09566101709193
  H          -1.15894486474139      2.42729537438483      0.84702766936304
  O          -0.79454021141673      0.78122225679457      2.05402411927387
  H          -2.53045037404687      1.35126716726405      1.17079553275106
  H           0.15838848705083      0.79973613405577      1.84823637684285
  H          -1.17126369614733     -1.22379458760626     -2.32201518392446
  H          -0.71710435248539     -0.95879084667540      1.81187421040362
  H           1.55437901520391     -1.59964558894072     -2.36928378612653
  O           1.56945121406104      0.44294862201881      0.76267608080961
  H           1.91556278932291      0.30604633384807     -1.24565576403668
  C           2.31837145674724      1.66564923733277      0.78138710119088
  H           1.69786337744677      2.50809698383388      0.46519892165807
  H           3.18806077564410      1.58057740478516      0.12342746306819
  H           2.64731853788611      1.81664733892757      1.80880853083566
