27
Coordinates from ORCA-job goat_0_222 E -727.012687349423
  C          -0.98739334651112      0.57188285815801     -0.48191600477087
  C          -1.03814461045503     -0.74521180096808      0.29830482919391
  O           0.34796720471111      1.07318125214110     -0.63281923562197
  C          -1.73370103869634      1.69446145967870      0.22799639343535
  H          -1.42426604438564      0.41011556517398     -1.47340095995787
  C           1.39862939870440      0.13885084146982     -0.58895450836938
  C           0.98948029016920     -1.20995278058498     -1.16704627522640
  C          -0.13328209680519     -1.81849178507497     -0.31732536363861
  H           1.85190091665464     -1.88253611432514     -1.13659485732019
  O           0.50193299774041     -1.06500069770992     -2.49431094749970
  O           0.38265746941744     -2.69172975587529      0.68220679941852
  H          -0.74381950190164     -2.43672088046773     -0.97798407766185
  O          -2.36480869458604     -1.26176075500488      0.32693939700129
  H          -0.68848787484225     -0.54929526766566      1.31961283151917
  H          -1.34162814232439      1.79810559128443      1.24572712256574
  O          -3.12884030409669      1.37646597862394      0.25317827373680
  H          -1.56296949531068      2.63052031472149     -0.31350473032201
  H          -3.56644462091654      1.98486479628109      0.85867932337383
  H          -2.95229366516374     -0.51772630960555      0.53377130954537
  H           0.96163203900840     -2.15906951142607      1.24380933672896
  H           1.20634046701957     -0.69369204224001     -3.03877683327114
  O           1.82774927510335     -0.12641188395409      0.72601449183023
  H           2.21453762794720      0.59946010621673     -1.15915680627350
  C           2.38460602349073      1.00937593958187      1.38353056669581
  H           3.20394804300524      1.42992196178137      0.78993532179114
  H           2.76960757241380      0.66299050478487      2.34211833005825
  H           1.62508888040980      1.77740221500503      1.54996428303906
