27
Coordinates from ORCA-job goat_0_78 E -727.021429091212
  C          -1.08156072559713      0.74678300693830     -0.04640851662310
  C          -1.50682286489665     -0.71771628728421     -0.01194167134626
  O           0.19319168308134      0.87317868791685      0.58149450255058
  C          -2.03352404474266      1.66771410177260      0.69518055953634
  H          -1.02126048372160      1.07998765744004     -1.09249582859143
  C           1.22667974509497      0.18210622441960     -0.10856090725707
  C           0.93313175443662     -1.31565048029545     -0.09979919904162
  C          -0.44889185551337     -1.56776797211531     -0.69244392143596
  H           0.95771097254942     -1.66235817031676      0.93666620655401
  O           1.92060802450190     -2.06558611535013     -0.79369005359806
  O          -0.83541560548069     -2.92965428919264     -0.54976877817261
  H          -0.42522744177870     -1.29809569800535     -1.75908924792760
  O          -2.75850919773716     -0.83051486341549     -0.67746329453091
  H          -1.59990206465094     -1.03419375012077      1.03361922231631
  H          -1.66836495901677      2.69676723854256      0.60081295336644
  O          -2.18462976660285      1.31089042040062      2.06456506441975
  H          -3.02199546949451      1.60521351998295      0.23892206872702
  H          -1.31301255891270      1.36536315140100      2.47446646568921
  H          -2.96564625691002     -1.77130707090024     -0.73542093601512
  H          -0.17691095835706     -3.46929592688014     -1.00393581503244
  H           1.94754506783438     -1.76106934447450     -1.71041581443817
  O           2.42266871139240      0.41425446272061      0.54912292863732
  H           1.27414361450236      0.55898047724786     -1.14524769563067
  C           2.93349640513543      1.73277576920088      0.34761757782018
  H           2.27402611249877      2.48276383809011      0.79149083917045
  H           3.05123147631539      1.93670866136817     -0.72222330281155
  H           3.90723945586976      1.76972255090884      0.83494460366494
