27
Coordinates from ORCA-job goat_0_80 E -727.021862566607
  C          -1.19042668231002      0.54312780892193      0.10943744831393
  C          -1.49236185404143     -0.95688909868899      0.20018460799147
  O           0.12221986626201      0.80733178037510      0.60263122007984
  C          -2.14330967201439      1.37224007506203      0.94797676667038
  H          -1.25754597057539      0.86344940092238     -0.94131076018499
  C           1.12251823625954      0.18821328727008     -0.19103991525516
  C           0.97391310677141     -1.32276654868656     -0.08538400953986
  C          -0.41674205795167     -1.74653833075815     -0.53452398440034
  H           1.11672993140982     -1.60454133013166      0.96509916678333
  O           1.90412413007401     -1.99909174727806     -0.91974932049335
  O          -0.62420618038427     -3.13172550787728     -0.29644819884373
  H          -0.50704392281710     -1.53414305226598     -1.61100519450907
  O          -2.79176143267261     -1.24919799416664     -0.29509112880082
  H          -1.49647870773047     -1.25692780957057      1.25241361278510
  H          -3.16676969949966      1.19209207148662      0.61962439705384
  O          -1.89532878822317      2.76582015465478      0.80205110874361
  H          -2.05286112968254      1.06787301317417      1.99845185740552
  H          -0.97839693689209      2.91984994350940      1.05996632335606
  H          -2.80269888629527     -1.06794218085853     -1.24360591114381
  H           0.09752175515591     -3.60424795045749     -0.72958778516943
  H           2.78701344750835     -1.84540128339645     -0.56339246744823
  O           2.36973730081719      0.53782387646111      0.30474149412036
  H           1.01250595278725      0.51762519946818     -1.23707747824696
  C           2.74528361994386      1.88268012920702      0.00112739940395
  H           2.72159079782141      2.05005879245306     -1.08094283049394
  H           3.76187077843130      2.01574923918574      0.36947136610821
  H           2.08090176764801      2.59547786198471      0.49598022571410
