27
Coordinates from ORCA-job goat_0_9 E -727.017318103976
  C          -1.20057924904832      0.70720962814331     -0.32568306127099
  C          -1.52156164876387     -0.80117533139327     -0.27653867810651
  O           0.08179909210183      0.97445596448902     -0.92345635693379
  C          -1.37926786509055      1.40435241876489      1.01773036423624
  H          -1.90573038392730      1.16623164932811     -1.02217290243684
  C           1.20056784502502      0.26774086932249     -0.44899895021515
  C           0.90475025209913     -1.20099649522973     -0.14372086473838
  C          -0.37422376977750     -1.61659644522985     -0.84384718089464
  H           0.76758854957045     -1.32652665076559      0.93701572301236
  O           2.02623373948520     -1.95517872193621     -0.58132291479647
  O          -0.55965107369769     -3.00642437537542     -0.60789597167952
  H          -0.28585172536234     -1.42535069268998     -1.92075743764119
  O          -2.68307048573104     -1.12584342218257     -1.04244096740362
  H          -1.67129578144340     -1.11294597934324      0.76144046251591
  H          -1.11161645171397      2.46148336869506      0.90302976985058
  O          -0.65673312939585      0.81136427718973      2.08860005575478
  H          -2.43836107366734      1.34768027140847      1.28470085680453
  H           0.28775135636927      0.89270345323830      1.87379342355949
  H          -3.46103776758830     -0.97013499480124     -0.49588077408579
  H          -1.39926522639758     -3.25509413007006     -1.01340327084553
  H           1.82116163431014     -2.88501297199251     -0.42293145224537
  O           1.75838064597128      0.84740273951112      0.71204141106781
  H           1.93145157942598      0.32495822647489     -1.26166214590439
  C           2.34960766398536      2.12782783537551      0.47371075510843
  H           2.80659571128920      2.44206706155174      1.41124756606548
  H           1.59482693520265      2.85710599527079      0.16984912484754
  H           3.11752939656952      2.04869625224623     -0.30244857362495
