27
Coordinates from ORCA-job goat_0_95 E -727.012616585682
  C          -1.11289657385807      0.68452928438896     -0.27570625558156
  C          -1.49876998478050     -0.80875969151940     -0.26389707477907
  O           0.12372425398187      0.90804411116656     -0.95934370459097
  C          -1.11846295623869      1.30530826451093      1.11838295238033
  H          -1.85643516254058      1.21883546819000     -0.87192655718371
  C           1.25488946502711      0.22803062777290     -0.45354043541108
  C           0.93338432054885     -1.19732198926676     -0.00577582820138
  C          -0.32376912335451     -1.67024050385626     -0.71020368564084
  H           0.75888783919430     -1.20609158799786      1.07744580204922
  O           2.05920121778435     -2.00492255665620     -0.31937954997652
  O          -0.51849832678685     -3.03765174860381     -0.37063774203968
  H          -0.18794364453075     -1.56918670796978     -1.79524146638646
  O          -2.65732783280085     -1.09508027176732     -1.04468268658766
  H          -1.76712375123198     -1.10180280649008      0.75370512772786
  H          -0.50310239687704      0.72624090272279      1.81245586850336
  O          -2.48005646928800      1.31804560968215      1.54613324595805
  H          -0.71437385773037      2.32150781549655      1.05841234466870
  H          -2.49319471632355      1.48850385080308      2.49383084373233
  H          -2.47875687649297     -0.83293898032408     -1.95679009927249
  H          -1.30357544272637     -3.34620356782027     -0.83849869833426
  H           1.81888769490013     -2.91556051890745     -0.10705567982566
  O           1.84950658491892      0.89535531949667      0.62596682747037
  H           1.95229164678365      0.19070012109139     -1.29828605003327
  C           2.44573429894111      2.13669377910477      0.25708768765637
  H           2.94267472925597      2.52518890112104      1.14568498551149
  H           1.69071394941147      2.85209745578520     -0.07948284899570
  H           3.18438988461325      1.98667921984625     -0.53865931281783
