27
Coordinates from ORCA-job goat_0_244 E -727.010835302136
  C          -1.27072831341060      0.55237470992126     -0.09395131508594
  C          -1.36626834644141     -0.98410538484561     -0.10574148841738
  O           0.07376123178984      0.98913841309233      0.13515730749176
  C          -2.12132587810953      1.17491520755383      0.99578518220448
  H          -1.59664780913993      0.92623995921377     -1.07222693668419
  C           0.95264044345814      0.48363539864476     -0.86466771702803
  C           1.07490078010826     -1.05501456829338     -0.73969883389925
  C          -0.00053882436107     -1.60337198018750      0.20860801553255
  H           2.05049485880767     -1.31650645772756     -0.32868706718456
  O           1.01422450669812     -1.66421258941751     -2.02361064443814
  O           0.35066944052490     -1.39234795502650      1.57104935494779
  H          -0.06147194328569     -2.68543889639757      0.06989632795401
  O          -1.79714165606280     -1.37618484644892     -1.41504636150564
  H          -2.08981309480055     -1.32439915762813      0.64187370374801
  H          -3.16042558010427      0.87444362450960      0.84606196344914
  O          -2.08623460300074      2.59437460166932      0.95387705929154
  H          -1.79140928305624      0.80247503516523      1.97432841276681
  H          -1.16214338840979      2.86078939682923      1.03324969103472
  H          -2.07727713446395     -2.29907654181487     -1.37402134941812
  H           0.44709511157684     -0.43903961021059      1.69876766223319
  H           0.09465557834456     -1.59863681253027     -2.32055105250868
  O           2.16358514564195      1.16746541818830     -0.79547159797839
  H           0.53933151162916      0.71835999905275     -1.85312612085112
  C           2.81636521340232      1.14458295457039      0.47607356029046
  H           2.24722960359640      1.70917127916592      1.21779715119922
  H           3.78666461821441      1.61662825371139      0.32643392801426
  H           2.96980658065410      0.12374034924030      0.83783917484150
