27
Coordinates from ORCA-job goat_0_167 E -727.015022164181
  C          -1.03832440129528      0.71030590790535      0.04235144766488
  C          -1.42608522281049     -0.65146334647899     -0.58051944231767
  O           0.28015276869907      0.68881477979140      0.58426619437540
  C          -1.95959644014278      1.16146871464817      1.16301292131554
  H          -1.09444603460870      1.46553519305689     -0.75531755950798
  C           1.20857383379884      0.08002444461772     -0.30298742826117
  C           0.95585403831695     -1.42843194394456     -0.38132050453998
  C          -0.51692836631386     -1.77035051894952     -0.07821672308159
  H           1.57377635965616     -1.92061359522295      0.37188348970540
  O           1.37201102927359     -1.93310524056841     -1.64542059396963
  O          -0.72856038693732     -2.05514212487021      1.29332422625553
  H          -0.75456080068236     -2.67808771575925     -0.63977030134365
  O          -1.24256975722723     -0.64636490729323     -2.00021941987888
  H          -2.46912136248816     -0.88304323252307     -0.34073073492693
  H          -1.69272104118322      2.17764787080733      1.46377568208172
  O          -1.90392845854719      0.28796458730028      2.29616186524245
  H          -2.98993033203333      1.16326555909459      0.80200845237649
  H          -1.17959162756192      0.58583058420733      2.85904156748372
  H          -1.77288099216052      0.06353287414885     -2.37949681741724
  H          -1.09400311403858     -1.26627009786663      1.73222127008299
  H           0.75671624673339     -1.57889123387238     -2.30193635845409
  O           2.49159081195781      0.29898975911381      0.18010229621932
  H           1.09226204483787      0.53433915216620     -1.29973496293022
  C           2.93708676796444      1.64493464930485      0.01003473381067
  H           2.33394211854253      2.33734083586944      0.60277457302555
  H           2.88983812764228      1.93211388294974     -1.04619451172271
  H           3.97144296040801      1.67965496236724      0.35090464871207
