27
Coordinates from ORCA-job goat_0_270 E -727.010085146570
  C          -1.36689827577177      0.67517779673196      0.03476052286465
  C          -1.53370925441507     -0.58266907553480     -0.80837910184258
  O          -0.02100416346512      1.17621791390855      0.03047644611690
  C          -1.83091946368991      0.48725605014759      1.47589003000360
  H          -1.97614883470286      1.47031804537860     -0.40925898890123
  C           1.01600406063702      0.28346167309312     -0.35614679387767
  C           0.74940017456378     -1.12565611945503      0.15329573816502
  C          -0.54071163864970     -1.68798518846960     -0.43772272531415
  H           0.65116604564879     -1.06632042865385      1.24332909795581
  O           1.80993531146652     -2.00318869606170     -0.19703872921307
  O          -1.18787238046844     -2.57980488135854      0.46516434058484
  H          -0.28273958612293     -2.21004279691580     -1.36493767467335
  O          -1.31814383773259     -0.29538209807406     -2.19001301410166
  H          -2.54571065685413     -0.97122225609142     -0.65171584745596
  H          -2.90257402998869      0.27595641893739      1.48380100515854
  O          -1.63574112218548      1.68258802352257      2.22355392987211
  H          -1.31216930067112     -0.35179468194347      1.94941426828491
  H          -0.70587648451501      1.92181998298068      2.11835947165157
  H          -1.90424558022069      0.42858150368476     -2.44061546897919
  H          -0.57123191287629     -3.29330272356910      0.66866263118564
  H           2.61679999787882     -1.64862091241556      0.19684932143941
  O           2.20245299420335      0.71575771763194      0.23293135874611
  H           1.11633638986612      0.29302468806606     -1.44967032850282
  C           2.75340833336931      1.88101707686958     -0.38086876666374
  H           2.10956916505146      2.74982603797837     -0.22052811507252
  H           2.88833999659650      1.71948295166293     -1.45576697968281
  H           3.72228282284817      2.05550377794886      0.08617238225165
