27
Coordinates from ORCA-job goat_0_259 E -727.018698946067
  C          -1.08474136675740      0.67659149257006     -0.04770038865662
  C          -1.47744335633111     -0.80269031548551     -0.04015853240048
  O           0.18603441907275      0.83401958641988      0.57804442995398
  C          -2.06109535034086      1.55656486258690      0.71197647869551
  H          -1.03665984475763      1.03149148991940     -1.08891037536844
  C           1.23030637077649      0.18202514249552     -0.12958596748894
  C           0.99433100676086     -1.32713497528545     -0.13224036540723
  C          -0.38920635192232     -1.64524853075217     -0.70418023839955
  H           1.04772529549126     -1.67247213730418      0.90543448289303
  O           2.02147508388324     -2.01059801099090     -0.83131615444136
  O          -0.67493850628209     -3.03449694819308     -0.63382932585798
  H          -0.37888128713094     -1.40626265412445     -1.77613777919928
  O          -2.74271818326606     -0.99805059117044     -0.65643253912064
  H          -1.59558109708161     -1.12444277966695      0.99848806815844
  H          -1.73340959464482      2.59895071773234      0.62715301370297
  O          -2.18507782873518      1.17792067265985      2.07863409032453
  H          -3.05113905918703      1.46408936803049      0.26475780828004
  H          -1.31062810897154      1.25490144854542      2.47885760192168
  H          -2.65399269354433     -0.81122483454185     -1.59970395740026
  H          -0.68742759667717     -3.29188665027258      0.29692090378723
  H           1.93674084134699     -1.80992359940868     -1.77209457702172
  O           2.42608585911676      0.44917830146105      0.51637238931273
  H           1.25367655677068      0.56696207651037     -1.16405196932574
  C           2.89190591950352      1.78389563946552      0.31489722505621
  H           3.87011135265763      1.85037764448113      0.79013071151671
  H           2.21470011747764      2.51112701179229      0.77002376192792
  H           2.98984617257231      1.99633637252610     -0.75535078544277
