27
Coordinates from ORCA-job goat_0_192 E -727.013668741876
  C          -1.29403139212187      0.59822843033790     -0.19387051728726
  C          -1.61000065758216     -0.90762718598837     -0.18782959127368
  O          -0.10877408089753      0.89960925594957     -0.93712117531135
  C          -1.28263479413813      1.15929433667154      1.21903775758014
  H          -2.08813698969294      1.09935292557107     -0.75094666882340
  C           1.07847893525043      0.23550547700913     -0.55770328495772
  C           0.83572016136595     -1.21026054878403     -0.11743378700644
  C          -0.44954557342682     -1.70938368704075     -0.75082637987061
  H           0.74008082059713     -1.25162828516943      0.97335332999530
  O           1.89616609023599     -2.05818575276813     -0.54233150312983
  O          -0.68934075262259     -3.07779892979800     -0.45033246337295
  H          -0.40054901400244     -1.56350268870197     -1.83725587676961
  O          -2.80465831235682     -1.11770501656793     -0.93565373727053
  H          -1.76413283152429     -1.24619789404437      0.84508595431531
  H          -2.23913511132669      0.88949073735052      1.68450753046556
  O          -1.13775857944453      2.57325238417833      1.15058674917314
  H          -0.47466368985732      0.71221223528895      1.80656370124164
  H          -1.04501219693345      2.90494762096044      2.05004025128018
  H          -3.01394285861314     -2.05868832438670     -0.88721566511820
  H           0.09059147767772     -3.57141218551780     -0.73324285944355
  H           2.62827389061167     -1.96540669344958      0.07739616784222
  O           1.76846932498461      0.88606684302256      0.47615591436501
  H           1.69277144466601      0.23303286899115     -1.46603906687763
  C           2.30796158420397      2.14541768519382      0.08238827534376
  H           2.87841106623104      2.52486877685800      0.92999381154019
  H           1.51239655158166      2.85164347826758     -0.16654617900930
  H           2.97299425693450      2.02487393656652     -0.78076267762037
