27
Coordinates from ORCA-job goat_0_77 E -727.013458233669
  C          -1.19380160177403      0.45538224649682     -0.19017066915745
  C          -0.98781725195146     -0.84578412929688      0.58554246635107
  O           0.05510058056840      1.07167916409553     -0.55013007663975
  C          -1.94645600594865      1.48647521567948      0.63185909973481
  H          -1.75200262555639      0.24565241153495     -1.11066000196339
  C           1.17173388960060      0.22998487955803     -0.70246340826942
  C           0.78234707296200     -1.14811696188073     -1.22302654998087
  C          -0.13617167281859     -1.84642867202343     -0.20863235100285
  H           1.68922200731196     -1.74897589861720     -1.33890020785599
  O           0.07858924087730     -1.04617995128721     -2.45357987675495
  O           0.59499440239175     -2.70149938698863      0.66159318495400
  H          -0.80606692026442     -2.49488739482916     -0.77935621706045
  O          -2.23551727508782     -1.40877553096366      0.97447520983077
  H          -0.46837879973709     -0.61486447460780      1.51827658599092
  H          -2.93761714561457      1.10695971819799      0.87927861098517
  O          -2.13468352695001      2.69872755948415     -0.09161609002671
  H          -1.39639586387809      1.67243392238298      1.56346574333407
  H          -1.25882186372580      3.01289369947354     -0.34717476733489
  H          -2.71532843388380     -1.66153535652352      0.17550517203265
  H           1.23184483853446     -2.14468898734956      1.12905995429182
  H           0.66290365568290     -0.64023646459385     -3.10503733056636
  O           1.83851108142651     -0.00402397561096      0.51627450524471
  H           1.83909927622885      0.75690767683882     -1.39530318543377
  C           2.39364283313690      1.17330905819354      1.09783526163505
  H           1.60674876806624      1.86563779260429      1.40752554841472
  H           3.05937298068975      1.67367187864468      0.38568050734452
  H           2.96494712951313      0.85628176138780      1.96967689190258
