27
Coordinates from ORCA-job goat_0_246 E -727.008939839016
  C          -1.02270356420340      0.58165297823383     -0.29186754478500
  C          -0.94278652144826     -0.73007604916890      0.48844209763516
  O           0.29023486962819      1.12163166961096     -0.50595259222168
  C          -1.82162544904849      1.66565984384353      0.41933732124110
  H          -1.49392866263011      0.39667962622215     -1.26516004883361
  C           1.34853073064403      0.19984552975343     -0.63687235092690
  C           0.89113325603124     -1.12903940973709     -1.22760771199951
  C          -0.15356238482435     -1.77919141906686     -0.30572369864655
  H           1.75597382687042     -1.79562686841352     -1.29493368182438
  O           0.29675447933518     -0.93815891531120     -2.50528208739231
  O           0.43342489522909     -2.74448788475736      0.55963393155428
  H          -0.85217962532939     -2.32605493214989     -0.94382098452112
  O          -2.22576856141483     -1.21044043380276      0.86435698730952
  H          -0.41622374538454     -0.53435247425825      1.42555419559684
  H          -1.68745506799143      1.58702446483503      1.50416093684335
  O          -3.19506110409513      1.51772934005949      0.06259692395475
  H          -1.44106710125808      2.63854149750846      0.08912956452941
  H          -3.71048811781570      2.11147339513752      0.61888563459274
  H          -2.80979461843290     -1.15364895397661      0.09815782274491
  H           1.07272284245644     -2.27590161671183      1.11220957933270
  H           0.96175363199819     -0.56442754930493     -3.09591185840936
  O           1.93669287569985     -0.12235206312124      0.60169645078168
  H           2.08685618996392      0.69794757277571     -1.27738733520768
  C           2.55122702563931      0.99025489570556      1.24686433529936
  H           3.05810401370516      0.60350156233975      2.13043032535682
  H           1.80567836968591      1.73060803882373      1.54759376986206
  H           3.28355628678970      1.46120795493131      0.58146802813340
