27
Coordinates from ORCA-job goat_0_190 E -727.019113572436
  C          -1.28153463399943      0.69492932195940     -0.16671191016989
  C          -1.27677322877899     -0.79601612561959      0.17670004168149
  O           0.01980978874603      1.24279880012827      0.04188222474030
  C          -2.24036328310156      1.50180066939172      0.69023949621449
  H          -1.57030988164834      0.82003871030159     -1.22213063500654
  C           1.01730995961863      0.65346861257531     -0.78172481214245
  C           1.15251335086540     -0.82340926939107     -0.41614944701492
  C          -0.19025494933574     -1.50425658502666     -0.61999158821441
  H           1.42579978120784     -0.91180205737719      0.64224090783406
  O           2.15551093703373     -1.39400244854155     -1.24202548635148
  O          -0.03633560386095     -2.86103121855212     -0.21929220520429
  H          -0.44837738721837     -1.45896641389923     -1.68866030550153
  O          -2.54664410045142     -1.39707019585966     -0.05182051143563
  H          -1.07543117347989     -0.91593140431793      1.24339430298071
  H          -2.21210880004236      2.54658275934539      0.36083517531981
  O          -1.94468249485763      1.40371685445971      2.07900154034100
  H          -3.25295009027369      1.12066700711435      0.55288306405839
  H          -1.05450039077570      1.75209119565040      2.20904717408352
  H          -2.77435319191359     -1.28404736321550     -0.98415608190212
  H          -0.87786841076002     -3.30784780798156     -0.37128101183113
  H           2.12506856563370     -2.34905144480765     -1.10395961143635
  O           2.18714189810975      1.39185965301805     -0.65585134523805
  H           0.72324003367199      0.74479136598076     -1.83536976197838
  C           2.85543515281057      1.28929673077877      0.60475721148767
  H           2.16219129163018      1.43945271955357      1.43566512678589
  H           3.60463133831811      2.08033344015302      0.61514888074728
  H           3.35383429265161      0.32160429417930      0.70732757715257
