27
Coordinates from ORCA-job goat_0_202 E -727.015097020416
  C          -1.13757144801131      0.54885743505756     -0.50515877215940
  C          -1.08115414403444     -0.78195319310126      0.24617627031634
  O           0.15980570135898      1.16995964722581     -0.55600841003166
  C          -2.06636430785732      1.56066614730033      0.14090005620025
  H          -1.48830456077560      0.36594316555130     -1.52690595228126
  C           1.27925285664318      0.31312402923679     -0.59067179619608
  C           0.96041942926197     -1.01833297583559     -1.25047286758905
  C          -0.12763505318231     -1.75643254715166     -0.44666442228436
  H           1.86597599376189     -1.63221515201352     -1.24870860280099
  O           0.54711417679259     -0.72772565444015     -2.57901345056464
  O           0.43826224663473     -2.67720158964625      0.48027238855583
  H          -0.71039449967265     -2.35602309141182     -1.15099651458010
  O          -2.37053030471467     -1.38774946791775      0.29754352207504
  H          -0.71424839813132     -0.59543889475214      1.25811172726244
  H          -2.02981217574904      2.48948899266046     -0.43972321391756
  O          -1.74820575894128      1.80733923374940      1.50674340571313
  H          -3.09008181555267      1.18390148848260      0.11516500969547
  H          -0.85232327842922      2.16410483360296      1.53053241901399
  H          -2.85357565764447     -1.01083987620286      1.04114598458702
  H           0.98461509349784     -2.16179391965462      1.08844590001707
  H           0.43160433691159     -1.56484623862992     -3.04321676204791
  O           1.74386479108913     -0.00632959114605      0.70004068580751
  H           2.05234405083866      0.86055351402467     -1.14043923195678
  C           2.33382796994056      1.09806841471898      1.38050415733057
  H           2.70760093567059      0.72178482755993      2.33221024150863
  H           1.60008150729476      1.88699529192455      1.56474091365215
  H           3.16543108279975      1.50609497080824      0.79544532467436
