27
Coordinates from ORCA-job goat_0_239 E -727.010125493284
  C          -1.06597454581783      0.68814186689865     -0.46427244454553
  C          -1.16637071275393     -0.71642798705500      0.13816797076672
  O           0.25242244590102      0.99305427322560     -0.94778190659486
  C          -1.60716421853371      1.79114196100463      0.43679577313930
  H          -1.70421709774690      0.68930869143754     -1.35806870038392
  C           1.32907061907933      0.19798259287367     -0.50138339200804
  C           1.09786839724269     -1.30829841575302     -0.68592196768934
  C          -0.38516288829004     -1.65841733135218     -0.77100412759201
  H           1.51656133596753     -1.81085889177608      0.19367223438856
  O           1.79879022776992     -1.71148619587653     -1.85764591274013
  O          -0.60244153019435     -3.03673416865315     -0.50165881523416
  H          -0.72177163046441     -1.50923399100379     -1.80250885015269
  O          -2.52761777595771     -1.08244740032570      0.29686787141557
  H          -0.73611084228613     -0.74191339572473      1.14329670838425
  H          -1.39196636112687      2.75128662412609     -0.03793559204833
  O          -1.03793934525126      1.84430124115465      1.73879352280701
  H          -2.69486073400336      1.67721762299754      0.49557975465767
  H          -1.42775681609529      1.14246179782607      2.27069501146800
  H          -2.92640681495183     -1.16209772798791     -0.57904451391902
  H          -0.36168254882467     -3.20803316433596      0.41772410664646
  H           1.64861392990760     -2.65775768139123     -1.97407858300375
  O           1.63862483071709      0.41410021979205      0.84943812971842
  H           2.16863035920531      0.50998184476632     -1.13219562395594
  C           2.12839035620822      1.72896060739714      1.09907715723682
  H           1.36859888056531      2.48103731652953      0.88100627819167
  H           3.02357809384490      1.92033622507473      0.49539405604732
  H           2.38629315568933      1.77439326613105      2.15698986499991
