27
Coordinates from ORCA-job goat_0_227 E -727.013617641301
  C          -1.01645250769118      0.67490844631286     -0.49635853653379
  C          -1.05702790732310     -0.64431070158642      0.27542955317842
  O           0.32117746675579      1.19250918741866     -0.57592870797646
  C          -1.88811813437287      1.75229166928372      0.12897222031368
  H          -1.38552060611795      0.50187260019944     -1.51571781691558
  C           1.37245548129521      0.25719446917268     -0.56565171107627
  C           0.97104070695959     -1.06327629802304     -1.20279784998279
  C          -0.17632607400840     -1.70446961262695     -0.39634403082032
  H           1.83052638657650     -1.73977124796348     -1.17803378067724
  O           0.59088379373971     -0.77323783909860     -2.54129710651772
  O           0.30979212105007     -2.64880581938419      0.55113097170803
  H          -0.79236358040240     -2.27343047828482     -1.09910730515854
  O          -2.39612411880806     -1.09227752474524      0.45494350428945
  H          -0.67115160233450     -0.46957308078104      1.28074966464049
  H          -1.68338859119861      2.69675011109808     -0.38013809340779
  O          -1.62555747263095      1.96709569052710      1.51246777671804
  H          -2.93902087680645      1.49639739401978     -0.03184132883041
  H          -2.06986799749149      1.27241938757338      2.01108512128573
  H          -2.77535906582412     -1.27289882529568     -0.41444186050914
  H           0.89146596796086     -2.16509830560608      1.15278533070868
  H           0.45202792160079     -1.61101562847213     -2.99784094502434
  O           1.78782258995941     -0.06858694942013      0.74153186195723
  H           2.19463507759969      0.73643920067535     -1.10843328431387
  C           2.32989816028782      1.03986665411932      1.45534025718741
  H           1.56237364356851      1.79168106016701      1.65391463922712
  H           3.14859308103842      1.49575647540333      0.88722401097515
  H           2.71358490641767      0.65156976531719      2.39835545555483
