27
Coordinates from ORCA-job goat_0_66 E -727.016167543403
  C          -0.99727883697651      0.73435351034063     -0.48997116121078
  C          -1.44644632109627     -0.72256351614698     -0.44670547734756
  O           0.30837446673638      0.89516735390134     -1.06837773352655
  C          -1.13025091275716      1.48435456424958      0.84158677792912
  H          -1.66284159408795      1.24413902424543     -1.19040483280611
  C           1.33478466932879      0.05169299894948     -0.59800750075979
  C           0.95635780516988     -1.42745293918570     -0.68875363520403
  C          -0.35910067303211     -1.68710481104258      0.05157615722286
  H           1.75394816094260     -2.01243270510484     -0.22600863068737
  O           0.87630256520354     -1.82308817271264     -2.04880224257670
  O          -0.20013970169446     -1.60684811358607      1.46295264883306
  H          -0.68404451544289     -2.70732800814816     -0.17288020123286
  O          -1.81303137592850     -1.07365807004667     -1.79136618257281
  H          -2.31872558267545     -0.80550015083474      0.20815405231703
  H          -0.62276445049053      0.98012243649668      1.66314102362676
  O          -2.50658351749354      1.69202813662569      1.15425463150585
  H          -0.67820658690012      2.46964102209629      0.71099035148658
  H          -2.81133910723744      0.95777363321454      1.69723618424404
  H          -2.24438834643874     -1.93695905295363     -1.76889697931122
  H           0.45580630935460     -0.91942391601965      1.64914964471695
  H           0.01710785156738     -1.51976893324190     -2.38231522821822
  O           1.68129848030649      0.30868303452578      0.74387730514182
  H           2.18585170697378      0.26098993827858     -1.25393106144555
  C           2.34616498434561      1.55730412022884      0.93931412173361
  H           1.70882565250674      2.39389228136696      0.64493542069046
  H           3.27358007824059      1.58180210258296      0.35790022160452
  H           2.57673756137530      1.63018403192078      2.00135033584688
