27
Coordinates from ORCA-job goat_0_272 E -727.010635372825
  C          -1.02024833457856      0.68008728233198      0.04674665365961
  C          -1.47178342303498     -0.71061301821511     -0.46174195731661
  O           0.27225286653367      0.61616545669661      0.66051737816043
  C          -1.95561551020640      1.26377635081408      1.09097164096047
  H          -0.97742565017014      1.35815364759150     -0.81471793898586
  C           1.22006763590268      0.03829999965352     -0.23003343997520
  C           0.93308542663544     -1.46199094493422     -0.40766099384334
  C          -0.49845123120690     -1.78393231112834      0.03646799395723
  H           1.62927894780193     -2.03101176435994      0.21563374550136
  O           1.04908726443630     -1.84854094569473     -1.77759844048918
  O          -0.57101520466831     -1.92791203406679      1.44910599971568
  H          -0.78205697188320     -2.74684796862038     -0.39235869814309
  O          -1.59041347941129     -0.75206433912551     -1.88264958550631
  H          -2.46590647846239     -0.92717393605371     -0.06765229952803
  H          -2.08290183633363      0.55328458159854      1.91581999491489
  O          -3.19819356250873      1.51985596118486      0.44407419034591
  H          -1.51849351858982      2.18708900683224      1.48654314224506
  H          -3.84181599142689      1.75970006224065      1.11912119330241
  H          -0.72019217982992     -0.95478715034249     -2.25644917778933
  H          -0.22674792002665     -1.11245370933267      1.83752422732782
  H           1.94396787433164     -1.65433955484805     -2.08228033439212
  O           2.49141683560619      0.19517801158451      0.29816926533532
  H           1.13557879436757      0.55209660513490     -1.20186302498668
  C           2.96165777858348      1.54484792448320      0.25108578559865
  H           2.92657609738424      1.92336423705062     -0.77608007551797
  H           3.99341574163726      1.52895149584370      0.60021022742019
  H           2.36487479891759      2.19081685368104      0.89909253802869
