27
Coordinates from ORCA-job goat_0_204 E -727.021029431163
  C          -0.96884893123127      0.63208942413226      0.10118187509169
  C          -1.29378308222738     -0.86349624914014      0.16038540436519
  O           0.33092403588815      0.85342573398744      0.63638380449743
  C          -1.91201481618728      1.47562698024831      0.95233882255344
  H          -1.01176595344862      0.96722885836268     -0.94585437422771
  C           1.35641279678602      0.22278487313609     -0.12088176578750
  C           1.17151148746288     -1.28635387422910     -0.06095132730424
  C          -0.21536290326805     -1.64348119222145     -0.57149518798661
  H           1.26740075812973     -1.59861110391969      0.98715517420635
  O           2.17261607905475     -1.89772147911919     -0.85991013587296
  O          -0.36545065560698     -3.05071206072979     -0.40893698131395
  H          -0.26970815774171     -1.38593894130021     -1.63790461956979
  O          -2.53259283807351     -1.16701812532289     -0.46923185927547
  H          -1.30999235488287     -1.17601957317761      1.21380837455745
  H          -1.86378336300624      1.13170892099295      1.98804869844954
  O          -3.27382894192021      1.33894172080559      0.53935228290414
  H          -1.59657092857161      2.52222743990688      0.91676706436301
  H          -3.39911133129551      1.85913371741969     -0.26356385836073
  H          -3.17723236246093     -0.52470286235020     -0.13481656846917
  H          -1.16874368772765     -3.31711300125079     -0.87101481934837
  H           1.92832365705900     -2.82794894283414     -0.94688325375273
  O           2.57756364876373      0.55283415321516      0.44271221239785
  H           1.30068354174342      0.57382442692617     -1.16428180669432
  C           2.97618545718188      1.89842064665417      0.17703010762469
  H           2.29902103308542      2.61126350137514      0.65425070576646
  H           3.00011787780480      2.08353349511400     -0.90240545745782
  H           3.97802870448991      2.01607331331858      0.58871549864414
