27
Coordinates from ORCA-job goat_0_228 E -727.014975333206
  C          -1.18687289162935      0.67411694747632     -0.42693259062217
  C          -1.55244417656497     -0.80960328753079     -0.54102661543379
  O           0.10858004551562      0.96166566881218     -0.97581780720336
  C          -1.41336609606738      1.28854424689625      0.95202577977008
  H          -1.86845648319727      1.21982214735757     -1.08729980062605
  C           1.20107295048130      0.19242530328159     -0.54150926354133
  C           0.95638098880291     -1.31649221592068     -0.59717616783300
  C          -0.43090693077614     -1.75761596948928     -0.09955301942063
  H           1.70636084665212     -1.80095267753572      0.03636453005456
  O           1.15597557007252     -1.66205733465017     -1.96470066178231
  O          -0.43710933667966     -1.96752754128983      1.30298295499187
  H          -0.64208376182850     -2.72986962228556     -0.55455378687337
  O          -1.86643552108184     -1.14712973966356     -1.89139485573848
  H          -2.41959607105836     -0.99855910768178      0.10260225103056
  H          -1.11678258265023      2.34186638377372      0.91162320234170
  O          -0.75213478787390      0.63732745738111      2.03689192528239
  H          -2.48301875047818      1.24100383791388      1.16739476820888
  H           0.20398727633898      0.69929692033157      1.85197760069105
  H          -2.62312049644239     -0.61403234062682     -2.16109689895607
  H          -0.62324415480244     -1.11298453111206      1.73684578732069
  H           0.92034602968293     -2.58979325474038     -2.07837558807668
  O           1.62825010181697      0.54356543319972      0.76240721970382
  H           2.00184562661910      0.43340711102276     -1.24662962459970
  C           2.25993023097708      1.82904492965104      0.80804288751961
  H           1.56182562948556      2.61845581737063      0.51844804459164
  H           3.12755171358255      1.84246762952749      0.14176997635036
  H           2.58346380090296      1.98360758853075      1.83668776284968
