27
Coordinates from ORCA-job goat_0_240 E -727.014263197129
  C          -1.12165192187236      0.69570894430046     -0.48787352333257
  C          -1.56838530890420     -0.77247494047549     -0.45527683312681
  O           0.19687973158138      0.86474745477187     -1.03370177050446
  C          -1.37780727025704      1.49936345266472      0.78059531033549
  H          -1.76150421492736      1.17607227435849     -1.23329418640301
  C           1.23356642940338      0.01357199285344     -0.59692717432633
  C           0.84680723125799     -1.46483969650635     -0.64243084242528
  C          -0.48840004146394     -1.73806797827609      0.05750915610135
  H           1.63491567294953     -2.04322696966560     -0.15203017938821
  O           0.68062696635711     -1.88366007510496     -1.99905830103862
  O          -0.35799211104714     -1.72174657446568      1.46462256244324
  H          -0.80171288578953     -2.74803082062106     -0.21902457609816
  O          -2.00001041783225     -1.17726465093231     -1.75543465801924
  H          -2.44149477364163     -0.85302517111621      0.19690492579865
  H          -0.97041581865896      2.50515611229481      0.63518535219972
  O          -0.82065530024059      0.92514992139864      1.96845117801871
  H          -2.46327451962731      1.58075334659920      0.88913282890191
  H          -1.43329456530739      1.08730585509445      2.69348755044690
  H          -1.19981083369650     -1.34281238420046     -2.27666951750959
  H          -0.36726827357283     -0.79083219837359      1.75884966628580
  H           1.47973045331732     -1.66909246207350     -2.49460671507415
  O           1.67829407256127      0.28921519868658      0.69947210830394
  H           2.04282019116609      0.20736692849616     -1.31468491383640
  C           2.23230818653180      1.59249250629834      0.84199427016034
  H           1.46739572784841      2.36468386558444      0.73088408532607
  H           3.02285409816742      1.75659071591376      0.10001109745747
  H           2.65747826549737      1.64689515249599      1.84391110930329
