27
Coordinates from ORCA-job goat_0_86 E -727.020406959484
  C          -0.95634075836118      0.63949942248330      0.03057717332151
  C          -1.28585558387297     -0.85690923328531      0.04846865070539
  O           0.32224199272454      0.84893244224375      0.61871717597006
  C          -1.92219581001128      1.47032689641555      0.86132277161408
  H          -0.96099889828648      0.99471161675899     -1.00992048744007
  C           1.37549650098913      0.22995763671735     -0.10948913288331
  C           1.18795839348754     -1.27950768011191     -0.07803703293786
  C          -0.17720166488842     -1.62555094144466     -0.65019552830722
  H           1.24098782152229     -1.60663061357300      0.96854044560710
  O           2.21975982221576     -1.88152490770662     -0.84436970568816
  O          -0.33576622438264     -3.03502046753013     -0.51770075931101
  H          -0.18744124707598     -1.35040458902229     -1.71350698149693
  O          -2.49449745054494     -1.14847457469419     -0.64208565060701
  H          -1.34908859407274     -1.18826231522768      1.09436167866989
  H          -1.90386849228035      1.11063971437511      1.89551253559086
  O          -3.23179064109839      1.33233468444293      0.30218214423168
  H          -1.60307382128774      2.51729594418765      0.84383191213261
  H          -3.86976003257388      1.66720337209670      0.94171702017399
  H          -3.14989331788383     -0.50198729583950     -0.33709302489056
  H          -1.12151537298469     -3.29106182121742     -1.01461871526116
  H           1.97494577877880     -2.80866847622121     -0.95879084416536
  O           2.57424232038217      0.55165320543019      0.50465480902636
  H           1.35896794946472      0.59666333136614     -1.14879135938232
  C           2.98445410375008      1.89949903177566      0.26996007561667
  H           3.05206077813144      2.09597931962490     -0.80555915858391
  H           3.96892569690261      2.01125909328368      0.72307730976344
  H           2.28924552105626      2.60804700467209      0.72723268853123
