27
Coordinates from ORCA-job goat_0_180 E -727.013255045092
  C          -1.11535961005932      0.54352773769687     -0.35993433228378
  C          -1.24071642923932     -0.87791024253654      0.19367509845915
  O           0.15059022001252      0.77887449451590     -0.99152665641482
  C          -1.44303104491998      1.57433833819093      0.70387278042918
  H          -1.84491916026316      0.63907994286239     -1.16905159619260
  C           1.27605589017480      0.12538096356142     -0.44438009477119
  C           1.10430812854223     -1.40506759467723     -0.37314394240100
  C          -0.34522475537327     -1.80305040862633     -0.60769324275255
  H           1.39215062004098     -1.73196430355627      0.62754475675456
  O           1.97911405174229     -2.08750260724854     -1.26413673271617
  O          -0.59761313323546     -3.13433733481880     -0.17501722708394
  H          -0.58879999874415     -1.70133918436996     -1.67381498734355
  O          -2.61032748807846     -1.24623692303402      0.09301091915669
  H          -0.92589814959401     -0.91235805141091      1.24603313950156
  H          -2.41173736494846      1.30326816542845      1.14126119470931
  O          -1.50884044981717      2.85995143301980      0.09108275297959
  H          -0.68679321265961      1.55354251671563      1.49348723239239
  H          -1.71059604962795      3.50397344631075      0.77831934831327
  H          -2.67619448380618     -2.16624809817251      0.37793326612928
  H          -0.07831425281698     -3.72902567582441     -0.72888849400589
  H           1.75113543873870     -1.83471215821588     -2.16787767316515
  O           1.59487580662311      0.58057915444203      0.84481162687037
  H           2.08879525945131      0.36822517751978     -1.13858309241997
  C           2.02455914615975      1.94128747451338      0.86232836154773
  H           2.89376630134186      2.07332383435188      0.20810195070571
  H           2.30393274233550      2.17037660659271      1.89046306252420
  H           1.22508074782049      2.61402309676951      0.54212059107759
