27
Coordinates from ORCA-job goat_0_238 E -727.017782399270
  C          -1.20062714534856      0.79259716460486     -0.25557254271779
  C          -1.35194013365927     -0.67444868137124      0.14166049057268
  O           0.13698952243235      1.21954442977906     -0.00546322872284
  C          -2.14173244569670      1.71397574811697      0.49002711683028
  H          -1.42243202671763      0.89025331363383     -1.32828778821427
  C           1.08726591386095      0.51292884998754     -0.78461385308154
  C           1.06332576316368     -0.96937925077200     -0.40508159281081
  C          -0.33861599368307     -1.51374119824418     -0.61663354577536
  H           1.32802018991620     -1.08540076603493      0.65170124706803
  O           1.93842340403970     -1.72366800311124     -1.23288156120193
  O          -0.46231218979765     -2.85352944805333     -0.15117467604961
  H          -0.57601942785277     -1.46857511778584     -1.68835517353169
  O          -2.67905044802504     -1.08027497636542     -0.16661908008487
  H          -1.16223666747668     -0.77308152774292      1.21652989624580
  H          -1.92792304310746      2.74533392952427      0.18780022071526
  O          -1.95902084376004      1.55115214771672      1.89446513436439
  H          -3.16742520964858      1.46742698526389      0.19844631925780
  H          -2.59220987972579      2.12353273462251      2.34034594774956
  H          -2.71730950260651     -2.03666031912654     -0.04165255217724
  H           0.10642297976823     -3.40782442855866     -0.69842210920855
  H           2.84555309275000     -1.46162456558942     -1.03779517010584
  O           2.33507412812162      1.11358859105380     -0.62750566863997
  H           0.84631862836011      0.61602517880504     -1.85094930135172
  C           2.88465789420354      1.07212607227758      0.69428001960136
  H           3.26490914684391      0.07563056114409      0.93832013802844
  H           2.14710732394609      1.37638209503874      1.43922978801636
  H           3.71478573949938      1.77771028118680      0.69819953522408
