27
Coordinates from ORCA-job goat_0_199 E -727.013448945450
  C          -1.17479708790962      0.45694223812391     -0.26602030320664
  C          -0.95925144387385     -0.87191060674437      0.45948649384310
  O           0.07039344167941      1.12390922131300     -0.54000588345587
  C          -1.99170442344768      1.43189829699598      0.56253290271780
  H          -1.68562137858623      0.26873184215253     -1.21643115597251
  C           1.21179260526961      0.31764850645471     -0.70714679076628
  C           0.86725634193436     -1.03376330913210     -1.31004554671445
  C          -0.06365788183672     -1.80767108027497     -0.35649519749197
  H           1.79034085901726     -1.60853531255159     -1.43069543134697
  O           0.25893683472861     -0.77780859767525     -2.56824600397785
  O           0.66750814926310     -2.68845004923360      0.48922299714150
  H          -0.71167314873841     -2.44179850627428     -0.96710465392288
  O          -2.20471378400743     -1.53322890120488      0.67537079172637
  H          -0.46972320284899     -0.67301487619873      1.41773969921160
  H          -2.98488427546403      1.01933999122339      0.74541720247105
  O          -2.18236803342053      2.66873473502540     -0.11589273705943
  H          -1.49067228180992      1.59123979901944      1.52654344915753
  H          -1.30522415715148      3.01263630256193     -0.32494911226870
  H          -2.57848120851142     -1.22550950063463      1.50814467711267
  H           1.27802309600678     -2.14038346669067      1.00020673342321
  H           0.12862551401426     -1.62391430095015     -3.01183080299159
  O           1.84704335146539      0.03076173017379      0.51732054604904
  H           1.88477348394366      0.89350697462670     -1.35161114933514
  C           2.34732157781715      1.18772936129063      1.18279339422079
  H           1.53058958591350      1.83643212190116      1.50928589561186
  H           3.01611222967518      1.74971430653061      0.52133794847265
  H           2.90405400667798      0.83676288017206      2.05107004735109
