27
Coordinates from ORCA-job goat_0_37 E -727.014038990902
  C          -1.12831419207269      0.61106240169883     -0.28565885647012
  C          -1.24842101243151     -0.81707105048318      0.25158175116728
  O           0.11164731273909      0.84098064093104     -0.96766240498183
  C          -1.39292717863804      1.63208339174183      0.81259169312852
  H          -1.89288380272237      0.72484266822102     -1.06103428334782
  C           1.23905260953840      0.13655503026885     -0.49328900461686
  C           1.03579621990103     -1.39207697412522     -0.49701086421204
  C          -0.43446503221061     -1.74803285240382     -0.62561494293463
  H           1.40623118090530     -1.78607305951688      0.45408810935263
  O           1.71221385617471     -2.01150917824713     -1.58633229057177
  O          -0.69424627018921     -3.08076194044288     -0.19809709246829
  H          -0.74488183470374     -1.62025813614200     -1.66977179799915
  O          -2.62901445549918     -1.15625433378985      0.23735763715584
  H          -0.86445721206068     -0.87551145088566      1.27960743531152
  H          -2.34727621247126      1.37480272811248      1.28801179818449
  O          -1.40917799953123      2.97199647903053      0.33228565078869
  H          -0.60983420888094      1.58065928305220      1.56893692822431
  H          -2.15773568204358      3.06462746841510     -0.26863018066032
  H          -2.68734917739844     -2.09426211400415      0.45951842635775
  H          -0.31334439265669     -3.68195069662119     -0.84832210080181
  H           2.65434508166048     -2.03824150107811     -1.38336348104670
  O           1.60534467870689      0.51790891899528      0.80783092711881
  H           2.03452752121145      0.39725035971059     -1.20044287138725
  C           2.09061836011753      1.85808249308801      0.87569757990909
  H           2.95607109295778      1.98181952519091      0.21491936114165
  H           2.39228212868908      2.03322008118024      1.90811646483891
  H           1.31619739070844      2.57611161810316      0.59468441881914
