27
Coordinates from ORCA-job goat_0_50 E -727.012711100680
  C          -1.10925246769522      0.67579553865166     -0.24407688429170
  C          -1.51928898891493     -0.81011032449609     -0.34031678692071
  O           0.12849821400468      0.93147955201474     -0.91480153862948
  C          -1.11280932937279      1.20519187044198      1.19299259529789
  H          -1.84682043064645      1.25409486626484     -0.80689816862442
  C           1.25711104528789      0.23148184758522     -0.42944751593413
  C           0.91659922681854     -1.19564100402842     -0.00720481827372
  C          -0.32523869994524     -1.66320992020444     -0.75480311924988
  H           0.71424123889704     -1.21532941724328      1.07214210199760
  O           2.03739330737532     -2.01548386877062     -0.30027391838050
  O          -0.54284974656641     -3.05476856060285     -0.54927634686034
  H          -0.15253869924924     -1.55084312887300     -1.82987978959217
  O          -2.63517284388912     -1.01571505186588     -1.19994451424163
  H          -1.85934063044415     -1.14084461836391      0.64556477696304
  H          -0.48536038576618      0.59776928286892      1.84546763913367
  O          -2.42790198189748      1.14724472019891      1.73835801159217
  H          -0.72332197693485      2.22822825727183      1.19744562859629
  H          -2.97999794315930      1.77621670403727      1.25892218652627
  H          -2.37383757786262     -0.77399916406929     -2.09728609174914
  H          -0.84739860957368     -3.18514729880666      0.35815538811029
  H           1.72929145491555     -2.92959128212423     -0.23764106997735
  O           1.86280426449702      0.87321769950342      0.65921739715540
  H           1.95060091800055      0.20172045405778     -1.27768238356929
  C           2.46474021475834      2.11809340887207      0.31228430063486
  H           3.18823644875752      1.98233490017112     -0.49982537728307
  H           2.98050904239158      2.47889942295205      1.20183023677965
  H           1.71110370601364      2.84891491455689      0.00697607079033
