27
Coordinates from ORCA-job goat_0_170 E -727.019057533693
  C          -1.28906544853244      0.56765230162532     -0.09203276399136
  C          -1.20334742031231     -0.91521638252231      0.27341025410563
  O          -0.00885735110169      1.17674544090086      0.07819958744969
  C          -2.24927250057194      1.33702070770419      0.79274207570279
  H          -1.60337214564758      0.66154024292302     -1.14133448787326
  C           0.97648669782100      0.63957304893075     -0.79419591159730
  C           1.19860257756143     -0.82784908538787     -0.43083104278734
  C          -0.11847574041597     -1.57499328823066     -0.56292198764185
  H           1.53025644341810     -0.89642901935297      0.61227316341832
  O           2.18245949121563     -1.35667244259624     -1.30556702351162
  O           0.11840303186137     -2.91763406881689     -0.15711788545336
  H          -0.43254186317003     -1.55326594598101     -1.61586442250596
  O          -2.42333354227050     -1.59459614014138     -0.01293732907959
  H          -0.94772002042658     -1.01503745973307      1.33456703606293
  H          -3.24812404035377      0.90551923711007      0.71202238404374
  O          -2.35329518041457      2.69886862228688      0.39530665280205
  H          -1.91562268676784      1.25894188772743      1.83557199426218
  H          -1.45866507728751      3.06107870645232      0.39486811511022
  H          -2.97997206838041     -1.57989490626939      0.77274870689201
  H          -0.70133637188075     -3.40831354898924     -0.29241557627880
  H           2.20682469965069     -2.31081841520994     -1.16055086384998
  O           2.11324629594723      1.43441537439309     -0.72609934493366
  H           0.62783364693950      0.71157992566943     -1.83229437554800
  C           2.84489192537011      1.37281007710407      0.50156010418411
  H           3.39176979969804      0.42987642411310      0.58617509830578
  H           2.18568268221892      1.49782341450890      1.36369185053673
  H           3.55654293563191      2.19727509178151      0.47102400217590
