27
Coordinates from ORCA-job goat_0_201 E -727.012922875621
  C          -1.07712998974961      0.75654824641750     -0.36583336416898
  C          -1.50674854041302     -0.71831614566636     -0.43757651225795
  O           0.19507768381800      0.97086798932190     -0.98207901977402
  C          -1.13189230374882      1.32090297894350      1.05086424402869
  H          -1.77813729506571      1.33128500270651     -0.97451713434441
  C           1.28414761462241      0.24275904227836     -0.45045260890472
  C           0.90164733917717     -1.18781615385042     -0.07219454950228
  C          -0.33561139918959     -1.59591542323214     -0.85637142327333
  H           0.67760159474489     -1.22878323996958      1.00236221170881
  O           2.01118321732902     -2.02379507026512     -0.36565949382833
  O          -0.62741504139587     -2.98122116021953     -0.68980161834058
  H          -0.14783112332361     -1.46352027884744     -1.92484753097082
  O          -2.59017472683816     -0.83310537155338     -1.35633506376450
  H          -1.83928182577378     -1.03884891026149      0.55881184595017
  H          -0.56382550189747      0.69985064672228      1.74895991116716
  O          -2.51122690745967      1.35348653321057      1.41564375261519
  H          -0.70023825223759      2.32736786014891      1.04897072995337
  H          -2.56506915094413      1.50188729274207      2.36556226344075
  H          -2.82539081659318     -1.76808257020206     -1.40785500608045
  H          -0.88365750488796     -3.12929407939295      0.23042894159081
  H           1.69680043037875     -2.93498436893050     -0.29931694299225
  O           1.84512040139071      0.85514648712835      0.67854384087369
  H           2.01849036281257      0.21573478049641     -1.26351004358691
  C           2.48527673993835      2.09446226851837      0.38320586823460
  H           1.76147189106009      2.84158183151216      0.04702617723666
  H           3.25072460098909      1.95694101918635     -0.38917450801924
  H           2.95608727305706      2.43486059305775      1.30514304300885
