27
Coordinates from ORCA-job goat_0_209 E -727.017476619661
  C          -1.24129749684569      0.67526591150584     -0.11443155923128
  C          -1.30528779135171     -0.78803269257121      0.32178861843973
  O           0.09219844819142      1.15779994117476      0.03631635345155
  C          -2.14914219777426      1.54844375763478      0.72159437519832
  H          -1.54134689711896      0.74654868257988     -1.16963103899738
  C           1.01633050627016      0.47377273676515     -0.79218305861831
  C           1.08903124105724     -0.99382700214069     -0.36543358271230
  C          -0.29753881395284     -1.60371275806410     -0.47118592207766
  H           1.42388249864902     -1.06075124977574      0.67571055137629
  O           1.94456268013767     -1.73679774316981     -1.22273463343644
  O          -0.33591276583139     -2.93146342974637      0.04099341488595
  H          -0.60211616190676     -1.60245393604614     -1.52652222262727
  O          -2.62383072402125     -1.26906340327869      0.09864298074388
  H          -1.05060076694763     -0.85249056332440      1.38863058304661
  H          -3.14402620329008      1.09464421555262      0.74645915656754
  O          -2.19875186440460      2.84811416222206      0.13693007418511
  H          -1.75469825915261      1.59421167221840      1.74402952698085
  H          -2.79029363355275      3.38818587869332      0.67204380744715
  H          -2.60036553471633     -2.22471772054985      0.23443438309531
  H           0.20544796900656     -3.48494221623292     -0.53401261892648
  H           2.84562462135855     -1.41249540982250     -1.10955636043829
  O           2.24200539195731      1.13554342860809     -0.74807543976194
  H           0.69298777049157      0.53015970673933     -1.83987791436140
  C           2.88521294195023      1.17340667426131      0.53055518586721
  H           3.69984177560320      1.89062986988798      0.43652698304693
  H           3.30089820024637      0.19772102264057      0.79913551163559
  H           2.19718383574758      1.50630026423824      1.30985085522074
