27
Coordinates from ORCA-job goat_0_266 E -727.017833611456
  C          -1.12585075970057      0.86694820515219     -0.09819440372142
  C          -1.21046895287159     -0.61745195156446      0.25571686807309
  O           0.20904586212345      1.31744429314825      0.10739726116318
  C          -2.02164109334142      1.73597213419293      0.77777267205027
  H          -1.41092076515109      1.00499290211121     -1.15125863967389
  C           1.14919905599626      0.67062553735607     -0.74208420373191
  C           1.18402161158706     -0.81818978420102     -0.39971682672756
  C          -0.20970323829910     -1.39955357177687     -0.58128250991496
  H           1.47430632616711     -0.94102945915959      0.65091825805378
  O           2.12081900937473     -1.45131412478255     -1.25493414546651
  O          -0.15817794911225     -2.77095688007226     -0.19014391886756
  H          -0.49329204127163     -1.32429691504788     -1.63777406611751
  O          -2.54640759759511     -1.05966190073986      0.01133507221658
  H          -0.96345507652539     -0.73835938840418      1.31748726228643
  H          -1.81586038044661      1.51643131018733      1.83362105615184
  O          -3.39984180318350      1.56023695685569      0.47577392674708
  H          -1.78053597907042      2.78448392904587      0.59160745898327
  H          -3.55894466693276      0.60510022664872      0.46129670477140
  H          -2.66312257706788     -1.91376534515581      0.44366961902206
  H          -0.76194653531682     -3.27254562380590     -0.74814933087580
  H           2.00590940986174     -2.40285852830624     -1.13466758486618
  O           2.37068579262651      1.32134223802100     -0.62527524288864
  H           0.84514538028731      0.79770274346164     -1.78910635477411
  C           3.04905222900310      1.15228605932709      0.62281036629423
  H           3.48184031347967      0.15130179621834      0.70197103610170
  H           2.37977888000000      1.33465019531258      1.46674486811346
  H           3.85036431517917      1.89046474597769      0.63446280759767
