27
Coordinates from ORCA-job goat_0_0 E -727.022184067540
  C          -0.99795645441591      0.77600239063042      0.16518054337759
  C          -1.42364703204887     -0.69195116396016      0.15517414952121
  O           0.32564967399743      0.86371037362974      0.68182121526654
  C          -1.88005828059884      1.63909563807144      1.06073571217568
  H          -1.03190164933602      1.17183650067883     -0.85973830665807
  C           1.26795047353292      0.20499153994936     -0.15407392649954
  C           0.97399425469206     -1.29026956619110     -0.18271706886316
  C          -0.44866321039016     -1.51891927352717     -0.66522395485581
  H           1.08084526179095     -1.67831768323922      0.83777027828218
  O           1.84317852694482     -1.97012576630845     -1.07607279414396
  O          -0.83792303873123     -2.88162691374357     -0.54009617878242
  H          -0.51858768053451     -1.20333574879408     -1.71490440795010
  O          -2.74028143972809     -0.76994867617873     -0.38626171243916
  H          -1.41945923043930     -1.06079814249376      1.18904188963286
  H          -1.94512324573237      1.17948723105625      2.05553132827034
  O          -3.17195383013877      1.84636909565936      0.50483181473791
  H          -1.41400273108449      2.62084735156242      1.16590471943690
  H          -3.52133857771237      0.97339314490300      0.27628815864358
  H          -3.01140751819909     -1.69574651511259     -0.36516606625238
  H          -0.28877711740267     -3.40192680814309     -1.13825420091829
  H           2.73814739051272     -1.90476377265505     -0.72216651851377
  O           2.53639866235434      0.38593311711536      0.37476195648533
  H           1.20517384346338      0.62821476581959     -1.16985367767619
  C           3.06011046198688      1.69877809624499      0.16411163382542
  H           4.07982766649430      1.69547239404008      0.54746050125653
  H           2.46969393119064      2.44575398812178      0.70049609700986
  H           3.07010965933215      1.93784420286424     -0.90458317436907
