27
Coordinates from ORCA-job goat_0_249 E -727.013787290762
  C          -0.98497988515842      0.75424084431128     -0.39123497359118
  C          -1.00004096280499     -0.59198992438599      0.32569338044008
  O           0.35619902023457      1.24189880581313     -0.53314392521304
  C          -1.74106900832555      1.83324734372002      0.37902672046977
  H          -1.43565950337059      0.64273996932325     -1.38367070440016
  C           1.38947894496223      0.28706141394209     -0.62333847720213
  C           0.92419005512359     -0.99955453220323     -1.28481563370360
  C          -0.19219193294062     -1.64436845412156     -0.44055109711210
  H           1.76865018695431     -1.69367494639879     -1.33232848459193
  O           0.47677471936751     -0.65065135944672     -2.58748919046422
  O           0.31424335274912     -2.63923838082619      0.44386648752778
  H          -0.87015760056438     -2.16175531765881     -1.12381104283907
  O          -2.36689825845753     -0.98535128524467      0.47571087400768
  H          -0.54930138874352     -0.45509377951921      1.31386084948131
  H          -1.40516553939079      1.83249519484302      1.42460350596863
  O          -3.15096531715704      1.67602031827756      0.29069994026057
  H          -1.49792094981800      2.80426078853934     -0.05763369826961
  H          -3.33643708479236      0.76147908023420      0.54849875109722
  H          -2.40135488878945     -1.70670770549977      1.11468667767708
  H           0.94538481513743     -2.19872117884511      1.02864950720080
  H           0.27795575844238     -1.46672655831645     -3.06103253205426
  O           1.87610433911920     -0.09588823333528      0.64160501488851
  H           2.18416418461388      0.77543608067834     -1.19748878237878
  C           2.48358146794869      0.97317381636144      1.36316150642534
  H           2.91214502953947      0.54112462103426      2.26689249477262
  H           1.74578498899337      1.73227485593300      1.63448435580954
  H           3.27748422692754      1.43426832279083      0.76509648579319
