27
Coordinates from ORCA-job goat_0_75 E -727.013577559544
  C          -1.01007354585479      0.70387943219285     -0.49995064048750
  C          -1.43643850155948     -0.76187928161745     -0.54241701875771
  O           0.30459062490232      0.89177553688194     -1.03556543625308
  C          -1.17850897533204      1.37567391085017      0.86845930837444
  H          -1.66154000646475      1.25013993285099     -1.19017187441308
  C           1.34000948585494      0.09399954640290     -0.49479963512703
  C           0.99798310662614     -1.39815660941402     -0.50998136804697
  C          -0.39457553910315     -1.70336050424413      0.05763825395051
  H           1.75359042864749     -1.92118108536584      0.08158337431244
  O           1.09957966549836     -1.89133964418700     -1.84080145597013
  O          -0.46090631625986     -1.56607881159699      1.46933210669690
  H          -0.65242048571601     -2.72626412943285     -0.24032701400247
  O          -1.60631587704328     -1.20021464383017     -1.89716667222019
  H          -2.37632743010164     -0.87656186924085      0.00570968433624
  H          -0.62206767166603      0.85260565856052      1.64266351535347
  O          -2.56352365446305      1.46864021611449      1.20637562173941
  H          -0.79616167502312      2.39550910359007      0.78614426550970
  H          -2.79782707116502      0.69544501166473      1.73000409934616
  H          -2.16258133531487     -0.56264169829756     -2.35998315024779
  H           0.20721714765268     -2.14208999332579      1.85809547461040
  H           0.28717952336058     -1.62707451191657     -2.29995397735548
  O           1.69529237864356      0.46579489202136      0.80917531362598
  H           2.18422223701852      0.26215883264841     -1.17317471819170
  C           2.33514370904878      1.73761310330790      0.87017305836260
  H           3.23277245079503      1.74545427540913      0.24092522950461
  H           2.61863152987563      1.90074395370328      1.90977484830921
  H           1.66305456694306      2.53740917627047      0.54823681704106
