27
Coordinates from ORCA-job goat_0_55 E -727.017784332450
  C          -1.23940401000771      0.79384503626917     -0.26653717440223
  C          -1.62741790644249     -0.69361141539376     -0.23248404190005
  O           0.03262120392574      1.01127177753963     -0.90214130968879
  C          -1.34726743827062      1.47996111499582      1.09003480921043
  H          -1.94623137070291      1.29485982454608     -0.93178453983795
  C           1.13704635557948      0.26096039567941     -0.45901704151848
  C           0.78244855027101     -1.18729301652825     -0.12546039828036
  C          -0.52209855391712     -1.55509823182081     -0.81566823324473
  H           0.64694096670688     -1.28794154037324      0.95704895944386
  O           1.86922320077748     -1.99666002023213     -0.55529265075203
  O          -0.86654135024981     -2.91769078580193     -0.57609190515672
  H          -0.43994451809798     -1.37141137914160     -1.89217219555694
  O          -2.84490118008311     -0.84731927556794     -0.95808665524884
  H          -1.77890048304150     -1.01043298952416      0.80602865321679
  H          -1.04758952321769      2.52844564125689      0.97532064087298
  O          -0.60922742821190      0.85316460337965      2.13013075771196
  H          -2.39815336796132      1.45611887698302      1.39108802320085
  H           0.33034903428643      0.91588400001716      1.88965498389871
  H          -3.08314835983858     -1.78176091642937     -0.90959298677251
  H          -0.47039565620004     -3.45800085503776     -1.26816783513640
  H           1.75586177626760     -2.86958893853076     -0.16146903669870
  O           1.76026190641715      0.82862762455373      0.67409570997245
  H           1.84038185259605      0.27741152621179     -1.29796324320880
  C           2.39116219637461      2.08277513525476      0.40186087409185
  H           2.88982596173333      2.38963213855544      1.32042340286861
  H           1.65498501124778      2.83702230329339      0.11378292637910
  H           3.13011189985919      1.96682916584585     -0.39754248346408
