27
Coordinates from ORCA-job goat_0_1
  C          -1.11414046371024      0.76347590159560     -0.05136923888186
  C          -1.53230706742845     -0.70491256810412     -0.04970179428937
  O           0.16914168062718      0.88741611969654      0.56077549516541
  C          -2.06263062993925      1.65697154763648      0.72772277074099
  H          -1.07141825846698      1.12287663687992     -1.08951772369520
  C           1.18240513542062      0.20088345415143     -0.15983963089744
  C           0.89450336220518     -1.29534299156899     -0.15570260725690
  C          -0.47951417729422     -1.54562399531340     -0.75271273704177
  H           0.91256120180877     -1.64494999636139      0.88388927326894
  O           1.83854375676850     -2.00404696560604     -0.94506711523296
  O          -0.87147626348539     -2.90807757984317     -0.62542633078026
  H          -0.45631487220216     -1.26115861018310     -1.81362915622741
  O          -2.78589369611452     -0.80515079728776     -0.71213169804890
  H          -1.62065870710017     -1.04462214336642      0.98906600654195
  H          -1.71032716089422      2.69188677321960      0.64971114604361
  O          -2.18321121362172      1.26787640675726      2.09118571168420
  H          -3.05861110791655      1.59299256780643      0.28847851150834
  H          -1.30163502498134      1.30804581956679      2.48102426312412
  H          -2.99321463879887     -1.74496922784233     -0.78469710140861
  H          -0.26755419068293     -3.44000702351440     -1.15677789913614
  H           2.69939239538607     -1.92408604698484     -0.51751984837826
  O           2.39901013940228      0.40995936909588      0.47125388985061
  H           1.20954962548712      0.58258710175508     -1.19359696146788
  C           2.93839061696177      1.71503554977791      0.25364077626736
  H           3.92193024747548      1.73040909707452      0.72187574715083
  H           2.30465065994333      2.48075291730648      0.70805381337220
  H           3.03882742095072      1.91177848365612     -0.81898955197560
