27
Coordinates from ORCA-job goat_0_203 E -727.017151740732
  C          -1.11648009213493      0.70513081726190     -0.08231154807299
  C          -1.15842139508606     -0.78267867823529      0.26854512803397
  O           0.19721698540762      1.20909824065797      0.12824089478180
  C          -2.02499697240951      1.54364040723778      0.81113475011048
  H          -1.40597142544369      0.83407460280919     -1.13602123188888
  C           1.16582834716463      0.58234742028705     -0.70330251151831
  C           1.26325991426896     -0.90734260400863     -0.34575277299876
  C          -0.10677710971374     -1.54599316811869     -0.52196967820977
  H           1.56507317729447     -1.01239420443106      0.69872010725352
  O           2.26495126881749     -1.55294357207247     -1.11431088953619
  O          -0.03670274150228     -2.90082800857142     -0.09706744822891
  H          -0.38228482607664     -1.50237740607725     -1.58680936205908
  O          -2.41525289998625     -1.37200016416484     -0.04386570477919
  H          -0.93846321270433     -0.89316753008350      1.33987037986951
  H          -1.72589375127485      1.40638091902541      1.85284160513034
  O          -3.39180575394485      1.13528149121651      0.72081112657833
  H          -1.91533737206488      2.60063062205590      0.55273673859107
  H          -3.75630292260194      1.48036666121098     -0.10313835716236
  H          -3.09517851332469     -0.78766718692177      0.32521710634392
  H          -0.93027800089864     -3.26069507352178     -0.15833460417590
  H           2.00066140404988     -1.53196706921529     -2.04272243954394
  O           2.36022739682245      1.28203130862723     -0.59153732385043
  H           0.86246207390009      0.68587170351526     -1.75465653558841
  C           3.03937268813754      1.15731353737355      0.66123648927312
  H           3.52107401810203      0.18006957461565      0.75130548571305
  H           2.35715948199685      1.31318237080550      1.50016549558576
  H           3.80285900300529      1.93463478872215      0.67097311034816
