27
Coordinates from ORCA-job goat_0_91 E -727.016143386760
  C          -1.19118273105061      0.72466210516772     -0.36422407243630
  C          -1.56896512166302     -0.77487178846119     -0.41483943284714
  O           0.10096764134242      0.98548011756786     -0.93851462793628
  C          -1.37071441915141      1.35220031611694      1.01363208505767
  H          -1.87539635411608      1.24694970135539     -1.03685692491325
  C           1.19837668950296      0.25617117182102     -0.44808361219010
  C           0.85756160299802     -1.20207656961436     -0.14902801460096
  C          -0.39843041908191     -1.60988083012220     -0.90634116140248
  H           0.67044220680956     -1.31570349971196      0.92639827808408
  O           1.97304151785357     -1.99215364055910     -0.53245177892804
  O          -0.62261769194434     -3.00898620383924     -0.76956962889832
  H          -0.25292915653891     -1.43702207001184     -1.97628862520428
  O          -2.66773487788502     -1.00933048906468     -1.29207939011160
  H          -1.82702361565294     -1.11229550334947      0.59633774109583
  H          -1.07582115253885      2.40674221261694      0.95801865163855
  O          -0.68214518875457      0.68810699918900      2.06463493964747
  H          -2.43547228595307      1.30914071726772      1.25969385309296
  H           0.26768110056293      0.79267124440112      1.88885575723230
  H          -3.46734335374028     -0.67927231693199     -0.86672237457278
  H          -0.89435508481562     -3.18593774766216      0.14070723070615
  H           1.67560975451041     -2.91158628573536     -0.51341127220272
  O           1.74772819682790      0.82232093666157      0.72350631625563
  H           1.94402235969867      0.29761591984327     -1.24819769743247
  C           2.35335313173872      2.09881327219830      0.50345811017471
  H           1.60821964038880      2.83916995942223      0.20273641581490
  H           3.12562637791558      2.02104058074764     -0.26866266255967
  H           2.80750000253704      2.39803149068694      1.44728990743613
