27
Coordinates from ORCA-job goat_0_41 E -727.013517155640
  C          -1.20704779126908      0.49731410227925     -0.21335674205313
  C          -1.16473496013728     -0.93853284508354      0.32483097056735
  O          -0.02005733781967      0.86502377671698     -0.93850094710256
  C          -1.50758687947755      1.51500321074217      0.87337953603912
  H          -2.00655807961387      0.54256267927986     -0.96035416533482
  C           1.18467219871665      0.23451114429562     -0.55247807403766
  C           1.09612480996616     -1.29770064701822     -0.60890951617996
  C          -0.34936337172836     -1.77875018472315     -0.65081611405664
  H           1.55948103381456     -1.69143402036776      0.30372388277262
  O           1.82164324468161     -1.73373009973123     -1.75211756733311
  O          -0.42387237863068     -3.17703306535837     -0.41281057904645
  H          -0.74259338880519     -1.63375354286092     -1.66231937894220
  O          -2.48161563822836     -1.42568421496557      0.52935934569004
  H          -0.69073920924043     -0.96630357910930      1.31205217055168
  H          -2.44332611423614      1.24196388249186      1.36550710626892
  O          -1.69030337231892      2.81993477449765      0.33114248151125
  H          -0.70628651986370      1.50973052911282      1.61953613952566
  H          -0.92475006442069      3.00677996897196     -0.22612180461787
  H          -2.90863251558901     -1.51943677877802     -0.33191420034608
  H          -0.15575080783945     -3.34522504204925      0.49968654394984
  H           1.73876487674558     -2.69486805301064     -1.79147224022496
  O           1.59046187663028      0.59120177087881      0.74279520466048
  H           1.91839656223274      0.58033901163630     -1.28773610011710
  C           2.03652101837527      1.94151508471032      0.84228271752990
  H           2.84359999910766      2.13019435195703      0.12588467986100
  H           2.40972553525575      2.07658852046771      1.85700765190815
  H           1.22382604349209      2.64978906501784      0.66171700855660
