27
Coordinates from ORCA-job goat_0_281 E -727.010176101126
  C          -1.35774565808338      0.76074134689425      0.05354431325899
  C          -1.55325027132607     -0.47157334291238     -0.81354103845990
  O           0.00599852714433      1.21588147714044      0.07749742617413
  C          -1.84062915475870      0.55963012886003      1.48588390232196
  H          -1.93386088763136      1.57865545568935     -0.38869775825714
  C           1.01482029017135      0.30400377808528     -0.33581683521833
  C           0.71052932957240     -1.10692465315682      0.14660594538122
  C          -0.59830615351587     -1.61871653927397     -0.44971852767311
  H           0.61559836586426     -1.06578007753019      1.23788204689848
  O           1.74508111766253     -2.00733426506392     -0.22355425617530
  O          -1.28123657636267     -2.49245437315709      0.44444971622381
  H          -0.35306628811254     -2.14945567819744     -1.37698417915459
  O          -1.34791580405776     -0.05165479363691     -2.16103488803078
  H          -2.57867315650037     -0.83075796863869     -0.67510387104337
  H          -2.91868747937792      0.38380355301468      1.48058501823805
  O          -1.61307560573120      1.73388496626647      2.25756156460213
  H          -1.35372795620092     -0.30453571307331      1.94799682611924
  H          -0.67545740946351      1.94548612118115      2.16227612294280
  H          -1.52889249796394     -0.80187473498115     -2.73937781562731
  H          -0.69365555762654     -3.23050440175820      0.64630356414072
  H           2.56349173418283     -1.67982069755936      0.17011162598505
  O           2.21643317572745      0.69048996030742      0.25453083689224
  H           1.10900379148149      0.33374784092839     -1.42954120967482
  C           2.79217988351069      1.85615446074086     -0.33547514617540
  H           3.76680406459097      1.99747581598610      0.13079068650500
  H           2.16947662655212      2.73582008196014     -0.15282746586996
  H           2.91876232005229      1.71561205188501     -1.41434859432382
