27
Coordinates from ORCA-job goat_0_256 E -727.012492733367
  C          -1.04865272689324      0.61466612103869     -0.55222844660475
  C          -1.10592953339192     -0.69692775109781      0.22445886062815
  O           0.29532326915945      1.11628914145167     -0.63130995905630
  C          -1.90439188900159      1.70455414911974      0.05865770084175
  H          -1.41791298663593      0.43719838301592     -1.56917651922633
  C           1.34090390399884      0.17708887237085     -0.58167507980639
  C           0.94921183215615     -1.15512238722749     -1.20869971881492
  C          -0.23189714885992     -1.76617557712471     -0.44122096745070
  H           1.80061128974470     -1.83918164338342     -1.14184626013519
  O           0.54428747515604     -0.97705085703581     -2.56033951695949
  O           0.19354510866604     -2.73442437805637      0.51337602286093
  H          -0.84547032129883     -2.30417747025183     -1.16711599675548
  O          -2.47092914594497     -1.10167371838602      0.27720153001601
  H          -0.73146693769171     -0.51844116133892      1.23559896093323
  H          -1.73771611114513      2.62967189869318     -0.50506863318769
  O          -1.55362618432933      1.88045860327618      1.42946574083725
  H          -2.95568488100880      1.41818110748627     -0.04146403376162
  H          -2.11247596399137      2.57770462865443      1.78821372103616
  H          -2.51934126419697     -1.88596998118080      0.83609382078293
  H           0.75722854374979     -2.27390547662705      1.14914322407515
  H           1.28080996964980     -0.59004474826488     -3.04861958988948
  O           1.73317839256557     -0.12812722370572      0.73683378415223
  H           2.17627999150480      0.64821193186970     -1.11463293915890
  C           2.28138525154553      0.98572989961946      1.43738306151923
  H           1.52627221359062      1.75910129386179      1.59683708771561
  H           3.12495892199543      1.40901997642285      0.88037322439944
  H           2.63149770070694      0.61334616680013      2.39975893100916
