27
Coordinates from ORCA-job goat_0_214 E -727.013460565662
  C          -1.22679792810550      0.50619338845811     -0.16387097828292
  C          -1.18619796105838     -0.89844591304855      0.45140666014910
  O          -0.05260437176109      0.83241094977706     -0.92870218392435
  C          -1.49489054700142      1.57991054183445      0.87683605720304
  H          -2.04251596694741      0.51900393201536     -0.89478993966179
  C           1.13955980034408      0.17275722725235     -0.55457048314398
  C           1.00783941774559     -1.35962723581699     -0.60887134788406
  C          -0.44154970279589     -1.81466721915439     -0.50466003136040
  H           1.55813536700822     -1.77117814195566      0.24225157652633
  O           1.51560804700734     -1.88925069687177     -1.82978071775766
  O          -0.52679339636408     -3.15549334316381     -0.04375759883130
  H          -0.90238079820180     -1.73069009899186     -1.49914667778387
  O          -2.50723122592558     -1.33567765488438      0.73292912431529
  H          -0.67259313338177     -0.88579956959230      1.41717791200065
  H          -2.42800651763064      1.34804395352576      1.39406600235713
  O          -1.66108115169466      2.86028998855653      0.27467869756835
  H          -0.68329026643607      1.59548399762596      1.61172560197135
  H          -0.90053833972801      3.00354066689773     -0.30218524680010
  H          -2.97751645347517     -1.43944361224967     -0.10439534894921
  H          -0.05553239513242     -3.70640605973394     -0.68045188588969
  H           2.47888709370415     -1.87664174846906     -1.79013450529329
  O           1.56353549655460      0.51700330343889      0.73878137464448
  H           1.87650053102601      0.50209112970853     -1.29528167774588
  C           2.05444120946394      1.85179797855561      0.83619310524256
  H           1.26873001685149      2.58620951195110      0.64151761307943
  H           2.87610690565608      2.00792786289203      0.12854931645869
  H           2.42017504007836      1.98065666144286      1.85448359179205
