27
Coordinates from ORCA-job goat_0_264 E -727.012505274363
  C          -0.94989221212644      0.66837196411971      0.12980568362870
  C          -1.35995812806051     -0.70515827252867     -0.44161378828331
  O           0.36723886068987      0.62033682113848      0.68529020547166
  C          -1.86807355898982      1.16620542060292      1.24045872390662
  H          -0.96737130155642      1.40163134569485     -0.68773367119947
  C           1.29203577401163      0.05763170940998     -0.24461135830291
  C           1.04097229961307     -1.45069143611445     -0.37697376276181
  C          -0.39686099707001     -1.78377637430715      0.05572040655674
  H           1.72511371905441     -1.97383952554019      0.29456490757793
  O           1.33315874496867     -1.90231300380157     -1.69128517286273
  O          -0.49854457473452     -1.94068959576672      1.46552690962906
  H          -0.67370927962177     -2.74225419725588     -0.38710656559220
  O          -1.26736053771297     -0.74236157176282     -1.86941655644578
  H          -2.37847849245358     -0.95619059083510     -0.13063780700279
  H          -1.92967719731456      0.42920533958843      2.04664008129462
  O          -3.16053047852546      1.47330778257891      0.72868722849376
  H          -1.44859321811617      2.08851624268236      1.64822521303015
  H          -3.71432954811342      0.68876769540938      0.79825345593012
  H          -1.82157366946642     -0.04349005667352     -2.23496244716978
  H          -0.11151726189873     -1.15277931239856      1.86977045770833
  H           0.64804222207039     -1.53393260707577     -2.26728512315493
  O           2.57945181603753      0.26611587490148      0.22298860241809
  H           1.14656624456624      0.55260563566815     -1.21763283331462
  C           3.01045224207632      1.62386340292302      0.11071715908314
  H           4.05169865885532      1.64971672818459      0.43024067017267
  H           2.41483716514418      2.27920271812309      0.75091577764171
  H           2.93690147847317      1.96199766303505     -0.92854838645296
