27
Coordinates from ORCA-job goat_0_282 E -727.012865800639
  C          -1.17679101765902      0.81221656119078     -0.38335573383740
  C          -1.65726546237111     -0.64609221126239     -0.40495886526570
  O           0.13159368341654      0.97334834446122     -0.95694339534965
  C          -1.39332733982674      1.57825960688962      0.92071230823211
  H          -1.82891541429400      1.32848565444558     -1.09388531493601
  C           1.16107802184900      0.07778065945814     -0.60518256616365
  C           0.73381895801915     -1.38875857097685     -0.68184921764530
  C          -0.59031875658494     -1.65046507654948      0.03735750207083
  H           1.52583484595611     -1.99740697149035     -0.23160651562392
  O           0.51729962711479     -1.77358970557010     -2.03775927329634
  O          -0.46294128043011     -1.55463924580494      1.45264952533085
  H          -0.93410766773143     -2.65226547892765     -0.23908059294802
  O          -2.13143654650995     -0.99455915411237     -1.70319259558194
  H          -2.51361029786837     -0.73488098543847      0.26814576419811
  H          -1.08542353249629      2.61391492964731      0.74680824453873
  O          -0.72536794572560      1.12840434858418      2.08604543128697
  H          -2.48062806892095      1.58167698191610      1.08525205586440
  H          -0.53895116663526      0.17965622424065      1.98718560413620
  H          -1.35231549820698     -1.14662236955066     -2.25882795226710
  H           0.34679056609188     -2.00066161863539      1.72893873709162
  H           1.31328473102349     -1.58445656147684     -2.54873410292989
  O           1.68984397895487      0.28642093182455      0.67230084332505
  H           1.93681009327225      0.27118959757068     -1.35910404245267
  C           2.26252307570836      1.57923675421272      0.83850139015393
  H           1.49465246930290      2.35540977267464      0.82147778861169
  H           2.99922231147656      1.77596973614825      0.05033801423632
  H           2.75864640287488      1.58242764653107      1.80876496922077
