27
Coordinates from ORCA-job goat_0_233 E -727.012913104225
  C          -1.10868531907789      0.42351624905976     -0.03503391104813
  C          -1.46654666403642     -1.07107286761454      0.07469723906005
  O           0.19983650678170      0.64441729594228      0.49929705546178
  C          -2.09112894246239      1.28541422023949      0.71934091953585
  H          -1.11665024855333      0.71346816730064     -1.09364981406491
  C           1.20191104383775      0.11686458974179     -0.36735386832867
  C           0.89157787543365     -1.34512318907593     -0.75342308806923
  C          -0.18105797914286     -1.90965223296709      0.17601641513111
  H           1.81143353368305     -1.92897764776578     -0.66354254993769
  O           0.35809613807513     -1.43501571183849     -2.07358588614253
  O           0.30108027568538     -1.97419857007761      1.51171745581790
  H          -0.41421539301864     -2.93293664040234     -0.12407555909477
  O          -2.29643050312024     -1.47693605370853     -1.00644219092335
  H          -2.04406542662368     -1.25232842129324      0.98517011810550
  H          -3.10382305099177      0.97488623438408      0.43536084903160
  O          -1.86641620408621      2.65238722963960      0.38854143491344
  H          -1.96299474459810      1.11458360133102      1.79542386858555
  H          -2.47567010891092      3.18692781471794      0.90931756634697
  H          -1.75400301597477     -1.42503955741719     -1.80601850564250
  H           0.46343316724389     -1.06522393098252      1.79883113258992
  H           1.01530460239298     -1.11245720865544     -2.70088263695820
  O           2.41550155654496      0.15399528718812      0.30491153080065
  H           1.23663396991108      0.74411882702506     -1.27268231033265
  C           2.89476190266369      1.48158218794301      0.53076959071893
  H           2.93308250457220      2.03647360187163     -0.41318961448404
  H           3.90015368404840      1.38573269406174      0.93930776776885
  H           2.25887960952333      2.01459383135259      1.24117500115859
