27
Coordinates from ORCA-job goat_0_98 E -727.021443739914
  C          -1.13478214673573      0.50977789012436      0.09313480744900
  C          -1.35215449592391     -0.99920204520977      0.20842443586716
  O           0.15742493703909      0.83218522336792      0.60404634054225
  C          -2.13535102704389      1.30918653507345      0.90363376196457
  H          -1.19805790234017      0.81101730344970     -0.96367183903702
  C           1.21306470475558      0.26356165589589     -0.16021022190140
  C           1.13940649361244     -1.25354499263369     -0.05994394624633
  C          -0.23060426134988     -1.72560008743688     -0.52379049557364
  H           1.28030096957933     -1.53044708599816      0.99298181889909
  O           2.16476876550164     -1.81108212863613     -0.86755540779034
  O          -0.27865027557180     -3.13147551081689     -0.31171452758211
  H          -0.32245999649122     -1.50831009188908     -1.59850288724598
  O          -2.62415852497419     -1.40299124750356     -0.28613226382498
  H          -1.33668035842633     -1.28399001415136      1.26443364487527
  H          -3.14521389933480      1.08085314274975      0.56213063071605
  O          -1.94414308757783      2.70966933894871      0.73953538225245
  H          -2.04971177780694      1.02462612079096      1.95998761174558
  H          -1.03471744149730      2.90358394191351      0.99754627038244
  H          -2.68776816555493     -1.14202478880518     -1.21434796588899
  H          -1.11568703804148     -3.45302801445930     -0.66755191974081
  H           2.00909760185435     -2.76329668912065     -0.90130965450614
  O           2.41670038423673      0.69570707298056      0.37127819224079
  H           1.11131335201932      0.58413426283628     -1.20986327840077
  C           2.70776492875226      2.06159260568718      0.07103112721108
  H           2.70628287487360      2.22285440977353     -1.01243592684448
  H           3.70150141538885      2.26502626111691      0.46857370496479
  H           1.98251274085724      2.73121673195198      0.54029061547246
