27
Coordinates from ORCA-job goat_0_178 E -727.011971558634
  C          -1.11252154331162      0.69609263635995     -0.32318853277405
  C          -1.53321158979244     -0.78887141413110     -0.39453230207650
  O           0.13890211869519      0.92641388566161     -0.97510273797089
  C          -1.13637586844839      1.25473933541678      1.09724446913227
  H          -1.83651348856367      1.26892673324015     -0.90690103771691
  C           1.25186246265118      0.22720188115140     -0.45437460823664
  C           0.89298133774911     -1.19150367666208     -0.01890403569685
  C          -0.34130099805093     -1.65890861284964     -0.77896651288279
  H           0.67434382931465     -1.19494242873051      1.05736660430011
  O           2.01190372230225     -2.02356552699093     -0.28443602867457
  O          -0.57551816462876     -3.04516920647841     -0.55639426435767
  H          -0.15136170165627     -1.56372370601261     -1.85277005932678
  O          -2.64079554678318     -1.00244814318256     -1.26247759353791
  H          -1.88663106762773     -1.09761676292204      0.59392168310310
  H          -0.54736957182338      0.63651743905558      1.78014342883715
  O          -2.50670158740355      1.27506707731689      1.49590542215556
  H          -0.71280944844557      2.26458380571021      1.08883823344103
  H          -2.53782118984178      1.41493164471012      2.44818277556342
  H          -2.36529171471071     -0.78553254083893     -2.16192992773153
  H          -0.90483932017718     -3.15755632548229      0.34469085398785
  H           1.69982477016063     -2.93441495138693     -0.19902077170500
  O           1.83730521438522      0.88159743589174      0.63804358500831
  H           1.96354154299857      0.18110472454199     -1.28665319529229
  C           2.45541610298515      2.11702656685242      0.28559202995045
  H           1.71467813024797      2.84511211624561     -0.05556501958602
  H           3.20201979272329      1.96243309646771     -0.50184383137102
  H           2.94628254685196      2.49250471704585      1.18312938345816
