27
Coordinates from ORCA-job goat_0_226 E -727.011716329711
  C          -1.13654227311992      0.54374763158183     -0.20380748020095
  C          -1.13708158502728     -0.88906702264877      0.35044680225385
  O           0.04074371016365      0.85456755572772     -0.96282639745806
  C          -1.39138297258653      1.55407644092640      0.90631084679868
  H          -1.95669892414003      0.60925156576358     -0.92859639688835
  C           1.20973007367075      0.15363011045540     -0.60253053064723
  C           1.04962183009202     -1.37104363470743     -0.74534119248880
  C          -0.40877645400627     -1.80116110384108     -0.63037587698220
  H           1.62021744389156     -1.84195207820731      0.06281951965871
  O           1.52061906900736     -1.81794042125616     -2.01154510596994
  O          -0.52797463626911     -3.17724437226486     -0.30245835313259
  H          -0.87418556853528     -1.69454235915964     -1.61620046022561
  O          -2.46856701231758     -1.30992033819631      0.60879779584189
  H          -0.63025617038119     -0.92199186881999      1.32060518693537
  H          -2.28920000691439      1.23914355930729      1.45031445476334
  O          -1.53134754689908      2.88683198230686      0.42440168942237
  H          -0.55368438188874      1.56091161837698      1.60361041432605
  H          -2.33092438279521      2.92696051447525     -0.11311273153788
  H          -2.92552913069641     -1.40598496896275     -0.23676476117097
  H          -0.18030246373194     -3.30666899525856      0.58880862726136
  H           2.48343576516064     -1.76536057323939     -2.01209676203239
  O           1.61761718324269      0.42825128056300      0.71341156911217
  H           1.96761498283506      0.50359866511492     -1.31252716233319
  C           2.10909905629105      1.75844274749028      0.87238171336167
  H           2.39844007225544      1.86705347179661      1.91733505663156
  H           1.34234772548047      2.49813508212351      0.62795713317142
  H           2.98296536701833      1.91827531055249      0.23098041152977
