27
Coordinates from ORCA-job goat_0_217 E -727.014991224636
  C          -1.41171634598996      0.55228198901038     -0.12522624957234
  C          -1.73115758511133     -0.95289206499521     -0.21167507354484
  O          -0.24086877278536      0.88993269303802     -0.88237093638014
  C          -1.34183647843316      1.02913310079407      1.32591518975659
  H          -2.21292822602306      1.10063446141991     -0.62375590695048
  C           0.95955568197977      0.26379797660280     -0.48367896359861
  C           0.74070261632455     -1.15115130929703      0.05282047261709
  C          -0.49190245027491     -1.74889361706448     -0.60616065605323
  H           0.60170202547013     -1.12685017631263      1.13770459453899
  O           1.85043185716109     -1.98277987237382     -0.26675423616395
  O          -0.67677526819529     -3.10058669364526     -0.21511495486849
  H          -0.36474066823696     -1.68707596015732     -1.69662228886866
  O          -2.82617673108155     -1.23034767715901     -1.07850216761139
  H          -2.05260656523420     -1.30663415154846      0.77224693480387
  H          -2.34089935531945      0.92439377100835      1.75634680710072
  O          -0.98220495725752      2.39754390320122      1.42653119287808
  H          -0.66037802815336      0.40999019338421      1.91794928443087
  H          -0.05068774037106      2.45280074503533      1.18158172413441
  H          -2.58032245002065     -0.95330263184166     -1.97009485073199
  H           0.17147196262020     -3.54417409368794     -0.34582394073607
  H           2.52984854472096     -1.85677662629066      0.40492400492561
  O           1.64275251433843      1.01007355904276      0.49531276059909
  H           1.56940953518809      0.20526500067025     -1.39158399903622
  C           2.33740199702593      2.13491387096713     -0.04874084453875
  H           3.08376817009421      1.80534772605438     -0.77874662301129
  H           2.83429968984759      2.63354235577842      0.78301128699395
  H           1.64385579751684      2.83181332836625     -0.52949455111287
