27
Coordinates from ORCA-job goat_0_30 E -727.013026545027
  C          -0.98237685778497      0.76284469930080     -0.38404409645806
  C          -1.14307996813761     -0.66903349652233      0.12762215634813
  O           0.30993747834114      0.98879172715667     -0.96326332927471
  C          -1.28475610221424      1.80311869848126      0.69144158085015
  H          -1.69951104045436      0.89473321630446     -1.20051799586459
  C           1.35889705930054      0.16023708294161     -0.50553111037791
  C           1.08158347922845     -1.33798877470170     -0.74575840769304
  C          -0.41791068666832     -1.61825175075067     -0.81265023827559
  H           1.50792347013691     -1.88408321827560      0.09930083981885
  O           1.76375239216266     -1.81727402574863     -1.89582259454798
  O          -0.73700702773545     -2.97635180064382     -0.53403236950455
  H          -0.77552358462563     -1.43732405395357     -1.83161764947210
  O          -2.54229528850110     -0.93575471642888      0.17165409480334
  H          -0.72000659765215     -0.76576567492252      1.13592789095053
  H          -0.67976521175250      1.60436344755658      1.58363237114325
  O          -2.67350503902273      1.82442690393396      1.01365738459957
  H          -1.02952033535182      2.79455435750246      0.31113798909951
  H          -2.96152252833966      0.90795418313223      1.12543561709624
  H          -2.64587308351890     -1.86794825321849      0.40299607116200
  H          -0.31647632559646     -3.22469858679121      0.29921923647264
  H           1.37517820190224     -1.40070463127218     -2.67526771773101
  O           1.62532291602345      0.34405154048021      0.85960447265816
  H           2.22459596446923      0.46098471029777     -1.10498741569151
  C           2.22256000967795      1.60885449521854      1.14349663246492
  H           1.56097968301426      2.43352150900572      0.86681113236835
  H           3.17121675986220      1.70925705058790      0.60464802179280
  H           2.40718103303688      1.63748516132946      2.21690544326264
