27
Coordinates from ORCA-job goat_0_269 E -727.007634322320
  C          -1.15207747138291      0.69013846310367     -0.08577866354136
  C          -1.38017604821191     -0.82895366689706      0.09236536814306
  O           0.20584712501126      1.04929310349256      0.18499058944312
  C          -2.00689404735141      1.53255522380283      0.85169722855758
  H          -1.38783072073754      0.94985640791512     -1.12739028754984
  C           1.08903827035071      0.46831827757590     -0.76605635328622
  C           0.99053619813539     -1.07966838810851     -0.73115518318885
  C          -0.03688381849280     -1.53876304154784      0.30577248171492
  H           1.96613049674882     -1.50874616153488     -0.48906258988070
  O           0.53713708335468     -1.58010732553283     -1.99185612494424
  O           0.45203819850760     -1.33787745709501      1.62596828203173
  H          -0.19149167266909     -2.61336076321673      0.19123998690807
  O          -2.09971456278932     -1.38371408922201     -1.00352393801753
  H          -1.99631152632146     -1.00601999942781      0.97594626435273
  H          -1.75747136789528      1.28529745753440      1.88685060068634
  O          -3.39053367209275      1.25103213735459      0.68716939682706
  H          -1.79303077556105      2.59367357594441      0.68638373634739
  H          -3.65847533058654      1.56115067832897     -0.18577041446181
  H          -1.48730957439141     -1.42383884533024     -1.75269920642506
  H           0.51470952040774     -0.38422704547964      1.76832765171299
  H           1.16513511263263     -1.32081202771867     -2.67629317725625
  O           2.36916143057994      0.97478764568340     -0.56322651101999
  H           0.79710537915625      0.80620892209821     -1.76826392305938
  C           2.93912464807675      0.74633370293423      0.72808527192399
  H           3.95217666058656      1.14436653934485      0.68446160477319
  H           2.98285735380335     -0.31921868351621      0.96846486407424
  H           2.37720188093184      1.27229515951435      1.50335105513475
