27
Coordinates from ORCA-job goat_0_260 E -727.011541295994
  C          -0.91375140679468      0.57251481509728     -0.07503435348879
  C          -1.35701055990988     -0.90152294971057     -0.07922091700387
  O           0.36616319322765      0.69482037600995      0.53696507851142
  C          -1.88773876559923      1.46546596105291      0.67338050563654
  H          -0.85290523854704      0.91558588912329     -1.11717931650109
  C           1.38396498711562      0.16311466991670     -0.31893006633555
  C           1.01894535700082     -1.25611949510960     -0.81134336334315
  C          -0.13124071987984     -1.81654578103523      0.02775205816439
  H           1.90160390829650     -1.88540512184627     -0.68578526010474
  O           0.69065407393531     -1.25794205197209     -2.19639242282984
  O           0.26552668631759     -1.99024423278728      1.38085589508882
  H          -0.40207350256795     -2.80455356764207     -0.35004276833265
  O          -2.03294537381430     -1.22278992909282     -1.29827679883287
  H          -2.00811140671325     -1.10806585308451      0.77713223002458
  H          -1.90242342602689      1.19192968016420      1.73235901702536
  O          -3.18400035638298      1.31885007135830      0.08746831603925
  H          -1.57994154542341      2.51008676165440      0.58514897076295
  H          -3.73922988948921      0.81840046560913      0.69392522500950
  H          -2.74365052198018     -0.57663634029392     -1.40831019147249
  H           0.47397973526387     -1.11391622683504      1.73232690373298
  H          -0.26836923758657     -1.14854832907396     -2.28524519523054
  O           2.56236653885463      0.09966601055724      0.41026789554653
  H           1.48891664111862      0.83577621472986     -1.18316863127162
  C           3.09993682805750      1.38462351212403      0.73077950397970
  H           3.19747497109462      1.99179933811604     -0.17589444062981
  H           4.08510371199699      1.21270396826303      1.16309561875342
  H           2.46875408823567      1.90695194470705      1.45336451710156
