27
Coordinates from ORCA-job goat_0_71 E -727.015815492537
  C          -1.23792318067018      0.52075035582415     -0.22211591115900
  C          -1.55123545163051     -0.97698493408342     -0.14983043899527
  O          -0.04923440378339      0.79789550423103     -0.98380227402646
  C          -1.26447818296696      1.22665777454677      1.13316001943142
  H          -2.03504672623137      0.96877198349075     -0.82296249206681
  C           1.10336219889091      0.04645525764970     -0.69849180394160
  C           0.85240877962184     -1.46358627866034     -0.71821936767773
  C          -0.31922985805457     -1.82620499178166      0.19493142587743
  H           1.75775281984702     -1.96932503707458     -0.36901392581147
  O           0.50825463732929     -1.89344666650648     -2.03231386781809
  O           0.03895769659187     -1.69375907657529      1.56454387921981
  H          -0.57906540309541     -2.87418088148067      0.02718106157817
  O          -2.13664095608979     -1.42802342273635     -1.36986783565005
  H          -2.30175348545769     -1.13694841470902      0.62745554171019
  H          -2.20151127262238      0.95340475339412      1.63266750988854
  O          -1.16316526520694      2.64165482728191      0.99757976151529
  H          -0.43947110936240      0.92574273550974      1.77416960602828
  H          -1.93819558267182      2.95119516995105      0.51413911042368
  H          -1.41832367060049     -1.50654975948873     -2.01523604448549
  H           0.66351451514639     -0.95760996830961      1.64198767643277
  H           1.21639267957110     -1.64516505539320     -2.63885212282086
  O           1.66516196180925      0.33438120488017      0.56123515961794
  H           1.81119130341522      0.32369736157507     -1.48944492402856
  C           2.15487637684626      1.67208320035663      0.67970652506238
  H           1.33797802848871      2.39341820775514      0.61899374085975
  H           2.88618062482395      1.87243404175262     -0.11043349822562
  H           2.63924169586215      1.74324190860057      1.65283149906141
