27
Coordinates from ORCA-job goat_0_69 E -727.016715090656
  C          -1.28776030455916      0.75764763104811     -0.21360221617651
  C          -1.71647203321714     -0.72742808976695     -0.18392694570640
  O          -0.04045724396147      0.96016889472648     -0.89994726450488
  C          -1.32446144260029      1.42433418081282      1.15656405687133
  H          -2.00955613789321      1.29044700108478     -0.83740507559618
  C           1.06575560587488      0.18677504507823     -0.50499234949684
  C           0.69411139388820     -1.25039769977255     -0.13253679739427
  C          -0.63406461018825     -1.61890702978447     -0.77163839106904
  H           0.59439262460974     -1.33434322781250      0.95394889627743
  O           1.67660958578395     -2.16754008547313     -0.60129689619811
  O          -0.96030182861246     -2.97343806031186     -0.50135121495646
  H          -0.57122648244090     -1.45498987428021     -1.85712430675957
  O          -2.97435336080024     -0.92140480040052     -0.82242592760419
  H          -1.87187805827988     -1.03998726291502      0.85103638171214
  H          -1.00888317868614      2.46860364504368      1.04651607499060
  O          -0.55460755091620      0.76550086974019      2.15311643449083
  H          -2.36167207620923      1.41554017787425      1.50241449086797
  H           0.37629134635657      0.83426335954879      1.88371638268750
  H          -2.87456310737205     -0.70127403163883     -1.75725340760560
  H          -0.16538957198986     -3.48804264881325     -0.69393119669809
  H           2.37082802425501     -2.23841233406189      0.06309392173687
  O           1.75708554241099      0.74640243539933      0.59310655342848
  H           1.72795244389775      0.17681338544571     -1.37672429570468
  C           2.39596207867871      1.98852944714796      0.28681213228838
  H           2.94951743907588      2.28541576419290      1.17674794627634
  H           1.65929984939927      2.75635220132969      0.03882137432457
  H           3.08783982329551      1.85937090655826     -0.55174035048159
