27
Coordinates from ORCA-job goat_0_183 E -727.014564168822
  C          -1.11767425152213      0.51163472150189      0.06047255946158
  C          -1.42430544474407     -0.93273001810979     -0.38833929379980
  O           0.20969697423240      0.61306737523759      0.59058431223240
  C          -2.06025932891838      1.00031788844911      1.14427114304288
  H          -1.19586140030266      1.17602466022673     -0.81019748088151
  C           1.16113538731209      0.07065439014201     -0.32432994679557
  C           1.03787973438975     -1.45936527310211     -0.34562459485553
  C          -0.35492044827578     -1.88329017585315      0.15265324668534
  H           1.77970687814073     -1.87369903984196      0.34042991708909
  O           1.33721610553305     -1.97735027893605     -1.63340988678247
  O          -0.40715029367510     -1.94824986936401      1.57159701011644
  H          -0.55645104079079     -2.89105106750464     -0.21493467410610
  O          -1.37142939490209     -1.07288216727136     -1.81133395818981
  H          -2.40756803024604     -1.24082244973726     -0.01789885292908
  H          -3.08262368532519      0.97074529408395      0.76186769669701
  O          -1.79166684319086      2.34763338375061      1.50952350233494
  H          -1.99962473993144      0.33823535139137      2.01651110164473
  H          -0.88052719686867      2.38376300646225      1.82492334740583
  H          -2.00842247740297     -0.46915180082463     -2.20983253031860
  H          -0.08897580347114     -1.10018005025784      1.90856158781713
  H           0.60751081588720     -1.71656723101921     -2.21315854119730
  O           2.43484935723988      0.42313342926283      0.09069834094866
  H           0.94971988030998      0.48084415230598     -1.32415710325839
  C           2.73862732774157      1.80237935768167     -0.12933100806327
  H           2.61952547516954      2.05381271922447     -1.18876130514401
  H           3.77740807644536      1.94594273130335      0.16592754578707
  H           2.09418313696578      2.44715076079805      0.47328587505836
