27
Coordinates from ORCA-job goat_0_7 E -727.016645314180
  C          -1.22682476215913      0.72520548651451     -0.30406664332248
  C          -1.60116560402177     -0.77507602798247     -0.27425355695315
  O           0.04997192310715      0.96359462607294     -0.92135746574025
  C          -1.37036844025446      1.40711901593567      1.05174484275072
  H          -1.92945586453796      1.22071612422502     -0.97847438096835
  C           1.16059841699147      0.24004547485695     -0.45157435930587
  C           0.82787527501924     -1.21449309298885     -0.12498001428124
  C          -0.46156905802460     -1.62243508558703     -0.82532406395253
  H           0.68257359439222     -1.31633725412420      0.95844750526072
  O           1.92486680327491     -2.01226523814709     -0.54374558414569
  O          -0.68861476277593     -3.01865620543667     -0.67153093795400
  H          -0.35918337174495     -1.45703519596925     -1.90248806468676
  O          -2.83319200944599     -1.02253987306746     -0.94081036037283
  H          -1.77420474566398     -1.07852509322539      0.76235272720021
  H          -1.07392903515512      2.45767529519760      0.94883820873685
  O          -0.65429985627495      0.77864332448615      2.10620080657143
  H          -2.42804564813484      1.37595205954641      1.32722576993158
  H           0.29052208835837      0.85934192606929      1.89421137709430
  H          -2.71851849702688     -0.81278055762637     -1.87632658063545
  H          -0.93987552718684     -3.18819772819336      0.24606086869364
  H           1.62739817758894     -2.93076820092986     -0.49904259412615
  O           1.74301001954643      0.82214252835240      0.69563702343062
  H           1.88282483812798      0.27067234814865     -1.27335395072863
  C           2.34722181749311      2.09263766882781      0.43849580864023
  H           1.59704397832808      2.83047481526998      0.14414080368235
  H           3.09940605496233      1.99876944136537     -0.35140875713215
  H           2.82593296501720      2.40611921840927      1.36537958231286
