27
Coordinates from ORCA-job goat_0_220 E -727.010706328710
  C          -1.30980969204508      0.49739105811531     -0.09515859386435
  C          -1.34686385906374     -1.02442791649325      0.16435405628063
  O           0.00285192278933      1.02625159659394      0.13202229662695
  C          -2.25302170084141      1.25805901470195      0.81242768475546
  H          -1.58383927828126      0.68109385692662     -1.14211343244234
  C           0.91273231841697      0.54406759908897     -0.85037718233555
  C           0.98287336936628     -1.00097446043123     -0.80601355784388
  C           0.08247502122168     -1.56610666863951      0.29879399069402
  H           2.01354827472957     -1.32090282634799     -0.63639684925910
  O           0.53244316408971     -1.45767110141233     -2.08725391116591
  O           0.62070592201833     -1.29322647903995      1.58695563521491
  H           0.04790030553303     -2.65410989366324      0.20372896250260
  O          -2.08295598324872     -1.70090254454485     -0.84759354935142
  H          -1.86631297506595     -1.23148169123557      1.10371862422219
  H          -3.26246212155302      0.86088934632974      0.68523923685423
  O          -2.30389476231914      2.64318045054003      0.49862793950984
  H          -1.94852236662087      1.10279018410273      1.85588510342559
  H          -1.40172767247816      2.98106402185620      0.55464470357169
  H          -1.54543194073182     -1.66658085268203     -1.65229237845692
  H           0.57309298351141     -0.33738220597653      1.72136039375871
  H           0.78027434098013     -2.38582462642022     -2.17892588601548
  O           2.13331104007211      1.19145837075997     -0.69632530114126
  H           0.54944583969235      0.83520287688492     -1.84237436724170
  C           2.78090103868577      1.02583381603757      0.56708439041413
  H           3.72886580831124      1.55698952066751      0.49062010628258
  H           2.97661630590962     -0.02730016378553      0.78612939257980
  H           2.18680346672174      1.46261951806671      1.37323050242455
