27
Coordinates from ORCA-job goat_0_277 E -727.008919556925
  C          -1.19503038229662      0.92716646597912      0.06918591091926
  C          -1.46867959979344     -0.25902039091576     -0.84696098411690
  O           0.19048440183374      1.29395870030482      0.07727563970199
  C          -1.63872749862453      0.69945136222388      1.52363040381720
  H          -1.73668505167428      1.79046986731024     -0.33258450059856
  C           1.13018929119882      0.30397284606802     -0.32296309685287
  C           0.71642407434831     -1.09789523028098      0.11334242354043
  C          -0.65863425605399     -1.48541346144269     -0.43726176509093
  H           0.67475222230168     -1.09982426139435      1.20822825903366
  O           1.66327777104639     -2.05649280722296     -0.33906231716163
  O          -1.44398572526897     -2.18825061561027      0.52705520072816
  H          -0.50767762498679     -2.10468321541099     -1.32688971029322
  O          -1.11233368997649      0.04277761059209     -2.19438232764083
  H          -2.53032952266042     -0.51241663149338     -0.78608621881208
  H          -0.92614419159666      0.04258336427561      2.02760515481039
  O          -2.95872588631090      0.18065611020324      1.62799029959579
  H          -1.62646597828635      1.66211636787292      2.03895682581789
  H          -2.89560231123434     -0.76816744559685      1.45459007272140
  H          -1.57651868431624      0.84785084669627     -2.45287233018858
  H          -0.93892883098044     -2.94689397465628      0.84209511041426
  H           2.51930892455897     -1.80946737765092      0.03319025553549
  O           2.34510204619943      0.57599918181041      0.30721100690584
  H           1.26039277024668      0.34533045470738     -1.41149025237688
  C           3.03695145894131      1.69366558850848     -0.24900097272149
  H           4.00888601293317      1.73999083968350      0.24155681144939
  H           2.49174236191110      2.62323384497036     -0.06530805351676
  H           3.17695666834090      1.55930176046905     -1.32705283562046
