27
Coordinates from ORCA-job goat_0_224 E -727.011583869906
  C          -1.00795815140802      0.59239731166014     -0.59304097310011
  C          -1.07538565927267     -0.72311919628572      0.17807797410418
  O           0.34494572570469      1.05846970632841     -0.76848242237681
  C          -1.79641507992098      1.70611642644629      0.06587573892257
  H          -1.45123426110916      0.43100011634786     -1.58458818937062
  C           1.39093019305250      0.12548546453927     -0.58774559186644
  C           1.01706532983241     -1.21010025632420     -1.20839619732396
  C          -0.19937983639922     -1.80187654932958     -0.46989067983176
  H           1.85159841590221     -1.90653621755479     -1.11029995459310
  O           0.76907358281686     -1.04446658675942     -2.59947218602750
  O           0.18797005984211     -2.77419645361341      0.49888598933786
  H          -0.79955105024421     -2.33396079619035     -1.21091125215576
  O          -2.44694579798199     -1.11049794400664      0.20430607896746
  H          -0.72074992389971     -0.55184779083643      1.19639356756028
  H          -1.64101686361370      2.62526304370015     -0.51042051731620
  O          -1.35458902394659      1.87280583937482      1.41037939575822
  H          -2.85897443874088      1.44649574276106      0.03209304607345
  H          -1.86766902127118      2.58762339333529      1.80158208118291
  H          -2.52109109179466     -1.87408943248821      0.78836777525773
  H           0.73105807450196     -2.31809903728381      1.15531751360467
  H           0.39628831160095     -0.16591366436377     -2.74343151633898
  O           1.68323734421769     -0.12501004618218      0.76061954739318
  H           2.25489318571906      0.57962261593869     -1.08563739601368
  C           2.18016462233468      1.01886843105373      1.45523028805899
  H           1.40987696330168      1.78890351523975      1.53349758876516
  H           3.05816490883079      1.42447182601012      0.94031463786625
  H           2.46569225174538      0.68219033848294      2.45137366346202
