27
Coordinates from ORCA-job goat_0_254 E -727.011072821994
  C          -1.11974135628967      0.47702116993792     -0.27926040084952
  C          -1.12050633241073     -0.95018680413885      0.28822769251609
  O           0.08502412467236      0.79444301943020     -0.99164191940098
  C          -1.44001855745892      1.48979659564989      0.80373472315680
  H          -1.90741553839283      0.52668010046179     -1.03857400428356
  C           1.25995071372354      0.14805813776299     -0.55243291119595
  C           1.15225375452246     -1.38812705615927     -0.62082503034453
  C          -0.30458866713961     -1.84769589130594     -0.63730947564626
  H           1.63425550664139     -1.79261132366228      0.27263416626115
  O           1.88229346643807     -1.91280306209857     -1.72151704049930
  O          -0.42552204703269     -3.22612701580238     -0.32462380689484
  H          -0.69814903171257     -1.74497400963658     -1.65575400905577
  O          -2.45275436528049     -1.40483283150950      0.47065888123892
  H          -0.67204732939452     -0.96335323468508      1.28750723115102
  H          -2.35807878500538      1.16155093871032      1.30466989346522
  O          -1.62501371769338      2.76819727235880      0.19890352924173
  H          -0.63229022781907      1.51756191189941      1.54030211238870
  H          -1.82719135472949      3.39827713305539      0.89884361087009
  H          -2.85398925019008     -1.52489975303750     -0.39956748580165
  H          -0.13446163065288     -3.35723098341492      0.58652751380477
  H           1.44269281865805     -1.63800065304457     -2.53590531038783
  O           1.61246378525574      0.50316996228148      0.75972347283945
  H           2.03307844802276      0.48263757573877     -1.25267614481504
  C           2.03201225722116      1.86271324391100      0.86913746092178
  H           2.31134281159732      2.02507473441876      1.90984313057853
  H           1.22775336906915      2.55050312150438      0.59547279135976
  H           2.89864590518035      2.04515750137434      0.22389933938116
