27
Coordinates from ORCA-job goat_0_35 E -727.013779442853
  C          -1.53205820431899      0.64516971454171     -0.34683998966390
  C          -1.52008733041602     -0.86067118496571     -0.02037984790699
  O          -0.38145570700585      1.05374160656224     -1.11259387702861
  C          -1.75846171118514      1.51616796468230      0.88294421346239
  H          -2.36443333932604      0.83421159223810     -1.02961698452243
  C           0.88710278756009      0.65052519405024     -0.69772379752190
  C           0.93450786132786     -0.81024055516622     -0.21761411382063
  C          -0.32014358560943     -1.53737898104820     -0.66073884977384
  H           0.97726197167902     -0.83248776550681      0.87886978431426
  O           2.10672649973787     -1.40111054511000     -0.76411290211624
  O          -0.19935169940522     -2.88929495271399     -0.23696060590065
  H          -0.40440744828348     -1.49136001025599     -1.75491438974134
  O          -2.73678209064019     -1.50177318770456     -0.39483416454615
  H          -1.44629579243369     -1.00304987355592      1.05971880112227
  H          -1.73031979050094      2.56909259787332      0.57863424808759
  O          -0.84825427258407      1.26881635103898      1.94493046928890
  H          -2.75909625090759      1.29677056560298      1.26558276501521
  H           0.03919062469838      1.48613240831561      1.61126085390963
  H          -2.86377767600408     -1.38072111903758     -1.34477785223696
  H          -1.03204937359776     -3.33196473351115     -0.44259533091372
  H           2.09892748717603     -2.33231667864629     -0.50915171705130
  O           1.33699577528230      1.56524788398767      0.29393292538918
  H           1.53477369490545      0.74480840006256     -1.57646151914533
  C           2.72916320418398      1.44695057874815      0.58784075638832
  H           3.32035946026605      1.54836656341634     -0.32838171985517
  H           2.95882620657460      0.48836893155425      1.06120981395877
  H           2.97313746862688      2.25799903454798      1.27277104080864
