27
Coordinates from ORCA-job goat_0_38 E -727.013477186985
  C          -1.11475823286015      0.73610589629569     -0.20428002146402
  C          -1.56572120063984     -0.73213388677487     -0.23854903042283
  O           0.12749452619391      0.93450425277841     -0.88687273740056
  C          -1.09179162778792      1.31506386192978      1.21251689315068
  H          -1.83776185329053      1.31283551983192     -0.78660286294347
  C           1.23249863239563      0.19089259873705     -0.41322907288792
  C           0.85018966541862     -1.23662971927695     -0.00883475314471
  C          -0.43766020955418     -1.63159256119197     -0.71555364958342
  H           0.69560426079870     -1.27859193663890      1.07236338129136
  O           1.90357713196710     -2.15428177921918     -0.27354254788272
  O          -0.80632719696585     -2.97335795471014     -0.42340007517501
  H          -0.31114981482432     -1.50298175535461     -1.79904110747392
  O          -2.70632601170962     -0.83661825068117     -1.08915327846538
  H          -1.83886576881306     -1.04775569582063      0.77514499053511
  H          -0.47866935059368      0.70992110270621      1.88090702114069
  O          -2.40402996727944      1.31877503893299      1.76696522006884
  H          -0.66967464296141      2.32467701724352      1.17864326479982
  H          -2.93901219042840      1.94524014872630      1.26534558342467
  H          -2.99061127793057     -1.75891788920580     -1.07670493983052
  H          -0.04972357663779     -3.53307064404609     -0.63824451304174
  H           2.12159447541063     -2.10695618143770     -1.21363062722122
  O           1.86524352334118      0.79381682141352      0.68154056149482
  H           1.92114952886720      0.16197876031889     -1.26779515468469
  C           2.50298023915781      2.02628550103622      0.35368705885837
  H           3.02719854264844      2.35893633660486      1.24917911395064
  H           1.77097153856970      2.78262760560298      0.05853638994701
  H           3.22357962730783      1.88122759219968     -0.45939709703987
