27
Coordinates from ORCA-job goat_0_255 E -727.014321252551
  C          -1.10450012045846      0.70137372651430     -0.52508346902785
  C          -1.51180322120326     -0.77836267158685     -0.49955174071849
  O           0.21931072264116      0.90334191028922     -1.04599056562107
  C          -1.40892991368850      1.49977466481074      0.73612781098059
  H          -1.74174202329853      1.16343704588175     -1.28418900765193
  C           1.27113442174180      0.08324212486406     -0.58321512140094
  C           0.92483042763773     -1.40099617261145     -0.63314789906962
  C          -0.41815610858550     -1.71238994897127      0.04120630595788
  H           1.72178101657277     -1.95579958518835     -0.13167168197746
  O           0.86990789386490     -1.74223348872435     -2.02431040917044
  O          -0.32016861674013     -1.69176218874530      1.45162195884286
  H          -0.70080362484290     -2.73202702799764     -0.23705556979302
  O          -1.89421022023179     -1.19656531468802     -1.81107527477837
  H          -2.39991698195456     -0.88167427691415      0.12871705481968
  H          -1.02148704712525      2.51454669391990      0.59914203503344
  O          -0.86869504940893      0.94074116030404      1.93902601934186
  H          -2.49827365067998      1.55618654078540      0.81789149877992
  H          -1.50887999603532      1.07803541440752      2.64511134791159
  H          -1.07305622508129     -1.33077276289248     -2.30862667504820
  H          -0.36046103452203     -0.76090644107928      1.74348914137121
  H           0.87865217885127     -2.70441230256749     -2.09410464356622
  O           1.67367825282176      0.37641297342714      0.72350226011675
  H           2.08855041019142      0.29003666577720     -1.28437852286055
  C           2.19038136119973      1.69434230269138      0.87088401994416
  H           2.99105084007166      1.87614194634508      0.14410185939089
  H           2.59359905248276      1.76421502517227      1.88089091967410
  H           1.40820602557947      2.44607378677667      0.74068635851923
