27
Coordinates from ORCA-job goat_0_44 E -727.014663242120
  C          -1.23569271599067      0.72240771568028     -0.27073324485578
  C          -1.63438640944191     -0.76973752750999     -0.23541880331017
  O           0.03878932934209      0.93381262339663     -0.90050659170051
  C          -1.35334054085197      1.40970982393052      1.08499306759859
  H          -1.93553229752938      1.23038512484696     -0.93875204030391
  C           1.13527769228643      0.18931147098768     -0.43239924485561
  C           0.78588610635114     -1.26392788886809     -0.08534926731292
  C          -0.51585936415260     -1.65772586674237     -0.77931187670212
  H           0.64328721631290     -1.34678001167662      0.99616427373138
  O           1.87247795968118     -2.12251206950810     -0.38965284186786
  O          -0.81224020752114     -3.03517491660277     -0.61951950704521
  H          -0.41665260763702     -1.50156418658018     -1.85970555381521
  O          -2.87054346707513     -0.99438306682558     -0.90360915871339
  H          -1.81509681635487     -1.06822332499421      0.80107465771714
  H          -1.03736727379923      2.45412771057827      0.97759095813957
  O          -0.63969657478730      0.76948507382562      2.13434117079267
  H          -2.40876382476295      1.39954042042342      1.37040423723377
  H           0.30470707422667      0.83713869885548      1.91582615030153
  H          -2.75158761043804     -0.78209506387264     -1.83794795543934
  H          -0.87344319901103     -3.22344558073196      0.32572975116722
  H           1.94522308035535     -2.19383671802156     -1.34993733462606
  O           1.74213803200772      0.76883924195806      0.70329707572257
  H           1.85158083412847      0.20169523447670     -1.26139825790615
  C           2.37034811447049      2.02416190343616      0.43101009065212
  H           2.86327352587490      2.33517567874522      1.35127378350690
  H           1.63332940758286      2.77520220386541      0.13674630191544
  H           3.11388330653302      1.90841309692771     -0.36421183002465
