27
Coordinates from ORCA-job goat_0_219 E -727.014510390160
  C          -1.18658809528066      0.53217580004324     -0.41744321952943
  C          -1.11719163657384     -0.75823239082152      0.40146922299228
  O           0.11848106031945      1.10909035719965     -0.60415906508279
  C          -2.03446488292803      1.60574788724413      0.24205815130172
  H          -1.61991624519552      0.30978822505909     -1.40061451206440
  C           1.21555014270140      0.22578370477172     -0.62574561469556
  C           0.84006827518236     -1.14382164008469     -1.17860760489346
  C          -0.21719611430605     -1.79920939685679     -0.27750448169903
  H           1.73290102136024     -1.77597991723236     -1.18220087802565
  O           0.29212561842277     -1.03094754840598     -2.48575543212386
  O           0.37163750379999     -2.67468997684975      0.67722010399355
  H          -0.83674785940392     -2.42835279631359     -0.92236082676478
  O          -2.41879582075428     -1.27286133636807      0.65599303494252
  H          -0.69978953613714     -0.52159255785324      1.38065588887441
  H          -2.04453442314505      2.49011326359287     -0.40566629417253
  O          -1.57533494306703      1.94387478196392      1.54605966764938
  H          -3.05683343812682      1.24239002707650      0.34815019529331
  H          -0.68006189611563      2.28954843144306      1.45110386568872
  H          -2.81187570185801     -1.53655071601588     -0.18537367012743
  H           0.95729368082850     -2.13733245573688      1.22698306846924
  H           0.96539928592824     -0.65506302200772     -3.06540737961851
  O           1.73336742031173     -0.01569330489899      0.66157058646090
  H           1.97490877029786      0.71883357099892     -1.24462056020402
  C           2.39302851186912      1.11078987677355      1.23352008600552
  H           1.70150066552368      1.94523882177915      1.37547808450700
  H           3.22224710576500      1.43277556306597      0.59400032393517
  H           2.78082030038158      0.79417654843364      2.20119526888768
