27
Coordinates from ORCA-job goat_0_247 E -727.016853296051
  C          -1.31384742297787      0.56015297941422     -0.01831627273843
  C          -1.30439821572440     -0.92524771344433      0.35260598879459
  O           0.00174407915237      1.10313076238825      0.08393724069066
  C          -2.19036246032981      1.38050354346146      0.90739257690995
  H          -1.67199825300046      0.67184797107357     -1.05308404799512
  C           0.89896710893490      0.49328197211373     -0.82455101858105
  C           1.07119822441658     -0.98317100408078     -0.46030607597590
  C          -0.28235379158907     -1.68296037609541     -0.49769906105678
  H           1.47298233217458     -1.05802072286336      0.55877676082440
  O           1.93105985207867     -1.62344424299631     -1.39022516362264
  O          -0.18331456678969     -3.04696234935398     -0.11549737833181
  H          -0.63355076113732     -1.69529139085651     -1.53627648678635
  O          -2.60351001494725     -1.48698551281618      0.23595913882818
  H          -1.02856011850221     -1.02215024543763      1.40850639380816
  H          -3.20912678675947      0.99453086131735      0.87958829093778
  O          -2.24748306496903      2.74424451384474      0.50524802888694
  H          -1.80844814639037      1.29141760143851      1.93247544832987
  H          -1.33948132879443      3.06948839647164      0.47471543032888
  H          -2.85009173092554     -1.49085351888465     -0.69786975603717
  H           0.12588441220608     -3.08212648629376      0.79867938196881
  H           2.75787622853465     -1.12672716091223     -1.41836344209611
  O           2.09716413364430      1.20615432803606     -0.83627371167648
  H           0.50578843741766      0.57000221297636     -1.84663854770013
  C           2.80407148906982      1.26230351087691      0.40866545416847
  H           3.25087455705633      0.29610248188851      0.65989473777747
  H           2.15004116516238      1.58680895567859      1.21988984996447
  H           3.59887341278865      1.99397043305521      0.26876425037933
