27
Coordinates from ORCA-job goat_0_82 E -727.013301702084
  C          -0.98908670713404      0.77807228986896     -0.48451687314206
  C          -1.18967154813640     -0.62240918951217      0.09509381133853
  O           0.33075054636270      0.96383249204083     -1.01370012410847
  C          -1.32336606122168      1.87686684909070      0.52099563450000
  H          -1.66855950621869      0.87403676787129     -1.33752186882328
  C           1.34104113844331      0.12642592045771     -0.49367665183782
  C           1.04105385332001     -1.37101360023948     -0.70465599284631
  C          -0.45828412068593     -1.63302451206026     -0.77238167468262
  H           1.46220040637173     -1.91110443048702      0.15063659111245
  O           1.61071552709211     -1.84229912189051     -1.91908245072275
  O          -0.80138067635622     -2.96853680956503     -0.41895761534872
  H          -0.78802673238006     -1.50924940130358     -1.80773036251008
  O          -2.59456432742649     -0.86317422181221      0.10879764956458
  H          -0.79972570747071     -0.67157628181560      1.11967465072082
  H          -0.76205230672270      1.71603079198022      1.44883117544010
  O          -2.72422183177365      1.93575106913888      0.77891770519764
  H          -1.03471954549351      2.84340557493728      0.10247978506121
  H          -3.03126058851298      1.03104875597797      0.92949601449304
  H          -2.72177407136320     -1.78136909481028      0.38053009815715
  H          -0.41769550381107     -3.16303387774595      0.44582858338321
  H           2.56734775005784     -1.89020375805661     -1.80682908840690
  O           1.55754402540249      0.33937359506279      0.87649073895300
  H           2.23611033482456      0.39709195611391     -1.06479014566709
  C           2.16920133680338      1.59860671040345      1.15325258793584
  H           3.14163744853911      1.66551173626866      0.65285295925772
  H           2.30919633162347      1.65207616642727      2.23245975004454
  H           1.53758930566656      2.42886342365878      0.82750312293623
