27
Coordinates from ORCA-job goat_0_232 E -727.019222731673
  C          -1.18370756521656      0.64177209882702     -0.38231492343285
  C          -1.53079932348059     -0.84435143859259     -0.51862954467715
  O           0.11007304028581      0.94785032581565     -0.92559782163808
  C          -1.42176350491295      1.24893842700466      0.99763462161959
  H          -1.87144044125124      1.18750227284553     -1.03732380802328
  C           1.20477867594268      0.15382318931983     -0.52855647384011
  C           0.93273546874537     -1.34904032636391     -0.64984332906076
  C          -0.41496317063228     -1.78999828880471     -0.05765584546422
  H           1.73525527213790     -1.88078111249838     -0.13606493910791
  O           1.00378431318036     -1.70647636053573     -2.02714192127036
  O          -0.37719150946858     -1.95322735324902      1.34616046743910
  H          -0.63358733425032     -2.77355404260638     -0.48101494596261
  O          -1.74370832388449     -1.17301201940046     -1.89801303160836
  H          -2.43678417990814     -1.04916603348836      0.06216424390657
  H          -1.16663169012030      2.31253564973732      0.94690185739986
  O          -0.72374657551881      0.63227248546042      2.07805154549723
  H          -2.48676341814305      1.16140237790312      1.22337821031272
  H           0.22707139394570      0.70098650038686      1.86952938911622
  H          -2.37090005519638     -0.54498983202350     -2.27542040669584
  H          -0.56657159138428     -1.09232113479060      1.76672666114079
  H           0.15516750244785     -1.46004289620610     -2.42604852414952
  O           1.64605041578823      0.45707164803204      0.78167840436177
  H           1.99874079359019      0.41294869929161     -1.23451662261267
  C           2.34362515179145      1.70754286566177      0.85340300752629
  H           2.66537310918927      1.82959658064909      1.88702511934441
  H           1.68928399780542      2.53635344824426      0.57082160027066
  H           3.21661831831772      1.68636406938055      0.19466501960842
