27
Coordinates from ORCA-job goat_0_235 E -727.014179727700
  C          -1.08172808148163      0.55926479970569     -0.53356163333165
  C          -1.02475150527476     -0.75708926652012      0.24066238439538
  O           0.21431359644398      1.18022239331640     -0.57999287310840
  C          -2.02740092358599      1.57693834513065      0.07656466070939
  H          -1.41628907347956      0.35321722829125     -1.55849189034387
  C           1.34124350103068      0.33124889509632     -0.49832259128011
  C           1.08756842143860     -1.03314630523429     -1.12656159563636
  C          -0.13354332061095     -1.73550181988021     -0.50767771687504
  H           1.97007656779394     -1.65588332227329     -0.95484089581765
  O           0.90234613088811     -0.78315749306597     -2.51576364674629
  O           0.31764540942244     -2.79119452185917      0.33375174555239
  H          -0.72580320941677     -2.14547323275079     -1.33605627957336
  O          -2.31430700769051     -1.35648297826693      0.34828623380474
  H          -0.60823935068422     -0.57565703827498      1.23263092954024
  H          -1.98551376491483      2.49602153869169     -0.51901333128923
  O          -1.73286223182906      1.84662532408608      1.44328841669362
  H          -3.04798022884888      1.19279620707440      0.03996519390103
  H          -0.84010756828881      2.21052427415448      1.47536831286650
  H          -2.75850634883211     -0.98477029950152      1.11834270480130
  H          -0.46543598007917     -3.20376925966460      0.71863773983885
  H           0.81894707197595     -1.63289518269855     -2.96322149544169
  O           1.74417805279651      0.10930874799159      0.82777502816401
  H           2.13368737863586      0.85461829358642     -1.04465142305029
  C           2.29699320969827      1.26857821217516      1.44375184669592
  H           2.63151101864835      0.97165183407239      2.43740826434912
  H           1.55288273952181      2.06436411708005      1.53600748019126
  H           3.15107426652274      1.63964030953790      0.86571244099017
