27
Coordinates from ORCA-job goat_0_34 E -727.013699791519
  C          -1.10181486554242      0.58078641798181     -0.24956843770585
  C          -1.19691941029255     -0.84455470723653      0.29965096851699
  O           0.13008529648965      0.82279690879890     -0.94278870255194
  C          -1.37276629063795      1.60754773655993      0.84174136912612
  H          -1.87325212737476      0.67724781450576     -1.02049874074001
  C           1.27294117340194      0.14074542118724     -0.47117056906849
  C           1.09257735041737     -1.39025192906018     -0.46452564350608
  C          -0.37733127241695     -1.76901763775144     -0.57979833551553
  H           1.47352870937210     -1.77107301440429      0.48451491345104
  O           1.86989368356420     -2.02553128685464     -1.47320405986574
  O          -0.61279424761857     -3.10271477757315     -0.14420364861634
  H          -0.70568520732080     -1.65008284564690     -1.62108451405354
  O          -2.57331169588923     -1.20139915338158      0.30200546264586
  H          -0.80122999500029     -0.89071550465023      1.32374538394907
  H          -2.31935235695960      1.34095884811519      1.32725709547981
  O          -1.41239582528990      2.94272224243923      0.34979357505955
  H          -0.58262965389083      1.57394477811687      1.59167208220558
  H          -2.16754067849884      3.01986490365729     -0.24499978247539
  H          -2.62110300733123     -2.13121478418278      0.55784400999076
  H          -0.18181732455337     -3.70055633911974     -0.76596686784363
  H           1.54436846048328     -1.73671020259217     -2.33543569923284
  O           1.64246414995110      0.53696755716527      0.82395746154992
  H           2.06013168107214      0.40893827424097     -1.18478956203007
  C           2.10895972469594      1.88464192323534      0.87869939299051
  H           1.32416782302056      2.58908554412335      0.59219599817251
  H           2.97181017285567      2.01434671461501      0.21577586102702
  H           2.40901450309330      2.07322689771145      1.90917899904069
