27
Coordinates from ORCA-job goat_0_4 E -727.013390311625
  C          -0.94625154084001      0.74837924376850     -0.45164326259639
  C          -1.15990239931707     -0.63346343110154      0.16893189417812
  O           0.37604421067916      0.91049548566141     -0.98177498242815
  C          -1.28617942106418      1.87887468885627      0.51624195913163
  H          -1.61936167758204      0.82125700198912     -1.31192703759371
  C           1.39024396565081      0.11410157082835     -0.40220884427229
  C           1.09466625525875     -1.39346803897537     -0.51573885342372
  C          -0.40286028253480     -1.66051401417189     -0.64888822280700
  H           1.45001034567735     -1.87122605727497      0.39847186177644
  O           1.82448245965146     -1.99847802885350     -1.57661883308025
  O          -0.75789956727548     -2.95265610446397     -0.17250137611399
  H          -0.69815277060638     -1.55498532186094     -1.70141522813991
  O          -2.56632644217208     -0.86867846508623      0.16144288186864
  H          -0.79163700352652     -0.65257768184912      1.20177635504679
  H          -0.73627653825946      1.74566268549921      1.45498149081078
  O          -2.68995895885262      1.94933653275404      0.75598627660069
  H          -0.98948105989386      2.83072285276342      0.07057189429930
  H          -3.00284248679894      1.04845225173070      0.91812070340611
  H          -2.71214535695536     -1.74554472262115      0.53816000039452
  H          -0.40632945321303     -3.60681829855081     -0.78728909150828
  H           1.50646100610944     -1.63286121240805     -2.41199542043955
  O           1.59489718105026      0.41666989176394      0.95240239540064
  H           2.28738000693565      0.35103408476351     -0.98416475387425
  C           2.19278175615241      1.69679060975359      1.15315103690829
  H           1.55407765076321      2.49927906102647      0.77583062287159
  H           3.16625990753378      1.74294958260489      0.65256159324579
  H           2.32829898322952      1.81726563345414      2.22753295033814
