69
Properties=species:S:1:pos:R:3 -90.1007702047=T converged=T charge=0 spin=1 pbc="F F F"
O       -1.35489729       0.86371754      -1.52369939
C       -1.71581433       2.21953695      -1.72861524
H       -1.53644872       2.50679271      -2.77488497
C       -3.19714878       2.37346540      -1.43669954
H       -3.40038441       1.97277134      -0.43712272
O       -3.98822238       1.73937518      -2.40700769
Si      -4.38921777       0.12312146      -2.53215522
C       -4.21071677      -0.72306785      -0.88112014
C       -6.18622860       0.14066306      -3.10724418
C       -7.08710886       0.56788761      -1.94362935
C       -6.34328503       1.14331506      -4.25445417
C       -6.60611320      -1.24936892      -3.59423866
C       -3.28573087      -0.66852804      -3.80719409
C       -3.58529054       3.85212257      -1.45153342
H       -3.46440552       4.23114338      -2.47723634
C       -5.02514201       4.06139391      -1.03224418
O       -5.35140425       3.37040418       0.14885322
Si      -5.03064182       3.76555893       1.73364778
C       -5.07899028       5.61791493       1.96010429
C       -6.40197772       2.87903352       2.67468280
C       -6.22910113       3.05210453       4.18642342
C       -7.76103298       3.44073672       2.24820597
C       -6.35306996       1.38787993       2.32206698
C       -3.35690028       3.14354379       2.28157868
O       -2.76718916       4.60096299      -0.56050584
C       -1.40265981       4.55225917      -0.90962847
H       -1.26893725       4.95831191      -1.92852283
O       -0.67469061       5.29451172       0.00672457
C       -0.91619017       6.69222584      -0.06866518
C       -0.89783318       3.12499844      -0.83106706
H       -1.00673516       2.79588273       0.20943170
O        0.45001536       3.02666013      -1.25726606
H       -0.39712463       0.80535263      -1.62307694
H       -4.77341894      -0.21411115      -0.09515000
H       -3.16000666      -0.75833652      -0.59027878
H       -4.57880906      -1.75039464      -0.94281725
H       -8.12100310       0.68701130      -2.28672380
H       -6.76617239       1.52029995      -1.51225518
H       -7.09048783      -0.17828020      -1.14545784
H       -5.73026047       0.86973480      -5.11695337
H       -6.05632557       2.14840399      -3.94116768
H       -7.38631488       1.17709367      -4.58794142
H       -7.65981463      -1.24227336      -3.89329667
H       -6.49320097      -2.00738933      -2.81446064
H       -6.02119545      -1.56501618      -4.46095819
H       -3.33895546      -0.13169074      -4.75691303
H       -3.55325014      -1.71131642      -3.98860231
H       -2.25463452      -0.63355510      -3.45346778
H       -5.20374702       5.13726364      -0.92809427
H       -5.67283611       3.68667932      -1.82529103
H       -6.03015803       6.05858348       1.65607091
H       -4.27986753       6.07871457       1.37500893
H       -4.90594864       5.87339120       3.00854941
H       -5.28575757       2.62843929       4.53810565
H       -7.03713032       2.53827712       4.71855719
H       -6.26017568       4.10411294       4.48194832
H       -7.86300086       4.49647343       2.51103650
H       -8.57058246       2.89739283       2.74794274
H       -7.90686505       3.33860847       1.17086195
H       -6.47256292       1.23741326       1.24698066
H       -7.16288019       0.85080554       2.82805674
H       -5.41066275       0.92863137       2.63158840
H       -3.20145429       2.09426557       2.01957199
H       -3.24734799       3.23774935       3.36463665
H       -2.57097526       3.73720951       1.81398017
H       -0.67342153       7.07139152      -1.06647839
H       -0.26826607       7.16400476       0.66565209
H       -1.95746159       6.92129637       0.16238914
H        0.98040999       3.60204280      -0.69457750
69
Properties=species:S:1:pos:R:3 -90.1007405087=T converged=T charge=0 spin=1 pbc="F F F"
O       -1.64909000       1.04016855      -1.99867146
C       -2.08780875       2.38382037      -2.07942492
H       -2.10557182       2.71691024      -3.12733684
C       -3.50130982       2.46761422      -1.53520457
H       -3.51305654       2.03127448      -0.52968154
O       -4.39276178       1.81256879      -2.40202231
Si      -5.26288303       0.42324781      -2.08250628
C       -6.90210623       0.86698681      -1.30879752
C       -5.49237565      -0.35056107      -3.78337916
C       -6.06191992       0.69948569      -4.74296391
C       -4.13434825      -0.82112806      -4.31172883
C       -6.45569089      -1.53812536      -3.70679546
C       -4.32045386      -0.67661749      -0.90745711
C       -3.94129062       3.92819927      -1.43095539
H       -4.01317924       4.33945580      -2.44870977
C       -5.29167094       4.06170862      -0.76075951
O       -5.36323265       3.34292753       0.44786744
Si      -4.78605667       3.75342813       1.95495146
C       -4.86495558       5.60337853       2.18616261
C       -5.93705787       2.82455268       3.12398483
C       -7.39037255       3.20610353       2.82977422
C       -5.76697798       1.31782307       2.89874877
C       -5.60759020       3.16118338       4.58140791
C       -3.02388398       3.18381299       2.19624219
O       -3.01373817       4.68690048      -0.66482640
C       -1.72415682       4.70257022      -1.23309629
H       -1.77292005       5.14854141      -2.24285796
O       -0.88331393       5.44381891      -0.41728743
C       -1.18871471       6.83095511      -0.39279315
C       -1.16362958       3.29473980      -1.29590355
H       -1.08465491       2.92614747      -0.26572903
O        0.09646807       3.27099165      -1.94341077
H       -0.72207515       1.02640754      -2.26418938
H       -7.43321111      -0.03494982      -0.99431100
H       -7.55007360       1.42272340      -1.98986255
H       -6.73005823       1.48155301      -0.42162764
H       -5.40114202       1.56451655      -4.81711450
H       -7.04789105       1.04681592      -4.42431109
H       -6.17253776       0.27248182      -5.74567216
H       -3.41845373       0.00245798      -4.34719345
H       -4.24053064      -1.22202094      -5.32594380
H       -3.70938022      -1.60958375      -3.68653699
H       -6.57903746      -1.98573204      -4.69875060
H       -7.44568431      -1.23396483      -3.35889478
H       -6.08659355      -2.32110406      -3.03957204
H       -4.70847744      -1.69754029      -0.94887667
H       -4.43158977      -0.33104023       0.12357466
H       -3.25785033      -0.69644069      -1.15099499
H       -5.50176894       5.12502955      -0.60456479
H       -6.05321204       3.66233660      -1.43118908
H       -4.22597061       6.08882867       1.44516205
H       -4.48795702       5.87658814       3.17459644
H       -5.87682713       6.00076055       2.08585204
H       -7.65630299       2.97351772       1.79702112
H       -7.57125834       4.27062104       2.99839546
H       -8.06928439       2.64932738       3.48505812
H       -6.45974308       0.75773035       3.53637594
H       -4.75486340       0.98365963       3.13922459
H       -5.98083608       1.04693347       1.86204833
H       -4.58031968       2.89295301       4.83949639
H       -6.26953714       2.60591428       5.25475522
H       -5.74393837       4.22491864       4.79134713
H       -2.87900508       2.15664300       1.85275441
H       -2.74401598       3.22439918       3.25180956
H       -2.34336527       3.83142099       1.64280600
H       -0.45010972       7.30537766       0.24836249
H       -2.18725545       7.00393831       0.01135176
H       -1.12590205       7.25669378      -1.39933941
H        0.69120397       3.85055497      -1.45392702
69
Properties=species:S:1:pos:R:3 -90.1007597499=T converged=T charge=0 spin=1 pbc="F F F"
O       -1.35532924       0.86493102      -1.44238555
C       -1.74987168       2.19566196      -1.73292362
H       -1.58875305       2.41660165      -2.79815925
C       -3.23126801       2.33421312      -1.43413075
H       -3.41604103       1.98895727      -0.41040023
O       -4.01716665       1.62617677      -2.35683082
Si      -4.35176550      -0.00922946      -2.40666769
C       -4.17320892      -0.76189369      -0.71104720
C       -6.13744455      -0.08511976      -3.01051473
C       -6.30299009       0.83375264      -4.22474422
C       -6.50767657      -1.51675706      -3.40918838
C       -7.07027030       0.39105098      -1.89218756
C       -3.20154344      -0.82792035      -3.62251273
C       -3.65430399       3.80022087      -1.53253816
H       -3.55884097       4.11784766      -2.58144902
C       -5.09152527       4.00271149      -1.10077561
O       -5.37774484       3.38752406       0.13155846
Si      -5.04095844       3.90371553       1.67797286
C       -5.13897109       5.76577644       1.76902699
C       -6.37007265       3.05036325       2.70669095
C       -6.30910097       1.54346155       2.43106994
C       -6.15439451       3.30426069       4.20145836
C       -7.74964892       3.57079344       2.29415132
C       -3.34217290       3.36953887       2.24076622
O       -2.84168816       4.62154950      -0.70272928
C       -1.48062549       4.58284929      -1.06561771
H       -1.36726831       4.93115124      -2.10805801
O       -0.75991017       5.39334045      -0.20259435
C       -1.03826980       6.77827362      -0.35008244
C       -0.94171933       3.17500532      -0.90758237
H       -1.02776499       2.90960732       0.15300793
O        0.40180189       3.08009925      -1.34822301
H       -0.39838988       0.82010782      -1.55588488
H       -4.75772457      -0.22499184       0.03964748
H       -3.12574103      -0.75552351      -0.40672533
H       -4.51564733      -1.79981595      -0.72110545
H       -6.04828507       1.86514922      -3.97547272
H       -7.34093313       0.81628901      -4.57500779
H       -5.66898395       0.51982865      -5.05783635
H       -6.38674791      -2.21683198      -2.57817790
H       -5.89824348      -1.87206069      -4.24300043
H       -7.55548665      -1.56188778      -3.72510498
H       -6.78706971       1.38162373      -1.52559775
H       -7.06140152      -0.29679071      -1.04336292
H       -8.10199807       0.45122268      -2.25639978
H       -2.18145087      -0.76968326      -3.24198778
H       -3.23362540      -0.32277337      -4.59038934
H       -3.45270849      -1.87903078      -3.77724873
H       -5.29604198       5.07850214      -1.06716327
H       -5.74338508       3.55841404      -1.85336224
H       -4.35972129       6.20334639       1.14085892
H       -4.96200710       6.10356627       2.79321898
H       -6.10544369       6.15621075       1.44517849
H       -7.09321791       1.02249550       2.99140665
H       -5.34983954       1.11484081       2.73279868
H       -6.46039783       1.33476733       1.36992602
H       -5.19757417       2.90618476       4.54628123
H       -6.94193009       2.81342851       4.78369237
H       -6.18569621       4.37013106       4.44259763
H       -8.53596352       3.03790600       2.84010154
H       -7.92375165       3.41790683       1.22696848
H       -7.86197170       4.63548790       2.51276638
H       -2.57982058       3.94194398       1.71198779
H       -3.16412986       2.30632784       2.06253549
H       -3.21747171       3.55526397       3.31028915
H       -0.39372405       7.30504898       0.34902929
H       -2.08214366       6.99324176      -0.11730334
H       -0.81769972       7.10890404      -1.37004612
H        0.92771637       3.69834496      -0.82850776
69
Properties=species:S:1:pos:R:3 -90.0989792257=T converged=T charge=0 spin=1 pbc="F F F"
O       -1.54981583       0.97405591      -2.05189005
C       -1.97439813       2.32969552      -2.03263642
H       -1.92535061       2.75129401      -3.04650198
C       -3.39456131       2.47437753      -1.52579182
H       -3.46516454       2.01459936      -0.53512818
O       -4.26998800       1.85339201      -2.44189511
Si      -5.33407447       0.60441837      -2.13166216
C       -6.98275844       1.24615675      -1.54188099
C       -5.48830963      -0.24273794      -3.81154440
C       -6.42797336      -1.45122333      -3.72058818
C       -6.04751081       0.76475072      -4.82456195
C       -4.10341418      -0.70427536      -4.27964334
C       -4.63222661      -0.52678928      -0.81961487
C       -3.72719719       3.95732093      -1.39500754
H       -3.69291280       4.42192463      -2.39286393
C       -5.10308308       4.18362028      -0.80468786
O       -5.31032589       3.42175369       0.36102525
Si      -4.77905310       3.73258107       1.91154350
C       -4.64775913       5.57509707       2.18365796
C       -6.10881220       2.94323859       2.99595198
C       -7.47612058       3.53783741       2.64197090
C       -6.13272878       1.43238092       2.73160897
C       -5.80750859       3.19779651       4.47808226
C       -3.12468489       2.93202851       2.24298640
O       -2.78781474       4.57043957      -0.52438661
C       -1.43574390       4.51470955      -0.95905174
H       -1.33803954       5.06648251      -1.91040170
O       -0.65467655       5.08318411       0.02641779
C       -0.76915783       6.49420203       0.10335044
C       -0.99055003       3.07541761      -1.15086271
H       -0.97283159       2.60393547      -0.15997458
O        0.29487764       3.09177619      -1.73628453
H       -2.12858653       0.48966571      -2.65218800
H       -6.84872664       1.82375012      -0.62448844
H       -7.65200662       0.41052789      -1.32088895
H       -7.47307224       1.88404106      -2.27976113
H       -7.42760811      -1.16424560      -3.38460629
H       -6.04832042      -2.21356071      -3.03557113
H       -6.53659347      -1.92032544      -4.70439630
H       -6.09833334       0.31388038      -5.82109250
H       -5.41660859       1.65371968      -4.88847412
H       -7.05686055       1.08609347      -4.55783017
H       -3.64694610      -1.40881120      -3.57811430
H       -3.43134962       0.14844439      -4.40929563
H       -4.17510384      -1.20963197      -5.24810461
H       -3.61504744      -0.86080795      -1.03151997
H       -5.26800578      -1.41028829      -0.72034697
H       -4.62337082      -0.02519896       0.15142413
H       -5.22660077       5.25373397      -0.60789065
H       -5.84948253       3.88255556      -1.54337792
H       -4.30179032       5.77716555       3.19992269
H       -5.59580562       6.09740463       2.04135038
H       -3.91297983       5.99608428       1.49479374
H       -7.71586535       3.37536263       1.58925425
H       -7.51215927       4.61333709       2.83383752
H       -8.26251665       3.07017021       3.24373279
H       -6.91917355       0.95363937       3.32455226
H       -5.18464185       0.95897501       2.99914460
H       -6.33253780       1.21816936       1.67879622
H       -5.79744820       4.26504504       4.71385860
H       -4.84418592       2.77786578       4.77771745
H       -6.57402427       2.73229304       5.10670565
H       -3.09774130       1.89036054       1.91358964
H       -2.91051263       2.94612563       3.31451398
H       -2.32930352       3.47514700       1.73205047
H       -0.12107768       6.81485236       0.91426643
H       -1.79547219       6.79940883       0.31764426
H       -0.43716262       6.95926844      -0.83026411
H        0.52153061       2.17795222      -1.94471866
69
Properties=species:S:1:pos:R:3 -90.1005895502=T converged=T charge=0 spin=1 pbc="F F F"
O       -1.33844917       0.62328480      -1.09634657
C       -1.69945857       1.93940372      -1.47512118
H       -1.45473417       2.11446134      -2.53266614
C       -3.20121150       2.08666107      -1.31327785
H       -3.48251861       1.72607206      -0.31614532
O       -3.87008704       1.38235001      -2.33299309
Si      -4.68041921      -0.07143514      -2.21249692
C       -5.65798796      -0.10303235      -0.62067995
C       -5.78671689      -0.06874763      -3.73918977
C       -4.92621319       0.15314113      -4.98738361
C       -6.51347458      -1.41147077      -3.85974621
C       -6.81369066       1.06185151      -3.64266311
C       -3.50795191      -1.51729267      -2.24313303
C       -3.63094753       3.55130356      -1.43851398
H       -3.52826657       3.84056960      -2.49472961
C       -5.07271775       3.75281138      -1.01823748
O       -5.32588686       3.26770912       0.27929241
Si      -4.99951248       3.98783869       1.74623838
C       -5.04671106       5.84587899       1.57673768
C       -6.36368856       3.34846244       2.88136937
C       -6.20096184       1.83560586       3.06297902
C       -6.28343588       4.03531216       4.24862541
C       -7.73208114       3.62726876       2.25455205
C       -3.33115139       3.46485867       2.40205790
O       -2.84735710       4.40802684      -0.61858555
C       -1.47097478       4.35025305      -0.91335209
H       -1.30685456       4.63245904      -1.96885396
O       -0.79233556       5.21585363      -0.06984078
C       -1.03590229       6.58890969      -0.33839259
C       -0.94963471       2.95511290      -0.63920227
H       -1.11344759       2.74712227       0.42494195
O        0.42147397       2.83653568      -0.97704990
H       -0.37704838       0.56553093      -1.14483420
H       -6.03137823       0.88678235      -0.34930225
H       -5.03808710      -0.46526076       0.20314098
H       -6.50994932      -0.78208162      -0.70762726
H       -4.20406386      -0.65398635      -5.12930792
H       -4.37788549       1.09452119      -4.92421427
H       -5.55824916       0.18995475      -5.88144559
H       -7.15996986      -1.60511532      -3.00006549
H       -5.81078951      -2.24288591      -3.95041066
H       -7.14664847      -1.41693814      -4.75341559
H       -6.31932401       2.03502147      -3.60921105
H       -7.44678038       0.96456261      -2.75701500
H       -7.46898061       1.05680012      -4.52071220
H       -4.03895904      -2.45129593      -2.04439880
H       -2.75021268      -1.38025932      -1.47139024
H       -2.99280927      -1.60980788      -3.20098636
H       -5.31526282       4.81774897      -1.09749294
H       -5.71727120       3.21013378      -1.71010908
H       -4.29966487       6.16473457       0.84741456
H       -4.79490450       6.31229697       2.53217157
H       -6.02278442       6.22113927       1.26292377
H       -7.00844678       1.43896936       3.68845894
H       -5.25521875       1.58644644       3.55005656
H       -6.23938886       1.31555835       2.10325782
H       -7.06219361       3.64346999       4.91207963
H       -6.43336461       5.11475772       4.16865051
H       -5.32170098       3.86126427       4.73746235
H       -7.82281861       3.14298377       1.28072541
H       -7.90533168       4.69824078       2.12211778
H       -8.53105717       3.24251725       2.89807382
H       -3.15429512       2.40082460       2.22637506
H       -3.25998621       3.64085511       3.47814109
H       -2.53806608       4.03101245       1.91333396
H       -0.75634385       6.83481810      -1.36781043
H       -0.41777061       7.15886109       0.35077359
H       -2.08585229       6.83908252      -0.17843729
H        0.91100543       3.48721302      -0.46120397
69
Properties=species:S:1:pos:R:3 -90.0983387214=T converged=T charge=0 spin=1 pbc="F F F"
O       -1.93101857       0.35701963      -1.34982729
C       -2.02145514       1.74965203      -1.58457004
H       -1.77711697       1.97625137      -2.63260874
C       -3.45149288       2.19472668      -1.33452191
H       -3.75905504       1.84355992      -0.34247333
O       -4.29214073       1.70193389      -2.34998036
Si      -5.51458014       0.57560127      -2.19606592
C       -7.08068560       1.40757986      -1.61144928
C       -5.70362894      -0.08865383      -3.94764951
C       -4.44497322      -0.87447283      -4.32604392
C       -6.93021361      -0.99937461      -4.04331134
C       -5.86898056       1.08555781      -4.91782669
C       -5.04339588      -0.75213949      -0.97300681
C       -3.54861426       3.72295260      -1.35942929
H       -3.37593912       4.05552901      -2.39434711
C       -4.91748278       4.20639261      -0.92368786
O       -5.29060787       3.60955620       0.29679305
Si      -5.43130028       4.30383495       1.80139814
C       -7.09905495       5.13270598       1.93048609
C       -5.27976722       2.84202439       2.98055697
C       -6.24026661       1.73233157       2.54160304
C       -3.84567221       2.30433769       2.93662705
C       -5.61987718       3.26901299       4.41147601
C       -4.09635370       5.57625817       2.09849559
O       -2.59330432       4.31441492      -0.49000636
C       -1.26959510       3.99604770      -0.84768527
H       -1.07988547       4.31276809      -1.88955894
O       -0.39979210       4.64022062       0.01675226
C       -0.37273872       6.05053546      -0.15307027
C       -1.05628969       2.50518074      -0.69295849
H       -1.25544337       2.25448445       0.35679092
O        0.25208923       2.11960325      -1.07304455
H       -0.99915086       0.11825900      -1.41714111
H       -7.49565423       2.09015418      -2.35639965
H       -6.87852985       1.97681024      -0.70067561
H       -7.83998994       0.65770026      -1.37569278
H       -4.51472128      -1.23080048      -5.35970964
H       -4.30490362      -1.74677097      -3.68365844
H       -3.55319636      -0.24966261      -4.24551412
H       -6.85491259      -1.85849802      -3.37263627
H       -7.03234633      -1.38881950      -5.06144053
H       -7.85124264      -0.46316473      -3.80428068
H       -5.95259579       0.71813097      -5.94633413
H       -5.01134916       1.75816217      -4.86992248
H       -6.77094559       1.66396603      -4.70254887
H       -5.23870494      -0.42920169       0.05246283
H       -3.98675844      -1.00766866      -1.05495389
H       -5.63800466      -1.65281193      -1.14707981
H       -4.89786760       5.30049072      -0.85681042
H       -5.64581358       3.92840036      -1.68913249
H       -7.23523949       5.60235441       2.90724951
H       -7.91713082       4.42895227       1.76659249
H       -7.17887262       5.91865538       1.17530748
H       -6.14799104       0.86554776       3.20503159
H       -6.01949367       1.40141381       1.52527766
H       -7.28192266       2.06162699       2.57288023
H       -3.74872597       1.42551023       3.58332681
H       -3.12211624       3.04872616       3.27732524
H       -3.56873107       2.00000893       1.92462018
H       -5.51333566       2.41874752       5.09322246
H       -6.64859501       3.62646267       4.49333145
H       -4.95598510       4.05873352       4.77150419
H       -4.00800446       5.78875381       3.16732122
H       -4.33354402       6.51870987       1.59882870
H       -3.13124310       5.22779494       1.73019600
H        0.35525371       6.44065049       0.55391288
H       -1.35168355       6.48603239       0.05316107
H       -0.06556511       6.30898596      -1.17189077
H        0.87308635       2.61783444      -0.52962618
69
Properties=species:S:1:pos:R:3 -90.0984205545=T converged=T charge=0 spin=1 pbc="F F F"
O       -1.86943836       0.53038671      -1.47854573
C       -2.07094693       1.91414141      -1.69612927
H       -1.89808011       2.16278436      -2.75337397
C       -3.51476542       2.25466204      -1.37071854
H       -3.74870187       1.87196569      -0.36997727
O       -4.36709551       1.71505666      -2.35209795
Si      -5.49496291       0.49876893      -2.16494557
C       -7.07409807       1.19620673      -1.45340229
C       -5.74363358      -0.11798558      -3.92664347
C       -6.07287037       1.06929145      -4.83727561
C       -4.44998387      -0.77645563      -4.41457561
C       -6.89090160      -1.12980070      -3.98137445
C       -4.85803024      -0.83354839      -1.02445934
C       -3.72009218       3.77256892      -1.37110587
H       -3.62398072       4.12540095      -2.40925106
C       -5.09575554       4.15469569      -0.86251941
O       -5.36336060       3.52531810       0.36864592
Si      -5.46849919       4.19012523       1.88902023
C       -7.22292076       4.76063066       2.17166637
C       -5.00174518       2.77012726       3.03653576
C       -5.30280680       3.13355185       4.49343910
C       -5.80249459       1.52262867       2.64959367
C       -3.50735326       2.46816675       2.88480100
C       -4.31281911       5.64545566       2.07709193
O       -2.76486931       4.42251895      -0.54385275
C       -1.44324158       4.20386147      -0.97752007
H       -1.33637155       4.53929017      -2.02530924
O       -0.57468208       4.90461882      -0.15737368
C       -0.65290770       6.31362508      -0.32133775
C       -1.11549117       2.73148328      -0.84974169
H       -1.23811390       2.46055587       0.20657749
O        0.19426019       2.44292509      -1.30410157
H       -0.92766807       0.35943842      -1.59571697
H       -6.85094683       1.75290709      -0.53956035
H       -7.75974610       0.38609106      -1.19261739
H       -7.58676845       1.86764980      -2.14573325
H       -7.00813095       1.55434668      -4.54681830
H       -6.18630020       0.73191703      -5.87322135
H       -5.27754248       1.81575633      -4.81249198
H       -4.55916915      -1.10730586      -5.45328802
H       -4.18995749      -1.65094685      -3.81381149
H       -3.61324869      -0.07644328      -4.37134660
H       -6.69506337      -2.00396893      -3.35617652
H       -7.02977182      -1.48732656      -5.00685041
H       -7.83594878      -0.68753464      -3.65836087
H       -3.78660677      -0.98602946      -1.15480555
H       -5.37409059      -1.77679489      -1.22189369
H       -5.04266497      -0.57680087       0.02135964
H       -5.14970209       5.24682799      -0.78528958
H       -5.84048530       3.83060248      -1.59332480
H       -7.48969480       5.51071997       1.42306651
H       -7.33996774       5.22091916       3.15525094
H       -7.93534079       3.93802658       2.08621368
H       -4.74922153       4.01857209       4.81680567
H       -5.01358120       2.30976409       5.15441436
H       -6.36683503       3.32177349       4.65199026
H       -5.60442348       1.23463840       1.61550941
H       -6.87842468       1.68142636       2.75777796
H       -5.52669540       0.67964324       3.29241997
H       -2.88864010       3.31495135       3.19098769
H       -3.25718685       2.22335465       1.84996691
H       -3.22756287       1.60954581       3.50489335
H       -4.72528342       6.54075396       1.60561055
H       -3.34214069       5.43531345       1.62700684
H       -4.16459615       5.87541477       3.13562745
H       -1.64743855       6.68102822      -0.06327983
H       -0.41701301       6.59395058      -1.35329793
H        0.08214123       6.75167346       0.34933613
H        0.80731096       2.97873276      -0.78813178
69
Properties=species:S:1:pos:R:3 -90.0976480745=T converged=T charge=0 spin=1 pbc="F F F"
O       -1.61088646       0.88704877      -1.97030702
C       -1.97764329       2.25152349      -2.03413488
H       -1.93002435       2.61317918      -3.07092458
C       -3.39610645       2.45152618      -1.52231549
H       -3.46756185       2.01090421      -0.52181779
O       -4.28944961       1.83493362      -2.42523376
Si      -5.35868145       0.59067285      -2.11294363
C       -7.00473632       1.25189454      -1.54399803
C       -5.50728130      -0.27197501      -3.78312797
C       -6.45391615      -1.47168533      -3.68419679
C       -6.05260144       0.72112264      -4.81540939
C       -4.12777012      -0.74976318      -4.24557209
C       -4.67511580      -0.52637742      -0.78203883
C       -3.72867028       3.93367717      -1.40828581
H       -3.70092088       4.38743918      -2.41022439
C       -5.09822662       4.16943635      -0.80941903
O       -5.30810787       3.41905148       0.36414730
Si      -4.76480467       3.72652405       1.91057312
C       -4.62514514       5.56678147       2.18390838
C       -6.08525127       2.93650963       3.00078710
C       -7.45270270       3.54533826       2.67904397
C       -6.13771720       1.43082955       2.71975933
C       -5.76175958       3.16459848       4.48049361
C       -3.10560434       2.93061536       2.22291786
O       -2.78009856       4.56392604      -0.55895948
C       -1.46210388       4.48566584      -1.05731994
H       -1.41265699       4.99781424      -2.03494081
O       -0.61179469       5.09609660      -0.14820436
C       -0.77864479       6.50348064      -0.06498282
C       -0.99314808       3.04469529      -1.20407889
H       -0.94206638       2.60392085      -0.20064374
O        0.26432888       3.01557177      -1.84523309
H       -2.20586566       0.40154807      -2.55356716
H       -6.86840210       1.82644991      -0.62508146
H       -7.69216778       0.42994897      -1.32882434
H       -7.47210122       1.89886496      -2.28871267
H       -6.56124620      -1.94732989      -4.66470866
H       -7.45222365      -1.17435370      -3.35494869
H       -6.07940105      -2.23010564      -2.99281073
H       -6.09301629       0.25390123      -5.80517281
H       -5.41509938       1.60443010      -4.88932958
H       -7.06450498       1.04741214      -4.56581883
H       -3.44855423       0.09512704      -4.38649709
H       -4.20529262      -1.26295350      -5.20997830
H       -3.67957725      -1.45441711      -3.53919314
H       -3.63933365      -0.82276003      -0.95506966
H       -5.28267668      -1.43153153      -0.70462568
H       -4.72004110      -0.02661108       0.18894968
H       -5.22157695       5.24120598      -0.62252569
H       -5.85315754       3.86713697      -1.53620465
H       -4.28553159       5.77160634       3.20201490
H       -5.56981224       6.09167357       2.02879463
H       -3.88141562       5.97909010       1.49902084
H       -7.70982281       3.40139241       1.62778444
H       -7.47920588       4.61631363       2.89424948
H       -8.23280961       3.06900018       3.28312229
H       -5.19442570       0.93818492       2.96805349
H       -6.36273312       1.23320419       1.66914692
H       -6.92363554       0.95936469       3.32013553
H       -5.73777565       4.22815481       4.73022214
H       -4.79913986       2.72893622       4.75798299
H       -6.52646766       2.69660713       5.10987707
H       -2.85497502       2.96329315       3.28605569
H       -2.32805542       3.46825146       1.67971070
H       -3.08609349       1.88434620       1.90811521
H       -0.58663348       6.97302753      -1.03495804
H       -0.05507048       6.86528342       0.66099020
H       -1.78561041       6.76021175       0.26764441
H        0.88516146       3.49672863      -1.28720147
69
Properties=species:S:1:pos:R:3 -90.1004314821=T converged=T charge=0 spin=1 pbc="F F F"
O       -1.51016694       0.70035961      -1.29459124
C       -1.85424234       2.05266195      -1.54984272
H       -1.64228055       2.30806402      -2.59868106
C       -3.34395998       2.22156394      -1.31008812
H       -3.59209541       1.79849800      -0.32936197
O       -4.10821824       1.62352655      -2.32574837
Si      -4.32830818       0.02047387      -2.72986477
C       -4.32386632      -1.04715034      -1.20356397
C       -6.01447415       0.03277765      -3.57565633
C       -7.09748858       0.36885774      -2.54635336
C       -6.02319182       1.10106710      -4.67373469
C       -6.31034083      -1.33471407      -4.19842577
C       -3.00407209      -0.52599178      -3.92468640
C       -3.72781379       3.70368302      -1.31611692
H       -3.62830290       4.07393058      -2.34713084
C       -5.15735726       3.91794296      -0.86339017
O       -5.41702985       3.33257297       0.38941595
Si      -5.03718257       3.89314208       1.91116217
C       -5.00424753       5.75992443       1.92962968
C       -6.41612633       3.19841441       2.99438660
C       -6.19605807       3.57084458       4.46377455
C       -7.76419328       3.75456260       2.52763748
C       -6.43506928       1.67246783       2.85308017
C       -3.38078197       3.24605950       2.48266170
O       -2.90174729       4.46354176      -0.44426382
C       -1.53675233       4.39971809      -0.78380642
H       -1.39293314       4.77871580      -1.81163737
O       -0.81022026       5.15938462       0.11971385
C       -1.03768765       6.55687184       0.00932205
C       -1.04624971       2.97239755      -0.66022532
H       -1.17691118       2.67181482       0.38612362
O        0.30728197       2.84882126      -1.06104059
H       -0.55095434       0.63144061      -1.37290056
H       -3.33164771      -1.03951432      -0.75085276
H       -4.56945137      -2.08078565      -1.45926950
H       -5.04683039      -0.70265977      -0.46126561
H       -7.17950358      -0.40564284      -1.78052819
H       -8.07442257       0.45517748      -3.03485329
H       -6.89039868       1.31824615      -2.04665122
H       -5.28163585       0.89014556      -5.44826869
H       -5.81260491       2.08955591      -4.26168984
H       -7.00486853       1.13962693      -5.15871501
H       -7.30218597      -1.33134539      -4.66307736
H       -6.30149261      -2.13297930      -3.45173429
H       -5.58590399      -1.58888761      -4.97523474
H       -2.90456019       0.18187519      -4.75045530
H       -3.22753049      -1.50832583      -4.34579264
H       -2.04634730      -0.58683965      -3.40822628
H       -5.36192178       4.99404815      -0.84865452
H       -5.82248345       3.45725216      -1.59405153
H       -4.22978813       6.11860163       1.24906780
H       -4.75433334       6.11808767       2.93142728
H       -5.95672265       6.20658314       1.63854491
H       -6.17969644       4.65383144       4.61128345
H       -5.26090273       3.16108885       4.85176807
H       -7.00873163       3.16874568       5.07864619
H       -8.57926296       3.31820487       3.11559573
H       -7.94575972       3.51606570       1.47776073
H       -7.81758376       4.83922732       2.64876734
H       -6.58260276       1.37755173       1.81218790
H       -7.25433745       1.24619691       3.44254198
H       -5.50512069       1.22210661       3.20898773
H       -3.26194893       2.18599064       2.24548028
H       -3.26685317       3.36212041       3.56292563
H       -2.57592706       3.79979042       1.99895924
H       -0.79195174       6.90865435      -0.99766775
H       -0.38456601       7.03986472       0.73169127
H       -2.07614829       6.80293246       0.23537246
H        0.83390893       3.43477261      -0.50585652
69
Properties=species:S:1:pos:R:3 -90.0982667326=T converged=T charge=0 spin=1 pbc="F F F"
O       -1.60772827       0.46785203      -1.12331793
C       -1.76448861       1.83380928      -1.46924036
H       -1.47425641       1.99652820      -2.51754477
C       -3.22882333       2.20545175      -1.31467218
H       -3.56087240       1.90788103      -0.31372710
O       -4.02703567       1.61486348      -2.30863427
Si      -4.57675278       0.04290149      -2.42591522
C       -4.67645676      -0.74650822      -0.73968850
C       -6.28457276       0.22966676      -3.20600603
C       -6.18781751       1.17096894      -4.41043144
C       -6.81631729      -1.12898592      -3.66949943
C       -7.24457332       0.83185208      -2.17519902
C       -3.43851201      -0.92293965      -3.54137284
C       -3.41380814       3.71863343      -1.45383148
H       -3.20737596       3.99297762      -2.49960573
C       -4.83113577       4.14391532      -1.12146916
O       -5.25523762       3.58405745       0.09870853
Si      -5.51586407       4.31436500       1.56938481
C       -7.02087622       5.41533643       1.46788325
C       -5.79141361       2.84788995       2.71919906
C       -4.48413852       2.05891779       2.84591742
C       -6.23705426       3.32036581       4.10595702
C       -6.86836659       1.93678110       2.12210707
C       -4.06003296       5.35453952       2.11487851
O       -2.53944075       4.42342853      -0.58386824
C       -1.18269906       4.16518747      -0.85487924
H       -0.95638976       4.42642979      -1.90473659
O       -0.39780781       4.91161935       0.00822702
C       -0.44961991       6.30929733      -0.24075513
C       -0.89130393       2.70370291      -0.58943296
H       -1.12864835       2.51195752       0.46453604
O        0.45387630       2.37071526      -0.88033715
H       -0.66133400       0.28113729      -1.12716292
H       -5.25946040      -0.14809065      -0.03547484
H       -3.67363648      -0.88334724      -0.33226820
H       -5.14916741      -1.72953693      -0.81445565
H       -5.81128850       2.15095458      -4.11306947
H       -7.17442114       1.31088351      -4.86558841
H       -5.52323571       0.77227811      -5.18109521
H       -6.88769263      -1.84308012      -2.84528651
H       -6.18103927      -1.56667143      -4.44216381
H       -7.81975038      -1.01911154      -4.09383667
H       -6.85847289       1.77071899      -1.76876711
H       -7.41587167       0.14900092      -1.33970455
H       -8.21731589       1.04158067      -2.63387523
H       -3.32977600      -0.43387982      -4.51194489
H       -3.80711564      -1.93701193      -3.70840947
H       -2.45347274      -0.98671579      -3.07793875
H       -4.87150462       5.23975033      -1.10891880
H       -5.49316011       3.79237048      -1.91607823
H       -6.86289595       6.19617545       0.71971257
H       -7.19542731       5.91567640       2.42355379
H       -7.92242071       4.86456712       1.19497760
H       -4.62723398       1.18414321       3.48959139
H       -3.68536157       2.66391004       3.28245829
H       -4.14669995       1.69701301       1.87209778
H       -5.49342018       3.96708508       4.57768720
H       -6.38466155       2.45977075       4.76682763
H       -7.18266353       3.86525923       4.06394982
H       -7.00834765       1.04978672       2.74949218
H       -6.58875460       1.60317419       1.12131091
H       -7.83275382       2.44609426       2.05214259
H       -4.15075627       6.37824793       1.74338887
H       -3.11816076       4.94609538       1.74860306
H       -4.01659633       5.40648505       3.20624760
H        0.22484357       6.78197290       0.46899603
H       -1.46070766       6.69205788      -0.09500223
H       -0.11815193       6.53024331      -1.26083842
H        1.01826970       2.93316380      -0.33783187
69
Properties=species:S:1:pos:R:3 -90.0987808145=T converged=T charge=0 spin=1 pbc="F F F"
O       -1.16631266       1.73011944      -2.01002577
C       -2.02346782       2.85865670      -2.05325705
H       -2.12326253       3.21557933      -3.08697725
C       -3.39538239       2.43709911      -1.55760757
H       -3.27222111       1.93715472      -0.59084234
O       -4.04146841       1.59851003      -2.48011944
Si      -3.88930260      -0.05469515      -2.65801526
C       -3.28920911      -0.80838358      -1.06008063
C       -5.63104573      -0.64355631      -3.09063641
C       -6.23518678       0.30901143      -4.12848141
C       -5.58964639      -2.06178868      -3.67162900
C       -6.49371339      -0.62984695      -1.82334058
C       -2.70346698      -0.42331938      -4.04809546
C       -4.29298608       3.66137149      -1.36620188
H       -4.50412880       4.08842862      -2.35940170
C       -5.61870125       3.29964516      -0.72439666
O       -5.47997568       2.46523428       0.39729090
Si      -5.06475279       2.70084509       1.98883183
C       -3.23541226       3.00760002       2.21789447
C       -6.04858500       4.11512705       2.77691741
C       -7.52694987       3.99925637       2.39036573
C       -5.92385088       4.00547251       4.30367163
C       -5.50290514       5.48031316       2.33812671
C       -5.50769188       1.05583935       2.74617682
O       -3.66053712       4.63317400      -0.54169989
C       -2.45491949       5.11507539      -1.09358277
H       -2.65537896       5.55838176      -2.08643632
O       -1.91254222       6.06061138      -0.23828276
C       -2.67078847       7.25966880      -0.16211907
C       -1.45792124       3.97972429      -1.20727650
H       -1.27293875       3.60596192      -0.19306326
O       -0.25394917       4.39855097      -1.82648096
H       -0.27984521       2.03048934      -2.24459039
H       -2.25712354      -0.50951642      -0.86771470
H       -3.32360149      -1.89906873      -1.12489271
H       -3.90764040      -0.50205197      -0.21278097
H       -6.29156748       1.32747078      -3.74132461
H       -7.24730787      -0.01240905      -4.39581274
H       -5.64267786       0.33416664      -5.04696689
H       -5.13641680      -2.77774669      -2.98045241
H       -5.02726814      -2.09772475      -4.60709810
H       -6.60417810      -2.41370164      -3.88620892
H       -6.47371048       0.34641740      -1.33119905
H       -6.15145896      -1.37134973      -1.09736117
H       -7.53537546      -0.86313727      -2.06818155
H       -1.72048392      -0.02437470      -3.79584321
H       -3.03012381       0.03471550      -4.98450715
H       -2.61273798      -1.49979908      -4.20801051
H       -6.14414749       4.22929756      -0.47844633
H       -6.21437610       2.75900766      -1.46305883
H       -3.00059601       3.08743816       3.28291162
H       -2.91681246       3.92517861       1.72408739
H       -2.65390385       2.17587278       1.81163063
H       -7.67299509       4.09377102       1.31250826
H       -8.11113739       4.78854769       2.87610283
H       -7.94916422       3.03979898       2.69897380
H       -6.46917752       4.82396781       4.78570938
H       -4.88393531       4.06920764       4.63345115
H       -6.33938893       3.06823460       4.67950484
H       -4.46733105       5.61805767       2.65911049
H       -6.09927588       6.28421416       2.78441095
H       -5.52798639       5.60583498       1.25351197
H       -6.57867592       0.85406102       2.69830944
H       -5.18979105       0.98434351       3.78688728
H       -5.00373975       0.26369823       2.18874010
H       -3.65383972       7.07221125       0.27109596
H       -2.78754547       7.70483452      -1.15511132
H       -2.11565269       7.94193141       0.47523354
H        0.11443078       5.10889871      -1.28988368
69
Properties=species:S:1:pos:R:3 -90.0982497001=T converged=T charge=0 spin=1 pbc="F F F"
O       -1.83436694       0.31057971      -0.78441172
C       -1.89783804       1.66883788      -1.18917821
H       -1.50649335       1.78018665      -2.21143309
C       -3.35379335       2.10320406      -1.18606307
H       -3.79955408       1.82148610      -0.22524078
O       -4.06895565       1.54139748      -2.25744431
Si      -4.57772741      -0.02754340      -2.50581898
C       -4.93517797      -0.86585724      -0.88135295
C       -6.13962229       0.18981501      -3.54163064
C       -5.83979635       1.12096191      -4.72045770
C       -6.62142256      -1.16217067      -4.07561644
C       -7.23762634       0.81803225      -2.67832772
C       -3.28246437      -0.96887695      -3.46099520
C       -3.46882442       3.62158762      -1.35020786
H       -3.17427721       3.87383349      -2.37966219
C       -4.88845788       4.10446907      -1.12769818
O       -5.39746060       3.62144744       0.09132137
Si      -5.71480355       4.43453349       1.50527678
C       -7.43550135       5.15358458       1.42106773
C       -5.57968087       3.10015454       2.82904335
C       -4.10925815       2.70423395       2.99586712
C       -6.12696609       3.60196747       4.16861365
C       -6.37765090       1.87026548       2.38484423
C       -4.49877043       5.82301831       1.79367218
O       -2.63627691       4.30831200      -0.42638756
C       -1.27432010       3.99304599      -0.59050566
H       -0.96483915       4.21490346      -1.62805499
O       -0.52162719       4.73348941       0.30598247
C       -0.47711648       6.12072172       0.00364011
C       -1.06414205       2.53065991      -0.26416946
H       -1.39006473       2.38070125       0.77273976
O        0.28556152       2.13712360      -0.43729022
H       -0.90028843       0.08361596      -0.70009866
H       -4.01505408      -0.96022561      -0.30331061
H       -5.32960427      -1.87060264      -1.05215489
H       -5.66564585      -0.31508966      -0.28544810
H       -5.49094023       2.09463733      -4.37236425
H       -6.74353870       1.27977392      -5.31915024
H       -5.07652008       0.70271088      -5.38133442
H       -7.54437407      -1.03419312      -4.65153846
H       -6.83521288      -1.86682345      -3.26765721
H       -5.88299313      -1.61952048      -4.73776083
H       -8.12404147       1.03380598      -3.28521022
H       -6.90413029       1.75753050      -2.23044650
H       -7.54602226       0.15011129      -1.87102218
H       -2.39213356      -1.08755156      -2.84323243
H       -3.00020387      -0.43770154      -4.37259250
H       -3.63789079      -1.96234602      -3.74240389
H       -4.89487977       5.19948784      -1.17148511
H       -5.51134909       3.73037008      -1.94227388
H       -7.50002684       5.85795952       0.58770975
H       -7.68173711       5.70151403       2.33385419
H       -8.19140490       4.38161852       1.26529872
H       -3.68333292       2.36134163       2.04997756
H       -4.01582408       1.88507833       3.71706217
H       -3.50303348       3.53735154       3.35918008
H       -5.58643232       4.48103849       4.52938579
H       -6.02530250       2.82159921       4.93060829
H       -7.18681184       3.85791791       4.10180871
H       -7.44172769       2.09604611       2.27956604
H       -6.28129209       1.06833506       3.12464003
H       -6.01431788       1.49238236       1.42788844
H       -3.48311321       5.51627480       1.54429326
H       -4.52188306       6.13088724       2.84249990
H       -4.75048347       6.70108152       1.19426426
H       -1.47515853       6.55988125       0.04137689
H       -0.04341225       6.28385890      -0.98840863
H        0.15445050       6.58720721       0.75551807
H        0.82982172       2.69814112       0.12679903
69
Properties=species:S:1:pos:R:3 -90.0987579000=T converged=T charge=0 spin=1 pbc="F F F"
O       -1.18933441       1.72659246      -2.01749117
C       -2.05373774       2.84977718      -2.05879557
H       -2.16222671       3.20325711      -3.09284565
C       -3.41988126       2.42026339      -1.55395903
H       -3.28653427       1.91558657      -0.59092759
O       -4.06997805       1.58333033      -2.47576874
Si      -3.90398065      -0.06579967      -2.67660876
C       -3.30978159      -0.83563105      -1.08429574
C       -5.63892360      -0.65878748      -3.13113221
C       -6.23925201       0.30248185      -4.16317411
C       -5.58380628      -2.06967762      -3.72872886
C       -6.51375110      -0.66586933      -1.87239139
C       -2.70772877      -0.41127176      -4.06398071
C       -4.32410020       3.63811409      -1.35018949
H       -4.55626355       4.05918998      -2.34118913
C       -5.63419472       3.26665787      -0.68257186
O       -5.46367471       2.45293339       0.44993160
Si      -5.02453600       2.72151370       2.02997769
C       -3.19563163       3.05259052       2.22699898
C       -6.01459794       4.13568302       2.81074101
C       -7.49891170       3.98586508       2.46025161
C       -5.85392694       4.06086424       4.33625535
C       -5.50371303       5.50089140       2.33219652
C       -5.43306244       1.08434716       2.82307594
O       -3.68908263       4.61873457      -0.53872928
C       -2.49196112       5.10604867      -1.10369231
H       -2.70373347       5.54352139      -2.09673744
O       -1.94858420       6.05889431      -0.25699146
C       -2.71016864       7.25611225      -0.18490448
C       -1.48898502       3.97654400      -1.22019922
H       -1.29502157       3.60744423      -0.20603875
O       -0.29163371       4.40014217      -1.84898036
H       -0.30620966       2.03190981      -2.25826745
H       -2.28090124      -0.53217273      -0.88180370
H       -3.33605926      -1.92569405      -1.16165238
H       -3.93548432      -0.54274840      -0.23758322
H       -6.30486535       1.31604492      -3.76481819
H       -7.24708131      -0.02150698      -4.44330532
H       -5.63876913       0.34146048      -5.07594928
H       -5.13232786      -2.79127766      -3.04230952
H       -5.01309124      -2.09086476      -4.65954288
H       -6.59429832      -2.42484583      -3.95650641
H       -6.50870542       0.30631555      -1.37201245
H       -6.17113492      -1.41016561      -1.14956280
H       -7.55059974      -0.90715722      -2.12951242
H       -2.61493364      -1.48523389      -4.23913064
H       -1.72680375      -0.01537351      -3.79972900
H       -3.02885673       0.05989661      -4.99580544
H       -6.16999501       4.19178505      -0.44228152
H       -6.23312154       2.70561441      -1.40312537
H       -2.89567394       3.97501725       1.73084434
H       -2.61127679       2.22894034       1.80844113
H       -2.94405587       3.13139034       3.28827235
H       -7.67015557       4.05081631       1.38388266
H       -8.08573252       4.77720888       2.93942678
H       -7.89765392       3.02756737       2.80186710
H       -6.40509608       4.87848081       4.81315269
H       -4.80847417       4.15248425       4.64093671
H       -6.24190482       3.12384237       4.74097360
H       -4.46286673       5.66207131       2.62390847
H       -6.10244706       6.30310855       2.77839310
H       -5.55847239       5.60506780       1.24650920
H       -4.92254237       0.28969950       2.27528734
H       -6.50112103       0.86495192       2.79118671
H       -5.10263279       1.03767081       3.86130211
H       -2.82296039       7.70068091      -1.17859741
H       -2.15984039       7.93987109       0.45505523
H       -3.69482426       7.06646466       0.24371255
H        0.07650927       5.11394529      -1.31680215
69
Properties=species:S:1:pos:R:3 -90.0989076125=T converged=T charge=0 spin=1 pbc="F F F"
O       -1.96620665       1.07883070      -2.33467405
C       -2.32487900       2.44404791      -2.23613926
H       -2.34517381       2.89969525      -3.23546506
C       -3.72129286       2.53415351      -1.65083823
H       -3.75368059       1.93393073      -0.73497379
O       -4.65683510       2.09031758      -2.59786728
Si      -5.74106822       0.82646387      -2.55886617
C       -7.36493942       1.59395498      -3.07555542
C       -5.19338356      -0.49240220      -3.79704394
C       -6.38448853      -1.36919427      -4.20122808
C       -4.62602868       0.19221366      -5.04579966
C       -4.10737963      -1.38638457      -3.18727947
C       -5.87077634       0.16491350      -0.82161297
C       -4.07005893       3.98592370      -1.30448412
H       -4.18842167       4.53763076      -2.24990815
C       -5.35924144       4.08254799      -0.51338763
O       -5.33260306       3.29928080       0.65559200
Si      -4.61147822       3.62661105       2.12195760
C       -4.52028515       5.47136897       2.39584415
C       -5.73402057       2.78782105       3.38556590
C       -7.18385914       3.23683010       3.17946704
C       -5.66094751       1.26580794       3.21855645
C       -5.28621673       3.16189944       4.80366184
C       -2.89324421       2.89693267       2.19681415
O       -3.05920744       4.59689777      -0.51040243
C       -1.79640502       4.61227318      -1.13766937
H       -1.86944786       5.17227238      -2.08742933
O       -0.87449259       5.20595807      -0.28938969
C       -1.07560702       6.59907997      -0.10753497
C       -1.32407903       3.19349927      -1.38352281
H       -1.23776740       2.70001489      -0.40789095
O       -0.08701446       3.16924302      -2.07502658
H       -1.04417612       1.04112159      -2.61567771
H       -7.71665040       2.27657304      -2.29824811
H       -8.14883731       0.85423398      -3.24433759
H       -7.23753438       2.16848876      -3.99533926
H       -7.15618426      -0.79732764      -4.72025089
H       -6.84661045      -1.85610004      -3.33749379
H       -6.04207250      -2.15813869      -4.87934248
H       -5.36278392       0.84092748      -5.52732733
H       -4.32296052      -0.56728506      -5.77447896
H       -3.75274620       0.79816230      -4.80000466
H       -3.74417922      -2.08705819      -3.94747145
H       -4.49405069      -1.97580475      -2.35251170
H       -3.25876822      -0.80150747      -2.83178594
H       -4.96338434      -0.35357786      -0.50819476
H       -6.70507726      -0.53618934      -0.74274787
H       -6.05199190       0.98869853      -0.12710462
H       -5.53779430       5.13677209      -0.27905046
H       -6.17777554       3.72559179      -1.14193258
H       -3.98113545       5.68751642       3.32071566
H       -5.50536109       5.93540231       2.46406660
H       -3.97216073       5.93817183       1.57607719
H       -7.53970844       2.98204453       2.17952728
H       -7.30076630       4.31487495       3.31618488
H       -7.83185953       2.73899170       3.90842689
H       -6.32778078       0.78325971       3.94101197
H       -4.65217858       0.88442287       3.39281176
H       -5.97131547       0.95542395       2.21832666
H       -5.92519663       2.65823822       5.53611412
H       -5.36159052       4.23727960       4.98362686
H       -4.25549568       2.85684223       5.00300820
H       -2.87202369       1.91039444       1.72835727
H       -2.54813767       2.78281125       3.22678903
H       -2.18739769       3.54202320       1.67339886
H       -1.02123799       7.12507667      -1.06513835
H       -0.27883461       6.94783662       0.54279208
H       -2.04041644       6.79781903       0.35979181
H        0.55154454       3.66716632      -1.55209833
69
Properties=species:S:1:pos:R:3 -90.0987887048=T converged=T charge=0 spin=1 pbc="F F F"
O       -1.86527014       1.09742838      -2.35105639
C       -2.15462764       2.48146738      -2.25384477
H       -2.04513204       2.96668291      -3.23490687
C       -3.59864667       2.63050109      -1.80939627
H       -3.76927493       1.97161781      -0.95064372
O       -4.48960113       2.35210331      -2.85883852
Si      -5.10416246       0.98435169      -3.58256965
C       -3.84294632       0.15066334      -4.67373147
C       -5.80464060      -0.22723698      -2.31459860
C       -4.68890536      -0.96604091      -1.56935838
C       -6.68230011       0.52087133      -1.30803172
C       -6.66518019      -1.25930239      -3.05470026
C       -6.44831076       1.71805954      -4.64914796
C       -3.90343855       4.07079132      -1.38333415
H       -3.93381064       4.68978856      -2.29161853
C       -5.24129905       4.16871939      -0.67962090
O       -5.32075185       3.30425337       0.42900468
Si      -4.70749177       3.50513251       1.96463125
C       -4.60714261       5.31946101       2.38972162
C       -5.93376014       2.59180574       3.06895234
C       -5.58696311       2.81162303       4.54504025
C       -7.35142802       3.10273817       2.80059844
C       -5.87826330       1.09381868       2.75095945
C       -3.01556029       2.73102024       2.12505238
O       -2.93286041       4.57830815      -0.47839182
C       -1.62870109       4.57484534      -1.00909612
H       -1.60304275       5.18351125      -1.93075874
O       -0.75493632       5.08947880      -0.06356970
C       -0.91438272       6.48133347       0.17050187
C       -1.20004018       3.14903113      -1.28555134
H       -1.21787078       2.61387392      -0.32871198
O        0.08726813       3.09598880      -1.87581222
H       -0.93033244       1.01602804      -2.57433393
H       -3.42399740       0.87567749      -5.37550324
H       -4.30499347      -0.64794538      -5.25905319
H       -3.02205882      -0.26757420      -4.09361126
H       -5.12278658      -1.64107522      -0.82326558
H       -4.01416226      -0.28422406      -1.04880925
H       -4.08655293      -1.57132888      -2.24966219
H       -7.51314237       1.03079175      -1.80262894
H       -6.11689335       1.26348115      -0.74131555
H       -7.11549602      -0.18663023      -0.59165990
H       -6.08470948      -1.82415653      -3.78884842
H       -7.50755546      -0.79020588      -3.56820772
H       -7.07630334      -1.98019461      -2.34006534
H       -6.01050107       2.52058597      -5.24788810
H       -7.24693416       2.15510191      -4.04596434
H       -6.88598819       0.98688631      -5.33139650
H       -5.40743485       5.20927805      -0.38203638
H       -6.02542325       3.88683744      -1.38290099
H       -4.15578938       5.44454585       3.37690545
H       -5.58234210       5.81029219       2.39750589
H       -3.96637487       5.82740853       1.66672107
H       -4.58058880       2.46021594       4.78573680
H       -6.28632336       2.25883044       5.18183342
H       -5.65337279       3.86615522       4.82363497
H       -7.62990341       2.95299124       1.75614721
H       -7.44774528       4.16664517       3.03178140
H       -8.07455145       2.56450263       3.42346583
H       -4.89495834       0.67020152       2.96865094
H       -6.10748951       0.90457262       1.69997730
H       -6.61301782       0.54946509       3.35470280
H       -2.25393634       3.39828121       1.72121491
H       -2.96683198       1.78262906       1.58387421
H       -2.77210474       2.53029798       3.17130872
H       -1.90560975       6.70021625       0.57052428
H       -0.76184849       7.04729390      -0.75400253
H       -0.15873097       6.76637288       0.89823158
H        0.70509867       3.52666983      -1.27427559
69
Properties=species:S:1:pos:R:3 -90.0975910595=T converged=T charge=0 spin=1 pbc="F F F"
O       -1.48538925       1.03420731      -1.68463247
C       -2.04756492       2.32834326      -1.79958532
H       -2.00469673       2.67115428      -2.84366565
C       -3.50702419       2.26032986      -1.38886624
H       -3.57110772       1.77874931      -0.40619791
O       -4.24776890       1.56838809      -2.36568914
Si      -5.00106466       0.08721111      -2.21991891
C       -6.72344953       0.32126044      -1.53826845
C       -5.04639491      -0.55627239      -3.98943382
C       -5.89149963      -1.82961230      -4.07551707
C       -5.65433191       0.51543568      -4.89992742
C       -3.61765569      -0.85256421      -4.45370110
C       -4.04723759      -1.02888559      -1.07004739
C       -4.10439651       3.66647194      -1.27796468
H       -4.16877747       4.09089047      -2.29118219
C       -5.49820209       3.63066573      -0.68180179
O       -5.50700591       2.82421461       0.47141212
Si      -6.05303254       3.08695928       2.01521434
C       -6.14526174       1.35602820       2.69670451
C       -4.84333799       4.15868974       2.99173176
C       -3.43730955       3.55849067       2.89219764
C       -4.82095123       5.58746220       2.43732121
C       -5.27010201       4.20334827       4.46299203
C       -7.74725124       3.87512402       1.97491086
O       -3.30537328       4.50210497      -0.45107424
C       -1.99736562       4.65875589      -0.95054989
H       -2.04047516       5.06765186      -1.97637971
O       -1.29271934       5.51483389      -0.12131984
C       -1.73869579       6.86190396      -0.18536561
C       -1.29146922       3.31881029      -0.93758884
H       -1.27859425       2.96468164       0.10103603
O        0.02050616       3.41289462      -1.46171839
H       -0.53917205       1.12012593      -1.84926438
H       -6.65963244       0.85539391      -0.58708427
H       -7.19462843      -0.64675864      -1.35089984
H       -7.36737147       0.89088312      -2.21178322
H       -6.92619307      -1.64988618      -3.77593482
H       -5.49193360      -2.62938960      -3.44778484
H       -5.90905299      -2.20205086      -5.10495373
H       -5.07775801       1.44050530      -4.85599885
H       -6.68711367       0.74204236      -4.62362353
H       -5.66054023       0.17045972      -5.93962722
H       -2.98866255       0.03673230      -4.38021911
H       -3.61703318      -1.18149842      -5.49886233
H       -3.15468670      -1.64195830      -3.85737489
H       -4.32117756      -2.07339492      -1.24001174
H       -4.27999649      -0.79657841      -0.02790744
H       -2.97215285      -0.91929209      -1.21519244
H       -5.81800624       4.65722253      -0.47054518
H       -6.18313759       3.20569721      -1.42086894
H       -6.88709106       0.78549604       2.13355243
H       -6.42388408       1.32903556       3.75106542
H       -5.18493522       0.84967047       2.57993135
H       -2.72751121       4.16075940       3.46992413
H       -3.09254684       3.54081317       1.85790621
H       -3.40582015       2.54154615       3.29111736
H       -4.49142981       5.60416587       1.39726490
H       -4.11940854       6.20197408       3.01319426
H       -5.80219667       6.06362191       2.50745525
H       -6.26278171       4.64375351       4.58658029
H       -4.56759608       4.81829234       5.03578682
H       -5.27578265       3.20870186       4.91451321
H       -7.74443287       4.85807817       1.49968638
H       -8.13922483       4.00029994       2.98716679
H       -8.44342118       3.23711844       1.42630368
H       -1.08426622       7.44345307       0.45951740
H       -2.76816982       6.94800652       0.16573925
H       -1.66991440       7.23976680      -1.21100459
H        0.49850282       4.06507460      -0.93692816
69
Properties=species:S:1:pos:R:3 -90.0980069400=T converged=T charge=0 spin=1 pbc="F F F"
O       -1.92569901       0.08259133      -0.71673874
C       -1.93906206       1.43006847      -1.15213419
H       -1.53601989       1.49970035      -2.17118944
C       -3.38293331       1.90337796      -1.18881452
H       -3.87114425       1.60254846      -0.25447982
O       -4.03969814       1.35897951      -2.31073915
Si      -5.13636830       0.10488466      -2.36075521
C       -6.31427652       0.24909390      -0.91398703
C       -6.00386219       0.36360870      -4.01753625
C       -4.95201955       0.40354568      -5.13259542
C       -6.98277398      -0.78494601      -4.28513928
C       -6.76304551       1.69409211      -3.99637146
C       -4.28646759      -1.55288140      -2.30270668
C       -3.47491432       3.42912051      -1.32577654
H       -3.22843270       3.68174395      -2.36889839
C       -4.87466591       3.93291061      -1.02550705
O       -5.29923639       3.49709627       0.24515010
Si      -5.50400197       4.40050627       1.62792856
C       -7.22103933       5.13850531       1.61451615
C       -5.29308924       3.15956707       3.03171083
C       -5.59847584       3.81575806       4.38346195
C       -6.24983843       1.98213834       2.81204664
C       -3.84896163       2.64406394       3.02782459
C       -4.25675236       5.78777649       1.74717506
O       -2.59481238       4.10036554      -0.43508940
C       -1.24534996       3.74281865      -0.62253347
H       -0.95732722       3.91167640      -1.67654325
O       -0.45298221       4.50010635       0.22475136
C       -0.36644005       5.86683036      -0.15259671
C       -1.07685035       2.28708680      -0.25003157
H       -1.40581502       2.17696718       0.79030456
O        0.25827417       1.84451563      -0.41827465
H       -1.00274563      -0.18479747      -0.63234010
H       -6.52506433       1.28847850      -0.65143750
H       -5.89796501      -0.24258934      -0.03134923
H       -7.26173377      -0.24479967      -1.14491549
H       -4.22558351       1.19951791      -4.96002208
H       -5.43165764       0.58417010      -6.10045162
H       -4.40589214      -0.53983697      -5.20700109
H       -6.47292209      -1.75020594      -4.32228847
H       -7.48057330      -0.64087450      -5.24964704
H       -7.76321086      -0.84625803      -3.52270957
H       -7.27924700       1.85437715      -4.94896914
H       -6.07738550       2.53084482      -3.84581117
H       -7.51499391       1.72311962      -3.20309350
H       -3.65439417      -1.60906437      -1.41556292
H       -3.65046413      -1.72012822      -3.17423963
H       -5.02641952      -2.35561510      -2.25545040
H       -4.87308980       5.02652262      -1.09992933
H       -5.55612927       3.53868525      -1.78471197
H       -7.33416942       5.81051557       0.76043671
H       -7.40503100       5.72442650       2.51758682
H       -7.99514816       4.37307286       1.54014436
H       -5.47115533       3.08817714       5.19193364
H       -6.62607726       4.18280993       4.43627687
H       -4.93002962       4.65382311       4.59479932
H       -7.29499684       2.30154476       2.83119411
H       -6.11896021       1.23446438       3.60173303
H       -6.06458560       1.49663330       1.85255271
H       -3.71003865       1.89745051       3.81732053
H       -3.12886544       3.44860403       3.19885506
H       -3.60354519       2.17202447       2.07361562
H       -3.24874380       5.43958929       1.52286574
H       -4.26900775       6.20154900       2.75916099
H       -4.50104864       6.60131015       1.05974860
H       -1.34536572       6.34664962      -0.11282812
H        0.04600109       5.96209551      -1.16201886
H        0.30268014       6.34694161       0.55561806
H        0.81648056       2.40816447       0.12846350
69
Properties=species:S:1:pos:R:3 -90.1003967870=T converged=T charge=0 spin=1 pbc="F F F"
O       -1.59499969       0.70855067      -1.43953094
C       -1.99114275       2.05264790      -1.66045396
H       -1.85313949       2.32053436      -2.71872999
C       -3.46532185       2.18089827      -1.32094683
H       -3.63537869       1.73681712      -0.33340263
O       -4.28539479       1.57952078      -2.28891147
Si      -4.40186166       0.01648268      -2.85169885
C       -4.26572983      -1.20908757      -1.45749071
C       -6.11520892       0.00174374      -3.64128801
C       -6.19971883       1.11051380      -4.69539133
C       -6.38137385      -1.35259668      -4.30645711
C       -7.17801147       0.25798408      -2.56882077
C       -3.09387298      -0.31163314      -4.14234433
C       -3.89076547       3.65175091      -1.27922740
H       -3.89084904       4.02933097      -2.31199658
C       -5.28057860       3.81731698      -0.69974891
O       -5.39326389       3.25766439       0.58564473
Si      -4.90811123       3.89108886       2.04713502
C       -4.91468020       5.75716874       1.98768197
C       -6.17705487       3.22697414       3.27529315
C       -7.58728768       3.62009588       2.82693759
C       -6.08118914       1.69815083       3.31867500
C       -5.91623788       3.79329374       4.67530857
C       -3.19996204       3.29003909       2.50460109
O       -3.01928995       4.43665507      -0.47677075
C       -1.68137416       4.40315773      -0.91441076
H       -1.62317867       4.77731950      -1.95232897
O       -0.90767268       5.18630815      -0.07209834
C       -1.16384288       6.57837967      -0.18587269
C       -1.15132278       2.98824054      -0.81832186
H       -1.21251079       2.68653311       0.23416302
O        0.17848360       2.89364719      -1.29848445
H       -0.63982847       0.66871288      -1.56999647
H       -5.04276506      -1.06562019      -0.70500620
H       -3.29291087      -1.10742104      -0.97604138
H       -4.34547558      -2.23026900      -1.83708938
H       -5.48258048       0.95475817      -5.50495473
H       -6.00611800       2.08938683      -4.25228310
H       -7.20044524       1.13445274      -5.14077122
H       -5.66881363      -1.55526805      -5.10968520
H       -7.38477212      -1.36522374      -4.74621770
H       -6.32683264      -2.17498408      -3.58807755
H       -8.17240580       0.31211227      -3.02569177
H       -6.99747806       1.20157280      -2.04932412
H       -7.20095049      -0.54003399      -1.82343935
H       -2.11648296      -0.40097011      -3.66896333
H       -3.05044073       0.49813083      -4.87354756
H       -3.29404112      -1.24023842      -4.68103684
H       -5.53174562       4.88295290      -0.69145775
H       -5.98774095       3.30748122      -1.35346051
H       -4.53207984       6.15968117       2.92862640
H       -5.90837783       6.17635687       1.82028742
H       -4.25383383       6.10045370       1.19017971
H       -7.80530323       3.23244348       1.83023748
H       -7.71917699       4.70483440       2.80995764
H       -8.33169032       3.20991855       3.51834066
H       -6.83521645       1.29124716       4.00144415
H       -5.10275620       1.36388759       3.67184333
H       -6.25585664       1.26467194       2.33141589
H       -4.92394483       3.52498344       5.04667406
H       -6.65006841       3.39205952       5.38323126
H       -6.00342229       4.88287305       4.69436252
H       -3.07435108       2.23619643       2.24519204
H       -3.01545277       3.39367039       3.57628460
H       -2.44234098       3.86730204       1.97448035
H       -0.47112632       7.08101387       0.48384356
H       -2.18814744       6.81310178       0.10628929
H       -0.99167943       6.91832872      -1.21173996
H        0.72333583       3.49756230      -0.78065870
69
Properties=species:S:1:pos:R:3 -90.0975779580=T converged=T charge=0 spin=1 pbc="F F F"
O       -1.46924193       0.94237753      -1.69424589
C       -2.00897912       2.24788652      -1.77973510
H       -1.95687143       2.61442093      -2.81537576
C       -3.47131509       2.19884127      -1.37574960
H       -3.55039924       1.69770571      -0.40378961
O       -4.22084847       1.54427573      -2.37169444
Si      -5.00307628       0.07465759      -2.27148294
C       -6.67967855       0.30081815      -1.48052249
C       -5.15803291      -0.44946579      -4.07371252
C       -3.76240694      -0.72968987      -4.63809180
C       -6.02500725      -1.70531675      -4.19280754
C       -5.80124253       0.68627272      -4.87595010
C       -4.02010640      -1.13701009      -1.24985518
C       -4.04050260       3.61523397      -1.24039157
H       -4.09516798       4.05589733      -2.24728329
C       -5.43455991       3.59867234      -0.64549231
O       -5.44614123       2.80763686       0.51843153
Si      -6.02696875       3.09133611       2.04587830
C       -6.09430705       1.37440104       2.76432979
C       -4.86109712       4.21295561       3.02009398
C       -3.44328870       3.63385401       2.97920318
C       -4.84429326       5.62337826       2.42036226
C       -5.33049450       4.29819004       4.47659106
C       -7.73766016       3.83952568       1.95705806
O       -3.22823700       4.42260249      -0.39875227
C       -1.91425520       4.55943253      -0.88808681
H       -1.94202819       4.98590872      -1.90729483
O       -1.19645812       5.38616814      -0.04065952
C       -1.61498056       6.74288763      -0.08225777
C       -1.23806305       3.20433501      -0.89309857
H       -1.24219029       2.83134863       0.13897594
O        0.07997781       3.27760624      -1.40509451
H       -0.52097935       1.01724661      -1.85262824
H       -7.35856113       0.89630491      -2.09476225
H       -6.55583549       0.80321157      -0.51783924
H       -7.14656376      -0.66996279      -1.29638998
H       -3.82642378      -0.99440248      -5.69936254
H       -3.27492299      -1.55773115      -4.11863151
H       -3.12000978       0.14850994      -4.54903627
H       -5.59871111      -2.55002147      -3.64695538
H       -6.11173397      -2.00614357      -5.24194890
H       -7.03645027      -1.53619363      -3.81705196
H       -5.86915108       0.41171782      -5.93424268
H       -5.21126474       1.60104163      -4.80317062
H       -6.81425063       0.90341430      -4.52816434
H       -2.95017040      -1.02317990      -1.42455903
H       -4.31045575      -2.16253235      -1.49265938
H       -4.21176698      -0.98792513      -0.18449392
H       -5.74616826       4.63018289      -0.44685135
H       -6.12278811       3.17040672      -1.37975606
H       -6.38204653       1.36522660       3.81654814
H       -5.12393595       0.88356841       2.66673711
H       -6.82065260       0.77831279       2.20748967
H       -2.76038672       4.26698267       3.55649313
H       -3.06880642       3.58778944       1.95608720
H       -3.40653032       2.63149130       3.41294156
H       -4.17070221       6.26764976       2.99713252
H       -5.83432904       6.08572747       2.44463377
H       -4.48307573       5.61183754       1.39065909
H       -4.65241067       4.94008425       5.04926501
H       -5.33666237       3.31828173       4.95935695
H       -6.33178558       4.72873578       4.55804890
H       -8.16153326       3.95189843       2.95788717
H       -8.40214277       3.18618565       1.38753533
H       -7.74562794       4.82360620       1.48426798
H       -0.94760637       7.30053346       0.57042351
H       -2.64183942       6.84428739       0.27228428
H       -1.54039965       7.13568159      -1.10187660
H        0.56944323       3.90664130      -0.86295069
69
Properties=species:S:1:pos:R:3 -90.0968673996=T converged=T charge=0 spin=1 pbc="F F F"
O       -1.05812095       1.05828240      -1.91861557
C       -1.61173931       2.36781461      -1.97568282
H       -1.52022023       2.76574286      -2.99532396
C       -3.07432029       2.39188131      -1.57688604
H       -3.17748528       1.97025422      -0.57225073
O       -3.84691293       1.67328961      -2.50984014
Si      -4.45467252       0.12644702      -2.36790027
C       -4.29914155      -0.47082827      -0.60789325
C       -6.25679675       0.20816913      -2.92988686
C       -6.37188412       1.17061302      -4.11841525
C       -6.76162621      -1.17727657      -3.35477885
C       -7.11670088       0.72040422      -1.76545168
C       -3.44296112      -0.97298919      -3.50182442
C       -3.54250218       3.84302191      -1.54208039
H       -3.44679305       4.27325282      -2.55175829
C       -4.98683206       3.97577643      -1.10669606
O       -5.26753666       3.24269223       0.06190231
Si      -4.92886028       3.67005403       1.63933322
C       -4.87901283       5.52890199       1.81323480
C       -6.34890103       2.91889090       2.63229461
C       -6.14631790       3.17393017       4.13120172
C       -7.67106542       3.54741551       2.17870904
C       -6.39503653       1.40877831       2.37109704
C       -3.29652372       2.94555827       2.18425320
O       -2.74302288       4.56415574      -0.61580533
C       -1.36013799       4.62277182      -0.93682113
H       -1.23335667       5.15721831      -1.89478831
O       -0.71689295       5.28399834       0.08918997
C       -0.95501352       6.68146468       0.10802916
C       -0.77204564       3.22669378      -1.04754101
H       -0.78697079       2.78513885      -0.04260110
O        0.54723625       3.34861913      -1.53699093
H       -1.43397776       0.53780197      -2.63645520
H       -4.77644083      -1.44884163      -0.50296026
H       -4.77536393       0.21229409       0.09840145
H       -3.24863435      -0.58056723      -0.32892116
H       -6.04523118       2.17595015      -3.84944957
H       -7.41050432       1.22779799      -4.46002214
H       -5.76278761       0.84223424      -4.96513825
H       -6.24237831      -1.54307911      -4.24314897
H       -7.82870051      -1.13027639      -3.59716249
H       -6.64034726      -1.92248206      -2.56301711
H       -8.14386848       0.89459087      -2.10281162
H       -6.73446987       1.65481714      -1.34674038
H       -7.15725950      -0.00777037      -0.95123904
H       -3.97558007      -1.89438321      -3.74334208
H       -2.50397230      -1.27013621      -3.02585306
H       -3.20987055      -0.46729595      -4.44216918
H       -5.20993139       5.03957373      -0.97226023
H       -5.62098506       3.59144334      -1.90895479
H       -4.06345332       5.93514103       1.21316874
H       -4.68914869       5.79335661       2.85626190
H       -5.80914790       6.01324719       1.50989359
H       -5.22524415       2.71800653       4.50193561
H       -6.97486760       2.74424435       4.70421867
H       -6.11040126       4.24158948       4.36368070
H       -7.69857428       4.62161641       2.37780780
H       -8.51251733       3.09264453       2.71194501
H       -7.83105549       3.39744383       1.10865110
H       -7.21800156       0.94976386       2.92911113
H       -5.47064303       0.91427369       2.68139261
H       -6.55195028       1.20102155       1.31039321
H       -2.47405918       3.45848262       1.68434605
H       -3.22667919       1.87822257       1.96016953
H       -3.16710027       3.07055575       3.26180003
H       -0.59146086       7.14635256      -0.81382810
H       -0.40082398       7.07917303       0.95367768
H       -2.01665595       6.90386684       0.23403231
H        0.86909560       2.45479852      -1.70286610
69
Properties=species:S:1:pos:R:3 -90.0969630816=T converged=T charge=0 spin=1 pbc="F F F"
O       -1.48206703       0.53066849      -1.36554349
C       -1.68134831       1.90457614      -1.65690948
H       -1.55279212       2.08648826      -2.73446930
C       -3.10214498       2.27936107      -1.27516026
H       -3.28795011       1.95083152      -0.24649541
O       -4.04608399       1.73104000      -2.15930062
Si      -4.50038743       0.15503841      -2.44975581
C       -4.41485142      -0.87250709      -0.89804696
C       -6.27751925       0.35362231      -3.05316437
C       -6.31623404       1.37275651      -4.19650189
C       -6.83173517      -0.98478890      -3.54892723
C       -7.14285911       0.87150402      -1.89984782
C       -3.42654792      -0.58275743      -3.78513395
C       -3.29033384       3.79847199      -1.34275033
H       -3.22728692       4.09876249      -2.39952983
C       -4.64382203       4.21994528      -0.80939273
O       -4.84290655       3.64637030       0.45870905
Si      -5.97064844       4.04203393       1.60591818
C       -7.69792980       3.81950238       0.93188234
C       -5.58819194       2.84080785       3.00290944
C       -4.16735873       3.10369888       3.51372155
C       -6.58407175       3.00029647       4.15524085
C       -5.66108696       1.40939054       2.46028657
C       -5.76809296       5.82529490       2.12449782
O       -2.29365591       4.47496268      -0.58999837
C       -1.00122446       4.22040779      -1.08800039
H       -0.95576662       4.50241758      -2.15614340
O       -0.07075838       4.94240464      -0.36022955
C       -0.14544315       6.34465527      -0.56932032
C       -0.67730053       2.75255670      -0.90660382
H       -0.74302313       2.53623413       0.16653748
O        0.60310210       2.42389516      -1.41625737
H       -0.54757937       0.34229729      -1.51508416
H       -3.38478676      -0.92365633      -0.54385604
H       -4.75054952      -1.89231897      -1.10257572
H       -5.03778177      -0.46764441      -0.09831706
H       -5.92433441       2.33940462      -3.87487114
H       -7.34680071       1.52279464      -4.53692985
H       -5.73116740       1.03827231      -5.05676150
H       -6.81552089      -1.74737957      -2.76602535
H       -6.26442145      -1.36325360      -4.40219097
H       -7.87176713      -0.86833762      -3.87240801
H       -6.73701720       1.79859987      -1.48634378
H       -7.21431396       0.14183194      -1.08958887
H       -8.16080216       1.07874764      -2.24871833
H       -2.41708890      -0.73212563      -3.40118314
H       -3.36860856       0.07618297      -4.65414309
H       -3.81056669      -1.54956751      -4.11752981
H       -4.67006084       5.31509801      -0.76293250
H       -5.41376910       3.88360277      -1.51030691
H       -7.86550920       4.48809916       0.08359907
H       -8.44217038       4.07162576       1.69121320
H       -7.88439752       2.79807329       0.59577963
H       -3.90001056       2.36803041       4.27986391
H       -4.07655584       4.09491335       3.96428731
H       -3.43689227       3.02799883       2.70556056
H       -6.34207371       2.29656733       4.95886546
H       -7.60941668       2.79434159       3.83865149
H       -6.55471988       4.00541161       4.58330213
H       -5.39885375       0.69343418       3.24659272
H       -4.96247611       1.26769114       1.63347077
H       -6.66499741       1.15866909       2.10775440
H       -6.40507491       6.05232788       2.98301083
H       -6.06592570       6.50009868       1.31849730
H       -4.73609925       6.05476769       2.39484787
H        0.65453560       6.79320789       0.01427723
H       -1.10668724       6.73651793      -0.23509352
H       -0.00132837       6.58419810      -1.62811967
H        1.24875090       2.97914541      -0.96485506
69
Properties=species:S:1:pos:R:3 -90.1004095020=T converged=T charge=0 spin=1 pbc="F F F"
O       -1.63074957       0.60183091      -1.26941854
C       -1.97244834       1.95697013      -1.51147266
H       -1.77438978       2.21677713      -2.56229050
C       -3.45609874       2.13343645      -1.24277022
H       -3.68599492       1.70303885      -0.26139965
O       -4.25132083       1.54986542      -2.24142380
Si      -4.33990491       0.01443981      -2.87837323
C       -4.30082876      -1.27996485      -1.54168150
C       -6.00203022       0.05411627      -3.77007498
C       -7.12155117       0.31732602      -2.75868143
C       -5.99842196       1.18212029      -4.80686783
C       -6.25795933      -1.28276923      -4.47356239
C       -2.95739218      -0.27263307      -4.10065145
C       -3.83549711       3.61768842      -1.23081664
H       -3.77296555       3.98683162      -2.26478091
C       -5.24571622       3.83387801      -0.72109777
O       -5.43904670       3.29436228       0.56314324
Si      -4.99453783       3.91776014       2.04173577
C       -4.93271024       5.78275897       1.97910693
C       -6.34078659       3.30693256       3.21397809
C       -6.08473015       3.81222575       4.63800006
C       -7.70672964       3.80990242       2.73860196
C       -6.35123251       1.77455985       3.21181425
C       -3.33049397       3.25874334       2.57564046
O       -2.97939776       4.38055280      -0.39160347
C       -1.62281935       4.29969719      -0.75972126
H       -1.49862542       4.66577499      -1.79467710
O       -0.86777404       5.06127836       0.11861546
C       -1.06671188       6.46074865      -0.01713941
C       -1.14541557       2.86861338      -0.63150684
H       -1.26901811       2.57424988       0.41749862
O        0.20282553       2.72822557      -1.04418174
H       -0.67220874       0.53097711      -1.35415789
H       -5.13195746      -1.17786661      -0.84227778
H       -3.36656942      -1.20158982      -0.98558652
H       -4.34611039      -2.27987620      -1.97934652
H       -8.08698354       0.38979046      -3.27171828
H       -6.95694220       1.25378558      -2.22169577
H       -7.19909962      -0.48596596      -2.02263131
H       -5.23470157       1.02602548      -5.57260109
H       -5.81450463       2.14897787      -4.33391701
H       -6.96847246       1.23478959      -5.31355586
H       -6.27251957      -2.11624916      -3.76628394
H       -5.49923984      -1.49344031      -5.23129688
H       -7.22987421      -1.26203154      -4.97887391
H       -2.01866413      -0.43988471      -3.57314093
H       -2.83215390       0.58467695      -4.76510474
H       -3.15592355      -1.14995260      -4.72001899
H       -5.46270167       4.90699501      -0.73668865
H       -5.93625448       3.33807356      -1.40281032
H       -5.90085464       6.23458013       1.75646018
H       -4.21739967       6.10174914       1.21952183
H       -4.59005217       6.17461061       2.93985858
H       -5.12901259       3.45735173       5.03142766
H       -6.87033198       3.44915649       5.31007069
H       -6.08889317       4.90441623       4.68817085
H       -7.76583298       4.90086586       2.75933561
H       -8.49885785       3.42594068       3.39095049
H       -7.91799837       3.47366768       1.72171407
H       -6.53085598       1.38436671       2.20780999
H       -7.14759493       1.40099131       3.86503233
H       -5.40678503       1.36282152       3.57587350
H       -3.22977437       2.20014985       2.32507598
H       -3.18841166       3.36114645       3.65365225
H       -2.53120153       3.80730406       2.07742550
H       -0.81716487       6.78774923      -1.03121118
H       -0.40095800       6.94301047       0.69362757
H       -2.09856856       6.73341029       0.20781245
H        0.74074353       3.31574858      -0.50088353
69
Properties=species:S:1:pos:R:3 -90.0973973089=T converged=T charge=0 spin=1 pbc="F F F"
O       -1.49688924       1.44467086      -2.22760720
C       -2.11095167       2.72534048      -2.24952007
H       -2.20006024       3.07891801      -3.28638715
C       -3.49811761       2.69301750      -1.63869810
H       -3.43188721       2.25592268      -0.63707839
O       -4.34270546       1.93529277      -2.47958898
Si      -5.24463511       0.58662677      -2.08498397
C       -6.94477455       1.05976762      -1.49071894
C       -5.33220628      -0.36360558      -3.71187194
C       -6.06411766       0.48959404      -4.75400733
C       -3.91820350      -0.65307504      -4.22367318
C       -6.08283512      -1.68501214      -3.52060463
C       -4.38569305      -0.37245411      -0.73321282
C       -4.03227138       4.11494584      -1.50839161
H       -4.16234758       4.53681380      -2.51614076
C       -5.37007344       4.16623355      -0.80052526
O       -5.41050360       3.36762199       0.36078872
Si      -4.81449901       3.69974465       1.88067931
C       -4.66417601       5.53896065       2.14167802
C       -6.06456482       2.91022596       3.04937260
C       -5.66478910       3.16901218       4.50521032
C       -7.45248400       3.50195824       2.78816537
C       -6.11842714       1.39962705       2.79763008
C       -3.14088765       2.89618863       2.08549393
O       -3.10835401       4.90688630      -0.77752187
C       -1.86038844       5.04657026      -1.44440904
H       -2.02655305       5.40795557      -2.46828625
O       -1.12947510       6.03808274      -0.82431869
C       -0.70970891       5.76777654       0.50508468
C       -1.19550472       3.67313295      -1.49664761
H       -1.06677421       3.29049008      -0.47543129
O        0.05193685       3.80185641      -2.14124489
H       -2.05578425       0.84409028      -2.73583672
H       -6.85905537       1.65174700      -0.57699556
H       -7.53014202       0.16590705      -1.26048090
H       -7.49497315       1.64330250      -2.23118594
H       -6.07444980      -0.02214908      -5.72229183
H       -5.57194372       1.45452261      -4.89243033
H       -7.10227316       0.67180033      -4.46855924
H       -3.33794982      -1.24752006      -3.51181173
H       -3.38269548       0.27636518      -4.43495423
H       -3.95971276      -1.21926284      -5.16025921
H       -5.56944946      -2.34761570      -2.81994467
H       -6.15933757      -2.21464126      -4.47601390
H       -7.09955563      -1.52499940      -3.15437464
H       -4.43820395       0.18196666       0.20745377
H       -3.33408477      -0.57348465      -0.94661453
H       -4.89079977      -1.32785096      -0.57167261
H       -5.60356565       5.21082828      -0.57272515
H       -6.13586544       3.79216701      -1.48136945
H       -4.19233833       5.74162936       3.10638158
H       -5.63003859       6.04791022       2.12630560
H       -4.03333242       5.97318771       1.36361214
H       -4.68255473       2.75011114       4.73733163
H       -6.38789478       2.70340661       5.18352044
H       -5.64099912       4.23718957       4.73419814
H       -8.19511104       3.03232028       3.44239541
H       -7.76370227       3.33349577       1.75517989
H       -7.47785588       4.57687088       2.98219707
H       -6.87822008       0.93577157       3.43621697
H       -5.16415324       0.91626337       3.02011458
H       -6.38116191       1.17998534       1.75999768
H       -3.18073092       1.81983580       1.90226690
H       -2.74621081       3.05232724       3.09242391
H       -2.43367733       3.33353800       1.37942529
H        0.08671821       5.01982782       0.52704233
H       -1.54531443       5.44172599       1.12794101
H       -0.32425968       6.70615248       0.89731802
H        0.35844119       2.90980063      -2.34307477
69
Properties=species:S:1:pos:R:3 -90.0984067084=T converged=T charge=0 spin=1 pbc="F F F"
O       -1.93046961       1.23368310      -2.48914367
C       -2.35977539       2.57738085      -2.37780295
H       -2.41066905       3.04493654      -3.37211856
C       -3.75988910       2.60298196      -1.78861466
H       -3.77780883       1.99421271      -0.87648729
O       -4.67402889       2.14380502      -2.75270342
Si      -5.79495651       0.90903226      -2.77766972
C       -6.86307125       1.42164191      -4.21628309
C       -4.99767555      -0.77451389      -3.07688731
C       -4.09286269      -0.71185234      -4.31018910
C       -4.17708216      -1.20548585      -1.85700654
C       -6.10009682      -1.81240243      -3.32056175
C       -6.78349237       0.87281669      -1.18797506
C       -4.15780131       4.04238762      -1.43294680
H       -4.31534806       4.58378239      -2.37715005
C       -5.43158582       4.10251828      -0.61642779
O       -5.35120647       3.32077454       0.55060581
Si      -4.62105574       3.66466774       2.00826461
C       -4.63362652       5.50474924       2.31589864
C       -5.67172712       2.73118693       3.26593788
C       -5.57826296       1.22775178       2.98492140
C       -5.17662607       3.01330103       4.68809345
C       -7.13388338       3.16705784       3.14223612
C       -2.86475825       3.03277090       2.05482648
O       -3.16426885       4.69649644      -0.65371560
C       -1.90957858       4.76584411      -1.28940898
H       -2.00704521       5.31910243      -2.24052552
O       -1.01278471       5.40420660      -0.44677236
C       -1.26698282       6.79184642      -0.28252392
C       -1.38618401       3.36606119      -1.52816388
H       -1.28056308       2.88352773      -0.54908803
O       -0.15215515       3.38210194      -2.22469958
H       -1.00695226       1.25442771      -2.76792931
H       -7.31252968       2.39214516      -3.99208124
H       -7.66798229       0.71306038      -4.41914918
H       -6.26176306       1.53708056      -5.12005345
H       -3.63318604      -1.69015111      -4.48900531
H       -3.29333732       0.01626154      -4.17513212
H       -4.66037823      -0.44997046      -5.20665090
H       -3.35275730      -0.51824553      -1.66571855
H       -3.74403728      -2.19723723      -2.02993714
H       -4.79756767      -1.27601629      -0.95972525
H       -6.76872848      -1.91238891      -2.46187986
H       -5.64829232      -2.79481696      -3.49426629
H       -6.70184223      -1.57041868      -4.19945694
H       -7.05608086      -0.14776478      -0.91159887
H       -7.70928699       1.44246841      -1.29926920
H       -6.23133668       1.31082135      -0.35429854
H       -5.64151305       5.15030128      -0.37722844
H       -6.25934708       3.72547113      -1.21885975
H       -5.64203052       5.92050605       2.36212221
H       -4.08487886       6.00815748       1.51787803
H       -4.12880076       5.73021686       3.25832364
H       -4.55468528       0.85913738       3.08542634
H       -5.93011940       0.99242264       1.97817838
H       -6.20131004       0.66917154       3.69224179
H       -4.13840404       2.70310384       4.82795689
H       -5.78287108       2.46011110       5.41371657
H       -5.25062700       4.07407891       4.94005719
H       -7.75859270       2.60991033       3.84918209
H       -7.51495024       2.97802318       2.13700953
H       -7.25824583       4.23024193       3.36239337
H       -2.51083518       2.93041562       3.08350118
H       -2.20085003       3.72384431       1.53533658
H       -2.78683476       2.05312471       1.57666351
H       -1.22754656       7.30680242      -1.24762171
H       -0.48655501       7.17988290       0.36716435
H       -2.24156793       6.95988821       0.17852153
H        0.47878632       3.88517142      -1.69776989
69
Properties=species:S:1:pos:R:3 -90.0975884478=T converged=T charge=0 spin=1 pbc="F F F"
O       -1.08570488       1.23403777      -1.48827701
C       -1.80444336       2.43551955      -1.70139639
H       -1.73908832       2.73813361      -2.75641173
C       -3.26556976       2.18024291      -1.37718153
H       -3.32426505       1.68473194      -0.40071473
O       -3.86317562       1.40659256      -2.39344612
Si      -4.23049163      -0.22072739      -2.36351151
C       -4.90018241      -0.67231254      -0.67749513
C       -5.53041202      -0.39269266      -3.71973983
C       -4.97460974       0.18122808      -5.02700990
C       -5.87961595      -1.86925862      -3.92547804
C       -6.79347431       0.38271862      -3.33833901
C       -2.74253698      -1.27428977      -2.74253870
C       -4.05800026       3.49179088      -1.30588864
H       -4.17449958       3.86830251      -2.33331724
C       -5.43645047       3.27750863      -0.71065007
O       -5.32416359       2.60614316       0.52148366
Si      -5.98734375       2.91285899       2.01096017
C       -5.71716272       1.30179199       2.90428659
C       -5.10953631       4.34437162       2.87630045
C       -3.60483342       4.06250297       2.93213686
C       -5.34768122       5.65815711       2.12394738
C       -5.64874997       4.48760014       4.30403091
C       -7.81269355       3.27827992       1.83860507
O       -3.40576976       4.46286745      -0.49948862
C       -2.11396794       4.77901986      -0.96274017
H       -2.17095551       5.13057671      -2.00885639
O       -1.56656702       5.76019466      -0.15365624
C       -2.18009040       7.03215588      -0.30279364
C       -1.23496039       3.55217690      -0.85243951
H       -1.22815112       3.24911291       0.20213865
O        0.07785709       3.79967207      -1.32231230
H       -0.15205342       1.43292403      -1.62451349
H       -5.59342952      -1.51410986      -0.75277502
H       -5.42274032       0.16629439      -0.21169684
H       -4.08906288      -0.97471225      -0.01091915
H       -5.72760734       0.11928083      -5.82031234
H       -4.09366566      -0.36786946      -5.36686537
H       -4.69646554       1.22953966      -4.90776245
H       -5.00544779      -2.45340236      -4.21981080
H       -6.62586154      -1.97329398      -4.71991019
H       -6.29944048      -2.32103878      -3.02366040
H       -7.55962460       0.27026888      -4.11348687
H       -6.57986765       1.44906001      -3.24142199
H       -7.22126306       0.02964080      -2.39643161
H       -2.36773166      -1.11040515      -3.75463330
H       -2.98478214      -2.33390577      -2.63030706
H       -1.94130014      -1.02628402      -2.04629008
H       -5.92986888       4.25019123      -0.60628737
H       -6.02710310       2.66953408      -1.40118370
H       -5.98514219       1.35302280       3.96064112
H       -4.67152746       0.99794423       2.82607574
H       -6.31949150       0.52045931       2.43606105
H       -3.08689771       4.87912104       3.44752408
H       -3.18383623       3.98131026       1.92962547
H       -3.39054644       3.14136798       3.47969474
H       -4.84118120       6.48229975       2.63955345
H       -6.41004598       5.91076624       2.07658620
H       -4.94826031       5.61211401       1.10944882
H       -5.13546451       5.31002015       4.81396186
H       -5.48117626       3.58408780       4.89469918
H       -6.71780189       4.71444199       4.31646225
H       -8.28036452       3.37278768       2.82156776
H       -8.30983252       2.46012259       1.31315887
H       -8.01082226       4.20124142       1.29003861
H       -1.63057806       7.72410690       0.33108822
H       -3.22457083       7.00000561       0.01113626
H       -2.12102008       7.36634762      -1.34410460
H        0.43800554       4.53332192      -0.81119827
69
Properties=species:S:1:pos:R:3 -90.0957430808=T converged=T charge=0 spin=1 pbc="F F F"
O       -1.16535477       1.01175665      -1.81604399
C       -1.64847130       2.33670136      -1.96156623
H       -1.54585598       2.66999589      -3.00276411
C       -3.11682888       2.41546804      -1.56664838
H       -3.22785434       1.99616003      -0.56105440
O       -3.91052677       1.71834297      -2.49898039
Si      -4.45640233       0.14360467      -2.42556692
C       -4.22660109      -0.54450939      -0.71018146
C       -6.27388977       0.20215271      -2.92894370
C       -6.44868867       1.18070299      -4.09411330
C       -6.77175638      -1.18123807      -3.35888267
C       -7.10821747       0.68265607      -1.73550826
C       -3.45079449      -0.85274032      -3.65384061
C       -3.58563101       3.86398270      -1.52546604
H       -3.50674533       4.29690712      -2.53416322
C       -5.02089349       3.99452166      -1.06362578
O       -5.28892158       3.25265177       0.10260238
Si      -4.91058175       3.63110169       1.68207090
C       -4.86230937       5.48194327       1.91466302
C       -6.29572345       2.82857362       2.67795881
C       -7.63766073       3.44771877       2.27825851
C       -6.33341265       1.32927636       2.36529490
C       -6.06710402       3.03037207       4.17890819
C       -3.25721440       2.91123571       2.16243514
O       -2.77145905       4.59401191      -0.61799338
C       -1.41922889       4.63424236      -1.01685493
H       -1.34601552       5.12673233      -2.00324109
O       -0.69876131       5.34368506      -0.06868308
C       -1.00249554       6.73024237      -0.03819460
C       -0.80783240       3.24227319      -1.08719296
H       -0.78954384       2.83356773      -0.06918704
O        0.49116598       3.31765231      -1.63531169
H       -1.46660914       0.49913269      -2.57237585
H       -4.71743782       0.07012383       0.04732514
H       -3.16316504      -0.60905144      -0.46942414
H       -4.64504595      -1.55254580      -0.64815976
H       -5.87537692       0.86999375      -4.97151787
H       -6.12437366       2.18498728      -3.81862374
H       -7.50222216       1.23295966      -4.38876902
H       -6.27714925      -1.52538023      -4.26908389
H       -7.84612131      -1.14293727      -3.56665966
H       -6.61793319      -1.93432403      -2.58128642
H       -8.14754295       0.84327753      -2.04254070
H       -6.73133874       1.62055240      -1.31988194
H       -7.11518121      -0.05883954      -0.93279853
H       -3.19220682      -0.24418582      -4.52354758
H       -3.99089268      -1.73087836      -4.01083823
H       -2.52498893      -1.22159218      -3.20395764
H       -5.24690492       5.05637940      -0.91987529
H       -5.67263507       3.61854368      -1.85300050
H       -4.06944405       5.90526917       1.29549583
H       -4.63122147       5.71996480       2.95595666
H       -5.80436784       5.96963607       1.65699399
H       -7.82061294       3.32913790       1.20814915
H       -7.67899139       4.51266958       2.51899020
H       -8.45839143       2.95747435       2.81347250
H       -7.14943969       0.84579057       2.91381532
H       -5.40408126       0.83096043       2.65287570
H       -6.50207325       1.15834739       1.29998030
H       -5.13194005       2.57429422       4.51153414
H       -6.87892976       2.56593549       4.74940091
H       -6.04305263       4.08960705       4.44736730
H       -3.18249137       1.85082332       1.90926983
H       -3.08528029       3.01320287       3.23655273
H       -2.46052339       3.44741353       1.64566058
H       -0.36357179       7.17727544       0.71905276
H       -2.04805837       6.89758026       0.22485750
H       -0.79448997       7.19290051      -1.00825228
H        1.02053733       3.87136596      -1.05038114
69
Properties=species:S:1:pos:R:3 -90.0985805325=T converged=T charge=0 spin=1 pbc="F F F"
O       -1.36233180       0.80785269      -1.67627861
C       -1.85021586       2.13536862      -1.79783508
H       -1.75366326       2.47633083      -2.83856638
C       -3.31030899       2.24513713      -1.40978738
H       -3.45396079       1.84076659      -0.40018880
O       -4.07995924       1.55435001      -2.37256489
Si      -5.09252452       0.24330522      -2.16957906
C       -6.55126772       0.65534782      -1.08636066
C       -5.60310234      -0.14280633      -3.93875968
C       -6.54331381      -1.35110383      -3.96186123
C       -6.31633188       1.07610666      -4.53334458
C       -4.35924017      -0.44115505      -4.78114769
C       -4.15201389      -1.16762346      -1.38063361
C       -3.71814388       3.71549710      -1.40341678
H       -3.66952661       4.09466921      -2.43503995
C       -5.12245952       3.91653563      -0.87416594
O       -5.29832344       3.32901123       0.39287830
Si      -4.83289289       3.90459843       1.88833147
C       -4.83196391       5.76968929       1.88303276
C       -6.13975944       3.20420531       3.05587519
C       -7.53763163       3.56098908       2.54450394
C       -6.00804385       1.67863751       3.11155972
C       -5.95137997       3.77971229       4.46303878
C       -3.14756892       3.26888948       2.37451616
O       -2.85825154       4.45707884      -0.55593098
C       -1.48330594       4.42719382      -0.90271370
H       -1.34419321       4.89737483      -1.89222841
O       -0.79075620       5.11729094       0.07056296
C       -0.96163662       6.52272120       0.01233900
C       -0.96694866       3.00104945      -0.92384869
H       -0.99160201       2.62336564       0.10582992
O        0.35413352       3.02912657      -1.41952127
H       -1.91264583       0.23965807      -2.22753766
H       -7.32159795       1.21610481      -1.61943370
H       -6.23538468       1.25827787      -0.23225205
H       -7.00393738      -0.26274203      -0.70460369
H       -6.85101669      -1.57027505      -4.98958659
H       -7.45026982      -1.16964957      -3.37985725
H       -6.05984127      -2.24823080      -3.56705152
H       -6.58729073       0.88534817      -5.57712365
H       -5.67114482       1.95655889      -4.51233459
H       -7.23691565       1.31070280      -3.99431114
H       -3.66963946       0.40544945      -4.77465154
H       -4.64118605      -0.63112327      -5.82216687
H       -3.82704699      -1.32551333      -4.42260785
H       -3.42906242      -1.63189257      -2.05557866
H       -4.84502256      -1.94698072      -1.05589388
H       -3.61099586      -0.82530632      -0.49512559
H       -5.34235314       4.98863386      -0.84753755
H       -5.82830374       3.44880684      -1.56273389
H       -4.46565932       6.14533135       2.84134149
H       -5.82212707       6.19492099       1.70657994
H       -4.15393028       6.12973264       1.10719439
H       -7.70381991       3.15614812       1.54463459
H       -7.68894171       4.64264306       2.50486901
H       -8.30458019       3.14600141       3.20808798
H       -5.03795262       1.37020056       3.50794211
H       -6.13043479       1.23457045       2.12083824
H       -6.78120614       1.25257135       3.76074800
H       -6.07366504       4.86540547       4.47433364
H       -4.96485982       3.54524100       4.87032387
H       -6.69613921       3.35705248       5.14637699
H       -3.03721668       2.20866255       2.13264077
H       -2.98780837       3.38051520       3.44999711
H       -2.36455831       3.82342337       1.85754798
H       -0.35732464       6.94540720       0.81118781
H       -2.00612141       6.80484829       0.16121846
H       -0.61254920       6.91245485      -0.94896267
H        0.63587879       2.11313974      -1.52124685
69
Properties=species:S:1:pos:R:3 -90.0962657362=T converged=T charge=0 spin=1 pbc="F F F"
O       -1.78696813       0.29485671      -1.13800260
C       -1.93045061       1.68742611      -1.37567560
H       -1.60496408       1.92874648      -2.39792871
C       -3.36832923       2.14370055      -1.23026200
H       -3.74909305       1.84581172      -0.24620755
O       -4.12225042       1.57677992      -2.28208780
Si      -5.42421287       0.53676260      -2.19127821
C       -6.96684987       1.41204500      -1.62528160
C       -5.57496420      -0.07619738      -3.96534096
C       -4.26438479      -0.74333432      -4.39290704
C       -6.72386639      -1.08194179      -4.07933947
C       -5.84117324       1.11632924      -4.88993156
C       -5.05347973      -0.85214843      -0.99400993
C       -3.42220468       3.66586204      -1.31765540
H       -3.10664525       3.97368491      -2.32581144
C       -4.81406160       4.20555361      -1.06249507
O       -5.34121432       3.67130988       0.12753062
Si      -5.59757263       4.40559409       1.59782199
C       -7.36081715       5.01589049       1.63767301
C       -5.30669115       3.03917330       2.86267011
C       -3.80379725       2.76390250       2.97037672
C       -5.85024058       3.45365001       4.23331114
C       -6.01466952       1.76004122       2.40599265
C       -4.43334346       5.84128253       1.84591705
O       -2.56360575       4.22210679      -0.33762274
C       -1.19453413       3.89206763      -0.50551927
H       -0.85053446       4.25098079      -1.49241807
O       -0.48349400       4.49563419       0.50869297
C       -0.33746927       5.89580079       0.34477069
C       -1.00727738       2.39120533      -0.40077415
H       -1.26380707       2.09708303       0.62476766
O        0.34199629       2.09494676      -0.68818541
H       -2.35839669      -0.17031646      -1.76008760
H       -7.34466950       2.11422034      -2.37102219
H       -6.76861774       1.96909357      -0.70747732
H       -7.75237195       0.68188741      -1.41618136
H       -3.42857352      -0.04371154      -4.32314356
H       -4.32776644      -1.07774495      -5.43387384
H       -4.03680362      -1.62255015      -3.78485162
H       -6.81744459      -1.43396458      -5.11204280
H       -7.68102105      -0.63670625      -3.79757449
H       -6.55872276      -1.95913607      -3.44869417
H       -5.04594200       1.85992444      -4.80942743
H       -6.79160456       1.60253514      -4.65968181
H       -5.88544369       0.78648374      -5.93335658
H       -4.58090660      -0.47245024      -0.08527653
H       -4.39369648      -1.61477661      -1.41374974
H       -5.98078143      -1.34588446      -0.69501035
H       -4.77082800       5.29950545      -1.03650556
H       -5.46049550       3.91546244      -1.89427123
H       -7.58489839       5.54246101       2.56832276
H       -8.07309469       4.19603294       1.52190412
H       -7.52202085       5.71476211       0.81274555
H       -3.37204856       2.52750472       1.99516830
H       -3.61846132       1.91217106       3.63370662
H       -3.26255238       3.62226476       3.37362379
H       -5.38111283       4.37124008       4.59801332
H       -5.64886834       2.66939000       4.97095354
H       -6.93088602       3.61104533       4.20815079
H       -7.09442453       1.90336372       2.31322992
H       -5.84937532       0.95618508       3.13152683
H       -5.63306312       1.42217875       1.44049839
H       -4.42293823       6.14344603       2.89644135
H       -4.74320865       6.71077269       1.26157406
H       -3.41849328       5.57053570       1.55305578
H        0.22399812       6.11808432      -0.56847013
H        0.22054027       6.25740191       1.20496086
H       -1.30798361       6.39561910       0.30642591
H        0.41878786       1.13467320      -0.71643355
69
Properties=species:S:1:pos:R:3 -90.0962197599=T converged=T charge=0 spin=1 pbc="F F F"
O       -1.79353176       0.41881737      -1.43614017
C       -1.98780423       1.81405796      -1.61531529
H       -1.75755903       2.09454081      -2.65335220
C       -3.41759110       2.22702126      -1.33031640
H       -3.70263834       1.88360973      -0.32947446
O       -4.24686857       1.67504957      -2.33246159
Si      -5.51510087       0.60383124      -2.16523671
C       -7.03864556       1.44455810      -1.50298753
C       -5.76186363      -0.01151242      -3.92794055
C       -6.89443331      -1.04091706      -3.97400742
C       -6.10787710       1.17512094      -4.83333973
C       -4.46624099      -0.65163506      -4.43507685
C       -5.04260613      -0.77877460      -0.99770538
C       -3.52030794       3.74900151      -1.35473850
H       -3.31797327       4.10131142      -2.37728811
C       -4.89379856       4.23428588      -0.93836041
O       -5.28850708       3.62638285       0.26848601
Si      -5.43597831       4.29269304       1.78601973
C       -7.16503067       4.97413148       1.95894194
C       -5.13579335       2.84482919       2.95430310
C       -5.54112278       3.21898653       4.38325871
C       -5.95813914       1.63642069       2.49721673
C       -3.65006999       2.47355102       2.92625465
C       -4.20109401       5.66514388       2.05129459
O       -2.58356033       4.29960471      -0.44609114
C       -1.22967680       4.00960668      -0.75180700
H       -0.99057176       4.39817058      -1.75834140
O       -0.43941448       4.61076208       0.20341969
C       -0.34729524       6.01782620       0.05935190
C       -1.00063549       2.51200280      -0.70072884
H       -1.16592172       2.18783030       0.33461900
O        0.32557019       2.25283564      -1.10598023
H       -2.40632155      -0.04084691      -2.02195266
H       -6.79989142       1.98394458      -0.58409689
H       -7.80316581       0.69970963      -1.26916906
H       -7.46310650       2.15641452      -2.21363029
H       -6.67423804      -1.91408418      -3.35472586
H       -7.04156849      -1.39553384      -4.99956419
H       -7.84222335      -0.61528344      -3.63602287
H       -6.21442403       0.84318268      -5.87159746
H       -5.32178466       1.93204958      -4.80472351
H       -7.04935680       1.64556246      -4.54178209
H       -3.64204392       0.06502611      -4.41479599
H       -4.58500559      -0.98592450      -5.47121909
H       -4.18525711      -1.52701293      -3.84398935
H       -4.36329970      -1.50695508      -1.44603622
H       -5.93803110      -1.31569514      -0.67623677
H       -4.55966187      -0.38827567      -0.09914603
H       -4.87451768       5.32656629      -0.86021646
H       -5.61184993       3.96728759      -1.71725918
H       -7.31476492       5.44952530       2.93118600
H       -7.92134110       4.19676139       1.83137225
H       -7.33464613       5.73286367       1.19037762
H       -4.98196747       4.08213793       4.75351384
H       -5.33867767       2.38387653       5.06250067
H       -6.60683276       3.44816954       4.45376090
H       -5.67900198       1.33005012       1.48730178
H       -7.03050085       1.84807022       2.50454864
H       -5.78511554       0.78558790       3.16522767
H       -3.02208809       3.28250313       3.30526467
H       -3.31867904       2.24004580       1.91178172
H       -3.46599825       1.59018303       3.54722610
H       -3.22320672       5.39062389       1.65508455
H       -4.09703421       5.87932235       3.11827458
H       -4.52422334       6.58881806       1.56552960
H       -1.32967683       6.49016152       0.12971588
H        0.11399743       6.27506648      -0.89969618
H        0.28432206       6.37709518       0.86805862
H        0.41810426       1.29547195      -1.16738108
69
Properties=species:S:1:pos:R:3 -90.0974729234=T converged=T charge=0 spin=1 pbc="F F F"
O       -1.28289640       1.64774621      -1.93648844
C       -2.19073611       2.73714257      -1.98050044
H       -2.35291067       3.05297345      -3.02206306
C       -3.51952270       2.28060366      -1.40357443
H       -3.33083912       1.78651238      -0.44439502
O       -4.20978917       1.42750808      -2.28173888
Si      -3.82982376      -0.05997337      -2.92605212
C       -2.99098880      -1.14387757      -1.66720518
C       -5.52350179      -0.73239273      -3.41521844
C       -6.20337710       0.25108624      -4.37307742
C       -5.37902408      -2.09416851      -4.10218510
C       -6.39321365      -0.88470546      -2.16411918
C       -2.75195155       0.13738124      -4.43701173
C       -4.45502583       3.47288834      -1.16854873
H       -4.78764764       3.83467930      -2.15205345
C       -5.67539136       3.07354379      -0.36398188
O       -5.27794311       2.46843839       0.84182163
Si      -5.77933057       2.73464586       2.40075080
C       -5.15593779       1.22144777       3.29056248
C       -5.03483684       4.31932841       3.11411450
C       -5.38249914       4.42724489       4.60299959
C       -3.51179185       4.28956419       2.95752028
C       -5.58698208       5.55102380       2.38971579
C       -7.64695811       2.81177180       2.46874199
O       -3.81187455       4.52409111      -0.46175201
C       -2.67191043       5.01349000      -1.12847708
H       -2.95686545       5.36395260      -2.13709408
O       -2.11737211       6.04932508      -0.39537350
C       -2.90916927       7.22777748      -0.38096729
C       -1.63460567       3.91447764      -1.20954665
H       -1.40398293       3.60761753      -0.18180354
O       -0.46560563       4.33777456      -1.88862137
H       -0.42151392       1.98594440      -2.20989296
H       -3.61270751      -1.31047990      -0.78622770
H       -2.05698236      -0.67966286      -1.35039141
H       -2.75053827      -2.11660982      -2.10224783
H       -5.63802033       0.36767864      -5.30078089
H       -6.31078285       1.23550971      -3.91307827
H       -7.20391447      -0.10785855      -4.63881477
H       -4.79469594      -2.02261352      -5.02286335
H       -6.36630641      -2.48751378      -4.36902291
H       -4.89770813      -2.82802472      -3.45012119
H       -7.40045874      -1.21665708      -2.43943071
H       -6.48733339       0.06404669      -1.63134186
H       -5.98005368      -1.62238584      -1.47261338
H       -1.74896166       0.44342963      -4.14013825
H       -3.15632839       0.89127721      -5.11545822
H       -2.66845813      -0.80143375      -4.98898656
H       -6.29016342       3.96378793      -0.19499539
H       -6.25860253       2.36336972      -0.95466485
H       -5.65206759       0.33746439       2.88238624
H       -5.34314094       1.25344531       4.36578306
H       -4.08259065       1.10302671       3.12746219
H       -4.94427696       5.34183752       5.01655781
H       -4.98318131       3.58744261       5.17586750
H       -6.46108633       4.47880187       4.77119140
H       -3.07094611       3.43753247       3.48056430
H       -3.07591674       5.19872264       3.38620395
H       -3.22482733       4.24375104       1.90691666
H       -5.14790318       6.46014572       2.81586545
H       -6.67120221       5.63414773       2.49724361
H       -5.33695316       5.53260751       1.32762736
H       -8.05670278       3.65857054       1.91445456
H       -7.98990853       2.89825708       3.50282514
H       -8.07724510       1.89759159       2.05373394
H       -3.86410975       7.05071662       0.11520743
H       -3.08782596       7.58221443      -1.40115316
H       -2.34695664       7.97750477       0.16932198
H       -0.12048327       5.11110663      -1.42740701
69
Properties=species:S:1:pos:R:3 -90.0972428325=T converged=T charge=0 spin=1 pbc="F F F"
O       -1.48351094       0.52358810      -1.40796314
C       -1.80956767       1.88137132      -1.63131387
H       -1.61846718       2.15512858      -2.67838302
C       -3.28243697       2.13778096      -1.34137740
H       -3.52103717       1.73216808      -0.35018062
O       -4.04492797       1.52346179      -2.36010369
Si      -5.16364648       0.29087165      -2.26332344
C       -6.61384337       0.75486338      -1.18623383
C       -5.65384072       0.06402455      -4.06613591
C       -4.41575332      -0.28572730      -4.89760337
C       -6.69097255      -1.05526840      -4.19134398
C       -6.24514550       1.37425273      -4.59707549
C       -4.37110330      -1.24409128      -1.54751787
C       -3.59748962       3.63054819      -1.33871865
H       -3.48491052       4.01192297      -2.36452776
C       -5.00519708       3.91894775      -0.86167205
O       -5.26860753       3.34081503       0.39427199
Si      -4.81853929       3.86739931       1.91113437
C       -4.70067847       5.72952889       1.93233204
C       -6.20382812       3.23676688       3.02636388
C       -6.02231144       3.77770743       4.44822722
C       -7.55884812       3.69302175       2.47930693
C       -6.17448498       1.70504905       3.06029531
C       -3.19028866       3.12340770       2.44142657
O       -2.72362990       4.31761140      -0.45681036
C       -1.36285767       4.18027518      -0.79988775
H       -1.19789809       4.59424439      -1.81075050
O       -0.60139686       4.86632812       0.13383071
C       -0.74247557       6.27708700       0.06630256
C       -0.91756935       2.72735955      -0.75201442
H       -1.00586972       2.38285082       0.28570614
O        0.40876728       2.61686315      -1.22292399
H       -2.01476653      -0.00797841      -2.01093433
H       -6.27956397       1.32042267      -0.31368208
H       -7.12006986      -0.14585079      -0.83146117
H       -7.34651986       1.36800816      -1.71480420
H       -3.65571691       0.49382887      -4.81718965
H       -4.68382248      -0.38116713      -5.95515587
H       -3.97151694      -1.23454437      -4.58793213
H       -7.59691122      -0.83364143      -3.62171797
H       -6.29647563      -2.01323028      -3.84352683
H       -6.98418901      -1.18256369      -5.23863095
H       -6.50279457       1.27124831      -5.65648620
H       -5.52858760       2.19303057      -4.50706341
H       -7.15722745       1.65428696      -4.06504457
H       -3.64997668      -1.70938461      -2.22378718
H       -5.13479381      -1.99087460      -1.31871980
H       -3.85441852      -1.01153590      -0.61318348
H       -5.15522303       5.00317179      -0.83704569
H       -5.71272111       3.50087717      -1.57969662
H       -3.97513209       6.05689557       1.18544799
H       -4.34694802       6.07128909       2.90788508
H       -5.65578009       6.21719176       1.72694830
H       -6.06885275       4.86906854       4.47385672
H       -5.06889917       3.46835407       4.88342470
H       -6.81725694       3.39882296       5.09981030
H       -8.37111022       3.31554337       3.11038102
H       -7.71891866       3.31891058       1.46658096
H       -7.63986526       4.78271970       2.45823528
H       -6.29999526       1.28419101       2.05997675
H       -6.99102698       1.32289458       3.68301167
H       -5.23800144       1.32651044       3.47634838
H       -3.12415889       2.06947187       2.15975889
H       -3.06990224       3.18410648       3.52594218
H       -2.35843294       3.65388926       1.97820459
H       -0.46580800       6.64595685      -0.92643010
H       -0.06864279       6.69738359       0.80851552
H       -1.76573322       6.58093190       0.29234690
H        0.96696696       3.14721641      -0.64355953
69
Properties=species:S:1:pos:R:3 -90.0973178881=T converged=T charge=0 spin=1 pbc="F F F"
O       -1.51158219       0.92298150      -1.96005005
C       -1.96959318       2.27024734      -1.98573346
H       -1.92824181       2.56522751      -3.03879332
C       -3.39873044       2.41718078      -1.50485602
H       -3.47345199       2.04449344      -0.47420214
O       -4.26905239       1.73957426      -2.37101762
Si      -5.26776974       0.44673877      -2.04489297
C       -6.94112128       1.04956520      -1.48605836
C       -5.36612829      -0.46507615      -3.68815997
C       -6.45443045      -1.54196292      -3.64617958
C       -5.69411967       0.54329774      -4.79492534
C       -4.01223339      -1.11224020      -3.99585479
C       -4.54496816      -0.61065562      -0.68294968
C       -3.76918808       3.89781917      -1.48547196
H       -3.74090185       4.27748129      -2.51757648
C       -5.15472712       4.11943372      -0.91976847
O       -5.34473538       3.44194801       0.30035633
Si      -4.85669314       3.88851390       1.82992875
C       -4.83069390       5.74711340       1.97545310
C       -6.15098956       3.08860977       2.94407149
C       -6.09201655       1.56634145       2.77363240
C       -5.88758122       3.44517067       4.41071182
C       -7.54728932       3.57371440       2.54467866
C       -3.15949363       3.22191474       2.23058218
O       -2.86077366       4.61749981      -0.66967425
C       -1.51497228       4.58168602      -1.11599441
H       -1.44783746       5.05733689      -2.11035212
O       -0.74581986       5.25799648      -0.19167086
C       -0.92543940       6.66399898      -0.21742083
C       -1.01775941       3.14944147      -1.18670265
H       -0.96749592       2.77935234      -0.15190996
O        0.26371528       3.15693923      -1.77511557
H       -1.68185981       0.56133808      -1.08135068
H       -7.58106777       0.21012540      -1.20351291
H       -7.45457131       1.61675242      -2.26520956
H       -6.82514179       1.69473275      -0.61204071
H       -7.44311446      -1.11152026      -3.46981736
H       -6.26315231      -2.28607368      -2.86804037
H       -6.49161086      -2.07228703      -4.60388855
H       -5.73721267       0.03459216      -5.76368691
H       -4.93156100       1.32078756      -4.85604506
H       -6.66191037       1.02434172      -4.63262748
H       -3.77642008      -1.90873020      -3.28644701
H       -3.20298437      -0.37974593      -3.96306002
H       -4.02671226      -1.55746732      -4.99656069
H       -5.21753673      -1.44540206      -0.46954665
H       -4.44401822      -0.04407762       0.24632664
H       -3.57305878      -1.02834467      -0.95077022
H       -5.31937850       5.19503220      -0.80752497
H       -5.88749194       3.73687787      -1.63016939
H       -4.53090839       6.04366601       2.98319597
H       -5.79944675       6.20236108       1.76183397
H       -4.09395532       6.15431753       1.28003396
H       -5.13051129       1.15939749       3.09597201
H       -6.25652629       1.27780094       1.73261721
H       -6.87102324       1.08778760       3.37711737
H       -6.63571339       2.96747301       5.05300514
H       -5.94744620       4.52319704       4.58158432
H       -4.90405933       3.10242259       4.74206918
H       -7.76548387       3.33010301       1.50306513
H       -7.65218563       4.65383209       2.67259697
H       -8.30809255       3.09240891       3.16895332
H       -2.91763659       3.38429466       3.28367571
H       -2.40763289       3.73780963       1.63344351
H       -3.08580353       2.14911964       2.03632109
H       -0.27069306       7.07760752       0.54504892
H       -1.95889153       6.93876278       0.00378465
H       -0.64293015       7.06871849      -1.19397579
H        0.47469875       2.24191513      -1.99649458
69
Properties=species:S:1:pos:R:3 -90.0967056265=T converged=T charge=0 spin=1 pbc="F F F"
O       -3.38721503       3.03095392      -4.39376290
C       -3.57170046       3.64839856      -3.13145249
H       -4.62347061       3.94385853      -3.01170178
C       -3.25214820       2.64179436      -2.03692194
H       -2.26047853       2.21191981      -2.23474250
O       -4.22968609       1.63282351      -1.96217898
Si      -4.56965421       0.36190884      -2.99171512
C       -3.01880254      -0.22223911      -3.85174407
C       -5.24981898      -0.97039898      -1.83492315
C       -5.77413017      -2.15823530      -2.65177277
C       -4.14213785      -1.46246080      -0.89623316
C       -6.39767537      -0.38350125      -1.00458753
C       -5.87890177       0.87948416      -4.21868774
C       -3.24397988       3.36377750      -0.68434842
H       -4.26530995       3.72949765      -0.50159693
C       -2.84445231       2.44853998       0.45154008
O       -3.06498830       3.05479051       1.70367300
Si      -4.23028016       2.68805619       2.82515326
C       -3.49278018       3.19394233       4.46027361
C       -5.81571784       3.66727048       2.47852731
C       -6.60579640       3.02916394       1.32737078
C       -6.70073815       3.66736828       3.73314303
C       -5.44991754       5.11387598       2.12088107
C       -4.60756718       0.85761929       2.79403798
O       -2.34396109       4.46060307      -0.70998889
C       -2.76761961       5.45350119      -1.61710338
H       -3.79962183       5.75963413      -1.36242236
O       -1.91054293       6.53800270      -1.55499766
C       -1.99340459       7.25259797      -0.32814063
C       -2.70807699       4.89088185      -3.02440103
H       -1.66427973       4.62178015      -3.22841024
O       -3.19656530       5.80604028      -3.99166029
H       -3.50209520       3.71695782      -5.06286451
H       -2.61692055       0.56402178      -4.49216102
H       -3.23709144      -1.08910465      -4.48102745
H       -2.24745814      -0.51704929      -3.13682679
H       -4.99419859      -2.60746648      -3.27184667
H       -6.59898336      -1.87170826      -3.30723606
H       -6.14683273      -2.94016612      -1.98232979
H       -3.32868445      -1.94141937      -1.44623013
H       -4.54109448      -2.20048845      -0.19267345
H       -3.71400964      -0.64740331      -0.30791509
H       -6.79624467      -1.13904349      -0.31939127
H       -7.22344910      -0.04672220      -1.63641890
H       -6.06644855       0.46975534      -0.40916792
H       -6.25118487       0.03191315      -4.79873534
H       -5.46839782       1.61445725      -4.91166773
H       -6.72714762       1.33316585      -3.70046789
H       -3.39923823       1.51255337       0.34339009
H       -1.77707340       2.22798245       0.36071204
H       -3.24798215       4.25800937       4.46756298
H       -2.56848667       2.63980035       4.63250088
H       -4.17080792       2.99286074       5.29184421
H       -6.96037350       2.03025889       1.59284567
H       -6.01772584       2.93405239       0.41043818
H       -7.48688814       3.63476280       1.08757054
H       -7.63430593       4.20639500       3.53929207
H       -6.20909032       4.15457543       4.57755184
H       -6.97090919       2.65292086       4.04005631
H       -4.80974130       5.16519835       1.23692383
H       -4.91500181       5.60540787       2.93799279
H       -6.35341765       5.70002757       1.92017008
H       -5.37579576       0.62887138       3.53686591
H       -3.72341324       0.26521943       3.03648098
H       -4.98211159       0.52340165       1.82441312
H       -3.00965149       7.62646861      -0.16662911
H       -1.30908557       8.09244864      -0.40808250
H       -1.70325380       6.61886453       0.50969060
H       -2.65914546       6.60458090      -3.94177661
69
Properties=species:S:1:pos:R:3 -90.0969718569=T converged=T charge=0 spin=1 pbc="F F F"
O       -1.17393760       0.67624441      -1.14033082
C       -1.62869950       1.96358211      -1.50946924
H       -1.41924556       2.15479078      -2.57108896
C       -3.13188086       2.08664036      -1.29710941
H       -3.37177336       1.76352900      -0.27643178
O       -3.78679691       1.29298449      -2.26526903
Si      -4.71392552      -0.07856656      -2.06978118
C       -5.82723771       0.06291386      -0.57771756
C       -5.66729499      -0.17774896      -3.69055280
C       -6.48617388      -1.47052383      -3.74614257
C       -6.60558377       1.02713304      -3.80531974
C       -4.68344064      -0.15012902      -4.86483053
C       -3.61448535      -1.57414831      -1.84817428
C       -3.59789171       3.52982393      -1.46827333
H       -3.47374171       3.81100963      -2.52489890
C       -5.04995876       3.72250824      -1.08334658
O       -5.32153315       3.27595829       0.22352113
Si      -5.00068593       4.02477857       1.67895122
C       -5.03338127       5.87864340       1.46712291
C       -6.38865697       3.43175967       2.81210410
C       -6.22257927       1.93393751       3.08880900
C       -6.34365074       4.19947509       4.13756070
C       -7.74430873       3.66291361       2.13984651
C       -3.34951821       3.48948891       2.36595561
O       -2.84206157       4.39371377      -0.63399157
C       -1.45871748       4.36780746      -0.90540275
H       -1.28443098       4.69515370      -1.94600052
O       -0.81963383       5.21892518      -0.01682682
C       -1.08741763       6.59445102      -0.24220186
C       -0.87087503       2.98233460      -0.68951648
H       -0.97354082       2.73612363       0.37454643
O        0.48102315       2.96698668      -1.09600063
H       -1.56300192       0.04065545      -1.75038047
H       -5.99518313       1.10130523      -0.28680990
H       -5.38743265      -0.45479312       0.27795969
H       -6.79761102      -0.39922580      -0.77474020
H       -7.04602618      -1.51931375      -4.68583582
H       -7.21129261      -1.53227410      -2.93101307
H       -5.84763070      -2.35555661      -3.70060314
H       -7.17332762       0.97802383      -4.74072394
H       -6.04115311       1.96200690      -3.81308021
H       -7.32585584       1.06396089      -2.98376538
H       -4.07351436       0.75442315      -4.84564425
H       -5.22765665      -0.16898563      -5.81508739
H       -4.01536396      -1.01452202      -4.85380981
H       -4.21951545      -2.47775051      -1.74117903
H       -3.02585606      -1.47751203      -0.93234529
H       -2.93337705      -1.73137607      -2.68817738
H       -5.30840631       4.77995544      -1.20098007
H       -5.67487263       3.14951231      -1.77017288
H       -4.74701704       6.36546731       2.40237169
H       -6.01605533       6.25512670       1.17559388
H       -4.30814095       6.17223970       0.70649241
H       -5.28336189       1.71897438       3.60368639
H       -6.24597764       1.35514659       2.16273191
H       -7.03803004       1.57266640       3.72543780
H       -6.50282074       5.27019084       3.98922997
H       -5.38973132       4.06660741       4.65413390
H       -7.13128875       3.83919973       4.80834548
H       -7.81137990       3.11949886       1.19582073
H       -7.91976419       4.72246841       1.93711387
H       -8.55562611       3.31396619       2.78838086
H       -3.18790541       2.41944733       2.21275707
H       -3.29072364       3.68272553       3.43998395
H       -2.53898339       4.03135444       1.87860461
H       -0.77724360       6.88843982      -1.24987854
H       -0.50961926       7.15206291       0.49046683
H       -2.14776239       6.81563518      -0.11112040
H        0.95538509       3.60336448      -0.54954416
69
Properties=species:S:1:pos:R:3 -90.0982570347=T converged=T charge=0 spin=1 pbc="F F F"
O       -1.19007811       0.94488242      -1.67641550
C       -1.77124256       2.23476007      -1.79228133
H       -1.69142220       2.58987179      -2.82967980
C       -3.23829845       2.23795322      -1.41358227
H       -3.35967780       1.81522445      -0.40850304
O       -3.95630547       1.50707013      -2.38537380
Si      -4.84645525       0.10459186      -2.23278488
C       -6.00918236       0.17080125      -0.77114776
C       -5.74932385       0.02291410      -3.88159928
C       -6.67121672       1.23959469      -4.01116569
C       -4.73199156       0.05313121      -5.02668125
C       -6.57787143      -1.26179162      -3.96670760
C       -3.69510699      -1.35106033      -2.00584814
C       -3.75029281       3.67631716      -1.40384327
H       -3.72938774       4.05615188      -2.43645027
C       -5.16624313       3.77880500      -0.87588047
O       -5.29718582       3.20443198       0.40252517
Si      -4.86711327       3.83589200       1.88665596
C       -4.97849713       5.69730988       1.84335855
C       -6.12976663       3.08889265       3.07454905
C       -5.99255952       3.73709583       4.45611558
C       -7.54666369       3.32211228       2.54449303
C       -5.89002235       1.58049721       3.19789173
C       -3.14796312       3.30358413       2.37930721
O       -2.94758021       4.47976157      -0.55713484
C       -1.57161821       4.54337238      -0.89546231
H       -1.45919439       5.01616172      -1.88705575
O       -0.93531502       5.28511985       0.07801251
C       -1.18579815       6.67745678      -0.00272598
C       -0.95893680       3.15594837      -0.90624183
H       -0.97222075       2.77812995       0.12361079
O        0.36361531       3.27234201      -1.38452589
H       -1.67734405       0.34683423      -2.25449280
H       -7.05379089       0.13721147      -1.08820371
H       -5.86951410       1.08342231      -0.18805361
H       -5.83732655      -0.67986148      -0.10822255
H       -7.42705871       1.26526133      -3.22215577
H       -7.19841023       1.21550749      -4.97082232
H       -6.09960187       2.16925281      -3.97102563
H       -5.24791137       0.04691003      -5.99267712
H       -4.07027316      -0.81592737      -5.00458760
H       -4.11758774       0.95402214      -4.98197867
H       -5.94895867      -2.15318771      -3.90627508
H       -7.11177161      -1.30241705      -4.92171378
H       -7.32520246      -1.31923772      -3.17139253
H       -4.27265868      -2.26765138      -1.86315951
H       -3.08662576      -1.21539697      -1.10771607
H       -3.02834803      -1.51149755      -2.85677268
H       -5.46721312       4.83138091      -0.86903918
H       -5.83496475       3.24514396      -1.55444747
H       -4.32176848       6.08270924       1.06171735
H       -4.64033912       6.11414857       2.79489621
H       -5.99270045       6.05650124       1.65645660
H       -4.99214098       3.59950146       4.87397450
H       -6.70417175       3.28622785       5.15642451
H       -6.20038494       4.80909975       4.42078107
H       -7.67797495       2.86441734       1.56246833
H       -7.77546247       4.38734463       2.45794072
H       -8.28503286       2.88149950       3.22378214
H       -4.90253524       1.35967918       3.60953958
H       -5.97580981       1.08470139       2.22812824
H       -6.63405132       1.13096293       3.86513962
H       -2.97542349       2.25325869       2.13022573
H       -2.99847884       3.41588974       3.45615135
H       -2.39718027       3.90629460       1.86849803
H       -0.82970610       7.07657515      -0.95753719
H       -0.63240607       7.14291981       0.80905430
H       -2.24899522       6.89993501       0.11088085
H        0.70488026       2.37684863      -1.48725456
69
Properties=species:S:1:pos:R:3 -90.0970835352=T converged=T charge=0 spin=1 pbc="F F F"
O       -1.61285293       0.93576074      -2.03965350
C       -2.02324052       2.29015061      -2.03619304
H       -2.00127392       2.60452367      -3.08415907
C       -3.45013666       2.43541588      -1.51942977
H       -3.50145453       2.00242289      -0.51148387
O       -4.33745699       1.80537441      -2.40443226
Si      -5.28582055       0.46037425      -2.14469282
C       -6.92045460       0.96834142      -1.40073610
C       -5.49932223      -0.26157628      -3.86956925
C       -5.92535168       0.85426707      -4.83004210
C       -4.16343640      -0.84093979      -4.34558292
C       -6.56635815      -1.36020329      -3.86863007
C       -4.45011685      -0.72583293      -0.97003830
C       -3.85038649       3.90428758      -1.41458553
H       -3.88195475       4.32778852      -2.42915890
C       -5.20933241       4.07315749      -0.77215694
O       -5.32248134       3.35214689       0.43199222
Si      -4.78446690       3.75875784       1.95392736
C       -4.82225392       5.61150590       2.16803540
C       -5.99438402       2.86525406       3.09062919
C       -5.69782850       3.19715732       4.55667270
C       -7.42795780       3.28546551       2.75399961
C       -5.86153966       1.35299846       2.87539879
C       -3.04550192       3.14626448       2.25435214
O       -2.91563928       4.61872593      -0.61762028
C       -1.61407077       4.59319510      -1.15572769
H       -1.62476905       5.05248338      -2.16052254
O       -0.76906232       5.29584719      -0.30941965
C       -1.02851697       6.69201367      -0.27250918
C       -1.07860571       3.17174459      -1.23715968
H       -1.02425411       2.79571416      -0.20366706
O        0.19225533       3.15948528      -1.84777015
H       -1.43939420       0.66396353      -1.13052479
H       -7.51119879       1.58374898      -2.08267006
H       -6.74565001       1.54259630      -0.48753582
H       -7.51582982       0.09055934      -1.13753413
H       -6.03378959       0.45387929      -5.84365442
H       -5.18218519       1.65202432      -4.86058034
H       -6.88572737       1.29143460      -4.54511399
H       -4.24649020      -1.17276309      -5.38628649
H       -3.86298406      -1.70409712      -3.74758853
H       -3.36387408      -0.09944349      -4.28983080
H       -6.67030163      -1.78091727      -4.87471780
H       -7.54437431      -0.97431849      -3.57086793
H       -6.30585040      -2.18221852      -3.19640753
H       -3.45137071      -0.99398162      -1.31532235
H       -5.04071637      -1.64126955      -0.88021137
H       -4.37286687      -0.29756559       0.03280192
H       -5.39200057       5.14049488      -0.61534071
H       -5.96776062       3.69663234      -1.45835700
H       -5.81709870       6.03377354       2.01477684
H       -4.13648788       6.07347329       1.45453905
H       -4.48758871       5.88613363       3.17099163
H       -5.81441029       4.26465704       4.76084601
H       -4.68454907       2.90476743       4.84372701
H       -6.39239799       2.65882644       5.21093248
H       -7.58493327       4.35496584       2.91458816
H       -8.13838543       2.74895317       3.39244545
H       -7.67207057       3.05660927       1.71495334
H       -6.59728406       0.81857113       3.48614999
H       -4.87151239       0.98849622       3.15966702
H       -6.04036746       1.08337209       1.83159403
H       -2.93495360       2.09459539       1.97919580
H       -2.77366672       3.24354324       3.30819851
H       -2.33782270       3.73418740       1.66983902
H       -0.92001287       7.13103970      -1.26908861
H       -0.29487839       7.13067832       0.39853119
H       -2.03253720       6.89347374       0.10348181
H        0.75618869       3.76466226      -1.35173330
69
Properties=species:S:1:pos:R:3 -90.0938872306=T converged=T charge=0 spin=1 pbc="F F F"
O       -0.87530440       1.72775832      -1.99065042
C       -1.76284966       2.83875657      -2.01946180
H       -1.83058130       3.23417727      -3.04203615
C       -3.15764763       2.46941053      -1.55638481
H       -3.10344480       2.03142079      -0.55511393
O       -3.74892603       1.57671108      -2.47396376
Si      -3.99122237      -0.06541022      -2.32037617
C       -3.79526776      -0.58743006      -0.54190003
C       -5.73631993      -0.39628330      -2.96776191
C       -6.03116335       0.55312175      -4.13521571
C       -5.87528967      -1.84464368      -3.45230375
C       -6.74271195      -0.14472180      -1.83630609
C       -2.70979323      -0.93472248      -3.37649219
C       -3.99609720       3.74194790      -1.47459338
H       -4.07115098       4.18356437      -2.48173859
C       -5.39716048       3.46667237      -0.96957948
O       -5.36001857       2.60524692       0.14434676
Si      -6.07460647       2.79678112       1.63292693
C       -6.09452256       1.06509836       2.31921492
C       -5.07467535       3.96135541       2.73365794
C       -5.59206096       3.85691305       4.17492621
C       -3.59606861       3.55435871       2.69542098
C       -5.21912786       5.41154650       2.25298637
C       -7.82214042       3.42778297       1.42073030
O       -3.36967668       4.64904996      -0.58173187
C       -2.08827412       5.08867073      -1.00792419
H       -2.18763207       5.59620815      -1.98458442
O       -1.59160994       5.94757013      -0.05219296
C       -2.21998612       7.21782782      -0.04620951
C       -1.14426732       3.90719054      -1.13582696
H       -0.99358556       3.50014445      -0.12728332
O        0.06762107       4.37112165      -1.69261403
H       -1.14472011       1.10748016      -2.67677237
H       -4.08193740      -1.63611685      -0.42562971
H       -4.42134422       0.01421210       0.11981152
H       -2.75530878      -0.48801439      -0.22231626
H       -5.32440501       0.41382373      -4.95785100
H       -5.96981468       1.59634218      -3.82302114
H       -7.03719005       0.36991038      -4.52659419
H       -5.24114245      -2.04292470      -4.31859083
H       -6.90925853      -2.04316621      -3.75250255
H       -5.61739159      -2.56889561      -2.67442594
H       -7.76651304      -0.21371936      -2.21877673
H       -6.61404224       0.84289277      -1.38630694
H       -6.63727727      -0.88344553      -1.03767372
H       -1.73535773      -0.93862882      -2.87991618
H       -2.60190749      -0.45892364      -4.35447062
H       -2.98180685      -1.97892296      -3.54148092
H       -5.87726195       4.42376010      -0.73808422
H       -5.96369958       2.98821608      -1.77418918
H       -5.08670284       0.68476436       2.49340716
H       -6.58271587       0.39732140       1.60671484
H       -6.64298737       1.01227380       3.26041592
H       -5.02639172       4.53245937       4.82545798
H       -5.47924541       2.84704339       4.57575439
H       -6.64617814       4.13595710       4.25412195
H       -3.45531819       2.52062072       3.02356589
H       -3.00885618       4.19441122       3.36333115
H       -3.18547354       3.65805082       1.69054120
H       -4.63333619       6.08076143       2.89351930
H       -6.25878703       5.74767938       2.29326313
H       -4.85155241       5.53214801       1.23192824
H       -7.86426565       4.39595177       0.91882078
H       -8.30702537       3.54304770       2.39294302
H       -8.41146265       2.71696669       0.83794634
H       -3.28169413       7.13319029       0.19370488
H       -2.10092027       7.71128669      -1.01670812
H       -1.72261195       7.80745105       0.71919478
H        0.60630619       3.59314948      -1.87713675
69
Properties=species:S:1:pos:R:3 -90.0975336457=T converged=T charge=0 spin=1 pbc="F F F"
O       -1.43128010       0.84031967      -1.77872800
C       -1.80895485       2.20297485      -1.89187508
H       -1.69727654       2.45342162      -2.95122991
C       -3.26772679       2.39117957      -1.49320555
H       -3.40525139       1.99636207      -0.47720101
O       -4.13315453       1.76040512      -2.39653244
Si      -4.48620931       0.14098581      -2.58818067
C       -4.25393713      -0.79594767      -0.98706850
C       -6.30611435       0.15539931      -3.08415338
C       -6.51903179       1.18332575      -4.19950871
C       -6.73823902      -1.22545618      -3.58550036
C       -7.15536811       0.55099523      -1.87183988
C       -3.42717283      -0.57979274      -3.93795215
C       -3.64614889       3.86878745      -1.47059286
H       -3.58956667       4.25978105      -2.49730661
C       -5.05195709       4.08557597      -0.95202893
O       -5.30212606       3.38144280       0.24043673
Si      -4.89796467       3.77244676       1.80642102
C       -4.93883640       5.62389499       2.03878738
C       -6.20956092       2.87597828       2.82001145
C       -7.58841562       3.46013248       2.50126636
C       -6.20064144       1.39324300       2.43022102
C       -5.93002605       3.01011060       4.31965659
C       -3.19418934       3.15535353       2.26081196
O       -2.75797743       4.58957771      -0.62641834
C       -1.42530829       4.53414349      -1.07849051
H       -1.36400114       4.95812731      -2.09704234
O       -0.62475972       5.25203819      -0.20357078
C       -0.86572844       6.65148255      -0.22239594
C       -0.90507306       3.10600325      -1.07420399
H       -0.91981722       2.77212988      -0.02529626
O        0.39884515       3.05000811      -1.60675441
H       -1.31968384       0.63196824      -0.84354354
H       -4.85652206      -1.70800582      -0.99983428
H       -4.56823734      -0.21107204      -0.11918917
H       -3.21322427      -1.09348491      -0.85375600
H       -6.21734673       2.18105587      -3.87707128
H       -7.57669043       1.22412404      -4.48194792
H       -5.94822519       0.92951430      -5.09625073
H       -6.60270847      -1.99881757      -2.82480952
H       -6.17792140      -1.52339428      -4.47453278
H       -7.80008960      -1.21491279      -3.85424157
H       -6.83383208       1.50844467      -1.45281224
H       -7.09922357      -0.19963233      -1.07953020
H       -8.20855625       0.64787868      -2.15848789
H       -3.64049226      -1.63989884      -4.09083716
H       -2.37704687      -0.47977189      -3.66194040
H       -3.58574766      -0.06077485      -4.88566904
H       -5.21388094       5.16113204      -0.82278724
H       -5.75535200       3.72525701      -1.70301922
H       -4.15235984       6.08627316       1.43799040
H       -4.74542014       5.87850124       3.08385132
H       -5.89601364       6.06481099       1.75434354
H       -7.66048925       4.50999526       2.79535564
H       -8.36851382       2.91255343       3.04142919
H       -7.80817333       3.38535381       1.43423276
H       -6.98325532       0.85239440       2.97338727
H       -5.24649673       0.91738393       2.67148099
H       -6.38755552       1.26885828       1.36158752
H       -4.96774169       2.57145473       4.59309087
H       -6.70285549       2.48862051       4.89490494
H       -5.93121126       4.05445392       4.64265798
H       -2.44239515       3.68667933       1.67696317
H       -3.08330955       2.08273233       2.08330461
H       -2.98949982       3.34235643       3.31780946
H       -0.70201222       7.05739640      -1.22557759
H       -0.15919194       7.10121283       0.47029256
H       -1.88414567       6.87584272       0.09741563
H        0.94323130       3.66469689      -1.10083597
69
Properties=species:S:1:pos:R:3 -90.0956744491=T converged=T charge=0 spin=1 pbc="F F F"
O       -0.93032409       1.48016978      -1.88251148
C       -1.62946583       2.70989677      -2.02718537
H       -1.58769059       3.04072711      -3.07409683
C       -3.08619544       2.58531111      -1.62171867
H       -3.14140264       2.19699132      -0.59967018
O       -3.76745422       1.74528517      -2.52578310
Si      -4.25607801       0.16383668      -2.31658330
C       -4.15083240      -0.30673392      -0.51747687
C       -6.02041704       0.06018872      -2.97812947
C       -6.99636007       0.52031957      -1.88808677
C       -6.16478062       0.97055062      -4.20166878
C       -6.36782499      -1.37626883      -3.38287212
C       -3.09429950      -0.91303251      -3.31572142
C       -3.72620243       3.96877556      -1.64474984
H       -3.70876609       4.34755827      -2.67794179
C       -5.16742431       3.95867085      -1.18029623
O       -5.36879179       3.21537285      -0.00020281
Si      -5.06968093       3.66792215       1.57606280
C       -4.99706584       5.52341449       1.74378875
C       -6.50026203       2.93189028       2.55843706
C       -6.30742762       3.18806337       4.05622359
C       -7.81414916       3.56852953       2.09645500
C       -6.57166813       1.42310639       2.30350349
C       -3.44751931       2.92291337       2.12595735
O       -2.98892775       4.84459024      -0.80563697
C       -1.66140987       5.05932732      -1.26530957
H       -1.68069534       5.39280572      -2.31184290
O       -1.10861353       6.10738381      -0.55968392
C       -0.87723116       5.87648851       0.82258931
C       -0.90731961       3.73527229      -1.17225038
H       -0.91481415       3.38470103      -0.13140587
O        0.41392556       3.93694167      -1.62049462
H       -1.28333903       0.86175632      -2.53198715
H       -3.10998054      -0.32818285      -0.18538478
H       -4.56815433      -1.30515081      -0.36262290
H       -4.70422669       0.39278752       0.11266062
H       -8.01144758       0.58324486      -2.29492359
H       -6.73370265       1.50195896      -1.48614755
H       -7.02038373      -0.18421105      -1.05314835
H       -5.95014350       2.00985241      -3.95047466
H       -7.18724914       0.91855898      -4.59039578
H       -5.48915004       0.67400051      -5.00814729
H       -5.76429029      -1.71558084      -4.22693684
H       -7.41794848      -1.43352027      -3.68726306
H       -6.22872779      -2.08225039      -2.55944395
H       -2.87455520      -0.46256734      -4.28674629
H       -3.51434666      -1.90418409      -3.49516900
H       -2.15104440      -1.06838582      -2.78402927
H       -5.49750961       4.99520586      -1.05867773
H       -5.77669525       3.50427830      -1.96288421
H       -4.24575227       5.93297003       1.06673426
H       -4.70756552       5.78823330       2.76415125
H       -5.95259333       6.00674006       1.53144075
H       -5.39417288       2.72149858       4.43300330
H       -7.14673838       2.76855799       4.62155815
H       -6.26172887       4.25628500       4.28297795
H       -8.66187799       3.11509938       2.62169420
H       -7.96856173       3.41797512       1.02557710
H       -7.83839779       4.64140939       2.30013417
H       -6.71383466       1.21253376       1.24118659
H       -7.41738618       0.98615061       2.84599419
H       -5.66704806       0.90977406       2.63913544
H       -3.44605642       1.83528745       2.02092386
H       -3.23118863       3.16367956       3.16949066
H       -2.63481060       3.32269183       1.51685929
H       -0.03152548       5.20172440       0.97607979
H       -1.76687569       5.47788554       1.31477767
H       -0.63987029       6.84524032       1.25627358
H        0.80088858       3.06329402      -1.75400847
69
Properties=species:S:1:pos:R:3 -90.0939431565=T converged=T charge=0 spin=1 pbc="F F F"
O       -0.93006343       1.35789156      -1.65978928
C       -1.67803589       2.55888574      -1.80218289
H       -1.60875609       2.91967211      -2.83744969
C       -3.14236483       2.36475067      -1.46154732
H       -3.22749559       1.95369941      -0.45110971
O       -3.74779714       1.51481468      -2.40996868
Si      -4.21634856      -0.07522972      -2.23047478
C       -4.32924208      -0.52096886      -0.42411179
C       -5.88669730      -0.21993953      -3.10399022
C       -5.89895263       0.70486101      -4.32703875
C       -6.14117118      -1.66099106      -3.56263591
C       -6.99674848       0.20289306      -2.13199542
C       -2.92936801      -1.15456298      -3.06209072
C       -3.83261753       3.72576279      -1.48326240
H       -3.76841102       4.14094142      -2.50239151
C       -5.29500705       3.63182302      -1.10140399
O       -5.47107573       2.79505158       0.01667906
Si      -6.17571011       3.11939236       1.48675606
C       -6.82943415       1.46067172       2.03239707
C       -4.91193223       3.78250772       2.72454536
C       -5.47740757       3.63070107       4.14339430
C       -3.61508260       2.97219918       2.60509247
C       -4.61427429       5.26390411       2.45842956
C       -7.58420337       4.32912598       1.27025755
O       -3.18342231       4.58382009      -0.55882836
C       -1.83173603       4.86675147      -0.88968697
H       -1.79662831       5.33768102      -1.88885421
O       -1.32345873       5.71121209       0.07267472
C       -1.79600589       7.04308143      -0.03554364
C       -1.01957878       3.58527882      -0.89681171
H       -1.00312000       3.20359982       0.13255907
O        0.28044744       3.88974651      -1.35604419
H       -1.21485280       0.74124338      -2.34298741
H       -4.94638091       0.19587643       0.12058069
H       -3.33707467      -0.54442169       0.03266338
H       -4.77282101      -1.51378344      -0.31033281
H       -5.11045106       0.44445675      -5.03843528
H       -5.74973427       1.74583885      -4.03783744
H       -6.85769513       0.62682013      -4.85003154
H       -5.42433999      -1.97447967      -4.32414199
H       -7.14091231      -1.74476651      -4.00095902
H       -6.08705010      -2.37500559      -2.73593379
H       -7.96014301       0.23860677      -2.65139453
H       -6.80801879       1.18868158      -1.69964354
H       -7.09278827      -0.50356428      -1.30369761
H       -2.03408965      -1.23762871      -2.43944998
H       -2.64097221      -0.76213065      -4.04061085
H       -3.30595572      -2.16878555      -3.20785956
H       -5.67136698       4.64448814      -0.92158591
H       -5.84349054       3.21093623      -1.94933850
H       -7.38737829       0.99990774       1.21514117
H       -7.50046158       1.55968131       2.88660701
H       -6.02805765       0.77546346       2.31410699
H       -4.76381796       4.02378740       4.87526458
H       -5.66683129       2.58566914       4.39803594
H       -6.41218047       4.18352309       4.27202517
H       -3.79000408       1.90201713       2.75178681
H       -2.89258045       3.29606437       3.36227219
H       -3.15708428       3.11505252       1.62550081
H       -3.86437692       5.63058169       3.16845353
H       -5.50905723       5.88048251       2.57858085
H       -4.21618070       5.41602688       1.45372016
H       -7.25886567       5.28910041       0.86638328
H       -8.05752353       4.52693984       2.23516751
H       -8.34571726       3.91742859       0.60503549
H       -1.52082186       7.47150558      -1.00517097
H       -1.31476881       7.61032124       0.75645416
H       -2.87961388       7.09058351       0.09095817
H        0.73999888       3.05006323      -1.47094017
69
Properties=species:S:1:pos:R:3 -90.0948782854=T converged=T charge=0 spin=1 pbc="F F F"
O       -1.20822792       1.49896232      -1.80770441
C       -1.92137728       2.70762812      -2.02114531
H       -1.92367551       2.96334543      -3.09030313
C       -3.35619497       2.49166098      -1.57635759
H       -3.34664322       2.07510259      -0.56365992
O       -4.04863123       1.65412238      -2.46631760
Si      -4.09965349      -0.01249715      -2.49436379
C       -3.72218417      -0.68179167      -0.79773780
C       -5.86844913      -0.40681861      -3.02391192
C       -6.26964907       0.51401045      -4.18023275
C       -5.98137666      -1.86427141      -3.48232809
C       -6.81681309      -0.16744901      -1.84476323
C       -2.87468540      -0.65627483      -3.74147658
C       -4.12157500       3.81456545      -1.54661901
H       -4.22937515       4.17284223      -2.57972247
C       -5.50915651       3.64408578      -0.95873607
O       -5.47682770       2.79030122       0.15805544
Si      -6.11645374       2.93397952       1.67881547
C       -6.10514310       1.17745980       2.30038724
C       -5.02816504       4.05556963       2.73883352
C       -5.13649648       5.50936141       2.26824346
C       -5.46489853       3.97148952       4.20451603
C       -3.57161752       3.59788949       2.61909203
C       -7.86226857       3.59398339       1.59674331
O       -3.42030234       4.79721865      -0.79051263
C       -2.17016003       5.08657472      -1.37311232
H       -2.29937039       5.34896476      -2.43268998
O       -1.61037965       6.21883283      -0.78888828
C       -1.47659877       6.18379458       0.62960579
C       -1.28186330       3.85496252      -1.26177283
H       -1.18503222       3.56951676      -0.20580722
O       -0.00602429       4.08321393      -1.83672736
H       -0.28908274       1.65800358      -2.05273883
H       -4.34587973      -0.20919555      -0.03597960
H       -2.67444894      -0.50466517      -0.54952174
H       -3.90024649      -1.75912343      -0.75998877
H       -7.29934197       0.30448647      -4.49000771
H       -5.62711202       0.37107405      -5.05262696
H       -6.21042359       1.56286452      -3.88635465
H       -5.68517938      -2.56528283      -2.69672377
H       -5.36060955      -2.05811266      -4.36011232
H       -7.01779643      -2.09391752      -3.75390046
H       -6.69785256       0.83793511      -1.43160791
H       -6.64012535      -0.88415641      -1.03921356
H       -7.85832919      -0.28037934      -2.16593673
H       -2.90601578      -1.74567141      -3.81336876
H       -1.87144978      -0.35995460      -3.43376963
H       -3.06421205      -0.24351711      -4.73479656
H       -5.89927009       4.63588321      -0.71028192
H       -6.15522508       3.20595578      -1.72280282
H       -5.08339554       0.79744772       2.37342518
H       -6.64320493       0.54771838       1.58679729
H       -6.58304007       1.07364081       3.27691447
H       -4.80825458       5.62455843       1.23297430
H       -4.49971087       6.15050535       2.88845642
H       -6.15737506       5.88836526       2.35559371
H       -6.49457015       4.31109030       4.34276820
H       -4.82503564       4.61256386       4.82020431
H       -5.38242386       2.95434112       4.59416621
H       -3.22844747       3.64399131       1.58364744
H       -3.43822963       2.57640213       2.98279501
H       -2.92425981       4.24638338       3.22009712
H       -7.91881145       4.57004240       1.11081784
H       -8.28021839       3.70126276       2.60089946
H       -8.50336814       2.90418937       1.04347591
H       -0.72987696       5.45226882       0.95153814
H       -2.42887201       5.96032012       1.10860475
H       -1.14734224       7.17796583       0.92110201
H        0.28314715       4.96999006      -1.58998710
69
Properties=species:S:1:pos:R:3 -90.1004860083=T converged=T charge=0 spin=1 pbc="F F F"
O       -1.48051526       1.97112783      -3.51876965
C       -2.18913927       2.80040357      -2.61381083
H       -2.92430598       3.41380734      -3.15549326
C       -2.94473784       1.92039933      -1.63326112
H       -2.23885373       1.19328781      -1.20565673
O       -4.02650302       1.26638369      -2.24074047
Si      -4.12856796       0.16938133      -3.49269430
C       -2.71578715      -1.04400939      -3.43451546
C       -5.78420754      -0.67495924      -3.16795570
C       -5.72724343      -1.44213560      -1.84377605
C       -6.88865081       0.38328525      -3.07721593
C       -6.10733127      -1.65261194      -4.30234582
C       -4.16629925       1.06941732      -5.12677287
C       -3.54050885       2.77934310      -0.50990792
H       -4.33392337       3.40210206      -0.94952791
C       -4.14240082       1.91247804       0.57877633
O       -5.15055841       2.54821322       1.32630625
Si      -5.06890007       3.85417209       2.34616804
C       -5.20574660       5.43443667       1.35467586
C       -6.57406913       3.64397607       3.46068250
C       -6.46556192       2.31781816       4.21972779
C       -6.66174848       4.79831766       4.46367968
C       -7.84408727       3.61448571       2.60358598
C       -3.47558401       3.84398495       3.32078064
O       -2.54598010       3.60266246       0.09566957
C       -1.95212662       4.50309619      -0.81328482
H       -2.72793057       5.15822652      -1.24898295
O       -0.99012979       5.25515721      -0.15989745
C       -1.50929251       6.23451421       0.72782328
C       -1.23196636       3.72146381      -1.89181920
H       -0.45932544       3.12394378      -1.39302628
O       -0.66408033       4.57439915      -2.86940477
H       -0.93413069       2.54975952      -4.06479981
H       -1.77190336      -0.51944971      -3.58419185
H       -2.82006515      -1.78444752      -4.23129947
H       -2.67005702      -1.57830707      -2.48355106
H       -4.97915118      -2.23777926      -1.86636074
H       -6.69673070      -1.90670232      -1.63310467
H       -5.49395353      -0.77698145      -1.00976972
H       -6.68478822       1.09770259      -2.27730088
H       -7.85244585      -0.09244441      -2.86496800
H       -6.99502210       0.93883062      -4.01212193
H       -5.34398584      -2.42872307      -4.39988997
H       -6.19640302      -1.14246027      -5.26384027
H       -7.06148613      -2.15365385      -4.10748515
H       -3.17785063       1.46872674      -5.35340443
H       -4.87440888       1.90038816      -5.09623301
H       -4.46026739       0.40558236      -5.94239764
H       -4.59386612       1.04227316       0.10568650
H       -3.32731272       1.56739522       1.22559719
H       -5.19503957       6.31791852       1.99781446
H       -6.12955629       5.44966646       0.77276189
H       -4.36817604       5.51841426       0.65995303
H       -5.59587471       2.29668989       4.88047368
H       -6.39192987       1.47494955       3.53005443
H       -7.35406735       2.16543724       4.84211741
H       -5.78360072       4.83941848       5.11317849
H       -7.53953428       4.67152402       5.10653042
H       -6.75987840       5.76514441       3.96396621
H       -8.72119692       3.43833304       3.23578258
H       -7.80060627       2.81535658       1.86129268
H       -8.00291329       4.55980724       2.07980888
H       -3.43156985       3.01203598       4.02623169
H       -3.36608782       4.77184604       3.88825891
H       -2.62314556       3.76103372       2.64425764
H       -0.65475159       6.76147565       1.14538615
H       -2.07970530       5.77163037       1.53419727
H       -2.14668683       6.94341125       0.18965743
H       -0.06094770       5.17523951      -2.41734476
69
Properties=species:S:1:pos:R:3 -90.0971176112=T converged=T charge=0 spin=1 pbc="F F F"
O       -1.58161327       0.63234332      -1.62571113
C       -1.90067880       2.00379963      -1.76485333
H       -1.75283374       2.23159337      -2.82493064
C       -3.36004690       2.27288916      -1.41417087
H       -3.54359710       1.92167181      -0.38963483
O       -4.19304906       1.63207340      -2.34379482
Si      -5.23410807       0.35446963      -2.09842144
C       -6.87270247       0.97795679      -1.45773909
C       -5.39585613      -0.40335679      -3.81322407
C       -4.06801387      -1.05872455      -4.20532563
C       -6.51397974      -1.44972112      -3.83619714
C       -5.71894268       0.70299447      -4.82335395
C       -4.53740204      -0.84524744      -0.84948175
C       -3.67076006       3.76676957      -1.45636678
H       -3.58037053       4.10807709      -2.49801383
C       -5.06915348       4.06592214      -0.96302023
O       -5.33357923       3.46696023       0.28340832
Si      -4.89966967       3.97209737       1.80903641
C       -4.82189794       5.83496074       1.86850744
C       -6.26351970       3.26402111       2.90149082
C       -6.22205258       1.73311874       2.82933954
C       -6.06967976       3.70826359       4.35498494
C       -7.62905261       3.74334829       2.40090306
C       -3.24275651       3.27624087       2.31891487
O       -2.77111524       4.48875825      -0.62673984
C       -1.42760343       4.34182627      -1.02373656
H       -1.30844818       4.71533574      -2.05666194
O       -0.62449348       5.06159844      -0.15150424
C       -0.79243421       6.46878661      -0.24756426
C       -0.98425259       2.88955824      -0.93846058
H       -1.06109183       2.59789878       0.12045033
O        0.33808715       2.75033928      -1.40740678
H       -1.53090634       0.42185994      -0.68564758
H       -7.51157907       0.14406403      -1.15632498
H       -7.41399165       1.56515789      -2.20260903
H       -6.70846682       1.60966049      -0.58121679
H       -3.83315055      -1.91027597      -3.56312862
H       -3.23980894      -0.35019359      -4.14021848
H       -4.11911800      -1.42584959      -5.23614900
H       -7.48490737      -1.00966935      -3.59562464
H       -6.32557238      -2.26416443      -3.13156476
H       -6.59105029      -1.89263060      -4.83512263
H       -5.79451921       0.27949826      -5.83052657
H       -4.93802651       1.46441696      -4.83599836
H       -6.67074259       1.19184362      -4.60059695
H       -4.50302179      -0.39826138       0.14764773
H       -3.53315887      -1.16844050      -1.12355686
H       -5.17859450      -1.72781483      -0.78012915
H       -5.19969939       5.15129539      -0.91795504
H       -5.78470228       3.66812856      -1.68258137
H       -4.06574170       6.18953731       1.16491354
H       -4.52645734       6.17058389       2.86525288
H       -5.77445125       6.30644331       1.62000844
H       -6.33658935       1.38069130       1.80143167
H       -7.03979140       1.30492067       3.41918649
H       -5.28593217       1.33396859       3.22702244
H       -5.11206190       3.37071623       4.75951185
H       -6.85949785       3.28460031       4.98505767
H       -6.11686478       4.79573969       4.45524219
H       -7.72357390       4.83040590       2.46119391
H       -8.42868198       3.30914960       3.01101110
H       -7.79684193       3.44259491       1.36505655
H       -3.06622391       3.43128777       3.38601526
H       -2.44351198       3.77488306       1.77078563
H       -3.18027411       2.20265785       2.12537930
H       -1.80794868       6.76124700       0.02300705
H       -0.57430953       6.81498994      -1.26256605
H       -0.08796344       6.91768308       0.44753307
H        0.88924148       3.35826162      -0.90050184
69
Properties=species:S:1:pos:R:3 -90.0993704216=T converged=T charge=0 spin=1 pbc="F F F"
O       -1.36898805       2.92625962       0.22886444
C       -1.62867337       2.47599167      -1.09291051
H       -1.21177200       1.47072716      -1.18398669
C       -3.13758969       2.39120521      -1.35365933
H       -3.60999732       1.88215309      -0.50820409
O       -3.34389640       1.68229652      -2.57517255
Si      -3.83030465       0.08876275      -2.69175903
C       -2.99198371      -0.89066893      -1.34051498
C       -5.70880920      -0.01008179      -2.53354472
C       -6.14193045       0.37227538      -1.11285450
C       -6.36563101       0.95314954      -3.52930668
C       -6.16782346      -1.44200077      -2.83794126
C       -3.26220982      -0.45774704      -4.37695728
C       -3.78463628       3.75919685      -1.50891751
H       -4.74944421       3.59451538      -1.99260095
C       -4.07978072       4.47423717      -0.18989240
O       -5.09834077       3.76261657       0.48688898
Si      -5.03506970       3.31005123       2.09160021
C       -4.08232265       4.59059379       3.06788392
C       -6.83895240       3.22959719       2.64209587
C       -7.62614983       2.34283633       1.66899689
C       -6.94028198       2.64442036       4.05622275
C       -7.44340824       4.63909338       2.63174526
C       -4.20164944       1.64508200       2.24667312
O       -3.06652381       4.58431667      -2.43223525
C       -1.67957306       4.70583715      -2.25506937
H       -1.33105095       5.22389613      -3.15378714
O       -1.35000124       5.45713009      -1.10444769
C       -1.71924504       6.82432995      -1.22119098
C       -0.96079982       3.36176362      -2.14501018
H        0.06895931       3.55951454      -1.83996264
O       -0.91252307       2.73319687      -3.40694790
H       -1.21671865       3.88001787       0.19549845
H       -3.17739102      -0.46463651      -0.35201750
H       -1.91151043      -0.91925253      -1.49602401
H       -3.35148386      -1.92132323      -1.32837697
H       -5.70611726      -0.29423567      -0.36266514
H       -7.23211823       0.30511716      -1.02111261
H       -5.85884081       1.39872608      -0.86151367
H       -7.45624087       0.88889913      -3.44917099
H       -6.09581934       0.71937138      -4.56213978
H       -6.07540967       1.98763158      -3.33362731
H       -5.70994428      -2.17257147      -2.16607834
H       -5.92738922      -1.73287615      -3.86293378
H       -7.25363723      -1.52198079      -2.71970743
H       -3.51638198      -1.50222523      -4.56510281
H       -2.17898395      -0.35733582      -4.46472124
H       -3.72198997       0.14592430      -5.16058335
H       -3.18636057       4.56793213       0.42580675
H       -4.43215208       5.48300921      -0.42663328
H       -3.01558642       4.56962640       2.83685153
H       -4.18238555       4.40770789       4.14013145
H       -4.45602425       5.59625528       2.86685209
H       -7.59544677       2.74843256       0.65586753
H       -8.67499437       2.28169661       1.98101018
H       -7.23114843       1.32363083       1.63620083
H       -6.56775057       1.61831736       4.09906919
H       -7.98648172       2.62664480       4.38018428
H       -6.38411870       3.23717638       4.78756817
H       -7.34860917       5.10339046       1.64730490
H       -6.96318819       5.29207743       3.36491408
H       -8.50970376       4.59292092       2.87987045
H       -4.72635668       0.88494440       1.66254986
H       -4.18263209       1.31320861       3.28721289
H       -3.16825479       1.70001843       1.89524407
H       -1.44239921       7.31739300      -0.29307090
H       -2.79214280       6.93127550      -1.38982330
H       -1.18061764       7.28680785      -2.05321918
H       -1.78842645       2.34934612      -3.56375350
69
Properties=species:S:1:pos:R:3 -90.1012479053=T converged=T charge=0 spin=1 pbc="F F F"
O       -1.37772922       3.00789959       0.17914343
C       -1.66375799       2.55691684      -1.13582337
H       -1.23689232       1.55580193      -1.23947315
C       -3.17875194       2.45678271      -1.35072230
H       -3.62349332       1.94539683      -0.49244855
O       -3.41310718       1.73167308      -2.55569045
Si      -3.86090863       0.12865013      -2.70904465
C       -3.01031929      -0.90597356      -1.40626866
C       -5.73566258      -0.02768044      -2.55826606
C       -6.18178996       0.26814551      -1.12256210
C       -6.40620135       0.97199577      -3.50475742
C       -6.17487295      -1.44672246      -2.93830942
C       -3.25165014      -0.29986928      -4.41317089
C       -3.84609262       3.81975445      -1.49685860
H       -4.80848740       3.64263201      -1.98166883
C       -4.15907263       4.52143659      -0.17892591
O       -5.11588490       3.75316175       0.52042275
Si      -4.98577977       3.23844235       2.09929725
C       -3.98716355       4.46387603       3.09479035
C       -6.76851459       3.13233044       2.69332277
C       -6.83827087       2.49422906       4.08311588
C       -7.36390410       4.54252240       2.74848635
C       -7.58402381       2.28989793       1.70726729
C       -4.12114527       1.58610828       2.18002561
O       -3.14653799       4.68046479      -2.40197442
C       -1.75883106       4.80530505      -2.24455664
H       -1.43207370       5.36664142      -3.12425201
O       -1.40839677       5.50673944      -1.06803316
C       -1.72780927       6.88989751      -1.11910294
C       -1.03899403       3.45855499      -2.20174729
H        0.00516315       3.64497786      -1.94272571
O       -1.05799351       2.85887706      -3.47755028
H       -1.23547758       3.96394053       0.14243700
H       -3.13056552      -0.50156008      -0.39826494
H       -1.94077683      -0.98206543      -1.61343641
H       -3.41687086      -1.92063646      -1.40059163
H       -5.90809177       1.27955650      -0.80843368
H       -5.75356199      -0.44335255      -0.41096099
H       -7.27216761       0.19117956      -1.04308172
H       -6.15709851       0.76756108      -4.54852458
H       -6.10625895       1.99720412      -3.27971750
H       -7.49546323       0.91189129      -3.40813109
H       -5.89442468      -1.69667903      -3.96418642
H       -7.26476601      -1.53174718      -2.86879272
H       -5.74882368      -2.20191118      -2.27305519
H       -3.72108789       0.33823382      -5.16473947
H       -3.43735397      -1.34169300      -4.68021730
H       -2.17366788      -0.12509379      -4.45710360
H       -3.26339458       4.69055002       0.41711757
H       -4.58788839       5.49811872      -0.41927905
H       -2.92564833       4.38788565       2.84807062
H       -4.08641421       4.24333209       4.16079224
H       -4.30691587       5.49510564       2.93354542
H       -7.87811797       2.45168857       4.42435336
H       -6.27502539       3.06642072       4.82457727
H       -6.45280673       1.47233661       4.07853334
H       -7.31446894       5.02987300       1.77225206
H       -6.84501089       5.17306410       3.47436994
H       -8.41764396       4.49762149       3.04452325
H       -7.21204420       1.26402539       1.64475667
H       -7.55931866       2.72218448       0.70552224
H       -8.63046133       2.24242845       2.02847576
H       -4.04603617       1.24148662       3.21478301
H       -3.10387026       1.68968555       1.79241351
H       -4.64066829       0.81708345       1.60263223
H       -1.47356895       7.31670861      -0.15185627
H       -2.78934227       7.04606290      -1.32050202
H       -1.13784793       7.38373437      -1.89655885
H       -1.94326013       2.48251930      -3.59970089
69
Properties=species:S:1:pos:R:3 -90.0972269958=T converged=T charge=0 spin=1 pbc="F F F"
O       -1.21860039       0.76834563      -1.30335448
C       -1.64539888       2.09654041      -1.60216974
H       -1.43721480       2.23202306      -2.66795665
C       -3.13186800       2.28575815      -1.37474556
H       -3.37690765       2.01351752      -0.33894814
O       -3.89562560       1.54333618      -2.28619443
Si      -4.30852038      -0.07220886      -2.26004190
C       -4.27321104      -0.73488886      -0.51008182
C       -6.06249564      -0.10279321      -2.94743784
C       -6.47618351      -1.53360815      -3.30324504
C       -7.02554714       0.46749084      -1.90123474
C       -6.12109821       0.76525114      -4.20804244
C       -3.13669096      -1.03149531      -3.34113666
C       -3.48868096       3.75700282      -1.56273344
H       -3.30011350       4.03079343      -2.61156893
C       -4.94559830       4.02587012      -1.25041172
O       -5.34983752       3.45409382      -0.02896121
Si      -5.09469798       3.99980585       1.52416820
C       -5.04144809       5.86382348       1.55896298
C       -6.56193184       3.29079212       2.47127635
C       -6.59207916       1.77235114       2.26404002
C       -6.44802202       3.59869558       3.96688234
C       -7.86016358       3.88805124       1.92223396
C       -3.49394721       3.34476441       2.22950976
O       -2.70481648       4.55922472      -0.69573487
C       -1.31386106       4.50502388      -0.96288170
H       -1.12232210       4.86859454      -1.98808877
O       -0.67076489       5.29116175      -0.03042416
C       -0.84303965       6.68288361      -0.23744233
C       -0.80700777       3.08438144      -0.80522659
H       -0.88551101       2.84267361       0.26511998
O        0.53811402       3.04349732      -1.22708475
H       -1.44664395       0.58290624      -0.38304590
H       -4.64307224      -0.00713666       0.21646463
H       -3.26928424      -1.04915361      -0.21759100
H       -4.91550798      -1.61679872      -0.43856193
H       -6.44255927      -2.19882615      -2.43624455
H       -5.83411698      -1.95601354      -4.07934427
H       -7.50319191      -1.54589334      -3.68348288
H       -8.03619497       0.54876691      -2.31657707
H       -6.71793854       1.46417085      -1.57314350
H       -7.08530550      -0.17423943      -1.01864889
H       -7.13827783       0.77737447      -4.61405788
H       -5.45861045       0.38541870      -4.98991362
H       -5.83218634       1.79436828      -3.98978103
H       -2.11944541      -0.89682007      -2.97111472
H       -3.17396132      -0.68032922      -4.37456799
H       -3.36657467      -2.09916279      -3.33445389
H       -5.10960404       5.10852088      -1.25805179
H       -5.55605662       3.58521329      -2.03903324
H       -5.93357321       6.32401509       1.13014512
H       -4.16819171       6.21208642       1.00323782
H       -4.93884253       6.21738435       2.58802383
H       -6.66184311       1.52496008       1.20261487
H       -7.46112676       1.33537548       2.76823733
H       -5.70000482       1.29110573       2.67362296
H       -5.54864222       3.15869231       4.40352794
H       -7.30875509       3.18498392       4.50378176
H       -6.42802125       4.67422585       4.16058435
H       -7.90397574       4.96891491       2.07612332
H       -8.72711533       3.44781388       2.42730442
H       -7.96100139       3.68801812       0.85347029
H       -3.43170058       2.25506017       2.17102639
H       -3.39562621       3.62807825       3.28031432
H       -2.65036254       3.77630041       1.69012462
H       -0.30284874       7.18715204       0.55974364
H       -1.89742102       6.96387485      -0.19563980
H       -0.42358039       6.98110405      -1.20327881
H        0.78109620       2.11334461      -1.30490051
69
Properties=species:S:1:pos:R:3 -90.1024931772=T converged=T charge=0 spin=1 pbc="F F F"
O       -1.36020768       2.59467565       0.12717457
C       -1.90225197       2.22494614      -1.13043149
H       -1.67032858       1.16883846      -1.29034320
C       -3.42760178       2.37596734      -1.13716158
H       -3.82807651       1.93742350      -0.21762433
O       -3.92167109       1.69268717      -2.28835852
Si      -4.92530090       0.35846966      -2.21464340
C       -6.53701305       0.86052889      -1.42108306
C       -5.11409908      -0.15168194      -4.01396922
C       -6.13847656      -1.28509054      -4.13180266
C       -5.59112604       1.05138055      -4.83540990
C       -3.76609231      -0.62790463      -4.56711209
C       -4.13333051      -0.97186334      -1.16982856
C       -3.88867894       3.82774672      -1.20722543
H       -4.92042721       3.81062900      -1.56534030
C       -3.92439973       4.53887390       0.14320063
O       -4.93962638       3.94307996       0.92523198
Si      -4.76561295       3.39084701       2.48617574
C       -3.68856974       4.56241232       3.46500852
C       -6.53060359       3.33652530       3.13609920
C       -7.08043707       4.76351616       3.22741391
C       -7.40561347       2.53249361       2.16860744
C       -6.57240580       2.68229803       4.51992278
C       -3.95852107       1.70698947       2.50577636
O       -3.18164626       4.58486894      -2.19426104
C       -1.78400053       4.47975978      -2.21875987
H       -1.48453730       5.00560480      -3.12940779
O       -1.17844027       5.08208556      -1.09187071
C       -1.25884620       6.49995534      -1.09633033
C       -1.29604169       3.03354233      -2.27865451
H       -0.20947310       3.04030255      -2.17476226
O       -1.59998942       2.47662986      -3.53759389
H       -1.08764954       3.52133840       0.07392441
H       -7.15385088      -0.01048522      -1.18750207
H       -7.11769533       1.52910019      -2.05955809
H       -6.34429695       1.38658126      -0.48149583
H       -6.24717601      -1.58313153      -5.17986547
H       -7.12442007      -0.97998891      -3.77326764
H       -5.83124747      -2.17133504      -3.57085565
H       -4.88897047       1.88464505      -4.77129800
H       -6.56935289       1.40759088      -4.50378539
H       -5.68189480       0.77155032      -5.89021643
H       -3.40706078      -1.52022160      -4.04962151
H       -2.99560851       0.14183455      -4.48555317
H       -3.86652541      -0.88056950      -5.62801754
H       -3.95402877      -0.61426627      -0.15227952
H       -3.17945538      -1.30726192      -1.58047829
H       -4.79313172      -1.83994389      -1.09263839
H       -2.95695172       4.51131027       0.64545601
H       -4.17665265       5.58726854      -0.03836181
H       -2.63909469       4.45619299       3.18085591
H       -3.75739374       4.33223406       4.53126660
H       -3.97825346       5.60552956       3.32595531
H       -8.12318111       4.74546445       3.56235972
H       -7.05221097       5.26036010       2.25527240
H       -6.51653297       5.37054658       3.93961688
H       -7.40199621       2.97648250       1.17160769
H       -8.44141992       2.51488409       2.52484405
H       -7.07154092       1.49495184       2.08359931
H       -6.21262176       1.65124094       4.49116843
H       -7.60176909       2.66129244       4.89312083
H       -5.97190033       3.23117571       5.24968691
H       -2.98874228       1.75430915       2.00251502
H       -4.56858592       0.94571993       2.01231204
H       -3.78081812       1.37979466       3.53362546
H       -2.29407296       6.83926007      -1.16638654
H       -0.68917250       6.90619254      -1.93694085
H       -0.82198893       6.85152863      -0.16468324
H       -2.53444795       2.21789670      -3.51305853
69
Properties=species:S:1:pos:R:3 -90.0997080960=T converged=T charge=0 spin=1 pbc="F F F"
O       -1.42255499       2.52303404      -0.39970600
C       -2.04538486       2.51995152      -1.67478095
H       -1.86199506       1.54322260      -2.12867638
C       -3.56154209       2.70228031      -1.54821616
H       -3.93290084       2.02746617      -0.77127883
O       -4.12673252       2.39910512      -2.82344334
Si      -5.45424418       1.42078105      -3.09223472
C       -6.03022731       1.86023322      -4.80710682
C       -4.92722277      -0.39145197      -2.99415811
C       -4.50048400      -0.74302740      -1.56353581
C       -6.09980241      -1.29154771      -3.40517521
C       -3.74697870      -0.62954341      -3.94386715
C       -6.75429940       1.81164464      -1.81097469
C       -3.95527623       4.12372406      -1.16846368
H       -5.01509821       4.23690009      -1.40652296
C       -3.82683394       4.43271132       0.32455165
O       -4.82207363       3.69583838       1.01159844
Si      -4.53495063       2.81091735       2.39703870
C       -3.34991762       3.75206276       3.49825377
C       -6.22919548       2.62390558       3.20622757
C       -6.72610720       3.99051384       3.69334045
C       -7.22492209       2.07247538       2.17818507
C       -6.14187467       1.66062811       4.39691235
C       -3.80111462       1.14971024       1.95736449
O       -3.30583327       5.09294098      -1.99602882
C       -1.91696926       4.98338608      -2.16175645
H       -1.67337545       5.70167321      -2.95138357
O       -1.21668440       5.30723486      -0.97754939
C       -1.33173174       6.68062033      -0.63200543
C       -1.46096754       3.59063624      -2.59681521
H       -0.37183614       3.56106614      -2.52230739
O       -1.79776825       3.36952968      -3.94753473
H       -1.11056750       3.42039925      -0.22380440
H       -6.90545820       1.27356977      -5.09362269
H       -5.24869115       1.67979989      -5.54701939
H       -6.30301793       2.91590245      -4.85632107
H       -3.62501480      -0.16950509      -1.24891376
H       -4.23347872      -1.80334361      -1.49727729
H       -5.30099845      -0.55849156      -0.84169332
H       -6.41724362      -1.09968134      -4.43233401
H       -6.96848808      -1.15667642      -2.75581021
H       -5.80589301      -2.34486664      -3.34491187
H       -3.41445160      -1.67098161      -3.88214333
H       -2.89558173       0.00785194      -3.69502090
H       -4.01632914      -0.43135056      -4.98401695
H       -7.58027830       1.09914373      -1.86752055
H       -7.16642541       2.81134769      -1.96688148
H       -6.35171851       1.77880970      -0.79589213
H       -2.83041195       4.20365729       0.70277401
H       -4.00173529       5.50394792       0.46430780
H       -3.69282852       4.77721938       3.65272494
H       -2.34510731       3.78903564       3.07133462
H       -3.26734235       3.27499596       4.47796168
H       -7.73855663       3.89835274       4.10205831
H       -6.75921308       4.71543879       2.87668422
H       -6.08898667       4.39682157       4.48261328
H       -6.91432190       1.09798610       1.79072043
H       -7.33327975       2.75319163       1.33174595
H       -8.21024940       1.94367704       2.64009990
H       -7.12061239       1.57246556       4.88048531
H       -5.43523010       2.00773106       5.15559342
H       -5.83812892       0.65774352       4.08803815
H       -4.48029627       0.55986215       1.33614352
H       -3.58805877       0.57057331       2.85950606
H       -2.86308640       1.27447165       1.40974095
H       -0.78593347       6.83175403       0.29558429
H       -2.37521756       6.96781363      -0.49427182
H       -0.89367193       7.30383581      -1.41689236
H       -2.73235572       3.11448469      -3.96975872
69
Properties=species:S:1:pos:R:3 -90.1004578597=T converged=T charge=0 spin=1 pbc="F F F"
O       -1.60609008       2.12774234       0.72759134
C       -1.75407758       1.73739210      -0.62786517
H       -1.61796389       0.65454314      -0.67426985
C       -3.16251194       2.05640445      -1.14670188
H       -3.88890203       1.74066362      -0.39184079
O       -3.35298422       1.35551146      -2.37305722
Si      -4.33523695       0.02948772      -2.63295672
C       -4.27969465      -1.11298224      -1.15526393
C       -6.10700259       0.59245222      -2.96588776
C       -6.10048381       1.64493371      -4.08066254
C       -6.95518897      -0.60679819      -3.41105970
C       -6.71812818       1.19908091      -1.69575232
C       -3.56490803      -0.77100667      -4.12636278
C       -3.37412312       3.54290583      -1.41743367
H       -4.21754549       3.60987992      -2.10689393
C       -3.79225832       4.33897590      -0.18286311
O       -5.08209442       3.86886489       0.14925565
Si      -5.95502787       4.17487733       1.52935497
C       -7.72537287       4.06118256       0.96288485
C       -5.56824744       2.87020936       2.83814015
C       -4.07730929       2.89552202       3.19710447
C       -6.39601040       3.15122271       4.09839107
C       -5.92666340       1.48320329       2.29119429
C       -5.55709242       5.88997669       2.15958138
O       -2.28960314       4.14315226      -2.12973191
C       -0.98905431       3.88283667      -1.67611660
H       -0.33673632       4.30422740      -2.44692239
O       -0.72554149       4.49566915      -0.42908207
C       -0.62387288       5.90998624      -0.50872859
C       -0.70187591       2.38956856      -1.52555733
H        0.28017335       2.28200406      -1.06064468
O       -0.63578723       1.78299336      -2.79718693
H       -1.23114177       3.01980600       0.74299167
H       -4.57532447      -0.62254889      -0.22571219
H       -3.27668315      -1.52212010      -1.02022595
H       -4.96144306      -1.95266931      -1.31078395
H       -5.48595637       2.50756410      -3.81519399
H       -7.11756521       2.00320468      -4.27050981
H       -5.71565550       1.23699202      -5.01847683
H       -6.56523633      -1.06903929      -4.32100166
H       -7.97882126      -0.28235096      -3.62447463
H       -7.01489181      -1.37742139      -2.63864210
H       -6.15469243       2.06356687      -1.33392039
H       -6.77351548       0.46807466      -0.88414116
H       -7.74015159       1.53824929      -1.89883596
H       -3.55498455      -0.09276299      -4.98136623
H       -4.08820965      -1.68178335      -4.42025251
H       -2.52904219      -1.03469034      -3.90310826
H       -3.09475785       4.21904974       0.64942991
H       -3.82605249       5.39869804      -0.46070848
H       -7.91077815       3.10739800       0.46557249
H       -7.93142929       4.85253067       0.23993155
H       -8.43169583       4.16209197       1.78820610
H       -3.87068633       2.16217998       3.98420450
H       -3.76676332       3.87255725       3.57784396
H       -3.44466805       2.63845810       2.34465422
H       -6.13887717       4.11542954       4.54336855
H       -6.20487033       2.38232620       4.85404052
H       -7.46963670       3.14869047       3.89459395
H       -6.99284140       1.39648650       2.06804950
H       -5.67690082       0.70921338       3.02455345
H       -5.37279011       1.26258408       1.37480332
H       -6.22047559       6.15898155       2.98453668
H       -5.70073555       6.62665799       1.36621105
H       -4.52972359       5.97460661       2.51941462
H       -1.52783826       6.34581675      -0.93776752
H        0.23852344       6.19036603      -1.12084187
H       -0.48504189       6.28252971       0.50342356
H       -1.54658983       1.62220373      -3.08656234
69
Properties=species:S:1:pos:R:3 -90.1004358896=T converged=T charge=0 spin=1 pbc="F F F"
O       -1.57709748       2.14649131       0.54655036
C       -1.78052206       1.82163990      -0.81898224
H       -1.61933731       0.74676179      -0.92792383
C       -3.22008109       2.12765282      -1.25268125
H       -3.90065086       1.75345741      -0.48194335
O       -3.45410194       1.48908413      -2.50553460
Si      -4.36176097       0.11370908      -2.77907644
C       -4.08392860      -1.12200513      -1.40491175
C       -6.19287000       0.55917485      -2.90558969
C       -6.71875920       1.03690145      -1.54535593
C       -6.36968769       1.67653198      -3.94023603
C       -6.99316086      -0.67203178      -3.35259412
C       -3.68103829      -0.51055598      -4.39504546
C       -3.48274197       3.61937651      -1.43633905
H       -4.35983067       3.69513842      -2.08152062
C       -3.85865919       4.34451565      -0.14631059
O       -5.10875850       3.81120572       0.23856681
Si      -5.91207934       4.05885271       1.67214113
C       -7.70383495       3.84503718       1.21271844
C       -5.37045295       2.77415193       2.94504200
C       -6.11166991       3.02116723       4.26486455
C       -5.70791959       1.37231562       2.42295384
C       -3.85911830       2.86436808       3.19058900
C       -5.57692218       5.79166138       2.29096695
O       -2.44914162       4.28422478      -2.16725600
C       -1.12176522       4.03760332      -1.78947351
H       -0.51882779       4.51564859      -2.56741660
O       -0.81257578       4.59271525      -0.52606204
C       -0.75781632       6.01175590      -0.53344157
C       -0.78990131       2.54726943      -1.73024014
H        0.21594905       2.44338443      -1.31845620
O       -0.77024584       2.00763056      -3.03328584
H       -1.22368352       3.04637235       0.59057156
H       -4.27788291      -0.70417703      -0.41479222
H       -3.05730889      -1.49264460      -1.42207791
H       -4.74836630      -1.97992721      -1.53207001
H       -6.63112920       0.25961530      -0.78089876
H       -7.78051404       1.29568388      -1.62596001
H       -6.19407643       1.92673873      -1.18651564
H       -6.05100750       1.35850577      -4.93584973
H       -5.79398898       2.56509992      -3.67312347
H       -7.42299246       1.96750226      -4.00912532
H       -6.66074768      -1.04619971      -4.32382732
H       -8.05282998      -0.41448835      -3.44928811
H       -6.92424870      -1.49120084      -2.63277356
H       -4.17120823      -1.42796952      -4.72315640
H       -2.61518685      -0.71979102      -4.28247913
H       -3.78858112       0.23496557      -5.18488674
H       -3.10950111       4.21782725       0.63862145
H       -3.94722310       5.41289789      -0.37500878
H       -7.86410294       2.88348866       0.72181457
H       -7.99821363       4.62525323       0.50851770
H       -8.36324848       3.90288639       2.07997383
H       -5.85742253       3.99332687       4.69383554
H       -5.83618359       2.25832293       5.00032573
H       -7.19685222       2.97947078       4.14215057
H       -5.21887107       1.17691832       1.46471371
H       -6.78345199       1.23749120       2.28525471
H       -5.36598465       0.61040511       3.13128338
H       -3.56056039       3.85816042       3.53635305
H       -3.28373791       2.61994855       2.29521761
H       -3.56427605       2.15051980       3.96740306
H       -4.53617742       5.93549743       2.58833149
H       -6.20299591       6.01665965       3.15722466
H       -5.81227297       6.52243549       1.51422481
H       -0.57622982       6.33414293       0.48913748
H       -1.69617085       6.43979279      -0.89040009
H        0.06174369       6.35237445      -1.17321384
H       -1.69036554       1.84486985      -3.29026413
69
Properties=species:S:1:pos:R:3 -90.1016939357=T converged=T charge=0 spin=1 pbc="F F F"
O       -1.43111591       2.82798837      -0.56613185
C       -2.13401988       2.68507258      -1.79073853
H       -1.89103091       1.70212919      -2.20055550
C       -3.65192755       2.73894399      -1.57612313
H       -3.91536797       2.08990039      -0.73612763
O       -4.25294358       2.28635756      -2.78696031
Si      -5.49003968       1.18183489      -2.98020269
C       -6.03449916       1.49454674      -4.73264954
C       -4.84470776      -0.58179310      -2.75838921
C       -5.97544969      -1.57900299      -3.04877307
C       -3.69066569      -0.83309191      -3.73640978
C       -4.35012512      -0.79435184      -1.32175735
C       -6.83830996       1.55052135      -1.74250361
C       -4.15713696       4.14650655      -1.26912439
H       -5.22931965       4.14407753      -1.47804680
C       -4.01494370       4.56525482       0.19560697
O       -4.88461886       3.76275957       0.97072777
Si      -4.42567637       2.97758993       2.36857135
C       -3.33340804       4.09461440       3.39837026
C       -6.05483001       2.60328203       3.23374355
C       -5.81729875       1.70224351       4.45068016
C       -6.69569231       3.92151261       3.68240323
C       -6.99201799       1.89569544       2.24817997
C       -3.47047749       1.42286461       1.97488527
O       -3.62305937       5.12922170      -2.16306313
C       -2.23943805       5.11682688      -2.39609680
H       -2.09042701       5.82789973      -3.21417760
O       -1.49873347       5.52250479      -1.26112018
C       -1.63755141       6.90353829      -0.96027928
C       -1.71404593       3.74368918      -2.81364219
H       -0.62395940       3.79911207      -2.83966266
O       -2.14926898       3.43567603      -4.11838859
H       -1.19126144       3.76021525      -0.46753945
H       -6.38441985       2.52413475      -4.82659324
H       -6.84437795       0.83199915      -5.04063873
H       -5.20508725       1.36528920      -5.43064560
H       -6.37142414      -1.46725564      -4.06091952
H       -6.80566118      -1.47373923      -2.34666594
H       -5.60306786      -2.60437857      -2.95810739
H       -3.28079161      -1.83793411      -3.59055547
H       -2.87671506      -0.11810378      -3.59604985
H       -4.02115878      -0.76292167      -4.77522845
H       -5.14170844      -0.61527681      -0.58833756
H       -3.50561106      -0.14450016      -1.07771495
H       -4.01036305      -1.82681354      -1.18865633
H       -7.34835287       2.48037827      -2.00268915
H       -6.44161615       1.66168366      -0.73066864
H       -7.58523526       0.75402029      -1.72093593
H       -2.98255591       4.48906403       0.54322297
H       -4.32317046       5.61376075       0.26889236
H       -3.22651209       3.68553952       4.40625558
H       -3.73942055       5.10376700       3.48799777
H       -2.33031035       4.16326095       2.97197792
H       -5.38160957       0.74186903       4.16567874
H       -6.76497271       1.49367773       4.95759827
H       -5.15409116       2.16842529       5.18382845
H       -7.67015604       3.73330117       4.14421572
H       -6.85124533       4.59224505       2.83458715
H       -6.07801005       4.44255681       4.41807429
H       -6.57065071       0.95058586       1.89305425
H       -7.19437883       2.52400204       1.37940646
H       -7.94769441       1.66787415       2.73124557
H       -4.08263555       0.66827952       1.47541194
H       -3.07877751       0.98299721       2.89561979
H       -2.61924433       1.65545501       1.32999611
H       -2.68448291       7.17038128      -0.80562441
H       -1.22643273       7.50772060      -1.77448200
H       -1.07556619       7.09368229      -0.04889996
H       -3.05428411       3.09644260      -4.04439532
69
Properties=species:S:1:pos:R:3 -90.0955685363=T converged=T charge=0 spin=1 pbc="F F F"
O       -1.39978413       0.69006137      -1.87085194
C       -1.85112001       2.03928550      -1.85033867
H       -1.75031338       2.38162530      -2.88398019
C       -3.31006139       2.18002811      -1.44815449
H       -3.45937524       1.72009350      -0.46005172
O       -4.13489063       1.60176738      -2.42848149
Si      -5.14409236       0.28594442      -2.26533613
C       -6.60454793       0.70996710      -1.18109825
C       -5.66822598      -0.07293855      -4.03464342
C       -4.45043227      -0.50184764      -4.86018567
C       -6.71850214      -1.18936994      -4.04559559
C       -6.26615739       1.19627469      -4.65372640
C       -4.22073149      -1.14532498      -1.49256524
C       -3.66830195       3.66422856      -1.33777210
H       -3.63448418       4.09482967      -2.35002481
C       -5.05470499       3.89190439      -0.77032889
O       -5.22048943       3.28042612       0.48702849
Si      -4.79959058       3.88309128       1.98496395
C       -4.72552975       5.74965882       1.94338395
C       -6.16435666       3.26442332       3.13256236
C       -7.52686310       3.74768610       2.62411320
C       -6.15049036       1.73140149       3.15365988
C       -5.94165673       3.78738268       4.55671425
C       -3.14317598       3.19117638       2.50018507
O       -2.76279792       4.33996758      -0.48325109
C       -1.41597840       4.31139118      -0.92358382
H       -1.35296950       4.76441716      -1.92846333
O       -0.65280867       5.01442242      -0.01639367
C       -0.81860598       6.42091421      -0.09591115
C       -0.92785973       2.87643370      -0.97539603
H       -0.94711938       2.49093762       0.05515979
O        0.38274953       2.86119401      -1.49523073
H       -1.55008244       0.30499080      -0.99962640
H       -7.17134364      -0.19236595      -0.94011000
H       -7.28858342       1.41659056      -1.65623040
H       -6.26871858       1.16005749      -0.24387641
H       -3.66962382       0.26145715      -4.84302237
H       -4.74480083      -0.66306443      -5.90287237
H       -4.01698870      -1.43382630      -4.49048531
H       -7.61519976      -0.91093181      -3.48659195
H       -6.33212814      -2.11859348      -3.61897417
H       -7.02580226      -1.40541147      -5.07369644
H       -5.54013671       2.01136980      -4.66415399
H       -7.14994026       1.53786377      -4.10904430
H       -6.57019447       0.99803656      -5.68718417
H       -3.93778963      -0.91318595      -0.46196471
H       -3.31669478      -1.38912224      -2.05196541
H       -4.84973968      -2.03778891      -1.45146849
H       -5.22852124       4.97190439      -0.71189484
H       -5.79040703       3.46555823      -1.45435057
H       -3.95633764       6.06451763       1.23597178
H       -4.45012395       6.13863194       2.92698940
H       -5.67173838       6.21195624       1.65512611
H       -7.59495988       4.83873707       2.62541521
H       -8.32555033       3.36768273       3.27068007
H       -7.71904116       3.39713751       1.60772003
H       -6.95476620       1.35624612       3.79608176
H       -5.20659744       1.34285454       3.54437057
H       -6.30003536       1.31699782       2.15390200
H       -4.98751659       3.45436713       4.97223353
H       -6.73121151       3.41648832       5.21865237
H       -5.96575473       4.87883739       4.60178729
H       -2.34154326       3.73369052       1.99777757
H       -3.06474623       2.13717118       2.22184433
H       -2.98383197       3.26143658       3.57836603
H       -0.14097396       6.85737029       0.63347772
H       -1.84356250       6.71733143       0.13763680
H       -0.55636593       6.78370614      -1.09478869
H        0.55946059       1.95545876      -1.77817777
69
Properties=species:S:1:pos:R:3 -90.0957350153=T converged=T charge=0 spin=1 pbc="F F F"
O       -1.91291641       0.41035414      -1.44591532
C       -2.03087992       1.79918522      -1.69632685
H       -1.81800282       2.01510661      -2.75348635
C       -3.46039136       2.22768884      -1.41628841
H       -3.74106151       1.88884640      -0.41141734
O       -4.31586107       1.71092996      -2.40634984
Si      -5.52233546       0.57232527      -2.22731580
C       -7.06252575       1.36928378      -1.53695978
C       -5.79133805      -0.03781774      -3.98831707
C       -4.53561036      -0.77375456      -4.46389263
C       -6.99537308      -0.98206299      -4.04553197
C       -6.04491110       1.15895789      -4.91044777
C       -4.98221355      -0.78862997      -1.07216196
C       -3.57532520       3.75350136      -1.47020654
H       -3.41648487       4.06294453      -2.51319123
C       -4.94343958       4.23292925      -1.03492990
O       -5.29574760       3.66373106       0.20336457
Si      -5.53568021       4.40275820       1.67049743
C       -7.34150876       4.83857180       1.83836590
C       -5.01898987       3.09248498       2.92262302
C       -5.41905614       3.50480633       4.34191592
C       -5.70084862       1.76655238       2.56931462
C       -3.50081349       2.90229374       2.85476743
C       -4.50970916       5.96126837       1.79570718
O       -2.60917082       4.38137149      -0.63701465
C       -1.29512101       4.07657504      -1.03759101
H       -1.14676905       4.33973912      -2.09469212
O       -0.39079776       4.87109069      -0.33799037
C       -0.47629224       4.79916100       1.08306168
C       -1.05329227       2.58688955      -0.84474063
H       -1.21562450       2.32626890       0.20976602
O        0.25321467       2.22260879      -1.25619747
H       -0.98755587       0.17269811      -1.57613767
H       -7.53359845       2.05906724      -2.24060184
H       -6.81075465       1.92590961      -0.63085010
H       -7.79433507       0.60366472      -1.26737186
H       -4.65768685      -1.10458804      -5.50125302
H       -4.33089599      -1.65804855      -3.85619413
H       -3.66013150      -0.12295877      -4.42050325
H       -6.85485199      -1.86150552      -3.41236955
H       -7.14633190      -1.33833448      -5.07020701
H       -7.91562024      -0.48272342      -3.73315913
H       -5.20752747       1.85793670      -4.88711471
H       -6.95247204       1.69984370      -4.63130110
H       -6.17087058       0.81984239      -5.94447125
H       -3.91548086      -0.98805340      -1.17254990
H       -5.53319094      -1.70858266      -1.28340364
H       -5.18419289      -0.52225844      -0.03208341
H       -4.93343936       5.32704777      -0.99590487
H       -5.67398938       3.92856882      -1.78708369
H       -7.54941757       5.32381954       2.79504766
H       -7.98093473       3.95810727       1.74866324
H       -7.62288176       5.53707337       1.04604912
H       -6.50173801       3.60833050       4.44201593
H       -4.95808467       4.45061779       4.63880255
H       -5.09446039       2.74447787       5.06035796
H       -5.39189985       0.98293164       3.26928589
H       -5.43137766       1.44150675       1.56261811
H       -6.78959903       1.84452192       2.62215697
H       -3.18874198       2.08457712       3.51341204
H       -2.96816278       3.80238637       3.17220343
H       -3.17843566       2.65460400       1.84019474
H       -5.06869594       6.82882068       1.43824668
H       -3.59671006       5.87962285       1.20352242
H       -4.22811256       6.16235736       2.83240254
H        0.11640362       5.62815516       1.46289085
H       -0.06698509       3.86067820       1.46856644
H       -1.50675532       4.90606037       1.41971814
H        0.86923244       2.89347597      -0.93805323
69
Properties=species:S:1:pos:R:3 -90.1016954396=T converged=T charge=0 spin=1 pbc="F F F"
O       -1.47347843       2.80796866      -0.61015576
C       -2.20190996       2.63776447      -1.81600811
H       -1.97596257       1.64116086      -2.20176927
C       -3.71399023       2.71388954      -1.57183944
H       -3.96553462       2.09065864      -0.70955555
O       -4.35182131       2.23914422      -2.75436173
Si      -5.52659779       1.06153582      -2.89583288
C       -6.21430718       1.38095745      -4.59698738
C       -4.75332677      -0.65904753      -2.77250619
C       -5.82765820      -1.72383095      -3.03724908
C       -3.64174377      -0.79679998      -3.82046781
C       -4.16799850      -0.87768129      -1.37108594
C       -6.80506351       1.30791861      -1.55708404
C       -4.19866318       4.13416644      -1.29494545
H       -5.27450757       4.13605723      -1.48211782
C       -4.02291742       4.59713511       0.15188159
O       -4.89468216       3.83901515       0.96718345
Si      -4.42893449       3.07844963       2.37534466
C       -3.27965008       4.18899013       3.34872725
C       -6.04870722       2.77734453       3.28525929
C       -7.01188186       2.03356642       2.35246034
C       -5.80591635       1.93894237       4.54589612
C       -6.65917903       4.12973388       3.67146816
C       -3.52890820       1.48649438       1.99956392
O       -3.67523778       5.08314540      -2.23066855
C       -2.29717332       5.05076838      -2.49165175
H       -2.15735402       5.73509560      -3.33408864
O       -1.52930211       5.48172172      -1.38464515
C       -1.64274059       6.87333737      -1.12709229
C       -1.79327889       3.66089558      -2.87772304
H       -0.70353108       3.70303397      -2.93043822
O       -2.25999688       3.31719884      -4.16251199
H       -1.22174855       3.73996084      -0.54297801
H       -6.98990007       0.66450039      -4.87191959
H       -5.42763454       1.33530272      -5.35321878
H       -6.64866646       2.38200777      -4.63478810
H       -6.62864424      -1.69263831      -2.29480128
H       -5.38339436      -2.72350863      -2.99363258
H       -6.27950884      -1.61297519      -4.02591431
H       -2.87098754      -0.03176340      -3.70191047
H       -4.03509465      -0.71576763      -4.83650961
H       -3.15736695      -1.77499756      -3.73417266
H       -4.93346138      -0.79627509      -0.59432980
H       -3.37371804      -0.16315803      -1.13868114
H       -3.73278360      -1.87957475      -1.29609432
H       -7.39392624       2.20677346      -1.75132077
H       -6.34815053       1.41900041      -0.57104760
H       -7.49330277       0.46113687      -1.50945230
H       -2.98789002       4.50938192       0.48640437
H       -4.30762968       5.65371518       0.19645898
H       -2.28513660       4.21590585       2.89793778
H       -3.16079644       3.80602948       4.36542352
H       -3.65281332       5.21237435       3.41871805
H       -7.20578665       2.60887352       1.44556755
H       -7.96848495       1.86001567       2.85567753
H       -6.61656278       1.05798260       2.05537916
H       -6.74963410       1.76990382       5.07494796
H       -5.12727816       2.43529644       5.24467380
H       -5.38555318       0.95886408       4.30721471
H       -7.62635767       3.98413735       4.16309780
H       -6.82066524       4.75520808       2.79083033
H       -6.01781192       4.68073328       4.36393238
H       -3.14583090       1.04618366       2.92351854
H       -2.67463595       1.67989909       1.34566174
H       -4.16903252       0.74503139       1.51565034
H       -1.06843458       7.08440453      -0.22846468
H       -2.68329335       7.16129895      -0.97024997
H       -1.23176375       7.44548347      -1.96387971
H       -3.16952435       2.99813286      -4.06076758
69
Properties=species:S:1:pos:R:3 -90.1017304050=T converged=T charge=0 spin=1 pbc="F F F"
O       -1.38229741       2.71165954      -0.39565684
C       -2.01139818       2.56895833      -1.65961617
H       -1.77840839       1.57036538      -2.03580772
C       -3.53728809       2.67830159      -1.54436032
H       -3.87586440       2.05859658      -0.70913021
O       -4.07206939       2.21532479      -2.78203134
Si      -5.36794477       1.19381798      -3.03709950
C       -5.72968127       1.45557810      -4.84439178
C       -4.88387319      -0.59852061      -2.67645700
C       -4.55028669      -0.77562850      -1.18936592
C       -6.05526564      -1.52325182      -3.03748701
C       -3.66304967      -0.98264305      -3.52087712
C       -6.78737881       1.72075669      -1.94485700
C       -4.01298009       4.10815093      -1.29918026
H       -5.06797317       4.13815055      -1.58039935
C       -3.95566654       4.54821298       0.16490593
O       -4.90413606       3.78854013       0.89012350
Si      -4.56780567       3.04756024       2.34632041
C       -3.56407438       4.19972009       3.42664923
C       -6.26343949       2.69904578       3.08497965
C       -7.11824156       1.96025442       2.04886824
C       -6.12527447       1.83528251       4.34372130
C       -6.93848289       4.02861219       3.44000162
C       -3.58740939       1.48104069       2.08371782
O       -3.38624699       5.05528694      -2.17088043
C       -1.99171764       4.99053700      -2.31178608
H       -1.76389756       5.68101073      -3.12935691
O       -1.31306254       5.39079370      -1.13670341
C       -1.42115507       6.78104347      -0.86752385
C       -1.49001581       3.59243249      -2.67159218
H       -0.39915831       3.60978252      -2.62839615
O       -1.85243552       3.27507937      -3.99617247
H       -1.11823674       3.63734671      -0.29731022
H       -5.99501210       2.50078884      -5.01362108
H       -6.55459236       0.83552935      -5.19757606
H       -4.85285756       1.23666684      -5.45685648
H       -3.68033095      -0.18461244      -0.89154969
H       -4.31410221      -1.82384701      -0.97814744
H       -5.39026010      -0.49493875      -0.54710436
H       -6.33776925      -1.43626308      -4.08926040
H       -6.94080277      -1.32012721      -2.43098171
H       -5.77574828      -2.56701377      -2.86231858
H       -3.88140712      -0.93332977      -4.59009337
H       -3.35350349      -2.00880998      -3.29690581
H       -2.81150718      -0.32757672      -3.32329293
H       -7.21630557       2.65859820      -2.30390222
H       -6.46359225       1.87635220      -0.91313270
H       -7.58161070       0.97123136      -1.93460391
H       -2.95224531       4.44121371       0.58280150
H       -4.22976395       5.60805040       0.20165331
H       -3.97025020       5.21273109       3.44019702
H       -2.52664599       4.24921548       3.08889812
H       -3.54976935       3.83049109       4.45523734
H       -8.10616255       1.73540777       2.46364269
H       -6.66487927       1.01109401       1.74792702
H       -7.25931973       2.56759887       1.15365259
H       -7.11085402       1.64138109       4.77911162
H       -5.52208908       2.32388243       5.11321432
H       -5.66956662       0.86717329       4.12351220
H       -6.38205541       4.57375830       4.20640632
H       -7.94689540       3.85200528       3.82759837
H       -7.02553994       4.67249951       2.56207445
H       -4.16916816       0.70036577       1.58801377
H       -3.24840051       1.08856708       3.04587641
H       -2.70122294       1.68423367       1.47711865
H       -0.91844188       6.96697173       0.07869496
H       -2.46576477       7.08806037      -0.79195414
H       -0.93111439       7.35543909      -1.65927644
H       -2.76939292       2.96162359      -3.97394171
69
Properties=species:S:1:pos:R:3 -90.0946330045=T converged=T charge=0 spin=1 pbc="F F F"
O       -1.54694128       1.12206237      -2.04487492
C       -2.00698218       2.45531664      -2.16426945
H       -2.03209814       2.75844689      -3.21987809
C       -3.41521622       2.58702117      -1.60089723
H       -3.42648360       2.15542163      -0.59438134
O       -4.30299720       1.90866854      -2.46460234
Si      -5.32210532       0.63555449      -2.10920247
C       -7.00098788       1.24686603      -1.58163042
C       -5.42608420      -0.30219784      -3.74224366
C       -6.32438706      -1.53418973      -3.59788706
C       -6.00578833       0.62444555      -4.81691273
C       -4.02624405      -0.74232441      -4.17985022
C       -4.59753360      -0.38947217      -0.72752062
C       -3.83166409       4.04849088      -1.49903012
H       -3.87780492       4.47670732      -2.51105780
C       -5.19012869       4.22225852      -0.85411993
O       -5.35492617       3.44412957       0.30928591
Si      -4.80303649       3.73622672       1.85292581
C       -4.56791161       5.56668451       2.12558292
C       -6.14376529       3.01693817       2.96465088
C       -5.78652239       3.24080219       4.43726285
C       -7.48256563       3.69263277       2.65487400
C       -6.27847605       1.51418483       2.69657119
C       -3.18346410       2.84657706       2.12413712
O       -2.87275450       4.76397249      -0.72877343
C       -1.61417506       4.77526002      -1.36322537
H       -1.71272442       5.17203804      -2.38354398
O       -0.76793708       5.67005166      -0.71314963
C       -0.60800280       5.47462025       0.68826696
C       -1.03493217       3.36347057      -1.43958699
H       -0.88602767       2.96545767      -0.42684031
O        0.18089419       3.39017650      -2.15814770
H       -2.12052548       0.56735786      -2.58635410
H       -6.90169578       1.84692248      -0.67468525
H       -7.66025018       0.40417061      -1.35842746
H       -7.47974147       1.85731745      -2.34961389
H       -6.40354581      -2.05541708      -4.55774746
H       -7.33683423      -1.26360593      -3.28947678
H       -5.92604213      -2.24645904      -2.87151515
H       -7.03138437       0.91928787      -4.58468658
H       -6.02215741       0.11548767      -5.78655133
H       -5.40417935       1.52911212      -4.92552538
H       -3.38239204       0.12330694      -4.35674965
H       -4.07818272      -1.29973834      -5.12111680
H       -3.55225281      -1.39619341      -3.44214913
H       -5.15974008      -1.31936507      -0.61210365
H       -4.67551520       0.15321198       0.21817158
H       -3.54679310      -0.64066439      -0.88280067
H       -5.34445591       5.28559436      -0.64633627
H       -5.95130269       3.90799049      -1.56907295
H       -5.50988518       6.11844359       2.10858636
H       -3.91554084       5.97949548       1.35351911
H       -4.09157725       5.74329213       3.09316203
H       -4.84041454       2.76253228       4.70244675
H       -6.56170872       2.81358188       5.08252818
H       -5.70924136       4.30410305       4.67747149
H       -8.27782727       3.26075513       3.27209247
H       -7.76038654       3.55336254       1.60813625
H       -7.45329534       4.76498243       2.86194484
H       -6.51437423       1.31879174       1.64789397
H       -7.08875472       1.09258379       3.30132429
H       -5.36451088       0.97208280       2.95042790
H       -3.28071410       1.76856974       1.97597610
H       -2.80255694       3.01560662       3.13429064
H       -2.43747631       3.21766092       1.42004517
H       -0.05497931       4.55854957       0.91380202
H       -1.57318357       5.44842515       1.19431102
H       -0.03817348       6.32876430       1.04681232
H        0.69620542       4.13941139      -1.83600181
69
Properties=species:S:1:pos:R:3 -90.1003946566=T converged=T charge=0 spin=1 pbc="F F F"
O       -1.35580040       2.99032271       0.01745235
C       -1.86743082       2.46497547      -1.19864902
H       -1.48455520       1.44677920      -1.30225876
C       -3.39810660       2.39615701      -1.17346720
H       -3.70588565       1.95958756      -0.21894918
O       -3.80792326       1.58420247      -2.27123479
Si      -4.77321266       0.23306426      -2.08873961
C       -6.42978026       0.74113072      -1.39532096
C       -4.89813087      -0.47168801      -3.82871289
C       -5.45793034       0.59313965      -4.77998326
C       -3.50082215      -0.88648590      -4.30591316
C       -5.82262571      -1.69647178      -3.83649177
C       -3.91819948      -0.93193844      -0.90538672
C       -4.06058843       3.76056804      -1.30793331
H       -5.09826531       3.58205777      -1.59441329
C       -4.11772791       4.54751726       0.00102823
O       -5.04813170       3.90323613       0.85163414
Si      -4.76869434       3.53714640       2.45326577
C       -3.84872234       4.95249270       3.25849131
C       -6.48255138       3.31039814       3.20287214
C       -7.27480622       2.30420409       2.36158538
C       -6.36471458       2.78527553       4.63919487
C       -7.22844098       4.64903468       3.21384870
C       -3.76556238       1.96650256       2.58450270
O       -3.51837833       4.51238472      -2.39636831
C       -2.12175749       4.62288400      -2.46767207
H       -1.93140875       5.08389065      -3.44151652
O       -1.60683608       5.43670901      -1.43604110
C       -1.97204742       6.80164428      -1.58711631
C       -1.40180464       3.27550523      -2.40755353
H       -0.33160788       3.46915339      -2.31215488
O       -1.59388626       2.58086646      -3.61987796
H       -1.20563021       3.93709813      -0.10480378
H       -7.04810334      -0.13431929      -1.18294066
H       -6.97536276       1.38373554      -2.08981569
H       -6.30842405       1.29031057      -0.45734048
H       -4.82386481       1.48117997      -4.81429830
H       -6.46282119       0.90944811      -4.49210654
H       -5.52165940       0.19254332      -5.79679407
H       -3.08811203      -1.69105690      -3.69404410
H       -2.79517970      -0.05335123      -4.28129131
H       -3.54426495      -1.24906731      -5.33768746
H       -5.45695102      -2.48982463      -3.17872899
H       -5.87983669      -2.11301858      -4.84769040
H       -6.84090416      -1.44306385      -3.52963194
H       -2.91865573      -1.18782346      -1.26352110
H       -4.48413019      -1.85713802      -0.77709005
H       -3.81200686      -0.47942748       0.08402917
H       -3.13886728       4.62057419       0.47303810
H       -4.46675707       5.55982431      -0.22130930
H       -4.36033194       5.90252704       3.08745493
H       -2.83014052       5.04145708       2.87368366
H       -3.77225929       4.80105255       4.33806477
H       -6.77900835       1.33144546       2.31705442
H       -7.41423205       2.66273621       1.34063580
H       -8.26552958       2.14346618       2.79831028
H       -5.80020359       3.46543312       5.28269023
H       -5.88204697       1.80603571       4.67826679
H       -7.36208810       2.67612989       5.07771661
H       -8.24722815       4.51031972       3.59001958
H       -7.30268883       5.07680263       2.21186491
H       -6.73961798       5.37972249       3.86188606
H       -4.29873834       1.12188584       2.13946280
H       -3.55972543       1.71749958       3.62828832
H       -2.80595796       2.07293959       2.07255457
H       -3.05618876       6.92390834      -1.58254855
H       -1.57553749       7.19625866      -2.52797490
H       -1.54164694       7.34508522      -0.75051489
H       -2.48412148       2.20003541      -3.58904959
69
Properties=species:S:1:pos:R:3 -90.0950611212=T converged=T charge=0 spin=1 pbc="F F F"
O       -1.38183120       0.80582696      -1.31946875
C       -1.69665122       2.12886063      -1.72383682
H       -1.53070276       2.23724636      -2.80396518
C       -3.16603382       2.37625342      -1.43740295
H       -3.36589360       2.09940790      -0.39687205
O       -3.99184036       1.66238415      -2.31965431
Si      -4.39164910       0.04494035      -2.34589067
C       -4.31323621      -0.66922562      -0.62675530
C       -6.14927910       0.04609278      -3.03257461
C       -7.10709641       0.62495425      -1.98583758
C       -6.20644006       0.91820984      -4.29166464
C       -6.58416916      -1.38008870      -3.38745045
C       -3.23561705      -0.87288168      -3.48610711
C       -3.51350052       3.85568938      -1.62678128
H       -3.43076250       4.08931615      -2.69961650
C       -4.93035510       4.15721167      -1.18116961
O       -5.19427666       3.58547340       0.07686477
Si      -5.65628972       4.32649553       1.48511987
C       -7.22599023       5.30231807       1.21323408
C       -5.90163361       2.87275156       2.65590870
C       -4.58871248       2.09153096       2.78386698
C       -6.33578954       3.36532597       4.04052402
C       -6.97245118       1.93671695       2.08408479
C       -4.33921752       5.51078423       2.07848071
O       -2.62902521       4.69682093      -0.89435091
C       -1.29884360       4.54470246      -1.32919254
H       -1.23710875       4.70598448      -2.41380475
O       -0.49069176       5.53036848      -0.76963717
C       -0.54613725       5.63802267       0.65003821
C       -0.82445406       3.13558950      -1.00106121
H       -0.91492841       2.96625937       0.07961328
O        0.51017527       2.92548771      -1.43245247
H       -0.43353483       0.68097530      -1.44239917
H       -4.91939202      -0.09666536       0.07777161
H       -3.28099672      -0.67248301      -0.27387900
H       -4.67580955      -1.69988814      -0.62391855
H       -8.11161493       0.71777409      -2.41264955
H       -6.78886792       1.61614988      -1.65041763
H       -7.17840587      -0.01829463      -1.10568552
H       -5.56260156       0.53044592      -5.08484589
H       -5.89582146       1.94284593      -4.07959649
H       -7.23099740       0.94330386      -4.67768773
H       -6.54717315      -2.04784387      -2.52194532
H       -5.95689300      -1.81006326      -4.17189803
H       -7.61565198      -1.37256218      -3.75505927
H       -2.22879764      -0.84762678      -3.06896443
H       -3.21129400      -0.40772321      -4.47341513
H       -3.52749507      -1.91735535      -3.61208274
H       -5.05491313       5.24611678      -1.17865431
H       -5.61849806       3.72787043      -1.91317418
H       -8.00475406       4.69784322       0.74703276
H       -7.03506236       6.16512577       0.57043133
H       -7.61253620       5.68386198       2.16111875
H       -3.79620347       2.69415893       3.23358131
H       -4.23672278       1.74046299       1.81146807
H       -4.74199125       1.21543112       3.42276565
H       -5.59315929       4.03164404       4.48799917
H       -6.46118009       2.51052614       4.71323137
H       -7.28965509       3.89773129       4.00350159
H       -7.08606409       1.06372337       2.73548971
H       -6.69950293       1.58415472       1.08705269
H       -7.94618744       2.42696107       2.01298329
H       -4.71944650       6.15690704       2.87280578
H       -4.01833061       6.14854213       1.25129105
H       -3.46126636       4.98537466       2.45620857
H       -0.06804421       4.78819353       1.14454831
H       -1.57432317       5.72614684       0.99700684
H        0.00073779       6.54298924       0.89757205
H        1.01772326       3.72202545      -1.23581552
69
Properties=species:S:1:pos:R:3 -90.1003572377=T converged=T charge=0 spin=1 pbc="F F F"
O       -1.27899046       2.58122141       0.06614037
C       -1.85130762       2.17048830      -1.16558395
H       -1.60390827       1.11536218      -1.30572279
C       -3.37865965       2.29593778      -1.13759856
H       -3.74151897       1.87417500      -0.19464889
O       -3.88231772       1.57328007      -2.25882069
Si      -5.15150874       0.49001986      -2.17843275
C       -6.69016881       1.36380546      -1.57784683
C       -5.31593388      -0.13149178      -3.94712474
C       -5.58662591       1.04818312      -4.88967515
C       -4.01004451      -0.81834696      -4.36664434
C       -6.47045123      -1.13693047      -4.04955197
C       -4.68682919      -0.86930238      -0.98401508
C       -3.86050698       3.74010540      -1.22971219
H       -4.91271919       3.70811183      -1.51680190
C       -3.82217830       4.48816951       0.10316826
O       -4.80896770       3.90396866       0.93210372
Si      -4.72813992       3.89774473       2.59625483
C       -5.04720679       5.61814869       3.24687347
C       -6.07915418       2.69863999       3.12545531
C       -6.20622017       2.67433469       4.65425748
C       -7.42323213       3.11301487       2.51672653
C       -5.71096361       1.29717529       2.62517883
C       -3.04490222       3.29692927       3.14170873
O       -3.22647813       4.45030186      -2.29560703
C       -1.82631185       4.38509504      -2.36157503
H       -1.57557022       4.85070753      -3.31854467
O       -1.21497573       5.09056922      -1.30274518
C       -1.40985776       6.49485053      -1.39634702
C       -1.28394640       2.95545180      -2.34797553
H       -0.19829047       3.00839669      -2.24542395
O       -1.55938597       2.33023879      -3.58237745
H       -1.02655092       3.51120247      -0.01297564
H       -7.50994725       0.65623866      -1.43272697
H       -7.02463003       2.12727560      -2.28365975
H       -6.50923412       1.85394034      -0.61695369
H       -4.78963829       1.79372036      -4.85038217
H       -6.52820878       1.54992076      -4.65546158
H       -5.65429851       0.69297008      -5.92303495
H       -4.07583027      -1.14753208      -5.40856026
H       -3.80371479      -1.70040726      -3.75658526
H       -3.15095952      -0.14881572      -4.28821531
H       -6.55888347      -1.49708324      -5.07980881
H       -7.43061098      -0.69105646      -3.77711097
H       -6.31023654      -2.01101945      -3.41285476
H       -5.46556511      -1.63308902      -0.92790861
H       -4.55046319      -0.47675390       0.02683139
H       -3.75457821      -1.35401208      -1.28182237
H       -2.84126912       4.43653388       0.57597429
H       -4.05520515       5.54060273      -0.08664112
H       -6.04976642       5.96468678       2.98926274
H       -4.33060313       6.33220586       2.83425433
H       -4.94530759       5.64664882       4.33382619
H       -6.97717947       1.95542685       4.95092324
H       -6.49698821       3.64692108       5.05869360
H       -5.27688301       2.37214922       5.14347354
H       -8.20563102       2.40780799       2.81679959
H       -7.38390662       3.12329654       1.42607958
H       -7.73321948       4.10512297       2.85344865
H       -4.76800543       0.94864820       3.05350265
H       -5.61672092       1.27847290       1.53663028
H       -6.48749012       0.57630588       2.90105764
H       -3.09932346       2.87185333       4.14664256
H       -2.31027252       4.10359848       3.17352312
H       -2.65786906       2.52802754       2.46990970
H       -2.47046976       6.75146512      -1.36947774
H       -0.97799348       6.87493810      -2.32723946
H       -0.90058051       6.94603661      -0.54909412
H       -2.48985312       2.06100616      -3.56145174
69
Properties=species:S:1:pos:R:3 -90.1028763627=T converged=T charge=0 spin=1 pbc="F F F"
O       -1.24501024       2.76241021      -0.00080999
C       -1.84357107       2.31610349      -1.20618240
H       -1.56850730       1.26746693      -1.34210129
C       -3.37305183       2.38638778      -1.12599537
H       -3.69484759       1.95865598      -0.17154918
O       -3.87212038       1.62140165      -2.21963989
Si      -5.19587918       0.60536875      -2.21168378
C       -6.76812952       1.60994170      -2.18850122
C       -4.99676382      -0.37600673      -3.80457998
C       -6.09141167      -1.44343561      -3.90627267
C       -5.09948157       0.56775788      -5.00826506
C       -3.62288733      -1.05560904      -3.82396176
C       -5.15168744      -0.46696047      -0.68416407
C       -3.91357221       3.81014222      -1.21937706
H       -4.96181761       3.73546335      -1.51593614
C       -3.91910241       4.55162564       0.11498017
O       -4.87364112       3.91744351       0.94324708
Si      -4.63185744       3.48957566       2.53493495
C       -3.91710813       4.93607624       3.47612013
C       -6.36129800       3.03703028       3.12142670
C       -6.32932375       2.58178696       4.58309503
C       -7.27814984       4.25630362       2.98227285
C       -6.91168270       1.90294231       2.24973963
C       -3.44230258       2.05718250       2.67052664
O       -3.30586203       4.56740659      -2.26883169
C       -1.90892548       4.53119841      -2.37539340
H       -1.69132961       5.03768739      -3.31966330
O       -1.27417893       5.20620414      -1.30705416
C       -1.44066727       6.61579828      -1.35213127
C       -1.34775640       3.11062382      -2.41490094
H       -0.25911309       3.17900315      -2.37126247
O       -1.68773145       2.49181606      -3.63502737
H       -1.03077659       3.70022198      -0.10291191
H       -6.85347072       2.15606902      -1.24528502
H       -7.64920889       0.96938709      -2.27544121
H       -6.79361205       2.33707710      -3.00238861
H       -7.09207663      -1.00438687      -3.90195169
H       -6.03195276      -2.16396805      -3.08729026
H       -5.98283469      -2.00147723      -4.84218550
H       -6.07698083       1.05203240      -5.06368383
H       -4.95532802       0.00597510      -5.93720731
H       -4.33599516       1.34842151      -4.97822819
H       -3.49803542      -1.62026390      -4.75411075
H       -3.50509695      -1.75797214      -2.99508773
H       -2.81283134      -0.32589453      -3.76892298
H       -5.26618254       0.14422536       0.21479161
H       -4.22304591      -1.03384998      -0.59610149
H       -5.98379039      -1.17549181      -0.69350569
H       -2.93051902       4.57291772       0.57645195
H       -4.22483992       5.58512008      -0.07094558
H       -3.89913532       4.72012397       4.54715145
H       -4.48971760       5.85238515       3.32290796
H       -2.88511196       5.12397012       3.17001557
H       -5.68562221       1.70972595       4.72240245
H       -7.33622908       2.30335059       4.91168258
H       -5.97647706       3.37412667       5.24749820
H       -7.31452610       4.60561607       1.94864659
H       -6.94694440       5.08533072       3.61217347
H       -8.29845705       3.99879759       3.28611699
H       -6.91591704       2.18203985       1.19384771
H       -7.94314967       1.67252818       2.53759689
H       -6.32882818       0.98521989       2.36195153
H       -2.55295638       2.24047855       2.06142592
H       -3.88284851       1.11183092       2.34433279
H       -3.11374276       1.93385594       3.70596135
H       -0.94543215       7.02456421      -2.23745395
H       -0.97414065       7.02549198      -0.45948940
H       -2.49698827       6.89047052      -1.37248898
H       -2.59358881       2.15876769      -3.53937378
69
Properties=species:S:1:pos:R:3 -90.0966783432=T converged=T charge=0 spin=1 pbc="F F F"
O       -1.71964810       2.04828075      -3.82143562
C       -2.11375421       2.99634384      -2.84256681
H       -2.87736435       3.67189932      -3.25526273
C       -2.74138713       2.25647685      -1.67237685
H       -2.06519481       1.44616223      -1.36731980
O       -4.00875908       1.74692538      -2.01162507
Si      -4.43101188       0.54831165      -3.09561154
C       -3.17241947      -0.82678591      -3.07873471
C       -6.10991083      -0.04993897      -2.46704782
C       -7.13372775       1.08083058      -2.63589294
C       -6.56304434      -1.27524587      -3.27530908
C       -6.00800361      -0.42930260      -0.98562761
C       -4.64192994       1.26238625      -4.80758587
C       -2.93654090       3.21890821      -0.49524828
H       -3.70075280       3.95389763      -0.78553425
C       -3.39849629       2.49324376       0.75077003
O       -3.83147174       3.39371030       1.74473918
Si      -5.40358294       3.79551051       2.10238652
C       -6.44522997       3.78428369       0.54844473
C       -6.12476831       2.58604896       3.36646015
C       -5.29011916       2.65614135       4.65141769
C       -7.57941954       2.95800965       3.68777206
C       -6.08632922       1.15938938       2.80437634
C       -5.28428964       5.51021233       2.82324468
O       -1.72257609       3.88614562      -0.18224510
C       -1.27406257       4.70430325      -1.23890333
H       -2.06629330       5.42604305      -1.51011588
O       -0.12160173       5.37140361      -0.85787195
C       -0.33124108       6.33774257       0.16355200
C       -0.92017431       3.82740116      -2.42149283
H       -0.10889531       3.16190541      -2.10439107
O       -0.53714788       4.58521289      -3.55722797
H       -1.27789085       2.53820550      -4.52609438
H       -2.19088134      -0.44293835      -3.35799644
H       -3.45004334      -1.59452332      -3.80463679
H       -3.09108066      -1.30815967      -2.10217607
H       -7.28149676       1.33458359      -3.68842285
H       -6.81352606       1.98954776      -2.11998543
H       -8.10705806       0.78592388      -2.22742114
H       -5.88015727      -2.11970705      -3.14965152
H       -6.63218987      -1.05844046      -4.34504750
H       -7.55557341      -1.60439204      -2.94645496
H       -6.97281070      -0.79077502      -0.61163751
H       -5.71290395       0.42796634      -0.37705913
H       -5.27320852      -1.22146604      -0.81771457
H       -5.31167274       0.64434466      -5.40910694
H       -3.68384030       1.33254045      -5.31954877
H       -5.07396569       2.26437965      -4.75681660
H       -4.18466018       1.79101551       0.46515944
H       -2.55342868       1.92175645       1.14539143
H       -6.12970936       4.56808892      -0.14323432
H       -7.49462767       3.96399438       0.79227248
H       -6.39033564       2.83119895       0.01819256
H       -5.65403896       1.93046339       5.38722321
H       -5.34655200       3.64556836       5.11185512
H       -4.23682749       2.44073358       4.45772524
H       -7.97904623       2.29044272       4.45935499
H       -8.22788249       2.86770376       2.81320837
H       -7.66979256       3.97951572       4.06624339
H       -5.06618471       0.83846269       2.57891796
H       -6.67554416       1.06757771       1.88786709
H       -6.50109842       0.45190954       3.53100275
H       -4.51219408       5.55135724       3.59417695
H       -6.22505921       5.83589356       3.27105610
H       -5.01639676       6.22944680       2.04619266
H       -1.06573751       7.08315788      -0.15756641
H        0.62505164       6.82530785       0.33379338
H       -0.67364319       5.86399697       1.08386621
H        0.22999552       5.11507133      -3.31270405
69
Properties=species:S:1:pos:R:3 -90.1006487285=T converged=T charge=0 spin=1 pbc="F F F"
O       -1.23757258       2.99848621      -0.09054609
C       -1.81920630       2.47835469      -1.27629544
H       -1.44517272       1.46054292      -1.40395164
C       -3.34712506       2.40844101      -1.16454461
H       -3.59810044       1.96982465      -0.19488372
O       -3.80184494       1.58086188      -2.23050470
Si      -5.07974594       0.50746111      -2.16922330
C       -6.71370489       1.41153173      -2.21492343
C       -4.83225852      -0.55097516      -3.70621587
C       -4.97967656       0.31857965      -4.96113437
C       -3.42248832      -1.15289768      -3.67494144
C       -5.86756517      -1.68291309      -3.74940607
C       -4.95580703      -0.48303372      -0.59119430
C       -4.01217972       3.77671857      -1.26347042
H       -5.06330227       3.60898407      -1.50062569
C       -4.01424595       4.54307498       0.05971127
O       -4.94569056       3.89944713       0.91072951
Si      -4.66377695       3.56664049       2.51930291
C       -4.02544609       5.10816917       3.36302839
C       -6.34517797       3.04487990       3.19007054
C       -6.87357062       1.86671850       2.36439410
C       -6.21577275       2.61519300       4.65683796
C       -7.33631857       4.20913716       3.08852797
C       -3.41049587       2.19155305       2.68137205
O       -3.52377836       4.53655871      -2.37120627
C       -2.13270277       4.64371035      -2.51231961
H       -1.99081907       5.11757876      -3.48780419
O       -1.56384378       5.44074242      -1.49498349
C       -1.92509496       6.81050126      -1.60823629
C       -1.41789423       3.29260141      -2.50555563
H       -0.34295205       3.48160321      -2.46986230
O       -1.68444150       2.60591166      -3.70860632
H       -1.10748034       3.94852769      -0.21482768
H       -6.76349115       2.10107022      -3.06022908
H       -6.88006481       1.98390958      -1.29906374
H       -7.53995988       0.70207832      -2.30957877
H       -4.28044590       1.15782462      -4.96487517
H       -5.98852768       0.72461293      -5.05812147
H       -4.77772364      -0.27548146      -5.85791472
H       -3.27472895      -1.79058573      -2.80064245
H       -2.65347812      -0.37867271      -3.65868770
H       -3.25356278      -1.77120137      -4.56191747
H       -5.77491166      -2.35335841      -2.89104155
H       -5.72120232      -2.28614960      -4.65165530
H       -6.89287456      -1.30408255      -3.77425332
H       -3.98763792      -0.98005845      -0.50094936
H       -5.73625368      -1.24661166      -0.55940279
H       -5.09673135       0.15314054       0.28609657
H       -3.02318831       4.57671416       0.51362883
H       -4.33869254       5.56946119      -0.13299790
H       -4.70230542       5.95186089       3.21253559
H       -3.04293693       5.39200729       2.97833356
H       -3.91619015       4.94875733       4.43828515
H       -6.21941522       0.99507428       2.43734735
H       -6.97306070       2.13065499       1.30978382
H       -7.86062260       1.56264078       2.72665103
H       -5.85640213       3.42777051       5.29339381
H       -5.53657558       1.76784506       4.77709766
H       -7.19333050       2.30812341       5.04270588
H       -8.32409961       3.89508006       3.44130791
H       -7.44642944       4.55535145       2.05920154
H       -7.02880382       5.05917330       3.70111800
H       -3.78999804       1.25433042       2.26673006
H       -3.16024610       2.01386828       3.72997766
H       -2.48482455       2.43458083       2.15418205
H       -3.00738029       6.93920926      -1.55640317
H       -1.56460018       7.21963233      -2.55742092
H       -1.45610353       7.33629854      -0.78105193
H       -2.56310801       2.20822541      -3.61692181
69
Properties=species:S:1:pos:R:3 -90.0965309953=T converged=T charge=0 spin=1 pbc="F F F"
O       -1.10375055       1.46707641      -1.92077250
C       -1.88317958       2.64537279      -2.06422002
H       -1.94632981       2.92160604      -3.12588748
C       -3.30042672       2.45899506      -1.55202297
H       -3.26690281       2.06832554      -0.52833755
O       -3.97562874       1.58455561      -2.42880343
Si      -4.62671239       0.07767925      -2.16062275
C       -5.62420176       0.03541060      -0.58981630
C       -5.66075769      -0.20919996      -3.70755962
C       -6.75415922       0.86098544      -3.79568877
C       -4.77104618      -0.10146617      -4.95124751
C       -6.30681163      -1.59856750      -3.66162080
C       -3.25736098      -1.18692821      -1.99856496
C       -4.02013644       3.80588827      -1.54383585
H       -4.13766512       4.13349433      -2.58886599
C       -5.39655787       3.74191067      -0.91252285
O       -5.39643804       3.16399626       0.36873852
Si      -4.93203920       3.80471867       1.83234728
C       -4.90837461       5.66861252       1.79040943
C       -6.20720849       3.16839302       3.06965215
C       -7.59966944       3.67507351       2.68125291
C       -6.22650892       1.63650638       3.06326026
C       -5.86020859       3.66601301       4.47795696
C       -3.23747355       3.13690690       2.24947777
O       -3.25412316       4.76289656      -0.82959775
C       -1.99025383       5.02390936      -1.42754640
H       -2.13340629       5.28044603      -2.48474461
O       -1.44124971       6.14888601      -0.84948942
C       -1.03165596       6.02348367       0.50504227
C       -1.15128076       3.75240367      -1.32824877
H       -1.05176708       3.46263862      -0.27370932
O        0.11518476       3.99590143      -1.90122274
H       -1.53616323       0.76330169      -2.41761151
H       -6.02135175      -0.96939119      -0.42686286
H       -6.45554568       0.74023689      -0.59589406
H       -4.99444292       0.28483294       0.26668152
H       -7.34643852       0.71271830      -4.70435739
H       -6.32220207       1.86314326      -3.83826371
H       -7.43791546       0.81755859      -2.94474727
H       -4.28424704       0.87395106      -5.00669099
H       -5.37882111      -0.22694455      -5.85310365
H       -3.99686520      -0.87196310      -4.96756709
H       -5.55774620      -2.39387030      -3.61935225
H       -6.90565145      -1.75787671      -4.56447590
H       -6.97141677      -1.71097108      -2.80085390
H       -2.65282302      -1.27169676      -2.90446708
H       -3.66818430      -2.17696906      -1.78864428
H       -2.59932297      -0.92892917      -1.16500249
H       -5.80561138       4.75637033      -0.89017263
H       -6.03599765       3.13080097      -1.55330697
H       -4.49111923       6.05563611       2.72302601
H       -5.90678689       6.09221243       1.67294001
H       -4.28576347       6.02394528       0.96975801
H       -7.66198202       4.76489898       2.71874802
H       -8.34724700       3.27788724       3.37583586
H       -7.87218947       3.35172776       1.67406827
H       -6.98822145       1.27271070       3.76094932
H       -5.26789908       1.21500072       3.37467574
H       -6.46499626       1.24710918       2.07145420
H       -4.87860693       3.31208176       4.80435340
H       -6.59992737       3.29368944       5.19468624
H       -5.86443779       4.75778781       4.53642707
H       -2.87204594       3.50024891       3.21209460
H       -2.52531120       3.44409024       1.48295605
H       -3.24581068       2.04562043       2.28442580
H       -0.12850483       5.41516180       0.59340616
H       -1.82466812       5.60522646       1.12860839
H       -0.81179461       7.03281364       0.84267632
H        0.54099951       3.13753519      -2.01562609
69
Properties=species:S:1:pos:R:3 -90.0990026185=T converged=T charge=0 spin=1 pbc="F F F"
O       -1.32162017       2.48107143       0.45473008
C       -1.59745177       1.99860111      -0.85024681
H       -1.33830456       0.93742320      -0.86567721
C       -3.08986046       2.12295149      -1.17896648
H       -3.67185300       1.74552860      -0.33198440
O       -3.33520981       1.37242339      -2.36716179
Si      -4.23659942      -0.02508981      -2.51020382
C       -4.08471132      -1.00279025      -0.92630587
C       -6.03187440       0.43838326      -2.86550614
C       -6.08635859       1.43189355      -4.03210931
C       -6.83570569      -0.81455796      -3.23354129
C       -6.65036664       1.09120282      -1.62357936
C       -3.47951155      -0.94869350      -3.93903527
C       -3.51354356       3.56105635      -1.44575268
H       -4.47209525       3.51525672      -1.96620848
C       -3.74802892       4.39266538      -0.18464527
O       -4.86373016       3.84060636       0.48923533
Si      -5.10121729       4.03450679       2.12997514
C       -5.57517590       5.80719906       2.48690691
C       -6.49569795       2.83790562       2.55458686
C       -6.00587077       1.40562101       2.30672629
C       -6.89849100       2.99258386       4.02686113
C       -7.71734081       3.11026302       1.66872034
C       -3.53208138       3.60022667       3.05211532
O       -2.64393090       4.20719594      -2.37953061
C       -1.26345575       4.13423018      -2.13803466
H       -0.80047743       4.53903490      -3.04410897
O       -0.88084088       4.89639254      -1.01215180
C       -1.03999316       6.29321764      -1.21008972
C       -0.76064887       2.70842203      -1.91632575
H        0.27225653       2.77161442      -1.56757737
O       -0.75427912       2.00431202      -3.13825164
H       -1.05020782       3.40537507       0.38454258
H       -4.47190566      -0.45492248      -0.06505251
H       -3.04119446      -1.25688472      -0.72373917
H       -4.64507587      -1.93739312      -1.00154464
H       -7.12597832       1.70774151      -4.23854499
H       -5.67023104       1.00795133      -4.94927412
H       -5.53443971       2.34682896      -3.80737975
H       -7.88589979      -0.55090202      -3.39839454
H       -6.80655249      -1.56937526      -2.44317530
H       -6.46579377      -1.27555915      -4.15191666
H       -6.70990865       0.39099074      -0.78652067
H       -7.66897576       1.43040841      -1.84391255
H       -6.08130043       1.96400851      -1.28932903
H       -2.43115025      -1.17580132      -3.73524965
H       -3.52253593      -0.35921844      -4.85657645
H       -3.99644424      -1.89283760      -4.12417814
H       -2.86918311       4.39864550       0.46098928
H       -3.95714979       5.42346020      -0.49141324
H       -4.81036092       6.49664412       2.12024344
H       -5.68192496       5.98212761       3.56004438
H       -6.51889451       6.06528541       2.00335005
H       -5.70180065       1.27488108       1.26505237
H       -6.80733754       0.68820760       2.51739260
H       -5.15519216       1.15131626       2.94431807
H       -7.69610649       2.28242322       4.27070854
H       -7.27649785       3.99542228       4.24152183
H       -6.06536512       2.79212301       4.70545867
H       -7.47318498       3.00249724       0.61028942
H       -8.11488122       4.11637046       1.82509757
H       -8.51707140       2.39991887       1.90790521
H       -3.05067873       2.71838280       2.62391637
H       -3.75937077       3.39112861       4.10096873
H       -2.80460133       4.41535288       3.03700272
H       -0.42243709       6.62551342      -2.04908437
H       -0.71254159       6.78902278      -0.30028325
H       -2.08017103       6.55317780      -1.41237844
H       -1.66874456       1.73264058      -3.30975702
69
Properties=species:S:1:pos:R:3 -90.1027006378=T converged=T charge=0 spin=1 pbc="F F F"
O       -1.28931560       2.63579033       0.06236574
C       -1.86655699       2.19988991      -1.15646390
H       -1.62015814       1.14274115      -1.27887909
C       -3.39266574       2.32020472      -1.11983604
H       -3.74708874       1.92774741      -0.16194360
O       -3.89489339       1.55846990      -2.21337978
Si      -5.15745364       0.47112571      -2.14048406
C       -6.69952827       1.34206122      -1.55120072
C       -5.29116284      -0.14282475      -3.91355606
C       -5.53133697       1.04403524      -4.85328850
C       -3.98840660      -0.83952405      -4.32292650
C       -6.45692939      -1.13084291      -4.03511713
C       -4.74123957      -0.89145888      -0.93386383
C       -3.88833633       3.75836352      -1.25448178
H       -4.92609871       3.69971546      -1.58743511
C       -3.91188567       4.53702269       0.05768386
O       -4.83366108       3.88858664       0.90756899
Si      -4.72321776       3.87559442       2.56842356
C       -5.02142083       5.60125400       3.21416267
C       -6.07601920       2.67497606       3.09035120
C       -7.41128332       3.10817818       2.47665653
C       -5.73122286       1.27012278       2.58610310
C       -6.20445700       2.65108101       4.61729395
C       -3.01947480       3.31284210       3.09854996
O       -3.22726611       4.48261318      -2.29455637
C       -1.82825354       4.40321986      -2.35632829
H       -1.56743190       4.89035071      -3.30058792
O       -1.20072374       5.06968264      -1.27880976
C       -1.32665396       6.48169796      -1.33829810
C       -1.31317544       2.96467438      -2.36003733
H       -0.22385411       2.99529246      -2.29252090
O       -1.64357464       2.34417636      -3.58250727
H       -1.05295643       3.56855146      -0.03665851
H       -6.49117382       1.90147931      -0.63499260
H       -7.49364810       0.62667002      -1.32654180
H       -7.07723239       2.04674593      -2.29347174
H       -5.57933118       0.69057469      -5.88807423
H       -4.72771388       1.78037260      -4.78920272
H       -6.47223420       1.55320487      -4.63427331
H       -3.79099690      -1.72394295      -3.71363803
H       -3.12689835      -0.17357257      -4.23955368
H       -4.05710221      -1.16494050      -5.36582208
H       -6.53320762      -1.48600377      -5.06809757
H       -7.41147351      -0.66653465      -3.77304228
H       -6.31646309      -2.00567347      -3.39454579
H       -5.56287997      -1.60801287      -0.86025269
H       -4.57593429      -0.48673579       0.06759619
H       -3.84279953      -1.43427965      -1.23005160
H       -2.92064711       4.59428062       0.51135723
H       -4.24594779       5.55698591      -0.16207645
H       -4.24943770       6.27629896       2.83524515
H       -4.97027569       5.62740350       4.30470043
H       -5.99205317       5.99164927       2.90587507
H       -7.34927554       3.16762416       1.38884082
H       -7.72941711       4.08381037       2.85072029
H       -8.19096790       2.38394303       2.73412455
H       -6.52295812       0.56796934       2.86766944
H       -4.79370403       0.90220457       3.00953655
H       -5.64279942       1.25246883       1.49741293
H       -6.48146469       3.63027792       5.01581782
H       -5.27648149       2.33781105       5.10306195
H       -6.98561657       1.94200173       4.91051440
H       -2.37670172       4.16454712       3.33185496
H       -2.52778214       2.72890897       2.31795440
H       -3.07422630       2.69555113       3.99788615
H       -0.86576454       6.88554992      -0.44090467
H       -2.37398500       6.78331398      -1.38048695
H       -0.80620792       6.87327108      -2.21644107
H       -2.56265375       2.04497651      -3.51073812
69
Properties=species:S:1:pos:R:3 -90.1002928830=T converged=T charge=0 spin=1 pbc="F F F"
O       -1.73118806       2.91362169       0.50737978
C       -1.81214360       2.51951873      -0.85293931
H       -1.29740718       1.56000873      -0.94434583
C       -3.26705611       2.31024658      -1.29601798
H       -3.78629544       1.72792858      -0.52966175
O       -3.24337116       1.62418929      -2.54582050
Si      -3.59797473       0.01541570      -2.81875344
C       -2.97340454      -1.01204807      -1.38786439
C       -5.46185967      -0.18041554      -3.01761765
C       -6.16305366       0.13333420      -1.69044883
C       -5.97061579       0.77712480      -4.10109108
C       -5.78198622      -1.62194386      -3.43007373
C       -2.69143668      -0.39037922      -4.39391526
C       -4.02872295       3.61499757      -1.49134937
H       -4.89204847       3.38876986      -2.12009738
C       -4.58777966       4.19482720      -0.19344555
O       -5.66085866       3.37362238       0.22373071
Si      -5.87749120       2.72842980       1.74461997
C       -4.53247058       1.49331409       2.13733098
C       -5.89657325       4.08721658       3.06439304
C       -6.75638689       5.26098783       2.58472397
C       -6.50868425       3.50135600       4.34479474
C       -4.48528306       4.58842921       3.39565223
C       -7.53092508       1.87705398       1.62537995
O       -3.28463709       4.57399570      -2.24843564
C       -1.95366595       4.80490810      -1.87418728
H       -1.54902789       5.44226450      -2.66616785
O       -1.85653332       5.45927428      -0.62530761
C       -2.30138183       6.80694472      -0.66068503
C       -1.12634389       3.52410852      -1.77893003
H       -0.15112915       3.78251937      -1.36177446
O       -0.90385577       2.99641529      -3.06657070
H       -1.69255091       3.87977505       0.53724951
H       -3.34420703      -0.64094312      -0.42951833
H       -1.88161278      -1.00855798      -1.35138324
H       -3.29999479      -2.05013212      -1.48709411
H       -5.97930074       1.15883243      -1.35697668
H       -5.84403218      -0.54886883      -0.89697069
H       -7.24658992       0.01784917      -1.80316034
H       -5.52475756       0.55935020      -5.07471761
H       -5.75055149       1.81860505      -3.85705191
H       -7.05610919       0.68038057      -4.20883285
H       -5.45809664      -2.34344585      -2.67583760
H       -5.31051360      -1.88690192      -4.37970055
H       -6.86266179      -1.74393703      -3.55560823
H       -1.61767586      -0.23906908      -4.26157808
H       -3.01824580       0.24972642      -5.21604392
H       -2.84828662      -1.42899165      -4.69265254
H       -3.81609462       4.26501103       0.57212965
H       -4.96084900       5.20244507      -0.40200280
H       -4.64455265       0.58941300       1.53170974
H       -4.58659435       1.19359679       3.18756583
H       -3.53754676       1.90606419       1.95502298
H       -7.77772166       4.94741266       2.35487525
H       -6.34078335       5.72215655       1.68599397
H       -6.81459345       6.03269684       3.35991367
H       -7.53789962       3.17103820       4.19064811
H       -6.51912300       4.25840436       5.13597315
H       -5.93134682       2.65109681       4.71816700
H       -3.83351544       3.77738859       3.72837080
H       -4.53275816       5.32531787       4.20483511
H       -4.00824028       5.07707586       2.54349347
H       -8.33571514       2.58923755       1.43315224
H       -7.77170704       1.32566322       2.53682371
H       -7.51529161       1.16515804       0.79702669
H       -2.23267065       7.19560814       0.35230511
H       -3.33347891       6.87273811      -1.00826534
H       -1.66142157       7.39766597      -1.32253768
H       -1.71647752       2.54071314      -3.33386808
69
Properties=species:S:1:pos:R:3 -90.0983632508=T converged=T charge=0 spin=1 pbc="F F F"
O       -1.68653145       2.14072629      -0.20369870
C       -2.15956665       2.16885140      -1.54019046
H       -2.06193206       1.15922395      -1.94642301
C       -3.64213305       2.54845046      -1.58380399
H       -4.17003134       1.97581972      -0.81602558
O       -4.12303416       2.23783356      -2.89201415
Si      -5.57502943       1.47059853      -3.20590350
C       -5.92553905       1.84160264      -4.99621641
C       -5.37814389      -0.38674348      -2.91383887
C       -6.66649145      -1.10635472      -3.33406892
C       -4.20632020      -0.91390993      -3.75054339
C       -5.10388827      -0.67102328      -1.43124630
C       -6.88979660       2.18648258      -2.08789165
C       -3.88781227       4.02783876      -1.30937027
H       -4.87901250       4.26107900      -1.70284872
C       -3.94261221       4.37172764       0.17885009
O       -5.08860421       3.71825226       0.69265229
Si      -5.54872208       3.63738241       2.29072688
C       -7.39521943       3.38232050       2.24154068
C       -4.69522707       2.18030669       3.14258968
C       -3.17057839       2.34411419       3.10939787
C       -5.15263672       2.09720954       4.60446550
C       -5.06890139       0.87719047       2.42511083
C       -5.11768358       5.25297156       3.13100561
O       -3.01020474       4.87854549      -2.04986395
C       -1.64196371       4.57177932      -2.04866410
H       -1.20867795       5.23142037      -2.80711384
O       -1.04406117       4.81804523      -0.79209118
C       -0.99468773       6.19805088      -0.46169823
C       -1.34525979       3.11910637      -2.41728401
H       -0.28288512       2.94100137      -2.23858635
O       -1.58509042       2.91008980      -3.79041900
H       -1.28689100       2.99984499      -0.00987228
H       -6.01326059       2.91932788      -5.14528256
H       -6.85941292       1.38081631      -5.32437130
H       -5.12486129       1.47916901      -5.64278340
H       -7.53055309      -0.76960265      -2.75575792
H       -6.56548022      -2.18511072      -3.17403447
H       -6.88934527      -0.95263291      -4.39238196
H       -4.06567072      -1.98568588      -3.57514467
H       -3.27166315      -0.40910483      -3.49559765
H       -4.37792428      -0.77643531      -4.82065927
H       -4.14646501      -0.25304802      -1.10992813
H       -5.05849976      -1.75150360      -1.25539448
H       -5.88506406      -0.26441906      -0.78279185
H       -7.79971420       1.58337761      -2.12900573
H       -7.15032622       3.20259722      -2.39478540
H       -6.55891877       2.23363843      -1.04721696
H       -3.04089374       4.05636441       0.70540256
H       -4.03989005       5.45904457       0.27574005
H       -7.88937214       4.25392706       1.80796876
H       -7.80870614       3.22261019       3.23987367
H       -7.65056175       2.51669655       1.62730261
H       -2.69689531       1.52130304       3.65693879
H       -2.85028717       3.27594082       3.58357358
H       -2.78254361       2.31792778       2.08927500
H       -4.67576272       1.24087223       5.09363464
H       -6.23342228       1.96186540       4.69037790
H       -4.87655084       2.99192666       5.16812782
H       -4.55891709       0.02963556       2.89583763
H       -4.77254457       0.89723134       1.37314751
H       -6.14296190       0.68131256       2.47307526
H       -4.03849045       5.41689080       3.17029802
H       -5.49188241       5.26734707       4.15715897
H       -5.56773890       6.09879918       2.60488288
H       -0.53000472       6.28233934       0.51754114
H       -1.99472444       6.63355223      -0.43004957
H       -0.39303454       6.73941127      -1.19780588
H       -2.53764652       2.76939371      -3.89986837
69
Properties=species:S:1:pos:R:3 -90.0969352173=T converged=T charge=0 spin=1 pbc="F F F"
O       -1.34291006       1.44026483      -2.04625847
C       -2.06077557       2.66135907      -2.14768470
H       -2.15095121       2.95461043      -3.20317440
C       -3.46311653       2.54173727      -1.57915251
H       -3.40725052       2.13494307      -0.56239245
O       -4.21613898       1.71140639      -2.43908466
Si      -4.97143253       0.25921866      -2.11590610
C       -6.46846838       0.49297290      -1.03361294
C       -5.42560082      -0.35313754      -3.83719502
C       -6.37937522       0.64923749      -4.49613260
C       -4.16314950      -0.46432119      -4.69756946
C       -6.10462165      -1.72267344      -3.74347295
C       -3.78252453      -0.89286265      -1.24460928
C       -4.10971832       3.92265848      -1.51508840
H       -4.26880064       4.27590995      -2.54500738
C       -5.45100563       3.91112320      -0.81086492
O       -5.41480373       3.26095156       0.43785972
Si      -4.85078004       3.80152353       1.90842412
C       -4.77515955       5.66351191       1.95911620
C       -6.07802662       3.12500187       3.17083615
C       -7.49196185       3.58587529       2.80588008
C       -6.04248117       1.59357415       3.16403895
C       -5.72283313       3.63381813       4.57163628
C       -3.15869443       3.06652108       2.19879735
O       -3.26120343       4.82581872      -0.82508187
C       -2.01770048       5.03150673      -1.48223871
H       -2.19444020       5.30970134      -2.53000935
O       -1.38700668       6.12032318      -0.91876477
C       -0.94278386       5.96273125       0.42110900
C       -1.24305296       3.71842631      -1.43060982
H       -1.11416742       3.41073135      -0.38455653
O        0.00833034       3.90491246      -2.05276689
H       -1.84035194       0.76565354      -2.52324127
H       -6.21440371       1.12006312      -0.17627368
H       -6.81715002      -0.47208002      -0.65817900
H       -7.29523204       0.97044867      -1.56305634
H       -5.92774049       1.64144238      -4.55650419
H       -7.32096345       0.73295257      -3.94925875
H       -6.61945794       0.32901559      -5.51552349
H       -3.65895590       0.50076937      -4.78165160
H       -4.42181157      -0.79124990      -5.71027238
H       -3.45608526      -1.19318806      -4.29338085
H       -5.44492896      -2.47281196      -3.30003346
H       -6.37858769      -2.07663839      -4.74278086
H       -7.02004057      -1.68112131      -3.14821721
H       -3.03072481      -1.31860766      -1.91318152
H       -4.32823591      -1.72342945      -0.79145870
H       -3.25533607      -0.37320108      -0.44087255
H       -5.79822391       4.94403921      -0.70916638
H       -6.16624492       3.37735297      -1.43912870
H       -4.26706740       5.98934748       2.87030281
H       -5.76554110       6.12336857       1.94640099
H       -4.20852021       6.04024249       1.10649625
H       -7.58066490       4.67480261       2.82297633
H       -8.21853301       3.18640064       3.52191667
H       -7.77496721       3.23496249       1.81152107
H       -6.78743905       1.19430364       3.86113105
H       -5.06722810       1.20872320       3.47041856
H       -6.27282008       1.19556712       2.17318030
H       -4.71867622       3.32569793       4.87377633
H       -6.42470279       3.22895100       5.30877105
H       -5.77595650       4.72346298       4.63143739
H       -2.77322607       3.31088297       3.19141892
H       -2.45476132       3.45356964       1.46093308
H       -3.18237385       1.97823214       2.10408239
H       -0.64846265       6.95320243       0.76061691
H       -0.07874971       5.29610478       0.47674669
H       -1.74272941       5.59252757       1.06563383
H        0.38434013       3.02847495      -2.19808340
69
Properties=species:S:1:pos:R:3 -90.1016481429=T converged=T charge=0 spin=1 pbc="F F F"
O       -1.33322924       2.73796907      -0.59691181
C       -2.05746176       2.65409548      -1.81438913
H       -1.84322495       1.68134770      -2.26237365
C       -3.57169858       2.73282825      -1.57821148
H       -3.84041404       2.06100478      -0.75825649
O       -4.18719803       2.33157593      -2.79931914
Si      -5.54706318       1.39628009      -3.04699470
C       -5.92863418       1.72965312      -4.83857697
C       -5.16422378      -0.43068228      -2.74308835
C       -6.40114921      -1.27214651      -3.08907210
C       -3.99491851      -0.86555850      -3.63445343
C       -4.79689673      -0.66694161      -1.27218724
C       -6.91501962       1.97457030      -1.91606331
C       -4.04182712       4.13892590      -1.21464516
H       -5.11611530       4.17077960      -1.40779508
C       -3.87399542       4.49158363       0.26494412
O       -4.76308005       3.68010514       1.00978512
Si      -4.31972287       2.86039279       2.39346505
C       -3.30222549       3.97929247       3.49531822
C       -5.95875121       2.39561310       3.19324387
C       -6.67855549       3.67213786       3.64229963
C       -6.82702877       1.66259656       2.16428890
C       -5.71759344       1.48313469       4.40111325
C       -3.29889565       1.35386338       1.97776658
O       -3.49736028       5.14203389      -2.07845741
C       -2.11741792       5.10810612      -2.33019264
H       -1.96285794       5.84431549      -3.12464893
O       -1.35614367       5.45840575      -1.19045661
C       -1.46345418       6.83136512      -0.84303459
C       -1.62627459       3.74021843      -2.80334864
H       -0.53550489       3.77366088      -2.83812114
O       -2.07996476       3.49083031      -4.11427668
H       -1.07235420       3.66080346      -0.46817469
H       -6.79716548       1.17166134      -5.19058893
H       -5.07960871       1.47648173      -5.47646963
H       -6.13335888       2.79351817      -4.97274590
H       -6.17921578      -2.33578886      -2.95625237
H       -6.71480646      -1.13441332      -4.12655842
H       -7.25079176      -1.03676268      -2.44421618
H       -3.73974917      -1.91314082      -3.44360627
H       -3.10084123      -0.26604316      -3.44840188
H       -4.24221305      -0.77734233      -4.69479589
H       -4.63400817      -1.73459792      -1.09102161
H       -5.59025940      -0.33799205      -0.59446136
H       -3.87440258      -0.15059449      -0.99500249
H       -7.76031110       1.28321740      -1.93012342
H       -7.27868617       2.95520482      -2.22991914
H       -6.57097346       2.05987226      -0.88286345
H       -2.84173628       4.36663416       0.59947961
H       -4.14813566       5.54490068       0.38759499
H       -3.20213780       3.53486615       4.48879115
H       -3.75319742       4.96619201       3.61301579
H       -2.29286473       4.10752866       3.09829951
H       -6.11217472       4.20899186       4.40726019
H       -7.65730986       3.42784051       4.06734377
H       -6.83843697       4.35007506       2.80110549
H       -7.04084510       2.30319958       1.30755808
H       -7.78194925       1.37071588       2.61312097
H       -6.34445707       0.75200727       1.79734357
H       -6.67044365       1.21682874       4.86978681
H       -5.10507210       1.96745486       5.16577721
H       -5.22359220       0.55186937       4.11431945
H       -2.87374836       0.92962363       2.89099620
H       -2.46938822       1.62293170       1.31903489
H       -3.88552021       0.57431716       1.48613000
H       -1.04159371       7.45309729      -1.63833274
H       -0.89498265       6.97890160       0.07213232
H       -2.50395415       7.11550727      -0.67612100
H       -2.98697337       3.15668593      -4.04282469
69
Properties=species:S:1:pos:R:3 -90.0955437561=T converged=T charge=0 spin=1 pbc="F F F"
O       -1.59941366       0.63626935      -1.01533512
C       -1.84210189       1.97310290      -1.42599563
H       -1.53355596       2.11039148      -2.47281323
C       -3.33435960       2.23952494      -1.33112034
H       -3.68279179       1.93807502      -0.33651250
O       -4.04607332       1.57162716      -2.34075256
Si      -4.40672933      -0.04659168      -2.51504976
C       -4.56815074      -0.85740304      -0.84692874
C       -6.04792272      -0.02547532      -3.44610770
C       -7.14528814       0.52991087      -2.53335332
C       -5.92291829       0.87607920      -4.67839795
C       -6.42719975      -1.44112138      -3.89311876
C       -3.08868336      -0.88500591      -3.53306107
C       -3.62595752       3.72977713      -1.52313041
H       -3.40727740       3.98264608      -2.57039532
C       -5.07729202       4.06229596      -1.24798013
O       -5.47500499       3.56798380       0.00710202
Si      -5.91520665       4.40754500       1.37005232
C       -7.75996645       4.68631820       1.34780555
C       -5.40388037       3.27033881       2.78352261
C       -3.87562835       3.23347237       2.87481424
C       -5.98327845       3.75299797       4.11677616
C       -5.91632473       1.85630566       2.49115629
C       -5.05768636       6.06924486       1.43925474
O       -2.82516716       4.53466036      -0.66703065
C       -1.45108769       4.37107711      -0.92224420
H       -1.23356937       4.56366974      -1.98241227
O       -0.71950080       5.32706680      -0.22255723
C       -0.92557990       5.34765510       1.18811245
C       -1.05476884       2.94540624      -0.56945751
H       -1.28948089       2.75571740       0.48641065
O        0.32016672       2.71149847      -0.82582444
H       -0.64493877       0.49774408      -1.03368661
H       -5.29516208      -0.34614601      -0.21323883
H       -3.60282105      -0.85500461      -0.33977230
H       -4.88896293      -1.89592309      -0.95609054
H       -8.08629171       0.62614906      -3.08617888
H       -6.88261173       1.51802281      -2.14756316
H       -7.32991991      -0.12682877      -1.68038822
H       -5.16833924       0.50483450      -5.37617281
H       -5.65140288       1.89448063      -4.39517794
H       -6.87693119       0.91747616      -5.21535658
H       -6.51503781      -2.12650836      -3.04550735
H       -5.69315681      -1.85408264      -4.58898813
H       -7.39541517      -1.42690726      -4.40585087
H       -2.15977179      -0.92096748      -2.96402170
H       -2.90204118      -0.33848046      -4.45998558
H       -3.37054059      -1.90756848      -3.79275602
H       -5.20300565       5.14740644      -1.32151234
H       -5.68773104       3.59686142      -2.02308956
H       -8.31457727       3.74648683       1.32331641
H       -8.03030999       5.25836161       0.45623381
H       -8.08695742       5.26037254       2.21849441
H       -3.42939427       2.94134364       1.92076013
H       -3.55834798       2.50570875       3.62918450
H       -3.46516595       4.20511121       3.16120718
H       -5.64819830       4.76289203       4.36946599
H       -5.66018460       3.08956471       4.92649946
H       -7.07576152       3.74999299       4.10717095
H       -5.60274901       1.16974955       3.28437366
H       -5.52102709       1.48268021       1.54529907
H       -7.00729766       1.82469971       2.43981235
H       -4.86348781       6.36373610       2.47357375
H       -5.67602284       6.85079034       0.99300335
H       -4.10590973       6.04679435       0.90750117
H       -0.43645881       4.50371493       1.68311077
H       -1.98746731       5.33918123       1.43068159
H       -0.48034716       6.27365215       1.54286824
H        0.82026597       3.48115859      -0.52868753
69
Properties=species:S:1:pos:R:3 -90.0991375966=T converged=T charge=0 spin=1 pbc="F F F"
O       -1.59439515       2.25140095       0.39765631
C       -2.00607861       1.88373310      -0.90861144
H       -1.82655726       0.81247157      -1.01613205
C       -3.50367857       2.13625466      -1.10595659
H       -4.03467572       1.75071233      -0.22928767
O       -3.90021614       1.45341463      -2.29389960
Si      -5.26980276       0.49686903      -2.35780949
C       -6.76536819       1.49478579      -1.85445795
C       -5.34896631      -0.07070157      -4.15197030
C       -5.39688048       1.14918444      -5.07976790
C       -4.09609748      -0.89306946      -4.47557775
C       -6.59907310      -0.93076865      -4.38005373
C       -5.03920598      -0.92019425      -1.16340351
C       -3.84942743       3.61294711      -1.25732825
H       -4.82698457       3.65672475      -1.73918886
C       -4.01915650       4.33670451       0.07767792
O       -5.19160067       3.80162251       0.66640443
Si      -5.72520710       4.07129112       2.22043456
C       -7.56879607       3.80789000       2.15279091
C       -4.92620833       2.83833431       3.40980076
C       -5.48907948       3.03506270       4.82312165
C       -5.23059909       1.40860774       2.94713526
C       -3.40616361       3.03261879       3.44886254
C       -5.31363666       5.82863340       2.70452418
O       -2.98175220       4.28729984      -2.17166376
C       -1.60047860       4.09025909      -2.03058555
H       -1.16440459       4.55058040      -2.92240372
O       -1.09504699       4.71007773      -0.86586153
C       -1.13543034       6.12814726      -0.93740556
C       -1.20332520       2.61626789      -1.98262193
H       -0.14297913       2.56481004      -1.72823211
O       -1.36367819       2.03643382      -3.25818761
H       -1.26151443       3.15810890       0.35980541
H       -6.98646410       2.28362185      -2.57608293
H       -6.61017229       1.96912729      -0.88131509
H       -7.64546483       0.85182885      -1.77584908
H       -4.52506878       1.79262047      -4.94869790
H       -6.28676908       1.75799536      -4.90888700
H       -5.41846103       0.82574392      -6.12562320
H       -4.04189917      -1.80209846      -3.87390877
H       -3.18100903      -0.32373928      -4.29996880
H       -4.10132845      -1.19603424      -5.52739302
H       -6.63785534      -1.26593690      -5.42208447
H       -7.51892398      -0.37506740      -4.18072298
H       -6.60153971      -1.82414962      -3.75041773
H       -4.11833956      -1.46687607      -1.37420714
H       -5.87293142      -1.62368016      -1.21470165
H       -4.98465480      -0.55767342      -0.13353517
H       -3.15425230       4.20280170       0.72909781
H       -4.14139333       5.40570473      -0.12547271
H       -8.04538149       4.55163679       1.51174570
H       -8.01429755       3.88581831       3.14672005
H       -7.80961268       2.82133826       1.75256490
H       -5.02579245       2.31604633       5.50686651
H       -6.56855463       2.87345004       4.86328145
H       -5.28162615       4.03515524       5.21160333
H       -4.84874838       1.22164064       1.94044364
H       -6.30272555       1.19961878       2.94645043
H       -4.75547865       0.68752528       3.62038721
H       -2.94480942       2.83707862       2.47908192
H       -2.96018329       2.33394185       4.16503353
H       -3.13326249       4.04161007       3.76777173
H       -4.23609044       6.00177371       2.72656274
H       -5.70371336       6.05600386       3.69826489
H       -5.75596947       6.54212925       2.00558605
H       -0.72909889       6.51235277      -0.00549353
H       -2.15724647       6.48821436      -1.06817786
H       -0.52468933       6.48047132      -1.77427291
H       -2.30488719       1.82910149      -3.35849683
69
Properties=species:S:1:pos:R:3 -90.1004457289=T converged=T charge=0 spin=1 pbc="F F F"
O       -1.65943246       1.93891994      -0.03535123
C       -2.08673756       2.00801911      -1.38539919
H       -2.06557218       0.99423172      -1.79114429
C       -3.52801904       2.51729475      -1.48679190
H       -4.12825262       2.00815833      -0.72787668
O       -3.99271957       2.21749538      -2.80115797
Si      -5.46548520       1.53016300      -3.19262772
C       -5.67269747       1.97645467      -4.98865571
C       -5.39986237      -0.34359542      -2.95039754
C       -5.25196527      -0.68116628      -1.46109085
C       -6.69861499      -0.96997523      -3.47894906
C       -4.21024084      -0.91964364      -3.72788993
C       -6.80052022       2.28377729      -2.12244085
C       -3.65014323       4.02071285      -1.24738516
H       -4.59253956       4.33055906      -1.70222189
C       -3.76983741       4.39382577       0.22922072
O       -5.00952748       3.86631125       0.65338691
Si      -5.61341078       3.80514577       2.19973250
C       -7.45890183       3.86401582       1.95044834
C       -5.08360220       2.19470183       3.02706223
C       -3.55356495       2.08510838       3.04197543
C       -5.61092589       2.16388743       4.46717143
C       -5.66363471       1.01384694       2.23902427
C       -5.01745429       5.28457345       3.17651774
O       -2.65912939       4.78623357      -1.93602451
C       -1.32887028       4.35097625      -1.85794528
H       -0.78779342       4.97645646      -2.57485967
O       -0.78673416       4.51838705      -0.56225821
C       -0.57418487       5.87757934      -0.21239128
C       -1.16264628       2.87998350      -2.23599960
H       -0.12592925       2.59842796      -2.04110584
O       -1.39299284       2.71082287      -3.61672243
H       -1.20461504       2.76642939       0.17661651
H       -6.61878330       1.61207642      -5.39216622
H       -4.86403232       1.56907087      -5.59871785
H       -5.65459678       3.06260032      -5.09885230
H       -4.32151887      -0.28926275      -1.04095210
H       -5.23732912      -1.76692101      -1.31996042
H       -6.08250839      -0.28626450      -0.86952421
H       -6.85026333      -0.76408440      -4.54122078
H       -7.57770842      -0.61175091      -2.93764188
H       -6.66561679      -2.05776261      -3.35972925
H       -4.14416262      -2.00190013      -3.57539338
H       -3.26400206      -0.47875061      -3.40628123
H       -4.30898419      -0.74631977      -4.80212837
H       -7.68930610       1.64951577      -2.09852013
H       -7.09674286       3.25973117      -2.51272713
H       -6.46278158       2.42967545      -1.09344752
H       -2.94330965       4.00373689       0.82731092
H       -3.76863768       5.48711316       0.30508336
H       -7.77623146       3.10073774       1.23714474
H       -7.74745610       4.83425286       1.54158458
H       -8.00733390       3.71051286       2.88129050
H       -3.09009773       2.92346771       3.57012875
H       -3.13572946       2.03934751       2.03367404
H       -3.24898402       1.16916775       3.55939149
H       -6.69908819       2.25931412       4.50982618
H       -5.17975773       2.96588389       5.07115260
H       -5.34720290       1.21585574       4.94700698
H       -5.33714047       0.06475736       2.67672662
H       -5.32958193       1.02750336       1.19803017
H       -6.75644262       1.02026937       2.24212083
H       -3.94139909       5.25849099       3.35995375
H       -5.51687796       5.32686240       4.14710005
H       -5.24924504       6.21028449       2.64542143
H       -0.22182442       5.89704183       0.81588211
H       -1.49754863       6.45327106      -0.29187240
H        0.18440611       6.32028655      -0.86429480
H       -2.35078273       2.63968057      -3.74590836
69
Properties=species:S:1:pos:R:3 -90.0951817736=T converged=T charge=0 spin=1 pbc="F F F"
O       -1.30401976       1.13489720      -1.63490005
C       -1.99529949       2.37015246      -1.75474589
H       -1.97184373       2.71143460      -2.79949853
C       -3.44995816       2.25113623      -1.34484038
H       -3.51488238       1.80562294      -0.34549767
O       -4.11716095       1.47561219      -2.31979631
Si      -4.89504059       0.01027008      -2.17737328
C       -6.46329368       0.15923343      -1.18517249
C       -5.23130004      -0.44270902      -3.97389643
C       -6.09588303       0.64798378      -4.61511588
C       -3.90901206      -0.53081220      -4.74193378
C       -5.96024830      -1.78779101      -4.05021749
C       -3.77927560      -1.22990316      -1.33200667
C       -4.08264342       3.63961722      -1.29365259
H       -4.11657607       4.04599996      -2.31524750
C       -5.49156418       3.60486682      -0.73927450
O       -5.52595507       2.88557651       0.46786291
Si      -6.06998335       3.29358490       1.98249109
C       -6.66603803       1.66410978       2.66942419
C       -4.67323058       4.01008498       3.02881576
C       -4.37446533       5.45405305       2.61519460
C       -5.07646239       3.98800684       4.50669730
C       -3.41170096       3.16372961       2.83617557
C       -7.49222584       4.49702226       1.84047035
O       -3.31744812       4.48727616      -0.45580687
C       -1.98403170       4.69335791      -0.89594011
H       -2.00177712       5.13153975      -1.91013488
O       -1.36275394       5.54235085      -0.00702253
C       -1.76224461       6.89500218      -0.14156776
C       -1.23692996       3.37449223      -0.91078188
H       -1.17392084       3.01508908       0.12387583
O        0.04993483       3.60244479      -1.44384557
H       -1.76216018       0.48559402      -2.18012180
H       -7.24838710       0.69089929      -1.72601845
H       -6.26694627       0.70177067      -0.25836879
H       -6.84159333      -0.83207847      -0.92535488
H       -7.07362832       0.72497206      -4.13440638
H       -6.26668537       0.42245295      -5.67314453
H       -5.60565023       1.62159506      -4.55594768
H       -4.09743461      -0.75100828      -5.79811733
H       -3.26497699      -1.32432867      -4.35535903
H       -3.36412569       0.41442702      -4.69379031
H       -6.92091526      -1.75715566      -3.52964647
H       -5.36467783      -2.59654530      -3.61807419
H       -6.16008795      -2.04904889      -5.09510043
H       -3.30916659      -0.78781256      -0.45072838
H       -2.98469448      -1.60442434      -1.98111570
H       -4.35787688      -2.09188310      -0.99311945
H       -5.84447573       4.63297643      -0.61294775
H       -6.14151495       3.11056009      -1.46645156
H       -7.48150693       1.28512539       2.04748575
H       -7.03031796       1.75164861       3.69528660
H       -5.86257405       0.92312414       2.65111094
H       -4.07931104       5.51154266       1.56715396
H       -3.54506306       5.84775973       3.21241656
H       -5.23523189       6.10624198       2.78035862
H       -5.98233716       4.57202308       4.69160771
H       -4.27708483       4.42606627       5.11316916
H       -5.24251698       2.97079054       4.86715818
H       -3.57906139       2.11883103       3.11062897
H       -2.60396794       3.54577261       3.46864131
H       -3.07145344       3.20440692       1.80116982
H       -7.88954622       4.73503390       2.83047555
H       -8.30373539       4.05903052       1.25466544
H       -7.20134757       5.43764220       1.36934423
H       -1.52037661       7.26651709      -1.14238183
H       -1.20253318       7.46341694       0.59642240
H       -2.83198664       7.01672731       0.04260105
H        0.46702451       2.73961440      -1.54827985
69
Properties=species:S:1:pos:R:3 -90.1014162874=T converged=T charge=0 spin=1 pbc="F F F"
O       -1.66634017       1.93979518       0.67679036
C       -2.03149251       1.58375038      -0.64530875
H       -2.02540414       0.49325733      -0.70649599
C       -3.44981961       2.05712425      -0.97827132
H       -4.09485120       1.82658921      -0.12490772
O       -3.86562259       1.35928148      -2.14821609
Si      -5.32892635       0.56772178      -2.29187572
C       -6.71711300       1.75337856      -1.90529417
C       -5.32589667      -0.02154634      -4.07760863
C       -4.15945969      -0.99064765      -4.30021845
C       -6.64674947      -0.73146377      -4.39582554
C       -5.15536989       1.18010175      -5.01337267
C       -5.39558251      -0.84130786      -1.06839965
C       -3.54385712       3.55898992      -1.23755170
H       -4.44760735       3.71991696      -1.82716907
C       -3.73493942       4.37952613       0.03582347
O       -5.02448206       4.05387479       0.50842383
Si      -5.71023654       4.37487739       1.98637720
C       -7.52593433       4.49416294       1.58641735
C       -5.35752717       2.96348185       3.19015806
C       -3.84959208       2.77644325       3.38504948
C       -6.00139146       3.26445731       4.54809202
C       -5.94644274       1.66267735       2.63521941
C       -5.06254128       5.99756344       2.64466046
O       -2.49424536       4.05767710      -2.06861836
C       -1.18456679       3.65019230      -1.78248419
H       -0.59054391       4.01652391      -2.62519961
O       -0.70475248       4.20495922      -0.57373462
C       -0.46155440       5.60067835      -0.65218129
C       -1.04529945       2.13193242      -1.67640851
H       -0.02735100       1.90584804      -1.35253971
O       -1.22506148       1.54785499      -2.94738360
H       -1.20794637       2.79126964       0.63930074
H       -7.66055959       1.21927363      -1.77345946
H       -6.85521402       2.49575764      -2.69251517
H       -6.50443527       2.29014791      -0.97633613
H       -3.19719478      -0.52656070      -4.07352687
H       -4.13766187      -1.30697376      -5.34784109
H       -4.25398350      -1.88827065      -3.68563485
H       -6.64291774      -1.06586761      -5.43851592
H       -7.50614210      -0.06849019      -4.26319453
H       -6.79591795      -1.61312658      -3.76665865
H       -5.98806631       1.88174970      -4.92974368
H       -5.11536104       0.83602880      -6.05161300
H       -4.23259348       1.72516938      -4.80514282
H       -6.32201181      -1.40958317      -1.18192889
H       -5.37140359      -0.46561102      -0.04239408
H       -4.55803817      -1.52820698      -1.19589719
H       -2.96940571       4.16256808       0.78223892
H       -3.67224503       5.44166504      -0.22610488
H       -8.15450686       4.62095261       2.46919808
H       -7.85280992       3.59535816       1.05955045
H       -7.69251835       5.34701598       0.92463911
H       -3.37416321       3.67903970       3.77785733
H       -3.34566324       2.49468781       2.45837184
H       -3.67190731       1.97392141       4.10932213
H       -5.57433444       4.15734569       5.01058578
H       -5.82624673       2.42528133       5.22928477
H       -7.08204013       3.40519462       4.46909365
H       -5.53610836       1.42561049       1.65014267
H       -7.03361480       1.71415253       2.54543477
H       -5.70557090       0.83113622       3.30532131
H       -5.61352182       6.28812865       3.54140307
H       -5.19607569       6.78891236       1.90424369
H       -4.00352590       5.95042092       2.90358334
H        0.34471036       5.80666760      -1.36116064
H       -0.15997702       5.93214226       0.33748792
H       -1.35619589       6.14154765      -0.96329126
H       -2.17943722       1.46948293      -3.09608681
69
Properties=species:S:1:pos:R:3 -90.1024919457=T converged=T charge=0 spin=1 pbc="F F F"
O       -1.26837480       2.38868263       0.12577425
C       -1.84059464       2.01806206      -1.11688536
H       -1.66673187       0.94808147      -1.25280862
C       -3.35629988       2.24305049      -1.11334550
H       -3.76645080       1.85637756      -0.17362949
O       -3.88415112       1.53662804      -2.23521491
Si      -5.22731008       0.54496679      -2.18876593
C       -6.72067090       1.54330918      -1.67920405
C       -5.34451674      -0.10475270      -3.94963061
C       -6.55030464      -1.03982398      -4.08588417
C       -5.50167150       1.07236063      -4.91908226
C       -4.06472409      -0.87183940      -4.30271505
C       -4.96323683      -0.81713671      -0.93888357
C       -3.74923123       3.71395855      -1.23279970
H       -4.77988507       3.73235155      -1.59450474
C       -3.76099134       4.46177659       0.09745399
O       -4.75705512       3.86180727       0.90177651
Si      -4.70109807       3.84868286       2.56760695
C       -4.77610963       5.60711260       3.18962643
C       -6.22667370       2.85546965       3.04335194
C       -6.40918707       2.85286729       4.56394394
C       -7.46161976       3.48069075       2.38525953
C       -6.07183466       1.41425695       2.54511202
C       -3.11370882       3.05528089       3.16630392
O       -3.00899467       4.41130982      -2.23795296
C       -1.61833018       4.23421477      -2.26655844
H       -1.29981415       4.72223619      -3.19155857
O       -0.97614831       4.83333584      -1.15816944
C       -1.00472332       6.25294550      -1.18580761
C       -1.20523554       2.76413215      -2.29178215
H       -0.11907771       2.72056986      -2.19459191
O       -1.54764305       2.19031347      -3.53362517
H       -0.96378835       3.30411572       0.05499266
H       -6.51816269       2.07584934      -0.74518251
H       -7.58334507       0.89537015      -1.50578886
H       -6.99608467       2.28533129      -2.43147021
H       -6.46761744      -1.90775507      -3.42773872
H       -6.62174830      -1.41459711      -5.11200474
H       -7.48912885      -0.52936132      -3.85897696
H       -5.53207859       0.70750838      -5.95115435
H       -4.66698939       1.77215562      -4.84132753
H       -6.42565833       1.62676914      -4.73910014
H       -3.92583640      -1.74726685      -3.66409909
H       -3.17692849      -0.24285885      -4.21112239
H       -4.11294845      -1.22465123      -5.33838673
H       -5.85111449      -1.45138561      -0.87601738
H       -4.79499926      -0.40575074       0.05948978
H       -4.10995701      -1.44955016      -1.19021681
H       -2.78297445       4.44152139       0.58492766
H       -4.01756160       5.50646692      -0.10689681
H       -4.73955775       5.63983613       4.28075092
H       -5.67682872       6.12582172       2.85706623
H       -3.90992634       6.16430166       2.82249453
H       -6.55325577       3.86237677       4.95517704
H       -5.55420610       2.40887783       5.07938167
H       -7.29368683       2.26779340       4.83615134
H       -7.35556262       3.51983073       1.29962414
H       -7.63923059       4.49674426       2.74629138
H       -8.35408621       2.88908488       2.61621770
H       -5.94566145       1.38338773       1.46017400
H       -6.96650154       0.83069212       2.78946907
H       -5.21541277       0.91293996       3.00362489
H       -3.30476274       2.37998296       4.00412577
H       -2.40525519       3.81019531       3.51481632
H       -2.62242794       2.48097024       2.37716227
H       -0.53835811       6.60304410      -0.26745589
H       -2.02856010       6.62855915      -1.24335744
H       -0.43538417       6.62331497      -2.04348823
H       -2.48717388       1.95466655      -3.48700187
69
Properties=species:S:1:pos:R:3 -90.0986791263=T converged=T charge=0 spin=1 pbc="F F F"
O       -1.68206612       2.93059411       0.43064299
C       -1.77787974       2.55795791      -0.93498783
H       -1.22429049       1.62400818      -1.05714193
C       -3.23657997       2.30109589      -1.33932743
H       -3.70594208       1.67265011      -0.57560525
O       -3.23314961       1.65813379      -2.61259978
Si      -3.58226171       0.04591014      -2.87633292
C       -2.86535196      -0.96075321      -1.47336956
C       -5.45377809      -0.18180931      -2.99195842
C       -6.11245734       0.12768547      -1.64150747
C       -6.02073073       0.77139629      -4.05064134
C       -5.76878449      -1.62840213      -3.39378662
C       -2.73985484      -0.34930944      -4.48805615
C       -4.04856897       3.58184121      -1.46582816
H       -4.93790080       3.34056585      -2.05205565
C       -4.55405685       4.12033466      -0.12694309
O       -5.65249485       3.32145718       0.27442233
Si      -5.85367031       2.68431641       1.80202676
C       -4.47091964       1.47793344       2.16297843
C       -5.90235806       4.05612449       3.11451037
C       -6.80727306       5.20138184       2.64585244
C       -6.47957896       3.46942393       4.41152325
C       -4.50300558       4.60984990       3.41193648
C       -7.48625030       1.79160890       1.72391555
O       -3.37023625       4.56775723      -2.24971635
C       -2.03617864       4.85164295      -1.92657492
H       -1.68303743       5.49370045      -2.73978744
O       -1.92525863       5.52712181      -0.69005301
C       -2.43362147       6.85308318      -0.74551214
C       -1.15406828       3.60636749      -1.85556924
H       -0.18678273       3.90433172      -1.44549097
O       -0.92813006       3.10250269      -3.15282429
H       -1.66625795       3.89609148       0.47674874
H       -3.23364410      -0.63545051      -0.49760505
H       -1.77510719      -0.88692908      -1.46156977
H       -3.12454574      -2.01564500      -1.58736687
H       -7.19671663      -0.01798190      -1.71093514
H       -5.94512533       1.16253219      -1.33112362
H       -5.74373587      -0.52778178      -0.84734026
H       -7.10702172       0.65271805      -4.12149870
H       -5.60326336       0.57483277      -5.04078950
H       -5.81442740       1.81460227      -3.80254461
H       -5.34956393      -1.87561243      -4.37165736
H       -6.85242772      -1.77478833      -3.45533361
H       -5.38062658      -2.35018915      -2.67074599
H       -3.11651000       0.28647464      -5.29095902
H       -2.89183746      -1.38982728      -4.78077002
H       -1.66468891      -0.17897115      -4.40177929
H       -3.76546098       4.11163578       0.62527769
H       -4.88191928       5.15377948      -0.27621258
H       -4.52554892       1.11955372       3.19430583
H       -3.48392745       1.92068920       2.00845409
H       -4.55365595       0.60371286       1.50972565
H       -6.42127699       5.67899100       1.74272311
H       -6.88001921       5.96791749       3.42530670
H       -7.82155895       4.85714987       2.43095482
H       -6.47817035       4.23086923       5.19940081
H       -5.89413909       2.62089866       4.77621965
H       -7.51084063       3.13620739       4.27848527
H       -4.55403315       5.34403409       4.22399362
H       -4.07136792       5.11528139       2.54549076
H       -3.81045448       3.82393608       3.72119230
H       -7.49368267       1.09950071       0.87974034
H       -8.31424441       2.49015570       1.59378287
H       -7.66628082       1.21495589       2.63362906
H       -2.34171800       7.28274066       0.24880404
H       -3.48075458       6.86113268      -1.05227282
H       -1.85178592       7.44933180      -1.45457650
H       -1.72230141       2.60855819      -3.40733324
69
Properties=species:S:1:pos:R:3 -90.0990942500=T converged=T charge=0 spin=1 pbc="F F F"
O       -1.44090223       2.42645102      -0.58411966
C       -2.14570777       2.43817251      -1.81476883
H       -2.03247146       1.45171460      -2.27076959
C       -3.64198022       2.67964962      -1.59219885
H       -3.98357533       2.03391838      -0.77730799
O       -4.29878635       2.37951215      -2.82373508
Si      -5.69552667       1.47997956      -2.99517953
C       -6.35679507       1.92273792      -4.67986988
C       -5.26899036      -0.35949749      -2.89517033
C       -6.51483054      -1.19457960      -3.21856692
C       -4.16494443      -0.68463203      -3.90926316
C       -4.77720729      -0.71632554      -1.48673610
C       -6.88788068       1.97911810      -1.64800668
C       -3.95656115       4.12171141      -1.21455139
H       -5.02476726       4.26926065      -1.38205843
C       -3.71426489       4.44921694       0.26042014
O       -4.64272619       3.69604298       1.01866123
Si      -4.37977451       3.29935345       2.61782423
C       -4.46616630       4.84775422       3.66169115
C       -5.76476458       2.09032928       3.04084665
C       -7.12412720       2.69676064       2.67007057
C       -5.55393443       0.79814935       2.24177363
C       -5.74826187       1.77157261       4.54201014
C       -2.69782666       2.50427037       2.80436764
O       -3.33343325       5.05122844      -2.10483067
C       -1.96108488       4.89059396      -2.35442736
H       -1.74429918       5.58303477      -3.17470444
O       -1.17536234       5.21386703      -1.22513158
C       -1.23779110       6.59294894      -0.89093262
C       -1.57934135       3.47439019      -2.78659859
H       -0.48872133       3.40942550      -2.77358017
O       -2.00089761       3.24221146      -4.11202929
H       -1.08467963       3.31169231      -0.43480746
H       -6.56239125       2.99330417      -4.73585094
H       -7.28790136       1.39228098      -4.89161162
H       -5.64515489       1.67479019      -5.46911818
H       -7.33578911      -0.99163772      -2.52609375
H       -6.28082814      -2.26230849      -3.14709273
H       -6.87640626      -1.00589529      -4.23172829
H       -3.89576457      -1.74453810      -3.84657161
H       -3.26212919      -0.09891783      -3.72149745
H       -4.48358845      -0.48569647      -4.93552493
H       -5.51961156      -0.47627223      -0.72098189
H       -3.85192536      -0.19087799      -1.23645446
H       -4.56852105      -1.78996817      -1.42155330
H       -7.73525367       1.29276882      -1.59758959
H       -7.28165229       2.98107934      -1.83165983
H       -6.40756064       1.99343091      -0.66768341
H       -2.69167947       4.22234922       0.56342626
H       -3.88225539       5.52231679       0.40398676
H       -4.23105361       4.63831002       4.70752968
H       -5.45953113       5.29738736       3.62001129
H       -3.74747475       5.59189406       3.30944362
H       -7.18064342       2.92412457       1.60391301
H       -7.32081442       3.61994037       3.22178142
H       -7.92712446       1.99099717       2.91191225
H       -4.62406592       0.29542695       2.51932890
H       -5.51476973       1.00201987       1.16904526
H       -6.37859707       0.09930168       2.42194917
H       -4.79615796       1.33864853       4.86066067
H       -6.53269996       1.04439280       4.77959729
H       -5.93337724       2.66242881       5.14777448
H       -1.89764074       3.24662037       2.84203612
H       -2.48118343       1.82598337       1.97703271
H       -2.65206981       1.93394264       3.73543318
H       -2.25818638       6.90266829      -0.65846391
H       -0.86565036       7.19726302      -1.72294216
H       -0.60357338       6.74555999      -0.02205966
H       -2.94374890       3.02245843      -4.07474491
69
Properties=species:S:1:pos:R:3 -90.1013357095=T converged=T charge=0 spin=1 pbc="F F F"
O       -1.40691177       2.33651978      -0.30248141
C       -2.00935429       2.27855213      -1.58506990
H       -1.89259500       1.25949865      -1.96075042
C       -3.51091425       2.57696184      -1.50963743
H       -3.94216384       2.00948126      -0.68037407
O       -4.07456397       2.18278449      -2.75851578
Si      -5.47012772       1.30672496      -3.02704872
C       -5.86160049       1.69239553      -4.80722592
C       -5.14302219      -0.53904775      -2.78067978
C       -4.77911129      -0.82396173      -1.31756854
C       -6.40449491      -1.33460200      -3.14707701
C       -3.98887668      -0.97563886      -3.69213468
C       -6.80536377       1.90960911      -1.86570808
C       -3.81259169       4.05599669      -1.28068553
H       -4.84777525       4.21125261      -1.59141818
C       -3.74193190       4.49504072       0.18115042
O       -4.75403315       3.79806230       0.88045516
Si      -4.67993096       3.54989193       2.52726542
C       -4.85698605       5.19150077       3.40415129
C       -6.12370388       2.39619363       2.87922272
C       -5.84086341       1.03861893       2.22414342
C       -6.30433959       2.21256046       4.39136416
C       -7.39876602       3.00261673       2.28073979
C       -3.03714963       2.77756444       2.98218300
O       -3.05321422       4.91449150      -2.13716026
C       -1.67317249       4.67886657      -2.23823854
H       -1.33815018       5.33168001      -3.05053322
O       -0.98398948       4.99706305      -1.04504787
C       -0.93821403       6.38929981      -0.77253116
C       -1.33813543       3.22790391      -2.58071430
H       -0.25470543       3.11040480      -2.51217712
O       -1.70496040       2.95162944      -3.91370575
H       -1.03498444       3.22194253      -0.18607509
H       -6.03596299       2.76401817      -4.92294132
H       -6.75250674       1.16583411      -5.15318629
H       -5.03226753       1.42184564      -5.46417890
H       -4.60369793      -1.89518246      -1.17395530
H       -5.58099351      -0.53141200      -0.63428656
H       -3.86700610      -0.30433531      -1.01138496
H       -6.71117868      -1.16470217      -4.18203226
H       -7.24874553      -1.08507910      -2.49997300
H       -6.21766466      -2.40756649      -3.03624418
H       -4.23766474      -0.84363433      -4.74776940
H       -3.76283505      -2.03611190      -3.53974694
H       -3.07672924      -0.40835634      -3.49239105
H       -7.63054580       1.19708439      -1.80351498
H       -7.21125399       2.86157415      -2.21452805
H       -6.42315229       2.06499934      -0.85399306
H       -2.75976694       4.29973410       0.61786656
H       -3.92983369       5.57478169       0.21274980
H       -4.03351736       5.85448311       3.12576849
H       -4.81794155       5.06366439       4.48834315
H       -5.79309510       5.69277108       3.15120322
H       -6.68712408       0.35957160       2.37136663
H       -4.95411910       0.55885703       2.64621073
H       -5.68000466       1.14313982       1.14854239
H       -7.13629702       1.52983266       4.59332456
H       -6.53104945       3.15816310       4.88991219
H       -5.41477175       1.78794473       4.86446142
H       -8.25024939       2.33452827       2.44429519
H       -7.29558584       3.16595287       1.20670432
H       -7.64095074       3.96361624       2.74186914
H       -2.28995506       3.53991004       3.21328491
H       -2.64268443       2.15431623       2.17631258
H       -3.14569391       2.15183151       3.87154144
H       -0.36530195       6.90613774      -1.54789194
H       -0.44272240       6.51451537       0.18713173
H       -1.94146445       6.81541397      -0.72186322
H       -2.65412855       2.75561036      -3.91516381
69
Properties=species:S:1:pos:R:3 -90.1023418374=T converged=T charge=0 spin=1 pbc="F F F"
O       -1.08426134       2.51070383      -0.18153588
C       -1.76863107       2.16164345      -1.37253536
H       -1.53145054       1.11955701      -1.59770847
C       -3.28690910       2.26081527      -1.19194510
H       -3.54682149       1.80542024      -0.23156785
O       -3.88028007       1.56000442      -2.28120463
Si      -5.13777982       0.47059265      -2.16916709
C       -6.65203351       1.33187608      -1.49927923
C       -5.34852831      -0.11859427      -3.94337149
C       -5.67954128       1.07148780      -4.85144083
C       -4.04918051      -0.76665599      -4.43610381
C       -6.48632798      -1.14319651      -4.01564573
C       -4.66916177      -0.90695176      -0.99856761
C       -3.80217004       3.69904655      -1.18724773
H       -4.86463121       3.65122869      -1.43260858
C       -3.72024259       4.37527396       0.17871633
O       -4.62432346       3.68615560       1.01672175
Si      -4.71741659       3.85728166       2.66705031
C       -5.12169793       5.63293893       3.08197086
C       -6.10132405       2.67427949       3.14643192
C       -6.32959067       2.69850849       4.66160774
C       -7.39422188       3.08812897       2.43447679
C       -5.72960012       1.25218317       2.71173528
C       -3.08262853       3.41298484       3.45425858
O       -3.23844084       4.50301839      -2.22568171
C       -1.84938244       4.44576521      -2.40844719
H       -1.67162279       5.00487081      -3.33166316
O       -1.14056080       5.03784203      -1.33830995
C       -1.26867990       6.45004094      -1.28916525
C       -1.33076002       3.01730434      -2.56297409
H       -0.24021111       3.05333051      -2.59488097
O       -1.77041324       2.48489771      -3.79305224
H       -0.86725825       3.45155548      -0.23025988
H       -7.46630888       0.62441395      -1.32782308
H       -7.01094797       2.10603898      -2.17910500
H       -6.41851964       1.80639308      -0.54203850
H       -4.90154122       1.83727250      -4.81841183
H       -6.62581408       1.54259724      -4.57746329
H       -5.76762211       0.72854767      -5.88730127
H       -4.17187870      -1.08838381      -5.47527973
H       -3.78358785      -1.64712939      -3.84718254
H       -3.20765933      -0.07173850      -4.39961378
H       -6.61005626      -1.48381172      -5.04851347
H       -7.43929990      -0.71711631      -3.69123792
H       -6.28100901      -2.02283033      -3.40017318
H       -5.48840305      -1.62218946      -0.89461931
H       -4.45580966      -0.51315173      -0.00171996
H       -3.78722933      -1.44864206      -1.34247426
H       -2.70716843       4.34894069       0.58634012
H       -4.02043182       5.42274212       0.05457794
H       -4.28950328       6.28538645       2.80629061
H       -5.29366184       5.75899133       4.15294247
H       -6.01069473       5.97675337       2.55161483
H       -7.14251282       2.01307091       4.92213135
H       -6.61196418       3.69320948       5.01581156
H       -5.44208726       2.38146718       5.21457189
H       -7.26284823       3.12087009       1.35129369
H       -7.73858080       4.07150203       2.76208277
H       -8.18710374       2.36689059       2.65861589
H       -4.83201325       0.89231353       3.21995610
H       -5.55200352       1.19984051       1.63524700
H       -6.54782624       0.56519603       2.95239920
H       -2.65695291       2.50740161       3.01971044
H       -3.19942116       3.25328192       4.52850297
H       -2.35733529       4.21948762       3.32524544
H       -0.73728306       6.79150979      -0.40457809
H       -2.31625930       6.74779688      -1.22651447
H       -0.82002457       6.90461060      -2.17711615
H       -2.67771322       2.17073920      -3.66081412
69
Properties=species:S:1:pos:R:3 -90.0962961886=T converged=T charge=0 spin=1 pbc="F F F"
O       -1.37367214       1.61108913      -3.52973048
C       -1.86371605       2.69296272      -2.75351535
H       -2.50329140       3.34194645      -3.36976141
C       -2.72069643       2.14002253      -1.62620085
H       -2.15620067       1.34866230      -1.11431461
O       -3.94763698       1.64861617      -2.10343530
Si      -4.32051480       0.39075282      -3.13190420
C       -3.19033288      -1.06346038      -2.84657759
C       -6.10559498      -0.01695247      -2.66499245
C       -6.96226088       1.24447028      -2.83746153
C       -6.65035655      -1.13534787      -3.56532048
C       -6.16160615      -0.47042139      -1.20116594
C       -4.24212435       0.96323324      -4.90557110
C       -3.04765728       3.25839160      -0.62999314
H       -3.70391800       3.97997608      -1.13703547
C       -3.76773924       2.73090218       0.59031921
O       -4.29354428       3.79777797       1.34474820
Si      -5.82049869       3.92359960       1.98331070
C       -7.11582021       3.37805535       0.74730422
C       -5.97035918       2.89089364       3.56088557
C       -4.85827482       3.30591195       4.53157775
C       -7.33576624       3.12936080       4.22041463
C       -5.83117975       1.39981595       3.22777904
C       -5.99139178       5.74209909       2.35155939
O       -1.86360327       3.90768106      -0.19198565
C       -1.19737101       4.56045961      -1.24882517
H       -1.88940147       5.26911045      -1.73915009
O       -0.08612361       5.22774905      -0.76113086
C       -0.40528733       6.33730779       0.06855507
C       -0.70654674       3.52022135      -2.23395002
H       -0.00605383       2.86858242      -1.69876766
O       -0.08744255       4.10364221      -3.36838637
H       -0.77190886       1.98536860      -4.18530660
H       -3.45991257      -1.88553216      -3.51383204
H       -3.24225647      -1.43681918      -1.82231864
H       -2.15848512      -0.78286768      -3.05895091
H       -8.00043359       1.04833793      -2.54632102
H       -6.97098139       1.58648881      -3.87550456
H       -6.58730992       2.06446403      -2.22063018
H       -6.06650785      -2.05555133      -3.47206854
H       -6.65181519      -0.84553976      -4.61931046
H       -7.68455878      -1.37574584      -3.29284444
H       -7.19556235      -0.67525893      -0.90088971
H       -5.76377669       0.29667046      -0.53182935
H       -5.58499052      -1.38405812      -1.03674142
H       -3.20542874       1.07921782      -5.21923610
H       -4.74595735       1.92358140      -5.03300546
H       -4.72270695       0.24297557      -5.57053842
H       -4.55170570       2.04914200       0.25207455
H       -3.05013323       2.16648152       1.19573497
H       -7.05471713       2.31801987       0.49295849
H       -7.04253958       3.95063843      -0.17976516
H       -8.11176732       3.55400961       1.16282258
H       -4.89685714       2.69871924       5.44245259
H       -4.95655447       4.35234765       4.83048775
H       -3.86901884       3.18300739       4.08518916
H       -7.41502343       2.54928040       5.14646846
H       -8.16240625       2.82432635       3.57397303
H       -7.48725071       4.17936138       4.48178770
H       -4.87168940       1.17253434       2.75643712
H       -6.62106806       1.05908002       2.55384700
H       -5.89838601       0.79869030       4.14107506
H       -5.15979519       6.09498767       2.96468620
H       -6.92013487       5.96753436       2.87852959
H       -5.98610665       6.31544254       1.42186328
H       -1.01599832       7.06259197      -0.47829284
H        0.53767405       6.79925636       0.34883703
H       -0.93935431       6.01490874       0.96277017
H        0.65624840       4.63240651      -3.05792691
69
Properties=species:S:1:pos:R:3 -90.1002644226=T converged=T charge=0 spin=1 pbc="F F F"
O       -1.73560106       2.08820884       0.73741556
C       -1.81168208       1.77734612      -0.64506786
H       -1.63460295       0.70469041      -0.74996568
C       -3.20743741       2.08219697      -1.20404371
H       -3.95333336       1.69349923      -0.50540002
O       -3.32440797       1.46544174      -2.48412105
Si      -4.14455417       0.05680099      -2.84781949
C       -3.83858205      -1.22222116      -1.51998429
C       -5.99437030       0.40033123      -3.01531603
C       -6.58952444       0.78441313      -1.65361741
C       -6.20786448       1.55028920      -4.00665137
C       -6.70215541      -0.85706551      -3.54077759
C       -3.37733343      -0.45389267      -4.46603991
C       -3.45928014       3.57489552      -1.38898518
H       -4.27984474       3.65898000      -2.10295526
C       -3.94273996       4.28119060      -0.12526312
O       -5.22655587       3.75586555       0.13694017
Si      -6.16607322       4.02498896       1.48040635
C       -7.82659437       3.35519097       0.96741353
C       -5.48295783       3.10300567       2.98512672
C       -4.35165521       3.88965570       3.65973573
C       -6.62261992       2.91388018       3.99677392
C       -4.95632689       1.73040917       2.54668295
C       -6.25469285       5.86132774       1.82155326
O       -2.36981574       4.24935844      -2.02340536
C       -1.07943827       4.00532287      -1.53303438
H       -0.41147021       4.49124655      -2.25109698
O       -0.88605538       4.55160586      -0.24318488
C       -0.83003828       5.97025610      -0.23872437
C       -0.74675258       2.51646723      -1.45574375
H        0.21904705       2.41208785      -0.95731893
O       -0.60669835       1.98927273      -2.75653749
H       -1.38686651       2.98670109       0.82310163
H       -4.06483690      -0.84826319      -0.51911342
H       -2.79718061      -1.54949677      -1.53286847
H       -4.46497066      -2.10092521      -1.69042320
H       -6.45867969      -0.01185163      -0.91511441
H       -7.66577582       0.96329259      -1.75286118
H       -6.14507909       1.69829655      -1.25007631
H       -5.83650660       1.29931995      -5.00322911
H       -5.69910894       2.46003834      -3.68103206
H       -7.27475138       1.77792893      -4.10044016
H       -7.77183641      -0.65918372      -3.66493741
H       -6.60645705      -1.70109802      -2.85328250
H       -6.31456820      -1.16970183      -4.51350394
H       -2.30744519      -0.62353671      -4.32415261
H       -3.49134369       0.32392981      -5.22365083
H       -3.81375582      -1.37472179      -4.85568194
H       -3.26865097       4.12614654       0.71954357
H       -3.99787844       5.35551236      -0.33610326
H       -7.80302963       2.27031641       0.84524564
H       -8.10968342       3.78837986       0.00600881
H       -8.60309111       3.59973679       1.69364022
H       -4.69587022       4.85869282       4.02871503
H       -3.51157601       4.06575521       2.98301188
H       -3.96406938       3.32918232       4.51677396
H       -7.04920875       3.86904640       4.31654291
H       -6.24987240       2.40676371       4.89258967
H       -7.43222431       2.30651448       3.58702473
H       -4.08210786       1.82271958       1.89881063
H       -5.71843551       1.15499062       2.01213755
H       -4.65613274       1.14521392       3.42261679
H       -6.87066112       6.06818996       2.70015805
H       -6.69610250       6.38586301       0.97164933
H       -5.26614310       6.28652571       2.00788026
H       -1.72787434       6.40054296      -0.68495149
H        0.04823096       6.31410819      -0.79268264
H       -0.75052075       6.28916352       0.79749873
H       -1.49908404       1.83647102      -3.10187838
69
Properties=species:S:1:pos:R:3 -90.1019887064=T converged=T charge=0 spin=1 pbc="F F F"
O       -1.35719935       3.03747914       0.09053768
C       -1.81366557       2.51678650      -1.14708937
H       -1.36790057       1.52783738      -1.27513169
C       -3.33543994       2.34674160      -1.14260420
H       -3.62347975       1.87341104      -0.19989478
O       -3.66947244       1.52394465      -2.25456249
Si      -4.75063253       0.25336081      -2.22797276
C       -6.39331302       0.83574903      -1.55882391
C       -4.82697254      -0.26748265      -4.03329165
C       -5.27103304       0.92093451      -4.89335132
C       -3.43899488      -0.72271144      -4.49855713
C       -5.82403804      -1.41916115      -4.20334308
C       -4.10284009      -1.09912813      -1.11629307
C       -4.08809496       3.66969988      -1.25942096
H       -5.09210603       3.42971459      -1.61273854
C       -4.27716347       4.39778332       0.07023741
O       -5.12097754       3.60693317       0.87647279
Si      -4.86014457       3.02781144       2.41242415
C       -3.25606769       3.68291166       3.09802939
C       -6.36317990       3.56275456       3.41606151
C       -6.46895654       5.09063410       3.40089474
C       -7.62461977       2.97491592       2.77423668
C       -6.25505828       3.07713307       4.86472944
C       -4.75361942       1.16395046       2.31206696
O       -3.55777530       4.52485269      -2.27560423
C       -2.16821448       4.70882213      -2.31423879
H       -1.98787782       5.25204437      -3.24682723
O       -1.69396924       5.46160530      -1.21565471
C       -2.07187588       6.82870693      -1.26271609
C       -1.39313612       3.39169465      -2.32905075
H       -0.32966208       3.62376750      -2.24180332
O       -1.58324986       2.74046977      -3.56515083
H       -1.28746269       3.99847728       0.00029801
H       -6.24880878       1.40243448      -0.63478171
H       -7.04114201      -0.01292709      -1.32863073
H       -6.91904694       1.48036042      -2.26442788
H       -5.27670112       0.63027187      -5.94854794
H       -4.59726062       1.77323261      -4.78493514
H       -6.27895503       1.25426802      -4.63717063
H       -3.08930668      -1.59479566      -3.94208024
H       -2.69344419       0.06760406      -4.38883361
H       -3.47743765      -0.99845590      -5.55709874
H       -5.87021630      -1.71429014      -5.25678258
H       -6.83293281      -1.13163837      -3.89499807
H       -5.52944912      -2.29976568      -3.62629964
H       -4.06312510      -0.76147020      -0.07794373
H       -3.10160046      -1.41776623      -1.40881935
H       -4.75918314      -1.97241344      -1.14674219
H       -3.32648533       4.60109336       0.56237217
H       -4.76585316       5.35475355      -0.13711547
H       -2.42494090       3.35600040       2.46851857
H       -3.09389436       3.27493961       4.09830750
H       -3.23009405       4.77121609       3.17042689
H       -6.55055528       5.47308480       2.38117172
H       -5.60571965       5.56281200       3.87571583
H       -7.36229710       5.40653347       3.94969086
H       -8.51209340       3.31966632       3.31490249
H       -7.62241300       1.88288267       2.80366476
H       -7.72208620       3.28716950       1.73235030
H       -5.38244258       3.49732186       5.37141836
H       -6.19207254       1.98787594       4.92696260
H       -7.14374225       3.38764374       5.42416510
H       -3.77541980       0.86198659       1.93009559
H       -5.52190482       0.76002397       1.65005852
H       -4.87793101       0.69830055       3.29167904
H       -3.15495424       6.93730888      -1.33187180
H       -1.60719460       7.32175922      -2.12076260
H       -1.71571233       7.29366585      -0.34759301
H       -2.43055005       2.27247876      -3.51397310
69
Properties=species:S:1:pos:R:3 -90.0986054187=T converged=T charge=0 spin=1 pbc="F F F"
O       -1.65299570       2.21060096       0.44280718
C       -1.81566633       1.94118861      -0.94142049
H       -1.54433551       0.89562650      -1.10624039
C       -3.27714364       2.12586553      -1.37402172
H       -3.92072658       1.63094912      -0.63977936
O       -3.43306610       1.55995934      -2.67588316
Si      -4.21694490       0.11926258      -2.99574319
C       -3.65938583      -1.14078972      -1.73614006
C       -6.08919804       0.35875982      -2.93889089
C       -6.49362732       1.50907563      -3.86817267
C       -6.76817943      -0.93256956      -3.41628707
C       -6.55783051       0.68046777      -1.51374151
C       -3.64106370      -0.33491014      -4.70741261
C       -3.68863087       3.58907037      -1.46004295
H       -4.58608169       3.62632169      -2.07957349
C       -4.08151658       4.19626901      -0.11557760
O       -5.28336427       3.56406054       0.27991576
Si      -6.06994822       3.79744582       1.72876051
C       -7.70620193       2.93157650       1.51115658
C       -5.09866189       3.03031549       3.15917839
C       -6.05064468       2.85052337       4.34997062
C       -4.55864666       1.65790685       2.73820212
C       -3.93615749       3.92455973       3.60676146
C       -6.31197055       5.63029508       2.00898301
O       -2.73503467       4.37883451      -2.17568294
C       -1.38407315       4.25321088      -1.81916436
H       -0.84188889       4.80935194      -2.58958278
O       -1.11203356       4.80511889      -0.54624615
C       -1.22181393       6.22105412      -0.51898565
C       -0.89581750       2.80547462      -1.80297484
H        0.10762895       2.80117311      -1.37243485
O       -0.78964141       2.31217112      -3.11997920
H       -1.37484342       3.13109554       0.54181124
H       -4.18007191      -2.09169940      -1.85999227
H       -3.82923022      -0.80000238      -0.71314125
H       -2.59068738      -1.33365730      -1.84511132
H       -7.58072251       1.64345311      -3.84708351
H       -6.20452773       1.31816146      -4.90482009
H       -6.03383742       2.45034546      -3.55983441
H       -6.50902247      -1.17040498      -4.45080797
H       -7.85668630      -0.82238337      -3.36911071
H       -6.50152150      -1.79153717      -2.79553694
H       -6.15451547       1.62909757      -1.15101118
H       -6.27773810      -0.10314008      -0.80358247
H       -7.65018799       0.76471133      -1.49520740
H       -2.55276062      -0.42821882      -4.72500422
H       -3.92645761       0.42330238      -5.43921668
H       -4.06115695      -1.28832693      -5.03306648
H       -3.30518556       4.05473262       0.63463923
H       -4.22899830       5.27230865      -0.25635689
H       -8.21039572       3.29093784       0.61176355
H       -8.36476329       3.11904265       2.36160481
H       -7.57954620       1.85036573       1.41965624
H       -6.84766939       2.13818662       4.12895983
H       -6.51558724       3.79367238       4.65023284
H       -5.49645306       2.47037786       5.21443237
H       -4.09724302       1.15866626       3.59757354
H       -3.79977625       1.74060090       1.95716550
H       -5.35787828       1.00739583       2.37043640
H       -4.28792198       4.89717224       3.95898411
H       -3.21091824       4.09681248       2.80858778
H       -3.39889970       3.44889359       4.43408311
H       -5.36403653       6.17212039       1.99143950
H       -6.78255857       5.82028836       2.97638247
H       -6.95557534       6.05915106       1.23866935
H       -0.50698996       6.66721420      -1.21657063
H       -0.98314844       6.54431083       0.49131227
H       -2.22959687       6.54565999      -0.78593594
H       -1.68338715       2.06868314      -3.40414131
69
Properties=species:S:1:pos:R:3 -90.0993441608=T converged=T charge=0 spin=1 pbc="F F F"
O       -1.10946512       2.95907404       0.32415036
C       -1.42914146       2.33960717      -0.91156851
H       -0.99832754       1.33606518      -0.89771884
C       -2.94668490       2.19433691      -1.07885152
H       -3.36308375       1.79896764      -0.14810314
O       -3.16615674       1.29871323      -2.16375501
Si      -4.14044319      -0.05504834      -2.21988868
C       -4.47614293      -0.62735492      -0.47448891
C       -5.75270996       0.35815319      -3.11704365
C       -6.73275034       1.05715484      -2.16747623
C       -5.45444827       1.27632291      -4.30853758
C       -6.39721784      -0.93683230      -3.62987049
C       -3.16396264      -1.31904557      -3.17860238
C       -3.63345932       3.51883161      -1.38825110
H       -4.61013825       3.28268298      -1.81395752
C       -3.91664404       4.36705141      -0.14850915
O       -4.95747850       3.72789279       0.56974607
Si      -4.94458108       3.54870238       2.22878020
C       -4.47977345       5.17846009       3.02252938
C       -6.70684257       3.03626226       2.65907479
C       -6.82938063       2.78431871       4.16685695
C       -7.68549019       4.14210609       2.24721278
C       -7.05818723       1.75087138       1.89949116
C       -3.71284089       2.23354095       2.72236488
O       -2.97273584       4.24073471      -2.43104216
C       -1.58486603       4.41039196      -2.32451121
H       -1.28088314       4.83638424      -3.28611500
O       -1.24026766       5.28741037      -1.27200191
C       -1.62829452       6.63015698      -1.52622272
C       -0.83665048       3.09843105      -2.09885648
H        0.20553198       3.33934920      -1.87956166
O       -0.85382164       2.33104854      -3.28090587
H       -0.99907351       3.90622581       0.16406137
H       -5.09129124      -1.53056077      -0.49170136
H       -5.01827853       0.12850301       0.09905340
H       -3.55016623      -0.86437076       0.05582016
H       -7.04636808       0.39490411      -1.35725926
H       -7.63210083       1.36486448      -2.71171765
H       -6.30287646       1.95313362      -1.71191147
H       -4.73883329       0.82564532      -5.00148493
H       -5.04318931       2.23525229      -3.98739575
H       -6.37370161       1.47319555      -4.87005395
H       -6.57538966      -1.65629363      -2.82550954
H       -5.77759821      -1.42504987      -4.38437231
H       -7.36524261      -0.71595065      -4.09141330
H       -3.68621324      -2.27649740      -3.22891228
H       -2.19265213      -1.48425198      -2.70884134
H       -2.98500765      -0.98181579      -4.20173512
H       -3.02503559       4.49158089       0.46869104
H       -4.24630963       5.35782485      -0.47626230
H       -5.13847927       5.98017991       2.68272282
H       -3.45172520       5.45978114       2.78171713
H       -4.55174117       5.12069362       4.11130909
H       -6.15998320       1.98910382       4.50384851
H       -7.85175238       2.47836107       4.41258598
H       -6.60919401       3.68194575       4.75021170
H       -7.61709988       4.35432403       1.17816108
H       -7.49856531       5.07150667       2.79077620
H       -8.71404996       3.83467232       2.46641989
H       -8.09021021       1.45412064       2.11746641
H       -6.41050902       0.91911177       2.18916251
H       -6.96860996       1.89282716       0.82007928
H       -2.71102199       2.47318052       2.35660191
H       -3.99021821       1.25690425       2.31715481
H       -3.66050338       2.14110080       3.81035057
H       -1.34298015       7.22230640      -0.66054553
H       -2.70525364       6.70713643      -1.68330798
H       -1.11211480       7.00979899      -2.41286301
H       -1.71448241       1.88747353      -3.32131357
69
Properties=species:S:1:pos:R:3 -90.0955603708=T converged=T charge=0 spin=1 pbc="F F F"
O       -1.43675407       0.96465091      -1.76976763
C       -1.95749720       2.28527857      -1.82162428
H       -1.87211612       2.68147489      -2.84361959
C       -3.41637668       2.34707578      -1.41632560
H       -3.53728867       1.88813034      -0.42843095
O       -4.18171367       1.67817552      -2.39555762
Si      -5.16213184       0.34087347      -2.20701299
C       -6.66978825       0.73236209      -1.18083998
C       -5.60170821      -0.08200262      -3.99005909
C       -6.50595648      -1.31980012      -4.03234764
C       -6.32942932       1.11364554      -4.61816351
C       -4.31426222      -0.35319459      -4.77775200
C       -4.21044536      -1.03597394      -1.36701298
C       -3.84955319       3.81005554      -1.33900320
H       -3.82260563       4.23232330      -2.35572119
C       -5.25040175       3.96754923      -0.78459717
O       -5.39779499       3.31914496       0.45464809
Si      -4.92574708       3.85005837       1.96575226
C       -4.91396681       5.71472330       2.02162269
C       -6.22986476       3.11393995       3.11987562
C       -6.00879139       3.60949390       4.55462559
C       -7.62661696       3.52917818       2.64608215
C       -6.11862260       1.58454125       3.08779315
C       -3.24036076       3.18285686       2.41781172
O       -2.99438524       4.53777952      -0.46991957
C       -1.62990043       4.54796190      -0.81897329
H       -1.48566476       5.05029105      -1.79109454
O       -1.00655293       5.26116028       0.19928201
C        0.04779706       6.11065451      -0.22600654
C       -1.09845412       3.12376669      -0.89920983
H       -1.14373668       2.70341014       0.11315343
O        0.23604227       3.18712543      -1.36848404
H       -1.95706067       0.41315942      -2.36482194
H       -7.40184631       1.33241230      -1.72507725
H       -6.38867643       1.28863239      -0.28371165
H       -7.15889590      -0.19341992      -0.86820603
H       -7.43909047      -1.15948292      -3.48571901
H       -6.01277258      -2.19770639      -3.60606185
H       -6.76978418      -1.56236499      -5.06738367
H       -6.56047631       0.90901945      -5.66857342
H       -5.71386102       2.01460140      -4.57788126
H       -7.27298202       1.32642240      -4.11015922
H       -3.76874735      -1.21450131      -4.38335526
H       -3.64933377       0.51313913      -4.75451209
H       -4.54707329      -0.56716577      -5.82573093
H       -4.90324124      -1.81148394      -1.03255613
H       -3.67950328      -0.66813773      -0.48583356
H       -3.47556792      -1.51104778      -2.02091685
H       -5.47122790       5.03663258      -0.70158287
H       -5.95607359       3.52399475      -1.49175004
H       -5.87620356       6.15717747       1.75594399
H       -4.15173005       6.09823723       1.34134328
H       -4.65882704       6.05090739       3.02921482
H       -6.11176809       4.69478962       4.63024014
H       -5.02058611       3.33818171       4.93464206
H       -6.74854043       3.16341435       5.22794546
H       -8.39435926       3.09749869       3.29695017
H       -7.81477640       3.18495817       1.62730634
H       -7.75361983       4.61487722       2.66417733
H       -5.14504028       1.24195605       3.44683247
H       -6.26007043       1.19764775       2.07582236
H       -6.88432562       1.13273964       3.72730142
H       -3.12366337       2.14169142       2.10632691
H       -3.09520985       3.22144965       3.50014029
H       -2.45468247       3.77464406       1.94805696
H        0.40116051       6.62723400       0.66282154
H       -0.31462377       6.84949990      -0.94808004
H        0.86522119       5.53807686      -0.66537261
H        0.51734776       2.28121550      -1.54294343
69
Properties=species:S:1:pos:R:3 -90.0994671887=T converged=T charge=0 spin=1 pbc="F F F"
O       -1.27662000       2.67919028      -0.52805570
C       -1.92890401       2.58228135      -1.78419844
H       -1.68105171       1.60755653      -2.20991585
C       -3.45221821       2.64996944      -1.62128765
H       -3.74660890       1.98236450      -0.80597770
O       -4.01438454       2.24025354      -2.86691579
Si      -5.40610824       1.35037841      -3.11196417
C       -5.69172954       1.46665425      -4.94826919
C       -5.14366573      -0.44635675      -2.58178189
C       -3.78333404      -0.93903069      -3.08654452
C       -5.20190473      -0.59708370      -1.05714140
C       -6.25582452      -1.30183435      -3.20477486
C       -6.81612983       2.10576941      -2.15078079
C       -3.94573866       4.05318532      -1.28594325
H       -5.01437292       4.08341429      -1.50508877
C       -3.81617411       4.41628718       0.19423288
O       -4.76371575       3.64247598       0.91053890
Si      -4.42468781       2.94427691       2.38921960
C       -3.52854719       4.18660870       3.46579052
C       -6.10921048       2.49088898       3.10620414
C       -6.91321063       3.76150291       3.40504784
C       -6.88232368       1.64251716       2.08932534
C       -5.92614317       1.68875433       4.40082032
C       -3.35445456       1.43096721       2.15218443
O       -3.38747053       5.03999012      -2.15716635
C       -1.99886638       5.02961949      -2.35128222
H       -1.82654217       5.73991928      -3.16655109
O       -1.30231378       5.43965565      -1.19230958
C       -1.49947512       6.81337977      -0.88987756
C       -1.45149705       3.66187574      -2.75560624
H       -0.36167413       3.71561939      -2.71142574
O       -1.80717952       3.37381431      -4.08842535
H       -1.03349438       3.60398138      -0.38886962
H       -4.88498266       0.98602270      -5.50497900
H       -5.73645598       2.51252788      -5.25825974
H       -6.63080096       0.99013952      -5.23730213
H       -3.68537520      -0.82932281      -4.16938167
H       -3.65146770      -1.99969579      -2.84929989
H       -2.96200510      -0.38939556      -2.62236526
H       -6.15031845      -0.24323630      -0.64590317
H       -4.39670022      -0.04814055      -0.56431602
H       -5.09110955      -1.65090394      -0.77888482
H       -6.20418325      -1.29833213      -4.29513128
H       -7.25170797      -0.95544927      -2.91438167
H       -6.16071092      -2.34094450      -2.87267699
H       -7.08718101       3.08795209      -2.54533835
H       -6.55518257       2.22541435      -1.09634418
H       -7.70131841       1.46705986      -2.20627594
H       -2.80446491       4.24709867       0.56593977
H       -4.04654722       5.48039929       0.30619354
H       -2.53188986       4.40946885       3.07657264
H       -3.39997750       3.80388868       4.48158454
H       -4.08675406       5.12325710       3.52695798
H       -7.91234132       3.49722340       3.76894778
H       -7.03394249       4.37542082       2.50965153
H       -6.43523435       4.37266175       4.17427147
H       -7.06176955       2.20144758       1.16898407
H       -7.85441137       1.35136997       2.50273948
H       -6.34657377       0.72537094       1.83051523
H       -6.90354003       1.42976149       4.82156340
H       -5.38502128       2.25709323       5.16188438
H       -5.38551336       0.75499795       4.22921932
H       -2.46139030       1.66813354       1.56715235
H       -3.89660025       0.63879184       1.62962124
H       -3.02861244       1.03105763       3.11610660
H       -0.94342564       7.03092888       0.01826367
H       -2.55589036       7.03629744      -0.73344703
H       -1.12260559       7.43687720      -1.70600922
H       -2.71357838       3.03152181      -4.07512259
69
Properties=species:S:1:pos:R:3 -90.1018523627=T converged=T charge=0 spin=1 pbc="F F F"
O       -1.38027091       3.01978571       0.12147667
C       -1.81005557       2.43226692      -1.09499010
H       -1.36557162       1.43646717      -1.15698437
C       -3.33207140       2.26549511      -1.11877789
H       -3.64571377       1.84709119      -0.15798077
O       -3.63754397       1.38026692      -2.19041139
Si      -4.73842060       0.12801713      -2.13142239
C       -6.39880021       0.77020943      -1.57133940
C       -4.74703918      -0.50527228      -3.90211461
C       -5.78042250      -1.62767164      -4.05021403
C       -5.10178623       0.64005052      -4.85684620
C       -3.35717922      -1.03980071      -4.26620334
C       -4.15795361      -1.15784280      -0.90890403
C       -4.07974056       3.57992738      -1.33173095
H       -5.07156853       3.31878156      -1.70379432
C       -4.31190923       4.38066826      -0.05140489
O       -5.16489035       3.62379431       0.77726610
Si      -4.94937810       3.17492419       2.36369621
C       -3.29076199       3.74645128       2.99052620
C       -6.38359822       3.92551959       3.32986901
C       -7.70123517       3.36196074       2.78799551
C       -6.26444505       3.59901513       4.82164047
C       -6.38372372       5.44574390       3.14389211
C       -5.01425422       1.30779998       2.40700551
O       -3.51791710       4.38002478      -2.37544029
C       -2.12706164       4.55740766      -2.38821688
H       -1.92081951       5.04911347      -3.34369768
O       -1.67731285       5.36749703      -1.32031519
C       -2.04710961       6.73122886      -1.45180910
C       -1.35696794       3.23943187      -2.31222385
H       -0.29521007       3.47346908      -2.21030592
O       -1.51817605       2.52215164      -3.51541320
H       -1.31156206       3.97503764      -0.01803719
H       -6.28609158       1.37308144      -0.66601403
H       -7.07393637      -0.05575059      -1.33717474
H       -6.87644915       1.39284497      -2.32896530
H       -6.79128874      -1.28128313      -3.81858352
H       -5.55412875      -2.47723302      -3.40030006
H       -5.78277334      -1.99253005      -5.08260357
H       -6.10212504       1.03441298      -4.66567841
H       -5.08003127       0.27853629      -5.88968349
H       -4.39404124       1.46744216      -4.77767118
H       -2.58666489      -0.27285089      -4.16109205
H       -3.35246095      -1.37506649      -5.30814414
H       -3.07335883      -1.89073011      -3.64336539
H       -4.80126812      -2.04072477      -0.93995344
H       -4.19601895      -0.76728672       0.11078323
H       -3.13531746      -1.47686847      -1.11382324
H       -3.37599178       4.62455794       0.45109222
H       -4.80610705       5.31777691      -0.32620962
H       -2.49543933       3.34994986       2.35520077
H       -3.13267448       3.36194002       4.00065987
H       -3.19552486       4.83286790       3.02699181
H       -7.77373295       2.28320191       2.94367843
H       -7.80798234       3.55943009       1.71908671
H       -8.54619082       3.82964073       3.30386976
H       -7.11559070       4.02715133       5.36146621
H       -5.35301763       4.01555990       5.25776264
H       -6.26701140       2.52169231       5.00574170
H       -5.47429219       5.90430249       3.53930038
H       -7.23370524       5.88500335       3.67643145
H       -6.47362774       5.71738991       2.08984832
H       -5.18619272       0.92545533       3.41496195
H       -4.06678474       0.89091328       2.05670608
H       -5.81301783       0.93184475       1.76492163
H       -3.12785603       6.83993476      -1.55070059
H       -1.56137545       7.17365032      -2.32563962
H       -1.70839143       7.24552787      -0.55668356
H       -2.36422775       2.05281444      -3.45704702
69
Properties=species:S:1:pos:R:3 -90.0994872244=T converged=T charge=0 spin=1 pbc="F F F"
O       -1.42644121       2.07399940       0.30960742
C       -1.96287352       1.77371637      -0.96854909
H       -1.90264861       0.69179092      -1.10388289
C       -3.43941639       2.17311378      -1.06101208
H       -3.95410331       1.81192215      -0.16656996
O       -3.96037785       1.55771040      -2.23744943
Si      -5.47674894       0.87958946      -2.39859942
C       -6.78732739       2.20867184      -2.37104429
C       -5.39612649       0.00126186      -4.06006723
C       -4.25420200      -1.02167100      -4.04184984
C       -6.72089410      -0.72016063      -4.33542255
C       -5.14074716       1.01995635      -5.17716184
C       -5.76595927      -0.29585602      -0.97833147
C       -3.64353007       3.68105511      -1.15752693
H       -4.65160761       3.83934358      -1.54538252
C       -3.59385815       4.39991518       0.18944424
O       -4.67767334       3.91705928       0.95696057
Si      -4.76300417       3.99166497       2.61839181
C       -5.33579383       5.69592250       3.13117532
C       -6.01325645       2.66488092       3.08806666
C       -6.47463735       2.88586734       4.53245403
C       -7.22498022       2.73805271       2.15292987
C       -5.36244678       1.28257464       2.96778243
C       -3.08059142       3.63955707       3.35149668
O       -2.79094303       4.28166546      -2.13439986
C       -1.42803639       3.94666458      -2.10758783
H       -1.02477121       4.37389657      -3.02993195
O       -0.76506968       4.50378309      -0.99074787
C       -0.69386418       5.92146727      -1.04615346
C       -1.17105449       2.43989359      -2.09369834
H       -0.10452662       2.28566565      -1.91954334
O       -1.47401845       1.88693282      -3.35558821
H       -1.01581193       2.94797848       0.26619675
H       -6.79924764       2.71687745      -1.40326249
H       -7.77942897       1.77842135      -2.52806696
H       -6.61713234       2.95880692      -3.14592492
H       -3.28836384      -0.55002497      -3.85042025
H       -4.19066038      -1.52757180      -5.01047832
H       -4.40840033      -1.78937003      -3.28011095
H       -7.56210197      -0.02367643      -4.37272956
H       -6.93892647      -1.47603500      -3.57723330
H       -6.67529053      -1.23022856      -5.30337827
H       -5.04985364       0.50290449      -6.13779086
H       -4.21873789       1.58321989      -5.01830552
H       -5.95909645       1.73748580      -5.26755172
H       -6.70393234      -0.83871482      -1.11429427
H       -5.84455537       0.24786761      -0.03403265
H       -4.96150524      -1.02759433      -0.88230935
H       -2.64839324       4.23276573       0.70494386
H       -3.69741313       5.47448502       0.00348389
H       -4.67545137       6.45783792       2.70867469
H       -5.32498365       5.81789297       4.21679385
H       -6.34879046       5.90236878       2.77933360
H       -7.15833754       2.08808887       4.83998468
H       -7.00371744       3.83456753       4.64291429
H       -5.63533237       2.88483276       5.23296336
H       -6.94420051       2.54216534       1.11679035
H       -7.70801415       3.71777465       2.18536538
H       -7.97095477       1.99336754       2.44873058
H       -6.10347078       0.49739357       3.14937284
H       -4.55607390       1.14855227       3.69163053
H       -4.94170102       1.11747037       1.97277487
H       -2.39786747       4.48152426       3.21620377
H       -2.62413335       2.75843916       2.89480232
H       -3.16194648       3.46115486       4.42685492
H       -0.15485106       6.25495066      -0.16274253
H       -1.69141717       6.36380750      -1.06197243
H       -0.15063090       6.23911766      -1.94166302
H       -2.43290361       1.74679836      -3.37939573
69
Properties=species:S:1:pos:R:3 -90.0996077965=T converged=T charge=0 spin=1 pbc="F F F"
O       -1.39200971       2.92557419       0.03568607
C       -1.85502261       2.52137270      -1.24266739
H       -1.37441467       1.56931778      -1.48012308
C       -3.37001773       2.28395533      -1.23497765
H       -3.62265351       1.71089979      -0.33601285
O       -3.69459977       1.55760581      -2.41756731
Si      -4.66766664       0.19894597      -2.41621965
C       -6.36813762       0.64084783      -1.78381426
C       -4.67604621      -0.34213434      -4.21600907
C       -5.24924125       0.78080399      -5.09033383
C       -3.23906686      -0.64527256      -4.66035930
C       -5.53330107      -1.60307696      -4.37964887
C       -3.90069980      -1.08510549      -1.29663333
C       -4.18181145       3.57521288      -1.20929910
H       -5.18879458       3.32803681      -1.55034590
C       -4.36121049       4.15172971       0.19684971
O       -5.25860363       3.29367545       0.87250043
Si      -5.13918586       2.76683471       2.44636433
C       -3.34979170       2.68071274       2.97826695
C       -6.09765117       3.94686321       3.56453088
C       -5.54716055       5.36807472       3.38996856
C       -7.58300506       3.93846745       3.18581003
C       -5.94283441       3.52110010       5.02948232
C       -5.91548279       1.07269710       2.44133738
O       -3.71695638       4.53106599      -2.16456417
C       -2.34034322       4.79441205      -2.19372133
H       -2.19577375       5.41895325      -3.07945201
O       -1.91324257       5.48539940      -1.03889075
C       -2.41125147       6.81510007      -0.98351111
C       -1.48983510       3.53179819      -2.32904453
H       -0.44160140       3.81224593      -2.21043995
O       -1.63633743       2.99570083      -3.62578613
H       -1.39500550       3.89139382       0.06793882
H       -6.87788932       1.34644065      -2.44342699
H       -6.30617946       1.09460272      -0.79034494
H       -6.99073467      -0.25322884      -1.70102598
H       -5.22193158       0.48276294      -6.14375139
H       -4.67453717       1.70475437      -4.99167326
H       -6.28921276       1.00236917      -4.83708019
H       -3.22813428      -0.93334805      -5.71663320
H       -2.80469779      -1.46943100      -4.08889830
H       -2.58581657       0.22277971      -4.54633362
H       -6.57245731      -1.43562135      -4.08622961
H       -5.14767720      -2.43919436      -3.79126184
H       -5.53679376      -1.91729728      -5.42784700
H       -4.50443431      -1.99487979      -1.27632859
H       -3.83120808      -0.72159256      -0.26866361
H       -2.89467658      -1.35233862      -1.62502232
H       -3.41699361       4.23186313       0.73759666
H       -4.79253088       5.15341660       0.11045666
H       -2.94799706       3.65516573       3.26516435
H       -2.71096757       2.28347317       2.18623792
H       -3.25908298       2.02290198       3.84614613
H       -5.65772380       5.71799756       2.36026667
H       -4.49030306       5.43463044       3.66215041
H       -6.09410145       6.06540660       4.03348952
H       -7.73238624       4.21434134       2.13912590
H       -8.13254621       4.65827611       3.80207954
H       -8.03645525       2.95703937       3.34424816
H       -6.33553002       2.51623986       5.20578993
H       -6.49582802       4.20606359       5.68072094
H       -4.89870319       3.53556264       5.35155392
H       -6.02309812       0.68980907       3.45816340
H       -5.29765866       0.36557732       1.88320406
H       -6.90432077       1.09206176       1.97978114
H       -3.50227054       6.82821709      -1.00823516
H       -2.03077328       7.39527386      -1.82957307
H       -2.05775836       7.25459902      -0.05437956
H       -2.47299430       2.50770735      -3.64482068
69
Properties=species:S:1:pos:R:3 -90.1019135916=T converged=T charge=0 spin=1 pbc="F F F"
O       -1.43233259       3.23706350      -0.00189809
C       -1.86481375       2.66972590      -1.22644898
H       -1.32770290       1.72844246      -1.36228601
C       -3.36203164       2.34934760      -1.18963363
H       -3.58385642       1.85955842      -0.23657391
O       -3.63016959       1.48517082      -2.28870527
Si      -4.58017301       0.11480598      -2.22419294
C       -6.27633107       0.55296447      -1.58232411
C       -4.59047542      -0.47751982      -4.00894597
C       -5.12973816       0.63373951      -4.91632695
C       -3.16287971      -0.82399764      -4.44663223
C       -5.48055285      -1.71846114      -4.14221566
C       -3.81170089      -1.12263840      -1.05616839
C       -4.24947344       3.58716947      -1.30439463
H       -5.22460501       3.24059353      -1.64986030
C       -4.50679185       4.29743862       0.02393235
O       -5.23827317       3.41156184       0.84059898
Si      -4.95399097       2.98228484       2.42200980
C       -3.24544125       3.50137307       2.95371910
C       -6.29096838       3.78793782       3.48010015
C       -6.07281443       3.46695742       4.96182074
C       -6.25354647       5.30637159       3.28253316
C       -7.66290087       3.26667045       3.04184632
C       -5.09031229       1.12084077       2.45453496
O       -3.82103611       4.49046771      -2.32676709
C       -2.45746773       4.81134153      -2.38770913
H       -2.34726416       5.37001722      -3.32203737
O       -2.04283776       5.60785237      -1.29561593
C       -2.55809546       6.92954189      -1.33413360
C       -1.55587951       3.57763809      -2.41728575
H       -0.51919776       3.91401807      -2.34971421
O       -1.70340476       2.90773427      -3.64926642
H       -1.47749084       4.19998912      -0.08786669
H       -6.85121832      -0.34850389      -1.35945204
H       -6.84584311       1.15039547      -2.29534928
H       -6.18980156       1.12830797      -0.65638343
H       -4.53186002       1.54407589      -4.84034725
H       -6.16383681       0.88944266      -4.67572964
H       -5.10439261       0.30255989      -5.95917290
H       -2.74271435      -1.63945436      -3.85408673
H       -2.49317446       0.03450776      -4.36201018
H       -3.16539279      -1.14212251      -5.49393888
H       -5.48690076      -2.05697081      -5.18352957
H       -6.51464009      -1.50889353      -3.85535786
H       -5.11778255      -2.54697580      -3.52800617
H       -3.86790733      -0.76584359      -0.02504252
H       -2.76436749      -1.31067805      -1.29517516
H       -4.34542061      -2.07536269      -1.09562133
H       -3.57964151       4.61279241       0.50331906
H       -5.10550400       5.19020567      -0.18303014
H       -2.50091149       3.16685820       2.22804371
H       -3.01040275       3.03583205       3.91361986
H       -3.14417616       4.58122776       3.07473536
H       -5.11732780       3.85316732       5.32527201
H       -6.09909183       2.39140988       5.15412601
H       -6.86602454       3.92794823       5.55971571
H       -7.04750893       5.77702114       3.87171474
H       -6.41131718       5.57678472       2.23589919
H       -5.30334086       5.73646713       3.60769363
H       -7.84195615       3.46075655       1.98193220
H       -8.45127907       3.76572584       3.61476987
H       -7.75931145       2.19192628       3.21137254
H       -5.95165250       0.78942988       1.87193780
H       -5.19529267       0.72663579       3.46686161
H       -4.19210032       0.67524454       2.01981135
H       -2.24066755       7.42682241      -0.42179889
H       -3.64728107       6.92749674      -1.39083322
H       -2.15586129       7.46886208      -2.19579815
H       -2.49470785       2.35250957      -3.58029366
69
Properties=species:S:1:pos:R:3 -90.1013418326=T converged=T charge=0 spin=1 pbc="F F F"
O       -1.19898227       2.97511018       0.38561898
C       -1.50725378       2.36250231      -0.85573059
H       -1.10943393       1.34479054      -0.82782264
C       -3.02455253       2.26899195      -1.06168132
H       -3.48268526       1.88467646      -0.14606979
O       -3.25151622       1.38533219      -2.15438001
Si      -4.11862129      -0.03979743      -2.20962777
C       -4.44531514      -0.64581967      -0.47469262
C       -5.73066139       0.27449921      -3.13978076
C       -6.73637185       1.00048001      -2.24013393
C       -5.43824061       1.14256931      -4.36831624
C       -6.34221838      -1.05443539      -3.59777493
C       -3.01322113      -1.21688047      -3.13633426
C       -3.66335607       3.61365771      -1.39139839
H       -4.62445892       3.39776800      -1.86242648
C       -3.98666929       4.46432338      -0.16690176
O       -5.00134110       3.79741979       0.55781916
Si      -4.99127046       3.56781568       2.20849019
C       -4.56290982       5.17325297       3.06261187
C       -6.74713162       3.00854239       2.58517474
C       -6.89576635       2.68960167       4.07552319
C       -7.72865176       4.11795826       2.19623228
C       -7.06656723       1.75505782       1.76368669
C       -3.72741996       2.28482185       2.69728775
O       -2.94147752       4.34098555      -2.38898432
C       -1.55212560       4.45089891      -2.24016243
H       -1.20846896       4.89248699      -3.17950057
O       -1.19419674       5.28458572      -1.15530266
C       -1.48030197       6.65736798      -1.38031594
C       -0.86231772       3.10400653      -2.02681706
H        0.18469368       3.29989918      -1.78671485
O       -0.89238572       2.35034109      -3.21706727
H       -1.05053106       3.91753769       0.22514317
H       -3.51028930      -0.83177349       0.05924383
H       -4.99808685      -1.58856282      -0.50661109
H       -5.03887873       0.06142543       0.10907677
H       -7.04621986       0.37856861      -1.39712860
H       -7.63689358       1.25384342      -2.81027235
H       -6.33161358       1.93373545      -1.83900089
H       -6.36381876       1.33669029      -4.92056270
H       -4.74445444       0.65053699      -5.05479666
H       -5.00639770       2.10456362      -4.08577447
H       -7.28489766      -0.87046228      -4.12424142
H       -6.56478493      -1.71549860      -2.75565243
H       -5.68216736      -1.58780210      -4.28508433
H       -2.80580831      -0.84711336      -4.14316434
H       -3.44396295      -2.21624625      -3.22185115
H       -2.05664239      -1.30021504      -2.61539500
H       -3.10417798       4.65048683       0.44684019
H       -4.36120964       5.43049153      -0.51648459
H       -3.50739886       5.41809626       2.92204920
H       -4.73121405       5.08572618       4.13879664
H       -5.15917143       6.00906700       2.69228248
H       -7.91611789       2.35306287       4.28760648
H       -6.70481421       3.56550131       4.70014208
H       -6.21576289       1.89410828       4.38977002
H       -8.75902485       3.79209512       2.37502293
H       -7.63674315       4.37107101       1.13822919
H       -7.56454656       5.02601874       2.78123208
H       -8.10263258       1.44394669       1.93721013
H       -6.42342382       0.91521410       2.03960505
H       -6.94918360       1.94338163       0.69456161
H       -4.03043098       1.27187711       2.42065366
H       -3.56590385       2.30453858       3.77844877
H       -2.76871670       2.49334536       2.21509732
H       -0.88106065       7.03440438      -2.21401522
H       -1.21272825       7.19628482      -0.47461420
H       -2.53833412       6.81218373      -1.60010002
H       -1.76591959       1.93267036      -3.26681033
69
Properties=species:S:1:pos:R:3 -90.0971631466=T converged=T charge=0 spin=1 pbc="F F F"
O       -1.40348710       0.90907667      -1.84561649
C       -1.91561351       2.22621344      -1.90180548
H       -1.86775823       2.51264600      -2.95695155
C       -3.37563652       2.27930140      -1.46174967
H       -3.45664200       1.85032378      -0.45258786
O       -4.16982347       1.59140175      -2.39295344
Si      -5.01138783       0.16530302      -2.21267704
C       -6.46150493       0.40745544      -1.06055925
C       -5.56498806      -0.20222812      -3.97335742
C       -6.26348082       1.03128839      -4.55460026
C       -4.33891624      -0.52769431      -4.83158123
C       -6.53573406      -1.38678250      -3.98947138
C       -3.92392469      -1.18310537      -1.52062119
C       -3.88518059       3.71867411      -1.40588320
H       -3.93323859       4.09760423      -2.43720685
C       -5.26242236       3.80805534      -0.78540043
O       -5.30874949       3.21218359       0.48934703
Si      -4.84330635       3.84866279       1.95641661
C       -5.01736796       5.70619546       1.93427992
C       -6.02116000       3.03933942       3.18749762
C       -7.46962359       3.33168150       2.78615129
C       -5.80391371       1.52227327       3.17600595
C       -5.76696622       3.57627993       4.60002995
C       -3.07888338       3.39371304       2.36446364
O       -3.02911182       4.53748492      -0.62269786
C       -1.70845923       4.58005508      -1.10925918
H       -1.70827095       4.98701309      -2.13634531
O       -0.94959580       5.38128202      -0.26895685
C       -1.29333184       6.75810870      -0.32378517
C       -1.07608960       3.19844781      -1.09282047
H       -1.05550189       2.87256059      -0.04125878
O        0.22470987       3.24488460      -1.63454504
H       -1.25428081       0.67352652      -0.92218938
H       -7.30075911       0.91306951      -1.54289157
H       -6.16078498       1.01017138      -0.19991099
H       -6.81716945      -0.55613419      -0.68754385
H       -7.16179237       1.29322422      -3.98979814
H       -6.57058336       0.83759512      -5.58788729
H       -5.59701593       1.89488556      -4.55825673
H       -3.61757825       0.29172128      -4.81460296
H       -4.63792041      -0.69094657      -5.87264199
H       -3.83263446      -1.43197502      -4.48694553
H       -7.43556680      -1.18002225      -3.40442750
H       -6.07566229      -2.29672745      -3.59556100
H       -6.85167746      -1.59810804      -5.01686464
H       -2.94350280      -1.18080723      -1.99581850
H       -4.38789903      -2.16100311      -1.67418802
H       -3.78647923      -1.05946492      -0.44337842
H       -5.56054181       4.85969192      -0.74245726
H       -5.96890263       3.28305170      -1.42868001
H       -4.68607946       6.12704789       2.88637069
H       -6.04425409       6.03231601       1.75922381
H       -4.38289817       6.12415729       1.15057008
H       -7.68861979       4.40193941       2.81286188
H       -8.16100125       2.83751176       3.47756540
H       -7.68105423       2.96325913       1.78049512
H       -4.79339724       1.25494056       3.49391572
H       -5.97273374       1.10584467       2.18043908
H       -6.50518297       1.03487226       3.86216979
H       -4.74673802       3.37299718       4.93518698
H       -6.44763952       3.09578010       5.31154865
H       -5.93641040       4.65455240       4.65978661
H       -2.89123919       2.33239838       2.18443085
H       -2.85283300       3.59754359       3.41374648
H       -2.38972033       3.97528513       1.75257119
H       -0.60947936       7.27903718       0.34095796
H       -2.31928312       6.91933715       0.01003293
H       -1.17811429       7.14398240      -1.34133100
H        0.71763026       3.91336005      -1.14403909
69
Properties=species:S:1:pos:R:3 -90.1008329343=T converged=T charge=0 spin=1 pbc="F F F"
O       -1.50584795       2.19702724       0.49074940
C       -1.93171901       1.79790521      -0.80083090
H       -1.83476082       0.71137866      -0.85952134
C       -3.40554301       2.14493995      -1.02584572
H       -3.96366959       1.86315483      -0.12805945
O       -3.84472086       1.40941567      -2.16431660
Si      -5.25267174       0.51433588      -2.21261303
C       -6.70542788       1.61175442      -1.79915813
C       -5.29131845      -0.12805516      -3.97998495
C       -6.57705476      -0.92944385      -4.21279544
C       -5.24311400       1.05158567      -4.95752253
C       -4.07655469      -1.02779673      -4.23405309
C       -5.15848329      -0.85381714      -0.94484831
C       -3.64703582       3.63125184      -1.27887826
H       -4.60650424       3.70669681      -1.79325883
C       -3.79003888       4.45587691      -0.00313830
O       -4.93617275       3.96550417       0.65683504
Si      -5.50068269       4.34839712       2.17127563
C       -7.19516711       5.07985770       1.91064980
C       -5.56925433       2.74402966       3.16024824
C       -4.15084301       2.20038081       3.36252223
C       -6.21916340       2.98303466       4.52759690
C       -6.38963563       1.70594641       2.38789343
C       -4.38017884       5.60702309       2.97568582
O       -2.71403419       4.20806673      -2.19481604
C       -1.35437910       3.91522937      -2.01570055
H       -0.86714455       4.31642653      -2.90948543
O       -0.82021088       4.52601443      -0.85812267
C       -0.70264681       5.93553744      -0.96926581
C       -1.07760030       2.41658173      -1.90821980
H       -0.02203457       2.28425159      -1.66260187
O       -1.30133559       1.80132435      -3.15761087
H       -1.12086219       3.08121179       0.41727543
H       -6.92566324       2.31732324      -2.60166124
H       -6.49852437       2.18974426      -0.89406438
H       -7.60299236       1.01739877      -1.61438266
H       -6.64276685      -1.79409709      -3.54684054
H       -6.59866436      -1.30215292      -5.24217404
H       -7.46968170      -0.31600381      -4.06344880
H       -4.34592289       1.65725339      -4.81560838
H       -6.11121717       1.70549704      -4.85051558
H       -5.23560212       0.67738381      -5.98613924
H       -4.08559759      -1.91369236      -3.59577803
H       -3.13621351      -0.49899609      -4.06383356
H       -4.08240549      -1.36932705      -5.27406697
H       -6.07811286      -1.44386139      -0.93788280
H       -5.03197610      -0.44202501       0.05975578
H       -4.32316761      -1.52801146      -1.13840652
H       -2.90714816       4.38161400       0.63259121
H       -3.91818678       5.50529988      -0.29313235
H       -7.82239184       4.39716056       1.33441843
H       -7.10257228       6.00709981       1.34008447
H       -7.70745898       5.30966589       2.84624703
H       -3.54607827       2.86876615       3.97944942
H       -3.62656306       2.05244786       2.41488669
H       -4.19568991       1.23331506       3.87474393
H       -5.65752411       3.70542541       5.12571705
H       -6.24909497       2.04406887       5.09033334
H       -7.24618647       3.34424805       4.43459178
H       -6.40633457       0.76076694       2.94050288
H       -5.95926549       1.51104966       1.40283222
H       -7.42466445       2.02571695       2.24674764
H       -4.78229334       5.89318003       3.94999021
H       -4.31649283       6.51342185       2.36972070
H       -3.36846949       5.22956059       3.12925366
H       -0.34869005       6.30760285      -0.01167573
H       -1.66296668       6.39410744      -1.20891235
H        0.02171702       6.19630452      -1.74567774
H       -2.25448614       1.64332646      -3.23378947
69
Properties=species:S:1:pos:R:3 -90.1005540596=T converged=T charge=0 spin=1 pbc="F F F"
O       -1.61931212       2.93502954       0.37110967
C       -1.78605360       2.58721355      -0.99462033
H       -1.24619346       1.65269631      -1.16332227
C       -3.26312959       2.34573044      -1.33852918
H       -3.70026883       1.70365447      -0.56811450
O       -3.31938179       1.72527054      -2.61986348
Si      -3.65036773       0.12620553      -2.96640290
C       -2.93021590      -0.97515008      -1.63941509
C       -5.51738698      -0.11739648      -3.09244445
C       -6.09046099       0.90600736      -4.08039062
C       -5.82644609      -1.53493100      -3.59386283
C       -6.15730520       0.08899535      -1.71301557
C       -2.79865473      -0.14316022      -4.60046374
C       -4.07331424       3.63457567      -1.41339388
H       -4.97223113       3.40144651      -1.98672090
C       -4.56424433       4.15162628      -0.06209780
O       -5.59010270       3.28591916       0.37888676
Si      -5.72226864       2.59885001       1.89017279
C       -4.23198535       1.53191199       2.26033778
C       -5.90951196       3.93095997       3.22379887
C       -4.60024802       4.70582711       3.42625614
C       -7.02277958       4.90238760       2.81538492
C       -6.28797094       3.25585166       4.55001192
C       -7.26670632       1.56822947       1.73574222
O       -3.41570720       4.64663893      -2.18310544
C       -2.06832004       4.90885672      -1.89692159
H       -1.74310017       5.59158665      -2.68796389
O       -1.89786996       5.51593844      -0.63079640
C       -2.36573866       6.85589476      -0.58395366
C       -1.19881553       3.65250168      -1.92169263
H       -0.20408296       3.92479932      -1.56323818
O       -1.05415127       3.19292246      -3.24685724
H       -1.60965984       3.90085231       0.43429671
H       -3.23765131      -0.67902696      -0.63437972
H       -1.83930114      -0.96316463      -1.67723782
H       -3.25683962      -2.00666476      -1.79023128
H       -5.68981262       0.76285454      -5.08687824
H       -5.86325620       1.92962699      -3.77526863
H       -7.17900451       0.80749347      -4.14254275
H       -5.38953709      -1.72447489      -4.57747550
H       -6.90851489      -1.67360729      -3.68657935
H       -5.45845593      -2.30335513      -2.90944087
H       -5.78841032      -0.63849287      -0.98402102
H       -7.24350621      -0.03571788      -1.77780126
H       -5.96997473       1.09124131      -1.31612352
H       -2.91042532      -1.17020854      -4.95179299
H       -1.73064440       0.06169958      -4.49657126
H       -3.18990356       0.52263731      -5.37228081
H       -3.75417477       4.21905241       0.66517835
H       -4.97402678       5.15560077      -0.21896757
H       -3.29544447       2.01418724       1.97217057
H       -4.29864956       0.58332528       1.72129702
H       -4.17438215       1.29852965       3.32620778
H       -4.31414654       5.26924752       2.53544815
H       -3.77031386       4.04396671       3.68696808
H       -4.71430665       5.42747613       4.24218055
H       -7.14641754       5.68357792       3.57288447
H       -7.98300476       4.39164204       2.71024239
H       -6.80199716       5.39022975       1.86309217
H       -7.22721982       2.70393229       4.47436647
H       -6.41365759       4.01042131       5.33332557
H       -5.51605130       2.56117356       4.89002476
H       -7.11465868       0.79705658       0.97787671
H       -8.11674922       2.17554114       1.41990185
H       -7.52727377       1.07220249       2.67175477
H       -1.77316570       7.48540625      -1.25415976
H       -2.24824150       7.20621906       0.43854147
H       -3.41652100       6.91371775      -0.87101211
H       -1.86553334       2.71452199      -3.47354790
69
Properties=species:S:1:pos:R:3 -90.0993235018=T converged=T charge=0 spin=1 pbc="F F F"
O       -1.62879832       3.00559757       0.24955124
C       -1.96532876       2.51151435      -1.03773959
H       -1.43096453       1.56912370      -1.17521161
C       -3.46677420       2.22103793      -1.15291214
H       -3.77750912       1.67982960      -0.25318848
O       -3.65322947       1.42730273      -2.32140518
Si      -4.62987056       0.07239509      -2.36032630
C       -6.38013513       0.53439243      -1.90424033
C       -4.47824051      -0.53552075      -4.13389270
C       -5.33675490      -1.79146444      -4.33428907
C       -4.94673774       0.56165345      -5.09726980
C       -3.01091479      -0.86685099      -4.43113537
C       -3.97548010      -1.16332587      -1.12153458
C       -4.31336496       3.48397516      -1.26483892
H       -5.28116372       3.18935294      -1.67164997
C       -4.61625177       4.11722621       0.09342341
O       -5.60696360       3.31982150       0.71570003
Si      -5.57209275       2.81472697       2.30231240
C       -4.02704047       1.81383254       2.61942596
C       -5.65127023       4.29730731       3.47710632
C       -5.97779783       3.79494315       4.89015787
C       -4.31002198       5.03971022       3.51822065
C       -6.74869343       5.26869428       3.02773620
C       -7.09098770       1.74988348       2.47167823
O       -3.79582240       4.40473859      -2.22779098
C       -2.42929681       4.71009605      -2.15977135
H       -2.23240952       5.28467187      -3.06932342
O       -2.11934764       5.48105841      -1.01742207
C       -2.64751558       6.79820200      -1.08883927
C       -1.53475910       3.47125025      -2.14662913
H       -0.51075780       3.79784606      -1.95582805
O       -1.55067431       2.85903628      -3.41742589
H       -1.63620075       3.97180135       0.21289823
H       -7.00577830      -0.35820503      -1.82952499
H       -6.82869097       1.20005580      -2.64411096
H       -6.41269634       1.04323251      -0.93671251
H       -5.24520692      -2.14459921      -5.36673194
H       -6.39648451      -1.59788260      -4.14782141
H       -5.02305160      -2.60996652      -3.68091282
H       -4.82849932       0.22760935      -6.13281382
H       -4.36871972       1.48034019      -4.97948709
H       -6.00017798       0.80913537      -4.95259717
H       -2.64093248      -1.67406608      -3.79604759
H       -2.36085244      -0.00212930      -4.28397408
H       -2.89970102      -1.19007605      -5.47076323
H       -2.93358833      -1.41814221      -1.32391117
H       -4.56281629      -2.08397891      -1.14132284
H       -4.03106133      -0.76856333      -0.10383965
H       -3.72180592       4.18680574       0.71290459
H       -5.00311840       5.12706290      -0.06994744
H       -3.12779168       2.30621497       2.24410088
H       -4.09488951       0.83728715       2.13298077
H       -3.89399902       1.63730638       3.68928825
H       -5.23413451       3.08307078       5.25721431
H       -6.95675931       3.31337128       4.93480356
H       -5.99355238       4.63658585       5.58997659
H       -4.05540714       5.47975250       2.55153995
H       -3.48902284       4.38487724       3.81821241
H       -4.35764480       5.85916536       4.24271771
H       -6.54995434       5.67402147       2.03336671
H       -6.81342183       6.11186080       3.72383324
H       -7.73146488       4.79246850       3.00045475
H       -8.00393341       2.32765244       2.31603729
H       -7.14052535       1.29105356       3.46145583
H       -7.07716073       0.94659479       1.73156761
H       -3.73286941       6.78312243      -1.20124244
H       -2.21144067       7.33502993      -1.93680242
H       -2.38176831       7.30203524      -0.16376648
H       -2.36306776       2.33364741      -3.46971111
69
Properties=species:S:1:pos:R:3 -90.0989474417=T converged=T charge=0 spin=1 pbc="F F F"
O       -1.33122800       2.43077423      -0.79111349
C       -2.10106114       2.47544455      -1.98021695
H       -1.97885199       1.51596039      -2.48762136
C       -3.58928974       2.65078216      -1.66354935
H       -3.86083401       1.95705559      -0.86232256
O       -4.30747723       2.37797168      -2.86796884
Si      -5.70321122       1.46723008      -2.98433335
C       -6.45588245       1.92705992      -4.62525363
C       -5.26275698      -0.37107187      -2.93895770
C       -6.51534059      -1.20022235      -3.25193522
C       -4.18472009      -0.66576287      -3.98875399
C       -4.73400913      -0.76438270      -1.55405654
C       -6.82856886       1.92027298      -1.56388016
C       -3.93216872       4.06177268      -1.20098305
H       -5.01210857       4.17983024      -1.30841944
C       -3.62987550       4.31609534       0.27622744
O       -4.51279599       3.49684032       1.02178354
Si      -4.36248359       3.27916296       2.66803912
C       -4.58771967       4.92608535       3.52459674
C       -5.73596915       2.06404634       3.10889803
C       -7.08644582       2.62688680       2.64803816
C       -5.47722772       0.73040436       2.39647405
C       -5.77655647       1.83096138       4.62473108
C       -2.67144484       2.58955233       3.06916656
O       -3.38541482       5.05736322      -2.06857267
C       -2.02536358       4.95553755      -2.39697159
H       -1.87282307       5.69896139      -3.18653415
O       -1.19611671       5.24097900      -1.28979384
C       -1.27117189       6.59841267      -0.87940503
C       -1.62602392       3.57842631      -2.92649546
H       -0.53534607       3.54818978      -2.97893029
O       -2.12108252       3.40302218      -4.23463258
H       -0.99685795       3.32154759      -0.62307616
H       -5.78872864       1.68411513      -5.45375359
H       -6.66253141       2.99780934      -4.66491432
H       -7.39760455       1.39804624      -4.78759109
H       -6.89763789      -0.99109160      -4.25321293
H       -7.32157494      -1.01081916      -2.53844458
H       -6.28065805      -2.26906569      -3.20645103
H       -4.52632554      -0.43329193      -5.00000243
H       -3.91600082      -1.72703018      -3.96878337
H       -3.27590088      -0.08877169      -3.80500288
H       -3.80118208      -0.24797874      -1.31446268
H       -4.52557199      -1.83937604      -1.52095101
H       -5.45473792      -0.54405062      -0.76236732
H       -6.29687023       1.89104380      -0.60956808
H       -7.67199942       1.22889408      -1.50146552
H       -7.23061684       2.92921097      -1.68604584
H       -2.59229723       4.08860209       0.52501043
H       -3.81478947       5.37638113       0.48520198
H       -4.51142378       4.82122818       4.60930817
H       -5.56242484       5.35865783       3.29098367
H       -3.82074961       5.63949559       3.21226518
H       -7.88912142       1.91733919       2.87882821
H       -7.09550403       2.81068641       1.57188832
H       -7.32511028       3.56687798       3.15168797
H       -5.39795318       0.86632013       1.31507812
H       -6.29833261       0.03080506       2.58920252
H       -4.55418841       0.25898831       2.74186531
H       -6.56986350       1.11745115       4.87169298
H       -5.98464615       2.75263099       5.17372089
H       -4.83798348       1.41732254       5.00191063
H       -1.88000489       3.31320715       2.85967870
H       -2.46184880       1.69146359       2.48505153
H       -2.60094602       2.33224271       4.12936119
H       -0.59387599       6.72136708      -0.03847453
H       -2.28242312       6.86838525      -0.57097101
H       -0.96367655       7.25725739      -1.69706341
H       -3.05182720       3.14606614      -4.15342704
69
Properties=species:S:1:pos:R:3 -90.0941684289=T converged=T charge=0 spin=1 pbc="F F F"
O       -1.65146914       1.28598712      -2.48401297
C       -2.04881009       2.63896613      -2.34576228
H       -1.98875703       3.16000433      -3.31060564
C       -3.48200623       2.72594941      -1.83537823
H       -3.58118742       2.05397165      -0.97725053
O       -4.38590960       2.39230038      -2.86271059
Si      -5.13469043       1.05423080      -3.48915711
C       -3.94430908       0.05729501      -4.54595612
C       -5.91517500      -0.06190654      -2.18195196
C       -6.92604757       0.73148219      -1.34657271
C       -6.64452871      -1.19863469      -2.91376327
C       -4.85645096      -0.67412711      -1.25643708
C       -6.41576082       1.82360879      -4.60051575
C       -3.83950290       4.14007026      -1.38232252
H       -3.87709222       4.79178289      -2.26944688
C       -5.18732507       4.18372217      -0.69059675
O       -5.26598206       3.25171758       0.36258595
Si      -4.65246122       3.36728676       1.90888111
C       -4.60203081       5.15568938       2.44419941
C       -5.85414689       2.35673846       2.95539945
C       -5.54023521       2.54514348       4.44327596
C       -7.28827918       2.81289181       2.67434780
C       -5.71488012       0.87560544       2.58607492
C       -2.94315438       2.62244920       2.02527016
O       -2.88159788       4.61626726      -0.44982081
C       -1.57853199       4.67970850      -0.98386637
H       -1.57124458       5.35786112      -1.85705910
O       -0.72145937       5.14726571       0.00113243
C       -0.92946196       6.50879764       0.34469358
C       -1.07909954       3.30201104      -1.39038407
H       -1.00960037       2.69327872      -0.48021799
O        0.17168476       3.41636880      -2.03597974
H       -2.08690477       0.91215176      -3.25655788
H       -3.32210927      -0.63748632      -3.97572387
H       -3.29707083       0.72300832      -5.12465374
H       -4.50832095      -0.53966329      -5.26662689
H       -7.71474164       1.15922069      -1.97090503
H       -6.44513285       1.54052731      -0.79265189
H       -7.41067151       0.07284491      -0.61642759
H       -7.12819073      -1.85927771      -2.18688961
H       -5.95766257      -1.81052178      -3.50377141
H       -7.42349510      -0.82089862      -3.58056048
H       -5.33347235      -1.35563106      -0.54289868
H       -4.32795013       0.08528344      -0.67639780
H       -4.11365853      -1.25164273      -1.81209857
H       -6.98295273       1.08070692      -5.16121121
H       -5.91604817       2.47791913      -5.31654076
H       -7.11631681       2.43787910      -4.03366091
H       -5.36484684       5.20409244      -0.33176265
H       -5.96191514       3.93732703      -1.42146881
H       -4.13878306       5.22969433       3.43084503
H       -5.59274440       5.61181230       2.49899778
H       -3.99111830       5.73094820       1.74606766
H       -4.51948041       2.24398424       4.68965450
H       -6.21358824       1.93494316       5.05322788
H       -5.66841234       3.58341940       4.75647697
H       -7.43327691       3.86746418       2.92326773
H       -7.99783135       2.23292442       3.27371358
H       -7.54279065       2.67557774       1.62221185
H       -5.90562977       0.71391205       1.52259124
H       -6.43535084       0.27257579       3.14884068
H       -4.71669870       0.49369738       2.81311282
H       -2.19558182       3.31327777       1.63495284
H       -2.87673976       1.68746387       1.46236864
H       -2.69697123       2.40149531       3.06723573
H       -0.17934294       6.76211334       1.08923906
H       -1.92505358       6.65962000       0.76491706
H       -0.80319018       7.15060004      -0.53283974
H        0.77838862       3.82046320      -1.40620590
69
Properties=species:S:1:pos:R:3 -90.1015085232=T converged=T charge=0 spin=1 pbc="F F F"
O       -1.29579772       2.85264889      -0.47021901
C       -1.93207377       2.62030505      -1.71715344
H       -1.64370808       1.62382193      -2.05719984
C       -3.46061812       2.64105465      -1.58054125
H       -3.74557490       2.03802616      -0.71348068
O       -3.97939635       2.09100049      -2.78777952
Si      -5.30163966       1.10480407      -3.03903183
C       -5.41449933       1.09083058      -4.89747024
C       -5.01067159      -0.63061127      -2.33959193
C       -3.58176955      -1.08790328      -2.65290793
C       -5.23679781      -0.65968426      -0.82235244
C       -6.00474309      -1.59686065      -3.00163713
C       -6.82041982       1.85986185      -2.25911348
C       -4.01811134       4.05009404      -1.38809881
H       -5.07612549       4.00861073      -1.65398207
C       -3.97276312       4.54778524       0.05701975
O       -4.87497140       3.75998366       0.81125016
Si      -4.51207282       3.15904245       2.32456099
C       -3.73234747       4.50540203       3.36368177
C       -6.17935527       2.61726702       3.00754371
C       -6.83525281       1.65233507       2.01294623
C       -5.99591196       1.91192730       4.35599683
C       -7.07382616       3.84954348       3.18253213
C       -3.31033613       1.73498151       2.20540201
O       -3.46122763       4.99524606      -2.30740278
C       -2.06750729       5.00939086      -2.46728919
H       -1.89288047       5.67709076      -3.31626161
O       -1.40052310       5.50005539      -1.32025230
C       -1.58905290       6.89195173      -1.11075206
C       -1.48632204       3.63053998      -2.77663649
H       -0.39807273       3.71488861      -2.74847924
O       -1.84399898       3.23727766      -4.08212308
H       -1.08849904       3.79597916      -0.41250943
H       -4.52594403       0.64682408      -5.35085821
H       -5.48884157       2.11794837      -5.26026904
H       -6.28835850       0.54389658      -5.25303385
H       -2.83994098      -0.45263159      -2.16463093
H       -3.37709043      -1.07465904      -3.72640996
H       -3.42490552      -2.11273195      -2.30032883
H       -4.55516481       0.00980619      -0.29134951
H       -5.06462964      -1.66983287      -0.43561745
H       -6.25823025      -0.37617997      -0.55784364
H       -5.85579396      -1.65971004      -4.08140393
H       -7.04304200      -1.30667961      -2.81957384
H       -5.87466394      -2.60434313      -2.59392782
H       -7.10506810       2.77581939      -2.78073229
H       -6.64838597       2.10677867      -1.20899405
H       -7.66656450       1.16972492      -2.30289698
H       -2.96225750       4.50761882       0.47052559
H       -4.30305828       5.59223548       0.05958580
H       -3.67997525       4.19097222       4.40897490
H       -4.29483164       5.43967257       3.32021495
H       -2.70928910       4.70549855       3.03731702
H       -7.81621976       1.33652357       2.38265417
H       -6.23440065       0.75157283       1.86196249
H       -6.98001649       2.12891745       1.04190715
H       -5.36930884       1.02129487       4.26622118
H       -6.96570036       1.59078327       4.74967745
H       -5.54387290       2.56806257       5.10396539
H       -7.20205506       4.38004864       2.23662791
H       -6.65884246       4.55099866       3.91059416
H       -8.06541188       3.55263805       3.53885307
H       -2.89243350       1.51775428       3.19166917
H       -2.47976152       1.98430441       1.54015344
H       -3.78016794       0.82174865       1.83346673
H       -1.07905776       7.15164624      -0.18609935
H       -2.64889567       7.13802769      -1.02449570
H       -1.15233071       7.45820374      -1.93879867
H       -2.73378046       2.85637037      -4.03181439
69
Properties=species:S:1:pos:R:3 -90.1006973686=T converged=T charge=0 spin=1 pbc="F F F"
O       -1.44654480       2.83608845      -0.51373333
C       -2.09926239       2.70089310      -1.76669778
H       -1.80080049       1.74201533      -2.19689097
C       -3.62138918       2.68356816      -1.59315076
H       -3.87035119       2.00231348      -0.77514897
O       -4.17980079       2.23162847      -2.82366623
Si      -5.40869946       1.11959125      -3.03355280
C       -6.06046117       1.54143655      -4.72653169
C       -4.70436995      -0.63345000      -2.98330374
C       -3.58967522      -0.76040653      -4.02922263
C       -4.13484579      -0.93353368      -1.59115274
C       -5.81447209      -1.64508213      -3.30189099
C       -6.69688342       1.36486311      -1.69974777
C       -4.19732312       4.05932789      -1.26599480
H       -5.26038750       4.01490852      -1.51176800
C       -4.12257547       4.44421505       0.21200024
O       -4.96257412       3.56887129       0.93362429
Si      -4.58230013       2.69886259       2.30090904
C       -2.94196320       3.25620345       2.99854091
C       -6.01206049       3.00748679       3.48948554
C       -6.06907901       4.50618146       3.80814892
C       -7.31631309       2.58440205       2.80142955
C       -5.83162692       2.21133560       4.78681244
C       -4.46021558       0.89025911       1.85044506
O       -3.68177562       5.08909339      -2.11591373
C       -2.29340650       5.14223292      -2.31166834
H       -2.15378471       5.87979808      -3.10802029
O       -1.59925951       5.54861989      -1.14839641
C       -1.80638905       6.91328972      -0.81620188
C       -1.69866905       3.80428120      -2.74818261
H       -0.61160252       3.90673327      -2.74848484
O       -2.09065339       3.51012907      -4.06997147
H       -1.24483733       3.77352139      -0.38298071
H       -5.26666016       1.49877914      -5.47536458
H       -6.45447710       2.55983857      -4.72265219
H       -6.86045458       0.86982584      -5.04213283
H       -3.14403027      -1.75982606      -3.99083099
H       -2.79218561      -0.03272182      -3.86125675
H       -3.96900534      -0.61053287      -5.04274604
H       -4.89781724      -0.85846721      -0.81198742
H       -3.31754423      -0.25583728      -1.32894379
H       -3.73313737      -1.95167239      -1.55861442
H       -6.25428961      -1.47419325      -4.28746415
H       -6.62010568      -1.61693412      -2.56424876
H       -5.40848284      -2.66183889      -3.29941214
H       -7.35714827       2.19549170      -1.95768241
H       -6.24636143       1.59359905      -0.73088902
H       -7.31521469       0.47292755      -1.57873378
H       -3.10116426       4.41563864       0.59166345
H       -4.49590981       5.46981962       0.30559893
H       -2.13500958       3.01133424       2.30379571
H       -2.74036955       2.72636628       3.93275287
H       -2.90668278       4.32673864       3.20860812
H       -6.92006171       4.72469504       4.46114662
H       -6.18537899       5.10003539       2.89859754
H       -5.16604701       4.84653651       4.32151116
H       -8.17443516       2.80225926       3.44534747
H       -7.33072336       1.51272233       2.58669740
H       -7.45756005       3.11810611       1.85923726
H       -6.67028771       2.39714026       5.46599846
H       -4.91747718       2.49320893       5.31559661
H       -5.79639050       1.13476698       4.60308187
H       -4.35756459       0.27312116       2.74599341
H       -3.58089450       0.71220163       1.22690749
H       -5.34077526       0.54505713       1.30488165
H       -1.27407903       7.10503729       0.11213346
H       -2.86712303       7.12860991      -0.67917778
H       -1.40630730       7.55773203      -1.60444633
H       -2.97965199       3.12636642      -4.02812869
69
Properties=species:S:1:pos:R:3 -90.0963079957=T converged=T charge=0 spin=1 pbc="F F F"
O       -1.26799755       1.53490781      -3.39505339
C       -1.81120232       2.63812901      -2.68791486
H       -2.41274735       3.26245801      -3.36506288
C       -2.73478496       2.11879822      -1.59828496
H       -2.19738407       1.35619486      -1.01818880
O       -3.92399442       1.59503693      -2.12920012
Si      -4.25267722       0.33731249      -3.16952733
C       -3.13955761      -1.12038876      -2.83937341
C       -6.05493634      -0.06278718      -2.76551411
C       -6.88883750       1.22045221      -2.87774088
C       -6.60166696      -1.11621777      -3.73927978
C       -6.14536475      -0.59842971      -1.33116909
C       -4.09564247       0.90857116      -4.93805030
C       -3.14021344       3.27506825      -0.67771168
H       -3.76204418       3.96684801      -1.26301222
C       -3.95052728       2.80107348       0.50627346
O       -4.59341003       3.89995104       1.10874300
Si      -6.03374474       3.89207053       1.93339713
C       -7.37053974       3.02811003       0.94882456
C       -5.83415833       3.04464381       3.61303031
C       -4.57207022       3.58747539       4.29351128
C       -7.05421845       3.33950982       4.49627985
C       -5.70977230       1.52616958       3.43187547
C       -6.42936912       5.70211833       2.12763451
O       -1.99600968       3.95395798      -0.18117210
C       -1.25744063       4.56611949      -1.21368778
H       -1.91392065       5.25155601      -1.77975882
O       -0.18466443       5.25700529      -0.67524146
C       -0.56369996       6.39817903       0.08324349
C       -0.69533227       3.48997250      -2.11976119
H       -0.03421587       2.86262225      -1.51040933
O        0.00296389       4.03237829      -3.22804815
H       -0.61785166       1.88984872      -4.01419311
H       -3.40412869      -1.95381310      -3.49461976
H       -3.21280709      -1.47223368      -1.80888768
H       -2.10202751      -0.85093102      -3.03735229
H       -6.86241663       1.63184713      -3.89012383
H       -6.52179369       1.99145620      -2.19668209
H       -7.93743868       1.01971307      -2.63066724
H       -6.02724611      -2.04639634      -3.70100062
H       -6.59076858      -0.75823606      -4.77194783
H       -7.64025904      -1.36364957      -3.49113854
H       -7.18969332      -0.78096018      -1.05369585
H       -5.72785240       0.11309062      -0.61340347
H       -5.60478946      -1.54090658      -1.21540992
H       -4.48780364       0.15840096      -5.62755411
H       -3.04818032       1.08207735      -5.18370903
H       -4.64398766       1.83771902      -5.10613061
H       -4.67237214       2.06079639       0.15195857
H       -3.26992126       2.31836768       1.21710656
H       -7.11812572       1.99611376       0.69605688
H       -7.58355404       3.55954879       0.01902741
H       -8.29589338       3.00072567       1.53112655
H       -4.42248806       3.10491791       5.26529674
H       -4.64145727       4.66407567       4.46796064
H       -3.68034811       3.41258812       3.68791579
H       -6.94286371       2.84990583       5.46997678
H       -7.98218210       2.97047256       4.05145031
H       -7.17635173       4.40901860       4.68087120
H       -4.86260865       1.25300556       2.79753064
H       -6.60934759       1.09781631       2.98386562
H       -5.56244639       1.03968448       4.40216851
H       -5.63615131       6.22439913       2.66646799
H       -7.36518451       5.85848745       2.66671290
H       -6.52644532       6.16803724       1.14445368
H       -1.13210486       7.09928649      -0.53585326
H        0.35625558       6.87316262       0.41372366
H       -1.16261096       6.11082697       0.94788945
H        0.71926702       4.57847982      -2.88488108
69
Properties=species:S:1:pos:R:3 -90.0991323502=T converged=T charge=0 spin=1 pbc="F F F"
O       -1.28672167       2.82594542      -0.13179781
C       -1.72745395       2.52792901      -1.44773692
H       -1.35931465       1.53040473      -1.69470393
C       -3.26088830       2.51020177      -1.51661663
H       -3.64100265       1.93413236      -0.66718921
O       -3.65866645       1.93409670      -2.75989370
Si      -4.08191769       0.34320193      -3.03964254
C       -2.73566870      -0.78365261      -2.40277786
C       -5.73230637      -0.07878124      -2.21551116
C       -6.70054500       1.10401674      -2.32405892
C       -6.32786241      -1.29093163      -2.94660351
C       -5.54559731      -0.43565997      -0.73703770
C       -4.21367165       0.25240456      -4.89444471
C       -3.86883468       3.90538914      -1.45770371
H       -4.88765949       3.81624603      -1.83836251
C       -3.98790266       4.47805810      -0.04701615
O       -4.99951817       3.75194252       0.62827456
Si      -4.87315210       3.30453047       2.23135007
C       -4.13851914       4.71971246       3.21378416
C       -6.64267058       2.93422850       2.76396583
C       -7.24462236       1.88550101       1.82158812
C       -6.66161405       2.39623301       4.19977879
C       -7.48188964       4.21464727       2.68747832
C       -3.77228816       1.80201516       2.38538962
O       -3.23343306       4.80407123      -2.37220649
C       -1.83364771       4.87161409      -2.35120222
H       -1.57276984       5.48071894      -3.22268013
O       -1.35278264       5.47808798      -1.17031576
C       -1.66313103       6.86321901      -1.10282258
C       -1.16377440       3.50553789      -2.47776434
H       -0.09484864       3.63531601      -2.29686571
O       -1.31018962       3.02128123      -3.79444359
H       -1.10133694       3.77324165      -0.08648882
H       -2.55275914      -0.62257999      -1.33733225
H       -1.79896462      -0.61765717      -2.94089638
H       -3.01957173      -1.83109989      -2.53233253
H       -6.35746733       1.95698259      -1.73439684
H       -7.68808232       0.81772279      -1.94687756
H       -6.82830479       1.44007311      -3.35601074
H       -5.64170414      -2.14294799      -2.95837241
H       -6.58139906      -1.05170704      -3.98117642
H       -7.24566671      -1.61703368      -2.44665663
H       -5.14100450       0.40286871      -0.16575155
H       -4.87969284      -1.29048141      -0.60289563
H       -6.51091379      -0.69335121      -0.28870056
H       -4.38952154      -0.77051921      -5.23338837
H       -3.29073528       0.60611638      -5.35921522
H       -5.03203583       0.87723857      -5.25756188
H       -3.04021748       4.42960925       0.49079895
H       -4.27947489       5.52946677      -0.13161427
H       -4.16013179       4.50113260       4.28472138
H       -4.69622356       5.64418665       3.04787548
H       -3.09481500       4.89829842       2.94251176
H       -7.23561664       2.22875228       0.78500307
H       -8.28358658       1.67818875       2.10048020
H       -6.69931576       0.94010678       1.86703001
H       -6.09201316       1.46882632       4.29606172
H       -7.69099540       2.18132990       4.50488197
H       -6.25539600       3.11713541       4.91372092
H       -7.47227869       4.63741203       1.68056533
H       -7.11990618       4.97868901       3.37913489
H       -8.52306261       4.00072454       2.95221131
H       -4.22217940       0.92623682       1.91089812
H       -3.58978488       1.55647838       3.43503971
H       -2.80357716       1.98055695       1.90979661
H       -2.73993048       7.02918121      -1.15507220
H       -1.18227488       7.39989743      -1.92662347
H       -1.28559137       7.23721127      -0.15475784
H       -2.22476324       2.71366471      -3.88286111
69
Properties=species:S:1:pos:R:3 -90.0969580411=T converged=T charge=0 spin=1 pbc="F F F"
O       -2.26217041       2.50385292      -4.33633635
C       -2.81581356       3.33464613      -3.32963369
H       -3.81862195       3.67509656      -3.62669656
C       -2.96156959       2.52488732      -2.05266043
H       -1.99767455       2.04651009      -1.82443365
O       -3.98376103       1.56935752      -2.15819131
Si      -4.15776272       0.20328325      -3.09468472
C       -2.51352824      -0.63419136      -3.36167095
C       -5.32195693      -0.85900012      -2.05401034
C       -5.82446525      -2.05271852      -2.87032328
C       -4.58213729      -1.36716855      -0.81324526
C       -6.51595123      -0.01021882      -1.60446641
C       -4.94801300       0.64015586      -4.72618405
C       -3.36136608       3.45603940      -0.90402298
H       -4.36654055       3.84563083      -1.12276417
C       -3.43343240       2.73505870       0.42559821
O       -4.38179356       3.37410159       1.25540216
Si      -4.90007766       2.80222671       2.72728969
C       -3.54167546       3.01300979       3.99029717
C       -6.40847249       3.85684754       3.12613939
C       -7.50242589       3.58247337       2.08884067
C       -6.94519260       3.53834456       4.52497700
C       -6.01565152       5.33636462       3.05930923
C       -5.33322303       0.98606953       2.61369154
O       -2.43325420       4.52567347      -0.78003052
C       -2.42121051       5.35201416      -1.92003625
H       -3.43272725       5.76004578      -2.09616822
O       -1.51007282       6.37926266      -1.73666720
C       -1.87073821       7.29698559      -0.71395492
C       -1.94366070       4.55165273      -3.11463437
H       -0.91966432       4.22883778      -2.89359167
O       -1.99244302       5.30609281      -4.31280214
H       -2.09705883       3.06283957      -5.10515083
H       -1.87139630      -0.00098749      -3.97501527
H       -2.65399563      -1.58301617      -3.88573459
H       -1.99807333      -0.84438244      -2.42203114
H       -5.00178663      -2.67807114      -3.22612894
H       -6.40385936      -1.73037826      -3.73753951
H       -6.47494612      -2.68605424      -2.25819022
H       -5.26125457      -1.93422255      -0.16707281
H       -4.18653932      -0.53820683      -0.22100143
H       -3.75150147      -2.02553062      -1.07742915
H       -7.19569612      -0.60560132      -0.98471272
H       -7.09027862       0.36325271      -2.45597523
H       -6.18773466       0.84863267      -1.01585264
H       -4.26471063       1.25826695      -5.30900215
H       -5.87702495       1.19618991      -4.58125160
H       -5.17506428      -0.25700054      -5.30594277
H       -3.71734895       1.69477050       0.24279175
H       -2.43583379       2.75260256       0.88128604
H       -3.18888493       4.04513968       4.03252255
H       -2.68979996       2.37711995       3.73740496
H       -3.88133386       2.72187717       4.98669890
H       -7.84824434       2.54667604       2.13017801
H       -7.14621782       3.78524876       1.07682223
H       -8.36970172       4.22577115       2.27320312
H       -7.82480072       4.15529007       4.73716594
H       -6.20654157       3.74664519       5.30202884
H       -7.25227588       2.49395550       4.61800530
H       -5.62339943       5.59468658       2.07433015
H       -5.25829799       5.58623803       3.80648521
H       -6.88870277       5.96898339       3.25249767
H       -5.86163721       0.67501809       3.51895124
H       -4.43338450       0.37068014       2.54095140
H       -5.97004846       0.75670061       1.75660273
H       -2.84946901       7.74142029      -0.92123341
H       -1.11258445       8.07668370      -0.71161166
H       -1.89442841       6.80454505       0.25848911
H       -1.44425546       6.08860343      -4.18591465
69
Properties=species:S:1:pos:R:3 -90.1015845774=T converged=T charge=0 spin=1 pbc="F F F"
O       -1.60477184       3.17851240       0.04895849
C       -2.00475996       2.65009056      -1.20506951
H       -1.45174470       1.72208798      -1.36419133
C       -3.49870544       2.30553981      -1.21718542
H       -3.73378008       1.77139438      -0.29162192
O       -3.73145025       1.47650286      -2.35385988
Si      -4.67247172       0.09619565      -2.31013901
C       -6.41947518       0.54175532      -1.82442865
C       -4.54324196      -0.58539132      -4.05949640
C       -5.06478358       0.46664655      -5.04781222
C       -3.07354669      -0.89625843      -4.37507666
C       -5.37733727      -1.86774602      -4.19101204
C       -3.98519556      -1.07785710      -1.02848790
C       -4.39938449       3.53399419      -1.30103380
H       -5.36498536       3.19162802      -1.67559563
C       -4.68863035       4.17105056       0.05681594
O       -5.53245645       3.28245923       0.75967794
Si      -5.37422243       2.75561715       2.33045134
C       -3.72975207       1.90408371       2.59558706
C       -5.55246560       4.20440438       3.53550742
C       -6.79252004       5.02236384       3.15560872
C       -5.71933257       3.65918207       4.96139811
C       -4.31021375       5.10551247       3.49359290
C       -6.78471117       1.54570847       2.48821172
O       -3.96232849       4.48255419      -2.27819447
C       -2.60311627       4.82357469      -2.29758482
H       -2.47646219       5.41848218      -3.20743350
O       -2.22511724       5.58150935      -1.16491183
C       -2.76147390       6.89521057      -1.16030639
C       -1.68274133       3.60559184      -2.35365804
H       -0.65356869       3.95533980      -2.24960786
O       -1.78864115       2.98108381      -3.61327386
H       -1.64942529       4.14372600      -0.00578629
H       -6.91156679       1.16764283      -2.57117535
H       -6.42407208       1.08962701      -0.87749441
H       -7.02124765      -0.36004208      -1.68908061
H       -4.50912687       1.40400831      -4.97365270
H       -6.12022123       0.69358130      -4.87952088
H       -4.96665459       0.10000779      -6.07452480
H       -2.66896079      -1.66396752      -3.71102044
H       -2.44118584      -0.01055197      -4.28190142
H       -2.97938346      -1.26684623      -5.40085629
H       -6.43609487      -1.69083109      -3.98304834
H       -5.02807075      -2.65431420      -3.51662065
H       -5.30652428      -2.25949426      -5.21140507
H       -4.56857832      -2.00165021      -1.01691791
H       -4.04943598      -0.64537526      -0.02669452
H       -2.94219049      -1.33886922      -1.21515274
H       -3.77321448       4.37884219       0.61241998
H       -5.21369992       5.11666602      -0.11579649
H       -3.76044915       0.87490607       2.22886762
H       -3.48810695       1.86128256       3.66064848
H       -2.90733333       2.41254016       2.08728861
H       -7.70394333       4.42214148       3.21187284
H       -6.72031114       5.41379599       2.13830495
H       -6.91509117       5.87248802       3.83501973
H       -6.60350792       3.02484359       5.05580846
H       -5.83202463       4.48610211       5.67053728
H       -4.85329529       3.07386550       5.28090914
H       -4.41050383       5.91904744       4.22003912
H       -4.16771886       5.56478685       2.51254586
H       -3.39811533       4.55608526       3.73982053
H       -6.65882212       0.74253041       1.75743291
H       -7.74592066       2.02334077       2.28800057
H       -6.82746456       1.08992615       3.47891943
H       -2.44962546       7.36973863      -0.23359269
H       -3.85063108       6.87476151      -1.21116818
H       -2.37201316       7.46582765      -2.00802390
H       -2.56724066       2.40461715      -3.58687024
69
Properties=species:S:1:pos:R:3 -90.0968687916=T converged=T charge=0 spin=1 pbc="F F F"
O       -1.21441199       1.33179516      -1.87598565
C       -1.92402678       2.55442800      -2.01119198
H       -1.95820076       2.85115694      -3.06894346
C       -3.35683246       2.43856385      -1.52085419
H       -3.36236338       2.01283096      -0.50945191
O       -4.07145639       1.63565993      -2.43796236
Si      -4.83840297       0.17282603      -2.20943337
C       -6.16592565       0.29137640      -0.90664016
C       -5.52922870      -0.18925510      -3.92180553
C       -6.49458966       0.93082595      -4.32420306
C       -4.38697490      -0.23968361      -4.94137379
C       -6.27125676      -1.52883834      -3.91400069
C       -3.59441858      -1.11474000      -1.66680180
C       -3.99654090       3.82453243      -1.47629369
H       -4.10637450       4.17877041      -2.51252239
C       -5.37046467       3.82342952      -0.83707084
O       -5.39208447       3.21780861       0.43395641
Si      -4.90245276       3.81308537       1.91063893
C       -4.80962415       5.67523978       1.89431079
C       -6.20275360       3.20743814       3.13609327
C       -5.84221035       3.67346389       4.55049890
C       -7.57317123       3.77033620       2.74865792
C       -6.27712577       1.67782204       3.11038099
C       -3.23843813       3.06896469       2.31679473
O       -3.17715646       4.72249537      -0.74690800
C       -1.90278354       4.92313367      -1.34352045
H       -2.02814927       5.20046694      -2.39887995
O       -1.29535760       6.00988959      -0.75161301
C       -0.89879822       5.84617717       0.60259317
C       -1.13888865       3.60652937      -1.25200706
H       -1.06529670       3.29875649      -0.20066698
O        0.14373195       3.78478797      -1.80958196
H       -1.68196828       0.65916917      -2.38433347
H       -5.85909636       0.97782582      -0.11443430
H       -6.34523984      -0.68762451      -0.45666900
H       -7.11260055       0.65811506      -1.30852696
H       -6.88191366       0.75167266      -5.33275830
H       -5.99199303       1.90003519      -4.32818567
H       -7.35245851       0.99090295      -3.65060632
H       -3.68463587      -1.04863368      -4.72702077
H       -3.83450768       0.70182462      -4.95928038
H       -4.78448580      -0.41129060      -5.94727399
H       -5.60727339      -2.35813496      -3.65761128
H       -6.68552991      -1.73581656      -4.90618833
H       -7.10283531      -1.52781846      -3.20487769
H       -4.10760641      -2.03215077      -1.36960885
H       -3.03073979      -0.76420130      -0.79837834
H       -2.88091431      -1.37884676      -2.45144217
H       -5.73019799       4.85595607      -0.78823009
H       -6.04982875       3.26212127      -1.48183742
H       -4.37748645       6.03317190       2.83229068
H       -5.79123228       6.13998006       1.78116354
H       -4.17135976       6.01588013       1.07840341
H       -4.87674974       3.27687469       4.87413189
H       -6.59552400       3.32532440       5.26548511
H       -5.80265292       4.76325715       4.62063716
H       -8.34409950       3.39738685       3.43188833
H       -7.85093165       3.46728746       1.73677530
H       -7.59254315       4.86135828       2.79815872
H       -7.04695353       1.32543886       3.80588417
H       -5.33199455       1.21858831       3.40901230
H       -6.53836194       1.31145005       2.11551072
H       -3.28948479       1.97777608       2.33777668
H       -2.86260342       3.40965423       3.28420920
H       -2.51298564       3.35639410       1.55473230
H       -0.04301637       5.17195146       0.68606054
H       -1.72322031       5.48163090       1.21888497
H       -0.60720747       6.83346937       0.95339441
H        0.51910081       2.90555667      -1.93938897
69
Properties=species:S:1:pos:R:3 -90.0995526577=T converged=T charge=0 spin=1 pbc="F F F"
O       -1.52311918       2.90796546       0.17509444
C       -1.92197506       2.43520906      -1.10188012
H       -1.44707603       1.46368130      -1.25379206
C       -3.44004976       2.23088439      -1.17402475
H       -3.75332298       1.71278089      -0.26227422
O       -3.70356290       1.43952678      -2.32875343
Si      -4.81560002       0.19305755      -2.36130263
C       -6.54102545       0.84637964      -2.07597778
C       -4.59907840      -0.54361696      -4.07838736
C       -5.54638249      -1.73581202      -4.26672135
C       -4.90385599       0.52106910      -5.13910592
C       -3.14844815      -1.01266298      -4.24211634
C       -4.38793066      -1.01925671      -1.00528401
C       -4.21681712       3.53973735      -1.26623579
H       -5.20612253       3.30210870      -1.65764427
C       -4.46768114       4.17183654       0.10394172
O       -5.48825705       3.41200268       0.72477441
Si      -5.47532496       2.82730382       2.28338076
C       -3.89474931       1.88390272       2.60401524
C       -5.65529428       4.24861041       3.51768146
C       -6.84503491       5.13432003       3.13040921
C       -5.89354330       3.67822497       4.92180562
C       -4.38037976       5.10043553       3.53687046
C       -6.95045145       1.69146409       2.35580021
O       -3.66950721       4.43978458      -2.23213713
C       -2.28592401       4.66180147      -2.20074192
H       -2.07992040       5.23064507      -3.11176181
O       -1.89998637       5.40413424      -1.06270443
C       -2.35427802       6.74957647      -1.11014807
C       -1.46751584       3.37140901      -2.22034238
H       -0.41990391       3.63378967      -2.06042000
O       -1.55971523       2.76771493      -3.49203258
H       -1.48411524       3.87363212       0.13947262
H       -7.26264881       0.02566257      -2.06749160
H       -6.84024113       1.55039118      -2.85495742
H       -6.61456620       1.35915569      -1.11293066
H       -6.59611453      -1.44570765      -4.17159428
H       -5.34962806      -2.53286521      -3.54488045
H       -5.41396396      -2.16135591      -5.26683052
H       -4.26083052       1.39733149      -5.03440735
H       -5.94067564       0.85965966      -5.09014439
H       -4.73989663       0.11161754      -6.14072245
H       -2.44022393      -0.19323519      -4.10533808
H       -2.99329991      -1.42062039      -5.24561835
H       -2.89424164      -1.79755387      -3.52686225
H       -4.51238587      -0.57039251      -0.01661373
H       -3.35647982      -1.36668273      -1.08874644
H       -5.04642985      -1.88977137      -1.04603252
H       -3.56362298       4.19255759       0.71419358
H       -4.80959266       5.20017868      -0.04148565
H       -3.76425777       1.70624202       3.67376804
H       -3.01049234       2.41008851       2.24011147
H       -3.91519546       0.90876461       2.11106310
H       -6.95093622       5.95735417       3.84525257
H       -7.78537561       4.57833274       3.13311322
H       -6.72001007       5.57076726       2.13716678
H       -5.97544672       4.49463020       5.64646241
H       -5.07442239       3.03446340       5.25126558
H       -6.81893469       3.10050242       4.97455051
H       -3.49831089       4.50979119       3.79481021
H       -4.47063147       5.89700495       4.28241014
H       -4.19735811       5.58087198       2.57280707
H       -7.03528457       1.21804337       3.33630167
H       -6.85953207       0.89807287       1.61042784
H       -7.87861323       2.22906467       2.15418292
H       -3.44149595       6.79668714      -1.19212242
H       -1.91206125       7.26776337      -1.96669416
H       -2.03461648       7.22823384      -0.18883075
H       -2.40139330       2.28892214      -3.52108153
69
Properties=species:S:1:pos:R:3 -90.1005820925=T converged=T charge=0 spin=1 pbc="F F F"
O       -1.33866367       2.79419254       0.41644101
C       -1.54290256       2.32043524      -0.90437029
H       -1.11063766       1.31811712      -0.96538095
C       -3.04114338       2.21342117      -1.21276686
H       -3.53842303       1.70959565      -0.37788040
O       -3.18233821       1.46756324      -2.41841187
Si      -3.89851218      -0.02165187      -2.65825910
C       -3.61309905      -1.12159848      -1.17664762
C       -5.74600170       0.19240720      -2.98055478
C       -6.34546684      -1.13584109      -3.45807143
C       -6.46999702       0.63291530      -1.70338389
C       -5.95236635       1.25024059      -4.06861654
C       -2.99980493      -0.66271606      -4.15590576
C       -3.70102373       3.57319166      -1.42228630
H       -4.62733924       3.38544410      -1.96906895
C       -4.11230680       4.28788402      -0.13809762
O       -5.09446855       3.50189379       0.49919885
Si      -5.13495982       3.00056974       2.08579043
C       -3.61826951       3.57818138       3.00233804
C       -6.71951366       3.70591131       2.82101163
C       -6.69463035       5.23245259       2.69978275
C       -7.91725052       3.16463426       2.03408719
C       -6.85906195       3.31781159       4.29519252
C       -5.17318895       1.13460042       2.06724837
O       -2.94671222       4.42323346      -2.29098904
C       -1.57116054       4.55121862      -2.05094229
H       -1.19145410       5.09910513      -2.91777257
O       -1.29554774       5.27217449      -0.86615293
C       -1.61674764       6.65264183      -0.95894971
C       -0.85260998       3.20701745      -1.94199372
H        0.17106554       3.40255529      -1.61596881
O       -0.78433088       2.58853426      -3.20652988
H       -1.20334431       3.75132765       0.37342989
H       -2.54534946      -1.22685472      -0.97211058
H       -4.00796983      -2.12152474      -1.37578169
H       -4.09930813      -0.75433742      -0.27049781
H       -6.23824851      -1.92634899      -2.71083055
H       -5.88445687      -1.47754063      -4.38761996
H       -7.41691802      -1.01449377      -3.65056819
H       -6.05964715       1.55716067      -1.28657788
H       -6.42328256      -0.13931904      -0.93160202
H       -7.52933919       0.81442038      -1.91688326
H       -5.52540141       2.21288370      -3.78130565
H       -7.02173970       1.39831167      -4.25246330
H       -5.49585885       0.94828007      -5.01403434
H       -1.92943725      -0.70028754      -3.93953894
H       -3.13963411       0.00851003      -5.00606476
H       -3.32380567      -1.66249305      -4.45011083
H       -3.26355108       4.47780685       0.51708351
H       -4.54320020       5.25309940      -0.41876944
H       -3.53188001       4.66536822       3.05640550
H       -2.72116836       3.18085314       2.52152654
H       -3.64423824       3.19314732       4.02492685
H       -6.59950365       5.54551460       1.65751199
H       -5.87063560       5.67089218       3.26828267
H       -7.62503920       5.65922275       3.09009204
H       -7.83318944       3.40442629       0.97181203
H       -8.84724529       3.60901506       2.40512182
H       -8.00815977       2.08035284       2.13379337
H       -6.88516259       2.23394205       4.43007732
H       -7.79253446       3.71995960       4.70352755
H       -6.03988420       3.71592763       4.89863480
H       -5.87836363       0.76891636       1.31774908
H       -5.46116799       0.72391849       3.03784238
H       -4.18128292       0.74412389       1.82397536
H       -0.98153919       7.13719355      -1.70604762
H       -1.42503187       7.09590702       0.01526155
H       -2.66426598       6.79988345      -1.22880398
H       -1.64550802       2.17230916      -3.36557286
69
Properties=species:S:1:pos:R:3 -90.0983433101=T converged=T charge=0 spin=1 pbc="F F F"
O       -1.65871169       2.31951398       0.34462941
C       -1.81085252       2.15510542      -1.05674842
H       -1.51096581       1.13374243      -1.29954484
C       -3.27617101       2.33200500      -1.47982223
H       -3.90487633       1.78550329      -0.77155437
O       -3.43618341       1.83247592      -2.80705717
Si      -4.08695571       0.34308171      -3.19663820
C       -3.00157551      -1.00266351      -2.49196953
C       -5.85850065       0.16463435      -2.55177485
C       -6.60655309       1.49797696      -2.65501350
C       -6.56385348      -0.87368505      -3.43833474
C       -5.90361787      -0.32575443      -1.09947653
C       -4.03552132       0.34011012      -5.05884598
C       -3.72447508       3.78847757      -1.47955123
H       -4.60604200       3.84376850      -2.11933285
C       -4.16909779       4.27307350      -0.10166371
O       -5.34858378       3.55707036       0.20957121
Si      -6.20546959       3.63203112       1.63476943
C       -7.74465346       2.64310115       1.27907584
C       -5.22414612       2.86352849       3.05609008
C       -4.55294630       1.57073315       2.57788510
C       -4.16105062       3.82606594       3.59813998
C       -6.19939097       2.53238209       4.19392462
C       -6.62464004       5.41455909       2.01490804
O       -2.78078965       4.65936463      -2.10895291
C       -1.43220814       4.53684827      -1.74612956
H       -0.89594672       5.16926011      -2.45960643
O       -1.19002381       4.98482648      -0.42757480
C       -1.33927263       6.38982376      -0.28229835
C       -0.91355172       3.10466867      -1.84704245
H        0.09242331       3.08344583      -1.42433127
O       -0.80852059       2.72172178      -3.20070143
H       -1.43110358       3.24309393       0.51695238
H       -1.99730984      -0.93937781      -2.91577881
H       -3.39750455      -1.99564126      -2.71700773
H       -2.91322244      -0.91973857      -1.40631967
H       -7.66919329       1.34618106      -2.43510623
H       -6.53515330       1.93029255      -3.65676275
H       -6.22508756       2.22845292      -1.93910529
H       -7.56814308      -1.07138614      -3.05068248
H       -6.03144840      -1.82886402      -3.46289449
H       -6.67098393      -0.52194778      -4.46628784
H       -6.94541129      -0.45772437      -0.78764047
H       -5.44825299       0.38677297      -0.40759314
H       -5.40035934      -1.28700704      -0.97603493
H       -3.02880367       0.58995744      -5.40150859
H       -4.72534277       1.07449398      -5.48064395
H       -4.29350422      -0.63795412      -5.46896546
H       -3.40079259       4.10433328       0.65263552
H       -4.36449675       5.34881937      -0.15922910
H       -8.45943775       2.70030070       2.10228877
H       -7.51075887       1.58929632       1.11047713
H       -8.23579117       3.02527524       0.38169533
H       -4.06288007       1.06942564       3.41954412
H       -3.79049870       1.76029866       1.81920976
H       -5.28253111       0.87047018       2.16062277
H       -3.42920099       4.11004751       2.83881843
H       -3.60984430       3.35028914       4.41573546
H       -4.60909080       4.74054820       3.99354455
H       -6.74605381       3.41591709       4.53493538
H       -5.64921562       2.13808888       5.05438000
H       -6.92985573       1.77801048       3.89550263
H       -7.26830324       5.83256433       1.23822521
H       -5.73089902       6.03895803       2.08101541
H       -7.15561476       5.49963496       2.96619729
H       -0.62491967       6.91516577      -0.92339028
H       -1.13103565       6.63222189       0.75681250
H       -2.35087673       6.70790348      -0.54092835
H       -1.69951403       2.49164049      -3.50378147
69
Properties=species:S:1:pos:R:3 -90.0994781156=T converged=T charge=0 spin=1 pbc="F F F"
O       -1.77130538       1.90890913       0.60909046
C       -2.09259760       1.58102001      -0.73353587
H       -1.98932147       0.49916441      -0.84021352
C       -3.54107321       1.95524391      -1.06113209
H       -4.17519794       1.61045163      -0.23880574
O       -3.88365814       1.31095524      -2.28720712
Si      -5.32348608       0.48412260      -2.48537128
C       -6.76266752       1.60612559      -2.09333187
C       -5.30472811      -0.05205233      -4.29105700
C       -4.09338766      -0.95881568      -4.53699669
C       -6.59435749      -0.81372155      -4.62712569
C       -5.18928150       1.17880360      -5.19804965
C       -5.31473382      -0.95895593      -1.30005882
C       -3.75124005       3.45556527      -1.22238689
H       -4.67932790       3.58521686      -1.78019093
C       -3.96503729       4.17438236       0.10737197
O       -5.22269613       3.73844637       0.59160476
Si      -5.86996851       4.09931301       2.08214176
C       -7.59809912       3.40356365       2.02397116
C       -4.89121259       3.28862082       3.48484158
C       -5.77165070       3.26318213       4.74291459
C       -4.52566225       1.84938630       3.10302791
C       -3.61170402       4.06548847       3.81430238
C       -5.89772611       5.95470900       2.29811861
O       -2.75851377       4.06167723      -2.05173505
C       -1.41508568       3.75173602      -1.79700246
H       -0.87120723       4.17264741      -2.64810559
O       -0.95978578       4.33099734      -0.59236541
C       -0.87798401       5.74704635      -0.66233753
C       -1.14307632       2.25093238      -1.72372531
H       -0.11648563       2.11472628      -1.37948535
O       -1.23479226       1.68679529      -3.01241684
H       -1.33653842       2.77215122       0.60910573
H       -7.70106349       1.04717782      -2.12609039
H       -6.83433515       2.42907160      -2.80723910
H       -6.66757007       2.03874137      -1.09357996
H       -4.04107247      -1.24818170      -5.59145759
H       -4.14650639      -1.87632836      -3.94876898
H       -3.15604796      -0.45778394      -4.28705601
H       -6.71163459      -1.71186844      -4.01492762
H       -6.57817665      -1.13289972      -5.67479431
H       -7.48394506      -0.19350274      -4.48851911
H       -5.15067105       0.87141750      -6.24823662
H       -4.28453063       1.75226644      -4.98844250
H       -6.04205997       1.85084143      -5.08804536
H       -6.21145654      -1.57265684      -1.40864430
H       -5.28509150      -0.60990705      -0.26423289
H       -4.44159477      -1.59438894      -1.46142540
H       -3.17223982       3.94691198       0.82030466
H       -3.97104713       5.25324504      -0.07885687
H       -8.14025950       3.76771435       1.14894825
H       -8.16050969       3.69296238       2.91502948
H       -7.58460060       2.31231180       1.97695861
H       -6.64664036       2.62336884       4.61493033
H       -6.11969509       4.26031489       5.02737190
H       -5.19545818       2.86795256       5.58557789
H       -4.07492700       1.33955088       3.96098350
H       -3.80390899       1.81611507       2.28470081
H       -5.40435058       1.26856725       2.80881977
H       -3.83039270       5.08252790       4.14635558
H       -2.92960447       4.12574270       2.96404800
H       -3.07280007       3.56463348       4.62480132
H       -6.53912605       6.43532763       1.55595756
H       -4.89512775       6.37666934       2.20298611
H       -6.27112064       6.22399598       3.28849014
H       -0.18013208       6.04625954      -1.45063899
H       -0.51290404       6.09682695       0.29947192
H       -1.85411889       6.18946016      -0.86772186
H       -2.17685007       1.55531906      -3.19695207
69
Properties=species:S:1:pos:R:3 -90.1022510704=T converged=T charge=0 spin=1 pbc="F F F"
O       -1.41554951       2.98060599       0.05741102
C       -1.86364522       2.55186437      -1.21605122
H       -1.37967924       1.59562729      -1.42915845
C       -3.37753636       2.31369072      -1.21726113
H       -3.64155330       1.75852033      -0.30989979
O       -3.67943310       1.55454477      -2.38661464
Si      -4.64080115       0.18734767      -2.37951357
C       -6.33752725       0.62882871      -1.74368824
C       -4.64308932      -0.35876208      -4.17768968
C       -5.22412543       0.76109224      -5.04787417
C       -3.20714828      -0.64517346      -4.63076421
C       -5.49067584      -1.62439036      -4.34353716
C       -3.89421853      -1.09101746      -1.24145782
C       -4.19873998       3.60101771      -1.24014097
H       -5.18347931       3.33522364      -1.63016093
C       -4.45502230       4.20202275       0.14091294
O       -5.30493361       3.31132884       0.83050637
Si      -5.17168220       2.76139299       2.39581355
C       -3.38359039       2.61556553       2.91665754
C       -6.10415208       3.93614192       3.53961782
C       -5.50346103       5.34239429       3.44355713
C       -7.57396805       3.99546867       3.11523783
C       -6.00931093       3.44989045       4.98876936
C       -5.98479103       1.08578133       2.32857349
O       -3.70180268       4.56584202      -2.17062636
C       -2.32314362       4.81551802      -2.18230862
H       -2.16717246       5.45326083      -3.05649819
O       -1.88880374       5.48284537      -1.01368003
C       -2.32965907       6.83061329      -0.93678823
C       -1.49006979       3.54263649      -2.31851702
H       -0.43870807       3.81497056      -2.20960619
O       -1.65813849       2.99355677      -3.60621367
H       -1.41819804       3.94823372       0.06624882
H       -6.87560631       1.28574554      -2.42981485
H       -6.25634441       1.14536557      -0.78268553
H       -6.94080120      -0.26838581      -1.58558686
H       -5.18889614       0.47284793      -6.10372485
H       -4.65782322       1.68838338      -4.93878676
H       -6.26693822       0.96927770      -4.79808645
H       -3.19820598      -0.93547876      -5.68671353
H       -2.75646302      -1.46134714      -4.06147285
H       -2.56777651       0.23358956      -4.52542416
H       -5.09274755      -2.45865085      -3.76078749
H       -5.49963112      -1.93388862      -5.39393359
H       -6.52816522      -1.46206162      -4.04106863
H       -2.88897301      -1.38265290      -1.55013420
H       -4.51698491      -1.98860649      -1.21256288
H       -3.83410715      -0.71106740      -0.21833296
H       -3.53089633       4.38602185       0.69225998
H       -4.96288847       5.16014761      -0.00090265
H       -2.73222386       2.37596838       2.07301229
H       -3.28669846       1.81182922       3.65122999
H       -2.99917390       3.52736149       3.37879147
H       -5.56816514       5.73925937       2.42740336
H       -4.45617352       5.36205627       3.75469777
H       -6.04981256       6.03001574       4.09838369
H       -8.06444466       3.02621759       3.22903179
H       -7.67411859       4.30688383       2.07297123
H       -8.11909034       4.71564414       3.73476280
H       -4.97516775       3.42346568       5.34121482
H       -6.43686855       2.45164450       5.11033471
H       -6.56423803       4.12499061       5.64920492
H       -6.96322762       1.15521710       1.84878286
H       -6.11614657       0.64795646       3.32036603
H       -5.37292658       0.39902564       1.73739271
H       -3.41726598       6.89639966      -1.00369161
H       -1.88303553       7.41861869      -1.74362979
H       -1.99789402       7.22569574       0.02041423
H       -2.48143012       2.48163643      -3.59421049
69
Properties=species:S:1:pos:R:3 -90.0995397966=T converged=T charge=0 spin=1 pbc="F F F"
O       -1.58314859       2.99866028       0.18264560
C       -1.96578087       2.55871560      -1.11119813
H       -1.45025055       1.61543621      -1.30449709
C       -3.47350341       2.28510749      -1.18831587
H       -3.76105522       1.71718217      -0.29790038
O       -3.70518979       1.53158736      -2.37510926
Si      -4.73058740       0.21486959      -2.45349801
C       -6.49413857       0.74864480      -2.15303285
C       -4.46179664      -0.44765220      -4.19211343
C       -4.85279425       0.62329156      -5.21859073
C       -2.97843670      -0.79657010      -4.36866005
C       -5.31189811      -1.70462441      -4.41762570
C       -4.22771274      -1.01535803      -1.14015066
C       -4.31278401       3.55772167      -1.22491386
H       -5.29431317       3.29037236      -1.61809837
C       -4.57927742       4.13081040       0.16838410
O       -5.56096625       3.30850307       0.77193890
Si      -5.49862197       2.69978554       2.32002661
C       -3.89704672       1.77171757       2.58304553
C       -5.65784127       4.09700003       3.58455414
C       -4.38964186       4.96077886       3.59571335
C       -6.86417122       4.97941457       3.24287643
C       -5.85782121       3.49510525       4.98214081
C       -6.95676835       1.54604880       2.41363893
O       -3.81518219       4.51759284      -2.15983608
C       -2.44415631       4.80588258      -2.12186321
H       -2.26669175       5.41896758      -3.00947922
O       -2.09099578       5.52252961      -0.95707861
C       -2.60661855       6.84656445      -0.95423499
C       -1.56236310       3.55922924      -2.19289977
H       -0.52820572       3.86520831      -2.02282438
O       -1.62727363       3.00140298      -3.48715582
H       -1.58908541       3.96583304       0.18594669
H       -7.16311173      -0.11488844      -2.18002774
H       -6.83641528       1.46294686      -2.90462976
H       -6.59908520       1.21689693      -1.17028573
H       -4.65414597       0.25975642      -6.23184187
H       -4.28198479       1.54471172      -5.08264745
H       -5.91454162       0.87443693      -5.16095925
H       -2.79694591      -1.16290051      -5.38391690
H       -2.66140048      -1.57840301      -3.67428357
H       -2.33698416       0.07283891      -4.21048160
H       -5.04852099      -2.50767720      -3.72476154
H       -5.15189902      -2.08457057      -5.43147814
H       -6.38107853      -1.50505127      -4.30994080
H       -4.37589689      -0.60753717      -0.13742005
H       -3.17851843      -1.30102388      -1.23530333
H       -4.83457993      -1.92068587      -1.21058983
H       -3.67206684       4.17102228       0.77270874
H       -4.96590674       5.14846412       0.06368592
H       -3.73895868       1.56462560       3.64426824
H       -3.02730307       2.31855101       2.21273963
H       -3.92000892       0.81035985       2.06366503
H       -4.23740692       5.47341145       2.64275589
H       -3.49475754       4.37150292       3.81146891
H       -4.46863206       5.73270306       4.36853410
H       -7.79909219       4.41405869       3.25561381
H       -6.76549475       5.43585647       2.25543916
H       -6.95963523       5.78739061       3.97626558
H       -6.77356840       2.90314009       5.04513358
H       -5.93409023       4.29606632       5.72437817
H       -5.02284854       2.85673291       5.28116160
H       -6.99433794       1.04941268       3.38463400
H       -6.88141825       0.77271269       1.64653830
H       -7.89955760       2.07420174       2.26353464
H       -3.69502765       6.84623447      -1.03526144
H       -2.19013388       7.41582124      -1.79081736
H       -2.30606128       7.30608027      -0.01662596
H       -2.44762574       2.48865248      -3.53912720
69
Properties=species:S:1:pos:R:3 -90.1012141927=T converged=T charge=0 spin=1 pbc="F F F"
O       -1.22666510       2.26390429      -0.57569992
C       -1.93320476       2.30031453      -1.80384297
H       -1.82704956       1.32104761      -2.27601686
C       -3.43140123       2.54691614      -1.58618457
H       -3.77828384       1.91082334      -0.76740928
O       -4.08315212       2.22047407      -2.81205623
Si      -5.47039544       1.31687506      -3.02632274
C       -5.94492527       1.71773589      -4.78275024
C       -5.10961068      -0.52846034      -2.81817334
C       -4.65935666      -0.83304875      -1.38313978
C       -6.38527433      -1.32920049      -3.11983199
C       -4.00879166      -0.94752306      -3.80089341
C       -6.76117504       1.88248210      -1.79840581
C       -3.75190747       3.99476832      -1.22312408
H       -4.80968814       4.14584736      -1.44617284
C       -3.59322092       4.30653407       0.26401640
O       -4.59409157       3.57327021       0.94365537
Si      -4.70356822       3.51608925       2.60401146
C       -5.00118083       5.24143077       3.26158750
C       -6.16242756       2.37147207       2.92254384
C       -5.86313342       1.00481123       2.29373769
C       -6.39752958       2.20279992       4.42892387
C       -7.41378610       2.97535801       2.27283381
C       -3.11363204       2.85194862       3.32685403
O       -3.07654795       4.94286620      -2.05423587
C       -1.70296158       4.75538517      -2.26900559
H       -1.43831338       5.48690630      -3.03909184
O       -0.94144325       4.98430355      -1.09958775
C       -0.89032743       6.34930241      -0.71472338
C       -1.36637973       3.34965269      -2.76361215
H       -0.27892398       3.25635131      -2.79392876
O       -1.83760012       3.18097460      -4.08187815
H       -0.87439084       3.14872182      -0.40717231
H       -6.15699335       2.78486531      -4.87410911
H       -6.83140062       1.16869520      -5.10390519
H       -5.13307086       1.48381577      -5.47468004
H       -4.49069326      -1.90821040      -1.26209157
H       -5.41271692      -0.53743344      -0.64763505
H       -3.72250418      -0.33013947      -1.12999804
H       -6.75741882      -1.14555444      -4.13067084
H       -7.18939063      -1.09861567      -2.41719411
H       -6.18205918      -2.40185055      -3.03887416
H       -4.32067327      -0.80782226      -4.83856394
H       -3.76642344      -2.00756410      -3.67194630
H       -3.09038255      -0.37531572      -3.64996464
H       -6.34061676       1.99216179      -0.79588323
H       -7.59231314       1.17696826      -1.73642936
H       -7.16678451       2.85239103      -2.09446295
H       -2.60107029       4.04074611       0.63595421
H       -3.74349339       5.38472245       0.39710763
H       -5.20159989       5.22237071       4.33532285
H       -5.84668447       5.72293017       2.76666689
H       -4.11856853       5.86701673       3.10752731
H       -6.71753838       0.33208783       2.42037191
H       -4.99505102       0.52716967       2.75503780
H       -5.66161214       1.09568920       1.22435477
H       -7.25430756       1.54436626       4.60626176
H       -6.61465482       3.15590325       4.91797680
H       -5.53551845       1.75531336       4.92989571
H       -8.26858874       2.30341275       2.39920020
H       -7.26866872       3.13960066       1.20328045
H       -7.67923463       3.93388472       2.72587999
H       -2.78875828       1.93618266       2.82949159
H       -3.24111504       2.63649990       4.39042864
H       -2.30789014       3.58427624       3.24005856
H       -0.37590396       6.93766315      -1.48004069
H       -0.33197478       6.40120142       0.21676843
H       -1.89164673       6.75515478      -0.56141556
H       -2.77749871       2.95189234      -4.02466473
69
Properties=species:S:1:pos:R:3 -90.1010097533=T converged=T charge=0 spin=1 pbc="F F F"
O       -1.62158861       2.88662085      -0.38131922
C       -2.16603159       2.80089603      -1.68796190
H       -1.76038441       1.90207782      -2.15758489
C       -3.69186592       2.65504886      -1.65256743
H       -3.95242788       1.91296428      -0.89364988
O       -4.09568618       2.22399781      -2.95057360
Si      -5.25303795       1.06852975      -3.29592888
C       -5.59856231       1.34912826      -5.10524875
C       -4.57117671      -0.66810950      -2.98616297
C       -5.62463774      -1.70356326      -3.40888004
C       -3.29753782      -0.87546956      -3.81546602
C       -4.25153974      -0.86435957      -1.49782378
C       -6.76026874       1.37455046      -2.23489646
C       -4.40901011       3.95511533      -1.30099208
H       -5.43612556       3.85587858      -1.65505366
C       -4.51479234       4.20337123       0.20296504
O       -5.43581760       3.26436507       0.71779304
Si      -5.25660996       2.33310275       2.08604651
C       -3.72036091       1.27275169       1.98327535
C       -5.18272055       3.43063926       3.62489092
C       -3.84617408       4.18273520       3.69410980
C       -6.33957323       4.43550574       3.57459027
C       -5.32146304       2.55151054       4.87614899
C       -6.79666774       1.28239690       2.06172045
O       -3.90010393       5.08785498      -2.01004975
C       -2.50958733       5.25547892      -2.06022859
H       -2.35089816       6.07151666      -2.77199054
O       -1.96392015       5.59897618      -0.80087090
C       -2.30036767       6.91108706      -0.37760403
C       -1.77683480       4.00573881      -2.54516638
H       -0.70445414       4.18314498      -2.44168776
O       -2.03727703       3.79733466      -3.91438120
H       -1.52901733       3.82377843      -0.15808755
H       -6.32795906       0.63695999      -5.49557890
H       -4.68904840       1.26172890      -5.70370758
H       -5.99821432       2.35460782      -5.25483931
H       -5.23158788      -2.71576215      -3.26808577
H       -5.90016603      -1.60490621      -4.46175888
H       -6.53830647      -1.62456194      -2.81492275
H       -2.87344450      -1.86622039      -3.62162066
H       -2.53241688      -0.13276037      -3.57695079
H       -3.49916966      -0.80997548      -4.88726514
H       -3.44705520      -0.20634674      -1.16008674
H       -3.92475289      -1.89329757      -1.31491543
H       -5.12547508      -0.68177692      -0.86514910
H       -7.31737726       2.23916750      -2.60206746
H       -6.49069338       1.57588375      -1.19508724
H       -7.43394951       0.51523160      -2.24760760
H       -3.54549774       4.12570554       0.69736407
H       -4.89903844       5.21835928       0.35184245
H       -3.91239394       0.37020781       1.39813569
H       -3.40742553       0.95528909       2.98099485
H       -2.87981109       1.79496691       1.52066441
H       -3.79686398       4.78137729       4.60993931
H       -3.71550512       4.86758576       2.85284131
H       -2.99363095       3.49865285       3.70285240
H       -6.32097086       5.09027098       4.45212324
H       -7.30889842       3.93094713       3.56036369
H       -6.28533735       5.06576293       2.68381273
H       -6.26728458       2.00529693       4.88863611
H       -5.28823247       3.17059162       5.77874686
H       -4.51282390       1.82016202       4.95429708
H       -6.79705500       0.65632667       1.16579715
H       -7.69927779       1.89595019       2.03448488
H       -6.85576238       0.62185737       2.92833680
H       -1.88239230       7.65020621      -1.06672124
H       -1.86818827       7.05563155       0.60916295
H       -3.38169698       7.04214814      -0.32389399
H       -2.88093500       3.32574659      -3.98354143
69
Properties=species:S:1:pos:R:3 -90.0994121781=T converged=T charge=0 spin=1 pbc="F F F"
O       -1.77163299       2.04738836       0.68188909
C       -2.03756043       1.67289810      -0.66046050
H       -1.83778894       0.60250540      -0.75021785
C       -3.50962772       1.90451923      -1.02207178
H       -4.13243406       1.50249627      -0.21612231
O       -3.75873813       1.22800186      -2.25379200
Si      -5.10315752       0.26851767      -2.50510577
C       -6.64583527       1.22825512      -2.07782007
C       -5.01436380      -0.17362266      -4.32997715
C       -6.22560587      -1.03025733      -4.71428558
C       -5.01703302       1.10792522      -5.17146222
C       -3.72710261      -0.95635548      -4.61255532
C       -4.96486689      -1.22036696      -1.38718630
C       -3.85527134       3.37770466      -1.20620838
H       -4.78386535       3.41396015      -1.77897592
C       -4.14447075       4.10143636       0.10637121
O       -5.33438564       3.53922726       0.62601838
Si      -6.07511322       3.97874897       2.05126076
C       -7.63898136       2.96307262       2.07809151
C       -4.98214560       3.56733042       3.53707024
C       -3.87218113       4.60665214       3.72914180
C       -5.86451179       3.56709895       4.79250366
C       -4.36071935       2.17743790       3.35970444
C       -6.46320837       5.80876190       2.00102863
O       -2.90541011       4.06166409      -2.02713452
C       -1.54305403       3.88123638      -1.74332546
H       -1.02405828       4.34785882      -2.58554226
O       -1.16314204       4.51204027      -0.53679889
C       -1.20279383       5.92957303      -0.62047555
C       -1.13517006       2.41167548      -1.64779407
H       -0.10442132       2.37448329      -1.29015023
O       -1.15589790       1.82226742      -2.92855124
H       -1.44797600       2.95846385       0.68560759
H       -7.52502926       0.58184709      -2.12516783
H       -6.80703081       2.06468933      -2.76050270
H       -6.58331101       1.63356995      -1.06418431
H       -6.26252707      -1.96181668      -4.14457024
H       -6.17711755      -1.29648668      -5.77516256
H       -7.16468499      -0.49535752      -4.55472837
H       -4.17395012       1.75709153      -4.92691626
H       -5.93578624       1.68335334      -5.03598090
H       -4.94542877       0.85213501      -6.23331942
H       -2.83601463      -0.38773405      -4.33834398
H       -3.65747590      -1.18416923      -5.68100252
H       -3.69884583      -1.90479741      -4.07137305
H       -4.03433915      -1.76364710      -1.56281453
H       -5.79642687      -1.91341656      -1.53089874
H       -4.97705690      -0.91016895      -0.33884868
H       -3.32437541       3.99120366       0.81452992
H       -4.27104165       5.16780448      -0.11044049
H       -8.28838493       3.24149417       2.91050250
H       -7.41893432       1.89706519       2.17122831
H       -8.20075984       3.11221657       1.15367371
H       -3.20195880       4.66574872       2.86916365
H       -3.26099050       4.34153817       4.59766172
H       -4.28011398       5.60400756       3.90702206
H       -6.62057901       2.78058201       4.75649096
H       -6.37748682       4.52264666       4.93103870
H       -5.25022115       3.39513705       5.68200458
H       -5.12599059       1.41315915       3.19898559
H       -3.80579546       1.89899179       4.26202547
H       -3.66490022       2.13781493       2.51925758
H       -7.16751287       6.02464514       1.19460917
H       -5.56647739       6.40924887       1.83111680
H       -6.91500920       6.14887439       2.93621351
H       -0.51863150       6.28157802      -1.39881492
H       -0.88225470       6.32246691       0.34135747
H       -2.21066006       6.28223106      -0.84714491
H       -2.07553278       1.57946383      -3.11538162
69
Properties=species:S:1:pos:R:3 -90.1001975822=T converged=T charge=0 spin=1 pbc="F F F"
O       -1.63857151       2.98549671       0.60102580
C       -1.69991394       2.54262997      -0.74509424
H       -1.14751943       1.60159747      -0.80510914
C       -3.14357413       2.26148590      -1.18582845
H       -3.64260912       1.68846894      -0.39948734
O       -3.07538436       1.52668143      -2.40424835
Si      -3.57078074      -0.04231012      -2.68363298
C       -3.37753429      -1.04263000      -1.11771474
C       -5.36784584      -0.03460291      -3.25429147
C       -6.28554855       0.32396694      -2.07923099
C       -5.54628220       0.99105981      -4.37983452
C       -5.74279365      -1.42633375      -3.77788064
C       -2.43250453      -0.66085957      -4.02252485
C       -3.95390424       3.52951564      -1.42608418
H       -4.80437506       3.25502400      -2.05289142
C       -4.54567035       4.11347880      -0.14347294
O       -5.58969981       3.25328907       0.27022079
Si      -5.82804905       2.65606295       1.80749254
C       -4.36582307       1.63167594       2.35695769
C       -6.11135606       4.06955977       3.03420542
C       -4.81098189       4.82906879       3.32625108
C       -7.15137386       5.03926897       2.46340437
C       -6.63364296       3.47875582       4.35089306
C       -7.34818562       1.59169668       1.63001004
O       -3.24545378       4.49551648      -2.20676868
C       -1.92531923       4.78849680      -1.83775223
H       -1.54255901       5.41651824      -2.64825978
O       -1.85938110       5.48516542      -0.60963951
C       -2.36132961       6.81087841      -0.68698333
C       -1.04923618       3.54340694      -1.70074927
H       -0.08737103       3.85381779      -1.28715838
O       -0.80066416       2.98610328      -2.97123356
H       -1.63899574       3.95304363       0.59781743
H       -4.01033688      -0.66523085      -0.31226764
H       -2.34229253      -1.03467814      -0.76930668
H       -3.66071692      -2.08261893      -1.29793944
H       -7.32464888       0.38748128      -2.41846613
H       -6.03216608       1.28624426      -1.62505336
H       -6.24534147      -0.43971219      -1.29806337
H       -6.58771220       1.00136466      -4.71787241
H       -4.92383372       0.75297861      -5.24624147
H       -5.29006777       2.00096575      -4.05356378
H       -5.62379024      -2.19675491      -3.01141379
H       -5.13914784      -1.71105617      -4.64266889
H       -6.79144745      -1.43915014      -4.09150675
H       -2.64810987      -1.69993325      -4.28073480
H       -1.39329741      -0.60544812      -3.69063268
H       -2.52215375      -0.06272609      -4.93209902
H       -3.78466251       4.22314754       0.62980161
H       -4.95433397       5.10372666      -0.37045369
H       -4.36340260       0.65321902       1.86958766
H       -4.40694202       1.45905032       3.43560678
H       -3.41634280       2.12098448       2.12967291
H       -4.42472659       5.33839193       2.44067156
H       -4.02884146       4.16660323       3.70514126
H       -4.98893150       5.59571198       4.08799347
H       -6.81571444       5.47731405       1.52053684
H       -7.33728997       5.85819418       3.16652719
H       -8.10666280       4.54258032       2.27692827
H       -7.57447359       2.94174050       4.21255583
H       -6.81397507       4.27879458       5.07643337
H       -5.91302345       2.79085842       4.80069735
H       -8.21594820       2.17905511       1.32389656
H       -7.59419809       1.07322913       2.55938684
H       -7.17372569       0.83560369       0.86079289
H       -2.30070533       7.23534193       0.31202587
H       -3.39754182       6.82137421      -1.02865078
H       -1.75149575       7.40492482      -1.37375622
H       -1.58292536       2.46904409      -3.21601240
69
Properties=species:S:1:pos:R:3 -90.1011247643=T converged=T charge=0 spin=1 pbc="F F F"
O       -1.29919425       2.70390376      -0.02334180
C       -1.73518832       2.42379022      -1.34520832
H       -1.42835657       1.40338826      -1.58200585
C       -3.26569772       2.49921908      -1.45035098
H       -3.70140800       1.95824855      -0.60478468
O       -3.66823526       1.93055018      -2.69282554
Si      -4.13048030       0.36630456      -3.04576285
C       -2.83845555      -0.85699607      -2.47689929
C       -5.80195424      -0.04488870      -2.25769244
C       -5.63567615      -0.47839749      -0.79539319
C       -6.71761785       1.18266820      -2.32218637
C       -6.44268834      -1.20035382      -3.04151255
C       -4.21601302       0.41566519      -4.90499722
C       -3.78985276       3.93258850      -1.42630819
H       -4.78886665       3.89640728      -1.86470693
C       -3.96026172       4.52431793      -0.02881917
O       -5.00070035       3.81485752       0.61569117
Si      -4.91546410       3.33023445       2.20892484
C       -4.18441773       4.70580913       3.24648437
C       -6.70423596       2.97688481       2.67214739
C       -6.78797085       2.44686446       4.10787574
C       -7.51286959       4.27354584       2.55053163
C       -7.27474660       1.93047934       1.70754177
C       -3.82426162       1.82386275       2.37714727
O       -3.05502851       4.80329588      -2.29538242
C       -1.65478838       4.77122546      -2.22296094
H       -1.31963913       5.38608559      -3.06376399
O       -1.16350834       5.30275925      -1.00833417
C       -1.31925054       6.71084060      -0.90535087
C       -1.08956125       3.36008699      -2.36804204
H       -0.01467081       3.40525484      -2.18304080
O       -1.26691416       2.90661275      -3.69234536
H       -1.07932634       3.64496768       0.02576183
H       -2.65463506      -0.80159167      -1.40188664
H       -1.89335314      -0.68583480      -2.99602485
H       -3.16403668      -1.87642849      -2.69960926
H       -6.61435559      -0.70065313      -0.35681677
H       -5.18069479       0.30488583      -0.18333462
H       -5.02294778      -1.37832940      -0.70532668
H       -6.32086632       2.00874494      -1.72729159
H       -7.71001153       0.93702581      -1.92915845
H       -6.84672090       1.53884118      -3.34758275
H       -5.81472696      -2.09579976      -3.04097365
H       -6.64100483      -0.92881905      -4.08021134
H       -7.39888644      -1.47632850      -2.58582405
H       -3.23727118       0.69300585      -5.30295205
H       -4.93471248       1.15994748      -5.25286976
H       -4.48793060      -0.55042077      -5.33111907
H       -3.03220112       4.48693943       0.54665299
H       -4.24762022       5.57485870      -0.14758277
H       -3.10818849       4.78991398       3.07994121
H       -4.32914770       4.49206857       4.30829834
H       -4.64092036       5.67398375       3.03284319
H       -6.21923982       1.52223868       4.23381295
H       -7.82819163       2.22876726       4.37065849
H       -6.41600907       3.17320184       4.83460442
H       -7.46028381       4.67627240       1.53706676
H       -7.15265387       5.04181932       3.23950111
H       -8.56582816       4.08773250       2.78544771
H       -8.33224798       1.75105417       1.92789726
H       -6.75460770       0.97321956       1.79456759
H       -7.19867458       2.26172311       0.66990174
H       -3.58125796       1.64996893       3.42838612
H       -2.88386347       1.97548189       1.84036261
H       -4.29530176       0.91880761       1.98731901
H       -0.95776295       7.00467512       0.07721232
H       -2.36612098       7.00073710      -1.01104923
H       -0.72535498       7.21079070      -1.67626183
H       -2.20022817       2.66302680      -3.78472853
69
Properties=species:S:1:pos:R:3 -90.1000503963=T converged=T charge=0 spin=1 pbc="F F F"
O       -1.30907426       2.63289572       0.23348867
C       -1.83256569       2.17286636      -1.00337658
H       -1.59268975       1.11109271      -1.08333393
C       -3.35939177       2.32085135      -1.04924600
H       -3.77804750       1.95373873      -0.10675198
O       -3.85782242       1.57351388      -2.15322795
Si      -4.41640658       0.00110610      -2.11717188
C       -5.44064960      -0.25291320      -0.57472893
C       -5.44772082      -0.13500315      -3.68395386
C       -4.61262841       0.32527212      -4.88386502
C       -5.88788695      -1.58566525      -3.90474628
C       -6.68725251       0.75623149      -3.55674981
C       -2.96716651      -1.17733426      -2.14638580
C       -3.80737112       3.76327950      -1.24253792
H       -4.83869894       3.72418015      -1.59587116
C       -3.84435721       4.57665074       0.05196095
O       -4.94766018       4.11516165       0.80689147
Si      -4.90546871       3.73092574       2.42620008
C       -4.10812446       5.12454128       3.38418353
C       -6.71708432       3.49969940       2.87841917
C       -7.35078498       2.49409073       1.91080662
C       -6.84166277       2.96678596       4.30933611
C       -7.45074869       4.83952835       2.76813283
C       -3.93159198       2.16009233       2.69614791
O       -3.09658585       4.41164352      -2.30336066
C       -1.69702461       4.32652328      -2.28671293
H       -1.38049142       4.75900650      -3.24052523
O       -1.13370085       5.05604110      -1.21530885
C       -1.26357927       6.46117446      -1.38893280
C       -1.19377339       2.88772792      -2.19535619
H       -0.11153289       2.91604861      -2.05574113
O       -1.43782881       2.21812941      -3.41414588
H       -1.04390849       3.55621257       0.12137335
H       -6.15980023       0.55689341      -0.43470125
H       -4.81242674      -0.30560882       0.31727493
H       -6.00035583      -1.18979358      -0.63280796
H       -5.19127179       0.21571584      -5.80646864
H       -3.70099319      -0.26572332      -4.99824491
H       -4.32698539       1.37487450      -4.79404457
H       -6.47270273      -1.96730551      -3.06387487
H       -5.03332263      -2.24892586      -4.05364388
H       -6.51630249      -1.65200986      -4.79907112
H       -7.33814962       0.42950365      -2.74276519
H       -7.27225000       0.71819295      -4.48124372
H       -6.41581020       1.79790168      -3.37349325
H       -2.41480997      -1.14342127      -1.20460770
H       -2.27093122      -0.91783489      -2.94713945
H       -3.29107187      -2.20883679      -2.29966167
H       -2.91164376       4.49636590       0.61307971
H       -3.99249946       5.62816999      -0.20911154
H       -4.57809793       6.08633956       3.17104708
H       -3.04596313       5.20428149       3.14134033
H       -4.18200908       4.94411938       4.45926598
H       -6.86686276       1.51620512       1.96881489
H       -7.28492713       2.83915868       0.87770117
H       -8.40772717       2.35162716       2.15828175
H       -7.89733366       2.83828308       4.57042639
H       -6.40616228       3.65258637       5.04034128
H       -6.35479942       1.99548676       4.42246003
H       -7.35915932       5.26358268       1.76635425
H       -7.06325673       5.57124206       3.48026879
H       -8.51569382       4.70463297       2.98355008
H       -4.44384718       1.29786604       2.26247419
H       -3.79376814       1.96176502       3.76163289
H       -2.94253092       2.23140601       2.23695400
H       -0.71799496       6.78279226      -2.28090573
H       -0.83621122       6.94359274      -0.51398385
H       -2.31093909       6.74914241      -1.49026560
H       -2.38526743       2.01924647      -3.44618278
69
Properties=species:S:1:pos:R:3 -90.1009950233=T converged=T charge=0 spin=1 pbc="F F F"
O       -1.30142962       2.93452435       0.19704563
C       -1.56661055       2.55869501      -1.14436520
H       -1.02543543       1.62971820      -1.33877163
C       -3.06194214       2.28471066      -1.35384070
H       -3.42092501       1.66626521      -0.52499759
O       -3.20877892       1.60700063      -2.59983425
Si      -3.78554276       0.06035795      -2.85765245
C       -3.31995030      -1.03800940      -1.41954497
C       -5.66077800       0.10079359      -3.07386996
C       -6.03276863       1.19317531      -4.08295424
C       -6.15010636      -1.25437737      -3.60138915
C       -6.34160196       0.38970398      -1.72940745
C       -2.91960655      -0.46984472      -4.41674314
C       -3.90064835       3.55936618      -1.40485141
H       -4.82930458       3.28964927      -1.91220051
C       -4.31898302       4.10508298      -0.03926398
O       -5.17972058       3.15068639       0.54435499
Si      -5.19198994       2.65596542       2.13461123
C       -3.48342684       2.74844266       2.88446319
C       -6.40124449       3.74224870       3.09368893
C       -5.95792356       5.20741226       3.00484568
C       -7.79580420       3.60164843       2.47482363
C       -6.44226344       3.31635940       4.56507261
C       -5.78272939       0.89035859       2.05499316
O       -3.32398626       4.56955548      -2.23786143
C       -1.96193105       4.85674057      -2.06583946
H       -1.71647371       5.52901680      -2.89273708
O       -1.69841013       5.49195832      -0.82985944
C       -2.19813327       6.82035617      -0.76153581
C       -1.07751854       3.61280039      -2.13902814
H       -0.06193615       3.90951469      -1.86990211
O       -1.04022699       3.12340775      -3.46112685
H       -1.31956255       3.90093312       0.24623570
H       -3.73818800      -0.69295047      -0.47195931
H       -2.23527409      -1.10116843      -1.31193650
H       -3.69661837      -2.04960979      -1.59024726
H       -5.59596053       0.99904442      -5.06572062
H       -5.69248578       2.17768765      -3.75667786
H       -7.11957049       1.23833216      -4.20964561
H       -5.91268578      -2.07226334      -2.91648404
H       -5.71881242      -1.49233980      -4.57618816
H       -7.23817251      -1.23977029      -3.72202499
H       -6.16940243      -0.41643985      -1.01158930
H       -7.42506337       0.47628616      -1.86800150
H       -5.99677423       1.32217211      -1.27343135
H       -1.83944372      -0.40947393      -4.27265761
H       -3.17513289       0.17937600      -5.25584673
H       -3.16670577      -1.49541848      -4.69355284
H       -3.46177106       4.31930606       0.60367776
H       -4.86172978       5.03994454      -0.21607674
H       -3.21663094       3.75276111       3.22093330
H       -2.72179424       2.42066010       2.17344615
H       -3.43813124       2.08883018       3.75510149
H       -6.66036511       5.84933497       3.54698449
H       -5.92843132       5.55751731       1.97001362
H       -4.96997843       5.36240129       3.44578040
H       -7.78742971       3.86960684       1.41579645
H       -8.50902416       4.25994867       2.98196590
H       -8.17269865       2.57980632       2.56021442
H       -5.46730413       3.42631482       5.04603309
H       -6.75982614       2.27716498       4.67949280
H       -7.15322870       3.93633464       5.12118213
H       -4.99804716       0.25104433       1.64411147
H       -6.65572116       0.80132768       1.40658080
H       -6.04487927       0.50557609       3.04234145
H       -3.27065534       6.84708374      -0.96394737
H       -1.67604409       7.45457366      -1.48475528
H       -2.00778417       7.18626233       0.24523110
H       -1.84570154       2.60212936      -3.59674146
69
Properties=species:S:1:pos:R:3 -90.0990041410=T converged=T charge=0 spin=1 pbc="F F F"
O       -1.58395781       2.64359931      -0.12852316
C       -2.01459419       2.61383686      -1.48018468
H       -1.63596225       1.69054512      -1.92387228
C       -3.54573405       2.58986289      -1.58411195
H       -3.93250023       1.85005183      -0.87646090
O       -3.86284476       2.23502066      -2.92815177
Si      -5.09643688       1.20787805      -3.38993036
C       -5.29024613       1.52229788      -5.21435516
C       -4.58539484      -0.58072051      -3.07157881
C       -4.46137320      -0.85502805      -1.56871011
C       -5.64657512      -1.51777473      -3.66220306
C       -3.23696244      -0.86291466      -3.74158631
C       -6.65245404       1.61243439      -2.43809912
C       -4.18360094       3.93415732      -1.25816958
H       -5.19226591       3.92227973      -1.67409032
C       -4.36057598       4.15072603       0.24627558
O       -5.44010696       3.32886292       0.65310739
Si      -5.47926220       2.37004567       2.01555144
C       -3.98911215       1.24354241       2.04180375
C       -5.51479243       3.43523829       3.57635220
C       -4.17302366       4.15204295       3.76363168
C       -6.62989158       4.47934614       3.47015485
C       -5.77210385       2.54690536       4.80003742
C       -7.05987023       1.39854756       1.83733842
O       -3.54078892       5.01813094      -1.93386317
C       -2.14242369       5.09025986      -1.85836682
H       -1.86516814       5.88481380      -2.55785047
O       -1.70381764       5.41956212      -0.55518156
C       -2.01824681       6.75925864      -0.19982257
C       -1.45144174       3.79234061      -2.27515426
H       -0.38714536       3.89478526      -2.05101700
O       -1.57310809       3.60853869      -3.66774308
H       -1.41982742       3.56470776       0.11646551
H       -5.55805749       2.56494965      -5.39705963
H       -6.07223286       0.89171038      -5.64266423
H       -4.35982959       1.31393679      -5.74702541
H       -4.24595081      -1.91504218      -1.39921498
H       -5.38081533      -0.61390011      -1.02844586
H       -3.64583437      -0.28496213      -1.11847170
H       -5.75600497      -1.38025273      -4.73996263
H       -6.62695060      -1.36845184      -3.20358490
H       -5.35781884      -2.55995681      -3.49129468
H       -2.93245818      -1.89677188      -3.54909808
H       -2.45213393      -0.20573017      -3.36106549
H       -3.28544384      -0.73029091      -4.82447331
H       -7.40475247       0.83263862      -2.57660032
H       -7.08736672       2.55197981      -2.78360854
H       -6.46957162       1.71356577      -1.36586403
H       -3.44991265       3.91062844       0.79732428
H       -4.60491811       5.20248701       0.42357401
H       -4.12813844       0.41236411       1.34672451
H       -3.83028808       0.81675572       3.03461105
H       -3.07336429       1.76149893       1.74947000
H       -3.96774559       4.85026088       2.94932275
H       -3.33899246       3.44894177       3.82027463
H       -4.18505097       4.72853443       4.69463154
H       -6.65254747       5.09814906       4.37352212
H       -7.61270891       4.01454994       3.36548314
H       -6.48160587       5.13940907       2.61275685
H       -4.99844818       1.78540253       4.92400010
H       -6.73729091       2.03963666       4.74126432
H       -5.77803822       3.15913887       5.70804825
H       -7.92658301       2.05620610       1.74560869
H       -7.21680254       0.74636425       2.69892037
H       -7.01890339       0.76800561       0.94604352
H       -3.09401461       6.93653759      -0.24606638
H       -1.51349798       7.45591746      -0.87551461
H       -1.66359230       6.92330089       0.81411061
H       -2.45588480       3.24491690      -3.83340738
69
Properties=species:S:1:pos:R:3 -90.0994648876=T converged=T charge=0 spin=1 pbc="F F F"
O       -1.70759219       2.18463623       0.55570798
C       -2.01998265       1.78127633      -0.76804471
H       -1.78852679       0.71710450      -0.85037292
C       -3.51462661       1.95902483      -1.05817383
H       -4.08491731       1.55238245      -0.21528367
O       -3.80366051       1.26258839      -2.27015357
Si      -5.11590366       0.23992303      -2.43149655
C       -6.67279326       1.12330768      -1.89923056
C       -5.13622621      -0.20078474      -4.26338093
C       -6.33851451      -1.10203711      -4.57216121
C       -5.23471365       1.08026172      -5.10264010
C       -3.83902889      -0.93397236      -4.62746765
C       -4.82628162      -1.23725616      -1.32720399
C       -3.91704688       3.41673052      -1.24412117
H       -4.87228391       3.41791773      -1.77296996
C       -4.16575459       4.15053161       0.07101381
O       -5.32928149       3.57139377       0.63393920
Si      -5.99277577       3.97417806       2.10706874
C       -7.59149046       3.01872356       2.18148819
C       -4.85713150       3.46689285       3.53527834
C       -5.68770281       3.43504269       4.82667687
C       -4.28227585       2.06881120       3.27643557
C       -3.70623723       4.46059600       3.73432186
C       -6.30580518       5.81774024       2.14550272
O       -3.03330384       4.11411449      -2.12536050
C       -1.65362096       3.98721157      -1.90890702
H       -1.18917791       4.44938311      -2.78579573
O       -1.23838889       4.65415565      -0.73496218
C       -1.33785219       6.06669324      -0.84169582
C       -1.18946607       2.53620302      -1.80516677
H       -0.14509839       2.54069301      -1.48557141
O       -1.24563276       1.92507410      -3.07453918
H       -1.39643478       3.09905704       0.52472917
H       -6.56795237       1.54338405      -0.89484870
H       -7.51806686       0.43053274      -1.88588652
H       -6.91935619       1.94424903      -2.57570697
H       -7.28668915      -0.60485813      -4.35345692
H       -6.30819080      -2.03451023      -4.00326281
H       -6.34622142      -1.36825128      -5.63440142
H       -5.22923627       0.82857077      -6.16921150
H       -4.39331063       1.74972646      -4.91170924
H       -6.15551780       1.63309270      -4.90007487
H       -2.95812952      -0.32987995      -4.39766061
H       -3.81949602      -1.15445845      -5.70025281
H       -3.74389055      -1.88230286      -4.09329836
H       -4.78673386      -0.92939671      -0.27878328
H       -3.87887095      -1.72289391      -1.56739361
H       -5.62387061      -1.97700756      -1.42105086
H       -3.31831259       4.05426794       0.75013459
H       -4.32176530       5.21266418      -0.15080390
H       -8.19664065       3.20947546       1.29320855
H       -8.17855482       3.30349942       3.05751805
H       -7.40532495       1.94416849       2.23903434
H       -6.17334803       4.39470075       5.02731681
H       -5.03674371       3.21163319       5.67881322
H       -6.46168223       2.66596470       4.79124422
H       -5.07172229       1.33489904       3.09112134
H       -3.72225186       1.72892495       4.15484010
H       -3.60133224       2.05723518       2.42249509
H       -3.07202419       4.13205588       4.56524019
H       -4.07563453       5.45990862       3.97573586
H       -3.06861905       4.54161940       2.85131502
H       -5.38509048       6.38038887       1.97391703
H       -6.70255971       6.12785352       3.11519730
H       -7.02843423       6.11142100       1.38038168
H       -2.36782109       6.37920939      -1.02294763
H       -0.70855679       6.42460946      -1.66176520
H       -0.98583695       6.49208747       0.09480548
H       -2.16784149       1.66542769      -3.22330699
69
Properties=species:S:1:pos:R:3 -90.1015151634=T converged=T charge=0 spin=1 pbc="F F F"
O       -1.51995702       2.85047811      -0.51963806
C       -2.13583997       2.76721851      -1.79351735
H       -1.76222682       1.86497877      -2.28252359
C       -3.65754876       2.63137054      -1.67025392
H       -3.88029599       1.89282351      -0.89492226
O       -4.13835216       2.20293330      -2.94239897
Si      -5.27766482       1.01635508      -3.23680483
C       -5.78667091       1.36116778      -4.99501742
C       -4.50532461      -0.70199526      -3.06536033
C       -3.26102329      -0.80077955      -3.95626251
C       -4.11327450      -0.97044813      -1.60622701
C       -5.52602793      -1.76138164      -3.50727324
C       -6.69589937       1.21920560      -2.03736688
C       -4.34896260       3.93918788      -1.28947857
H       -5.39285155       3.83413918      -1.59117551
C       -4.38249452       4.22380922       0.21316213
O       -5.22009252       3.25326455       0.80313078
Si      -4.94843284       2.43109094       2.22524092
C       -3.12640416       2.10181747       2.48287091
C       -5.64780314       3.43668131       3.66190942
C       -4.96929394       4.81208561       3.69913042
C       -7.15541219       3.62118194       3.45507754
C       -5.38814040       2.70709937       4.98561689
C       -5.87951812       0.83251153       1.99495935
O       -3.87501515       5.06038638      -2.04077432
C       -2.48726549       5.22201008      -2.16305466
H       -2.36404318       6.03283805      -2.88755819
O       -1.87574840       5.57079445      -0.93614452
C       -2.18904913       6.88549293      -0.50171908
C       -1.78636283       3.96576709      -2.67746402
H       -0.70949692       4.13947996      -2.63067454
O       -2.11875177       3.74955210      -4.03034448
H       -1.42508102       3.78697573      -0.29455073
H       -4.93180417       1.31620901      -5.67296200
H       -6.20889957       2.36581666      -5.06340408
H       -6.53836785       0.65504419      -5.35127903
H       -3.50935624      -0.67153340      -5.01233695
H       -2.79332975      -1.78490969      -3.84762242
H       -2.51482369      -0.04657401      -3.69658401
H       -3.69829111      -1.97883640      -1.50731848
H       -4.97521917      -0.90512089      -0.93654757
H       -3.35123558      -0.27250661      -1.24928841
H       -5.08596184      -2.76065915      -3.42724058
H       -5.83586868      -1.62509158      -4.54596603
H       -6.42373177      -1.75240852      -2.88439594
H       -7.32227625       2.06513312      -2.32819342
H       -6.34369092       1.40379939      -1.01947555
H       -7.32650974       0.32777766      -2.01681591
H       -3.38597221       4.21390278       0.66068547
H       -4.81172431       5.22257755       0.34821737
H       -2.61607847       2.91230943       3.00723512
H       -2.60626003       1.94117158       1.53608839
H       -3.00945324       1.19893850       3.08768100
H       -5.36275011       5.40701898       4.52979103
H       -5.14777327       5.37574615       2.78005479
H       -3.88842423       4.73106484       3.84042937
H       -7.57914053       4.24660670       4.24773052
H       -7.68417408       2.66518718       3.47182133
H       -7.36843130       4.10332764       2.49788607
H       -5.85228302       1.71775551       5.00459492
H       -5.80381941       3.27728483       5.82297080
H       -4.31946735       2.57911272       5.17518674
H       -5.36775726       0.20451313       1.26178076
H       -6.89215885       1.01437887       1.63076565
H       -5.94745333       0.26807986       2.92693443
H       -1.72411489       7.02509000       0.47111847
H       -3.26753852       7.02330031      -0.41265488
H       -1.78736905       7.62052981      -1.20513189
H       -2.97332419       3.29348134      -4.05038835
69
Properties=species:S:1:pos:R:3 -90.0948532204=T converged=T charge=0 spin=1 pbc="F F F"
O       -1.13417895       0.71125696      -1.62278709
C       -1.65994561       2.03020580      -1.72638252
H       -1.51740734       2.30629315      -2.77516776
C       -3.14705809       2.10387203      -1.42644993
H       -3.34115658       1.67528478      -0.43298457
O       -3.87730061       1.44322330      -2.43098368
Si      -4.75427659       0.03201564      -2.30170309
C       -5.59509147      -0.04173678      -0.63655813
C       -5.99328448       0.13043609      -3.72023617
C       -5.24341159       0.37527342      -5.03515000
C       -6.76949151      -1.18692729      -3.81943367
C       -6.98308436       1.27719556      -3.49053586
C       -3.63733671      -1.45000327      -2.48171612
C       -3.60000016       3.56557454      -1.41337889
H       -3.55160852       3.93455704      -2.44908028
C       -5.02193068       3.71953090      -0.91495918
O       -5.19772790       3.17312616       0.37028812
Si      -4.84997145       3.87687130       1.84076252
C       -4.88556764       5.73678688       1.69228760
C       -6.21226494       3.25127161       2.99168882
C       -7.58686496       3.61348264       2.41777669
C       -6.10247291       1.72714576       3.12335340
C       -6.07046348       3.88523429       4.38033637
C       -3.17414355       3.31718775       2.44947329
O       -2.78051355       4.34947514      -0.56601371
C       -1.41450091       4.37723141      -0.94175568
H       -1.33268684       4.76032083      -1.97539769
O       -0.74639003       5.19452656      -0.05633989
C       -1.01371074       6.57235785      -0.26171500
C       -0.84256773       2.97628080      -0.85769583
H       -0.91290129       2.66466276       0.19613695
O        0.50043693       3.00105870      -1.28543849
H       -1.22993913       0.41672891      -0.70758638
H       -6.31329497      -0.86495870      -0.61740142
H       -6.12137595       0.88391523      -0.39951009
H       -4.87892753      -0.22649887       0.16809199
H       -4.67353923       1.30524957      -4.99974096
H       -5.95382714       0.44275337      -5.86588741
H       -4.54840868      -0.43537887      -5.26662927
H       -7.32023124      -1.40601697      -2.90163181
H       -6.10978212      -2.03030016      -4.03309345
H       -7.50288861      -1.13271103      -4.63038415
H       -6.47491085       2.24332968      -3.47306890
H       -7.53739477       1.16383488      -2.55539804
H       -7.71703464       1.30523983      -4.30287316
H       -4.19352274      -2.37336527      -2.30483566
H       -2.82307857      -1.40402773      -1.75635422
H       -3.18257868      -1.50399165      -3.47214021
H       -5.28374411       4.78259243      -0.92969974
H       -5.68889149       3.18919908      -1.59599998
H       -4.12740835       6.07666968       0.98467021
H       -4.65908579       6.18595357       2.66224240
H       -5.85771451       6.11120683       1.36570661
H       -7.72180093       4.69603384       2.34135657
H       -8.37906339       3.23250582       3.07171101
H       -7.73221735       3.18232251       1.42512772
H       -6.90192643       1.34519267       3.76779696
H       -5.15077121       1.42814868       3.57133400
H       -6.19075372       1.23453791       2.15238660
H       -5.10694056       3.65344980       4.84026431
H       -6.84919981       3.50481880       5.05040435
H       -6.17724707       4.97186333       4.34330082
H       -2.38094560       3.89187560       1.96912306
H       -3.01579657       2.26023101       2.22049834
H       -3.07601508       3.43801125       3.53069268
H       -0.40531173       7.12195958       0.45157972
H       -2.06855332       6.80140143      -0.09365385
H       -0.73538481       6.86454603      -1.27970547
H        0.73322079       2.09621609      -1.52697317
69
Properties=species:S:1:pos:R:3 -90.1006097809=T converged=T charge=0 spin=1 pbc="F F F"
O       -1.62202147       2.21313058      -0.21986361
C       -2.11184635       2.24437283      -1.55054893
H       -1.97886658       1.24739962      -1.97583881
C       -3.60940085       2.56672458      -1.58597340
H       -4.11133220       1.97687859      -0.81575319
O       -4.08099322       2.22353592      -2.88795490
Si      -5.52278129       1.45582046      -3.24286591
C       -5.70296513       1.75310766      -5.07254610
C       -5.41866222      -0.39101120      -2.84624305
C       -6.67902756      -1.08673652      -3.38274193
C       -4.18345578      -0.99683120      -3.52295142
C       -5.33621947      -0.61663262      -1.33027630
C       -6.90366693       2.24450160      -2.26266899
C       -3.90966981       4.03835782      -1.30920523
H       -4.90141990       4.23649670      -1.71845602
C       -4.01359955       4.35497301       0.18241084
O       -5.13742345       3.63450789       0.63973061
Si      -5.68067161       3.40947591       2.19176476
C       -7.30988542       2.54718653       1.91821549
C       -4.49390341       2.33264720       3.19565532
C       -3.29983221       3.14736080       3.70999356
C       -5.26029219       1.76723479       4.40071241
C       -3.98825798       1.17559354       2.32442408
C       -5.92027627       5.06926507       3.01759876
O       -3.05214493       4.93791319      -2.01366183
C       -1.67589851       4.67167041      -2.00302837
H       -1.25067289       5.37187326      -2.72880239
O       -1.10019854       4.88591869      -0.72858917
C       -1.05307699       6.25471111      -0.35587318
C       -1.34242971       3.23978857      -2.41936776
H       -0.27115546       3.08927625      -2.27135260
O       -1.60696488       3.06597986      -3.79322823
H       -1.25963319       3.08663842      -0.01482490
H       -4.86478586       1.33169241      -5.63119798
H       -5.72105522       2.82761176      -5.26603018
H       -6.62465985       1.32427075      -5.46862914
H       -6.78451412      -0.96920891      -4.46369913
H       -7.58952929      -0.70742723      -2.91236372
H       -6.62987550      -2.16044489      -3.17485665
H       -4.23161858      -0.90121163      -4.61036588
H       -4.10677277      -2.06410305      -3.29046030
H       -3.26212035      -0.51533683      -3.18801801
H       -4.42405090      -0.19616712      -0.89966546
H       -5.33208559      -1.68922289      -1.10991157
H       -6.19039381      -0.17797762      -0.80670041
H       -7.15063160       3.22656847      -2.67153564
H       -6.62703572       2.37927270      -1.21411908
H       -7.80687586       1.63117702      -2.29680014
H       -3.10936193       4.07435257       0.72663298
H       -4.16969748       5.43413211       0.29583790
H       -7.91530120       3.12851481       1.21997660
H       -7.87358452       2.43359092       2.84508762
H       -7.16716270       1.55510626       1.48341883
H       -3.61695142       3.95693425       4.37167323
H       -2.71856841       3.58694269       2.89541960
H       -2.62224174       2.50290360       4.27946135
H       -4.59196150       1.16156088       5.02116628
H       -6.08957498       1.12818631       4.09041981
H       -5.66653864       2.55909049       5.03654138
H       -4.81424292       0.59061822       1.90860130
H       -3.37374541       0.49407584       2.92267732
H       -3.37146697       1.52929786       1.49560746
H       -6.64005156       5.66858649       2.45648231
H       -4.98438062       5.62906447       3.07565121
H       -6.29848853       4.95585779       4.03641514
H       -2.04802023       6.70199306      -0.37550291
H       -0.39577596       6.80723638      -1.03348597
H       -0.65305700       6.30257953       0.65389212
H       -2.55033527       2.86436327      -3.88554998
69
Properties=species:S:1:pos:R:3 -90.1018708715=T converged=T charge=0 spin=1 pbc="F F F"
O       -1.55482782       2.83513022       0.25924634
C       -1.92578924       2.39891086      -1.03761126
H       -1.48221007       1.41261919      -1.19321932
C       -3.44680557       2.24410035      -1.15677624
H       -3.81025608       1.71836684      -0.26694814
O       -3.69705710       1.47878763      -2.33493750
Si      -4.81853293       0.24175089      -2.41545588
C       -6.53118284       0.92038248      -2.12280750
C       -4.58592724      -0.45000191      -4.14742993
C       -5.54352488      -1.62201651      -4.38466866
C       -4.86707871       0.65150398      -5.17579089
C       -3.13995478      -0.93081545      -4.31446125
C       -4.45553130      -1.01186128      -1.07952004
C       -4.18528736       3.57650066      -1.25760101
H       -5.15399390       3.36879245      -1.71648658
C       -4.50089375       4.19617165       0.10252654
O       -5.48943604       3.38688188       0.70737204
Si      -5.51142769       2.77143346       2.25453039
C       -3.95895199       1.79159800       2.61280599
C       -5.70206318       4.17051153       3.50999648
C       -4.43247721       5.02803004       3.56510279
C       -6.88848940       5.05166326       3.10978928
C       -5.95956239       3.58333382       4.90251115
C       -7.01016334       1.66799000       2.21169377
O       -3.56279871       4.49787125      -2.15645425
C       -2.17471189       4.66450295      -2.07110238
H       -1.91759059       5.27337254      -2.94167212
O       -1.78785356       5.33100730      -0.88475885
C       -2.15862782       6.70215364      -0.86069342
C       -1.41089524       3.34261563      -2.12439641
H       -0.35719901       3.55687360      -1.93735012
O       -1.51128396       2.77873213      -3.41285696
H       -1.48465386       3.80032047       0.24067135
H       -6.56972399       1.43659792      -1.15876456
H       -7.26602307       0.11186029      -2.09331127
H       -6.83408604       1.63056152      -2.89495196
H       -5.35829704      -2.44584298      -3.69189768
H       -5.41349376      -2.01414631      -5.39847052
H       -6.58896330      -1.32186835      -4.28352249
H       -4.69647234       0.27309022      -6.18918210
H       -4.21129292       1.51264502      -5.03139073
H       -5.90088795       1.00098367      -5.12435116
H       -2.42664154      -0.11965467      -4.15527658
H       -2.98486619      -1.31352368      -5.32882856
H       -2.89711006      -1.73703861      -3.61801617
H       -4.61586644      -0.57584198      -0.09000319
H       -3.43115211      -1.38588757      -1.12249196
H       -5.13510487      -1.86343833      -1.16555465
H       -3.60964445       4.28887052       0.72649058
H       -4.90673092       5.19813970      -0.06679580
H       -4.06022336       0.76565439       2.24850851
H       -3.77024045       1.73728443       3.68820330
H       -3.07199162       2.22036565       2.13975633
H       -4.54083599       5.81178351       4.32307318
H       -4.23708226       5.52624944       2.61271549
H       -3.55210043       4.43681489       3.82958887
H       -6.99652525       5.88663297       3.81027036
H       -7.82564005       4.49057772       3.12149248
H       -6.75818473       5.46838312       2.10870625
H       -6.86646611       2.97486303       4.92513201
H       -6.08975476       4.39044005       5.63138249
H       -5.12562814       2.96749165       5.24802223
H       -7.21513528       1.19831937       3.17507898
H       -6.84903468       0.87486513       1.47726320
H       -7.89370907       2.22761440       1.89960823
H       -1.63086169       7.24689522      -1.64930522
H       -1.86621565       7.09942886       0.10896412
H       -3.23522799       6.82300192      -0.99767235
H       -2.35690604       2.30622424      -3.45375705
69
Properties=species:S:1:pos:R:3 -90.1012824519=T converged=T charge=0 spin=1 pbc="F F F"
O       -1.69196715       2.11694940       0.57143177
C       -2.02991281       1.76183531      -0.75895622
H       -1.88440712       0.68404436      -0.86036727
C       -3.50276056       2.05982513      -1.05540102
H       -4.09877795       1.71687594      -0.20495975
O       -3.84399159       1.35571712      -2.24654245
Si      -5.22571439       0.43446861      -2.41953437
C       -6.72623828       1.49783847      -2.10569506
C       -5.10953092      -0.19137609      -4.18932437
C       -6.33798278      -1.04580799      -4.52249905
C       -5.04082210       0.99897504      -5.15212179
C       -3.84112623      -1.03545467      -4.35692953
C       -5.21354064      -0.94469791      -1.16053773
C       -3.79106605       3.54641374      -1.25402948
H       -4.71956330       3.61341370      -1.82295590
C       -4.05355528       4.28649362       0.05565515
O       -5.24833966       3.74193410       0.56938854
Si      -5.99095310       4.00296365       2.03075860
C       -7.60408715       3.09851736       1.80451612
C       -4.98264643       3.29404498       3.46640297
C       -3.82801337       4.22200590       3.85880162
C       -5.90087139       3.12309433       4.68355295
C       -4.41161520       1.92681235       3.07659176
C       -6.27581478       5.83342761       2.26232877
O       -2.82972799       4.20742333      -2.07855543
C       -1.47285161       3.95799168      -1.83200789
H       -0.94974450       4.42438343      -2.67229308
O       -1.03608753       4.52830744      -0.61409695
C       -0.96938240       5.94507382      -0.64908374
C       -1.14060302       2.46717759      -1.78298393
H       -0.09603062       2.36273496      -1.48246755
O       -1.26753896       1.90889964      -3.07189579
H       -1.33407487       3.01567415       0.55754146
H       -6.86232900       2.25550057      -2.87856873
H       -6.62423415       2.01194774      -1.14575506
H       -7.63307306       0.89082594      -2.06222264
H       -7.26607421      -0.47433919      -4.43474705
H       -6.41285028      -1.92058238      -3.87079446
H       -6.26634121      -1.40657336      -5.55390919
H       -5.94251336       1.61317382      -5.10448348
H       -4.94078956       0.63633234      -6.17995406
H       -4.18348630       1.64076437      -4.93930638
H       -2.94062124      -0.46606122      -4.11738348
H       -3.75670230      -1.37147406      -5.39521342
H       -3.85759435      -1.92409754      -3.72255964
H       -6.11728904      -1.55303377      -1.24347772
H       -5.18972891      -0.53794105      -0.14638847
H       -4.35035403      -1.60031296      -1.28014232
H       -3.22948022       4.16738584       0.75992455
H       -4.16891816       5.35349579      -0.16756712
H       -8.07837895       3.45621926       0.88767971
H       -8.30040879       3.25265428       2.62986071
H       -7.43404912       2.02484629       1.69726399
H       -4.18761209       5.19484603       4.20053317
H       -3.13343462       4.38699512       3.03183470
H       -3.25841266       3.77168410       4.67846218
H       -5.32062975       2.73168492       5.52548839
H       -6.71114861       2.41919727       4.48458530
H       -6.34423503       4.07038317       5.00212041
H       -5.19973936       1.22806937       2.78257538
H       -3.88850572       1.49049379       3.93431249
H       -3.69503959       2.00299082       2.25637503
H       -6.89187368       6.22382574       1.45005825
H       -5.33815438       6.39217663       2.27513928
H       -6.79539775       6.03377143       3.20183381
H       -1.93330293       6.38030557      -0.91606856
H       -0.21762808       6.27214098      -1.37234190
H       -0.67905673       6.27992948       0.34282229
H       -2.20643299       1.71240473      -3.20975734
69
Properties=species:S:1:pos:R:3 -90.1012748909=T converged=T charge=0 spin=1 pbc="F F F"
O       -1.60076006       2.51061381       0.31430382
C       -1.99834505       2.09775560      -0.98242016
H       -1.69157619       1.05672732      -1.10617882
C       -3.52082869       2.15359445      -1.13884021
H       -3.97285948       1.72416747      -0.24008190
O       -3.85469714       1.40024414      -2.30169543
Si      -5.04994927       0.23544768      -2.34527122
C       -6.66390803       0.98290952      -1.78086596
C       -5.06579619      -0.30092029      -4.14785966
C       -5.34345808       0.91287125      -5.04132290
C       -3.70212712      -0.89005079      -4.52553624
C       -6.15564587      -1.35628874      -4.36800786
C       -4.60407562      -1.15483575      -1.18115413
C       -4.06167534       3.57305524      -1.29807157
H       -5.03789883       3.48403560      -1.77741052
C       -4.31298439       4.27726582       0.03273927
O       -5.33866778       3.54869398       0.66883207
Si      -5.98708560       3.75734631       2.18300051
C       -7.41626462       2.56288074       2.15488489
C       -4.73881904       3.33390680       3.54030714
C       -5.49161556       3.08842052       4.85428209
C       -3.97001313       2.06420475       3.16060720
C       -3.73914962       4.47388634       3.76305360
C       -6.58564505       5.51694415       2.35962076
O       -3.29961724       4.37287841      -2.20417380
C       -1.90317827       4.34732893      -2.08509032
H       -1.54200401       4.88658722      -2.96598961
O       -1.45225347       4.98785554      -0.90797170
C       -1.62510298       6.39570100      -0.93080785
C       -1.33231176       2.92989575      -2.07866193
H       -0.26133136       2.99696715      -1.87668855
O       -1.48623637       2.34943948      -3.35472768
H       -1.39465283       3.45502298       0.27534237
H       -7.06705343       1.68709694      -2.50991251
H       -6.51902963       1.52193988      -0.84038378
H       -7.41378752       0.20823585      -1.60726147
H       -5.31702360       0.61045562      -6.09287995
H       -4.59665650       1.69663047      -4.89940100
H       -6.32746790       1.34448647      -4.84629763
H       -2.89330313      -0.17242611      -4.37263033
H       -3.70223017      -1.17077868      -5.58348303
H       -3.47185228      -1.78640658      -3.94604954
H       -6.16589165      -1.66106955      -5.41971230
H       -7.14941173      -0.97037916      -4.12469400
H       -5.98062103      -2.25200857      -3.76584280
H       -4.51953579      -0.78502447      -0.15618478
H       -3.65563346      -1.62162994      -1.44931821
H       -5.37645468      -1.92758591      -1.18398514
H       -3.41317199       4.31058103       0.64769764
H       -4.62868685       5.30600192      -0.17708869
H       -8.04403629       2.62534847       3.04465512
H       -7.05835176       1.53524764       2.06059536
H       -8.03781817       2.78268147       1.28378978
H       -6.17951218       2.24442791       4.77618520
H       -6.06322122       3.96475923       5.17161087
H       -4.77356985       2.85870368       5.64827079
H       -3.28559510       1.79414094       3.97195566
H       -3.37397737       2.20164754       2.25605809
H       -4.64293245       1.21699775       3.00302058
H       -4.23500678       5.39036614       4.08960083
H       -3.16505533       4.70040102       2.86168686
H       -3.02463858       4.18731493       4.54176073
H       -5.76822422       6.23510045       2.27304935
H       -7.06452871       5.67340644       3.32855451
H       -7.31935344       5.74390131       1.58381776
H       -1.01898913       6.84033861      -1.72459757
H       -1.29054095       6.77787645       0.02959347
H       -2.67047713       6.66404066      -1.08883484
H       -2.39098599       2.00623772      -3.40753066
69
Properties=species:S:1:pos:R:3 -90.1001137951=T converged=T charge=0 spin=1 pbc="F F F"
O       -1.58314511       2.33452153       0.49040632
C       -1.73976896       2.06245275      -0.89327236
H       -1.41376059       1.03412513      -1.06433693
C       -3.21178764       2.16677569      -1.31237683
H       -3.82075341       1.64412136      -0.56955186
O       -3.35422220       1.58621869      -2.60673131
Si      -3.97294511       0.08355783      -2.98856539
C       -3.32168961      -1.20248761      -1.79982002
C       -5.86125938       0.12083704      -2.95136489
C       -6.36135315       1.26825484      -3.83677182
C       -6.40781627      -1.20872785      -3.49158542
C       -6.36445342       0.32900941      -1.51639377
C       -3.31417860      -0.19853046      -4.70772737
C       -3.70122763       3.60855816      -1.40569062
H       -4.58908966       3.58753789      -2.03922375
C       -4.15887818       4.19658744      -0.07449810
O       -5.30865764       3.46547645       0.29418620
Si      -6.25315022       3.70908428       1.63923082
C       -7.72797732       2.61869121       1.31679120
C       -5.33294463       3.19177333       3.20852562
C       -4.56950214       1.88870005       2.93875347
C       -4.34767348       4.27686374       3.66217833
C       -6.35958445       2.96311228       4.32704212
C       -6.75333182       5.50870136       1.73283109
O       -2.78983545       4.46130509      -2.10347275
C       -1.43696051       4.40423046      -1.73967240
H       -0.92070799       5.00937191      -2.49148399
O       -1.20656078       4.93329249      -0.44894486
C       -1.37108489       6.34176550      -0.38267170
C       -0.87841155       2.98281464      -1.75909907
H        0.13436456       3.01261228      -1.35235227
O       -0.78229509       2.52523136      -3.09005709
H       -1.36443072       3.27184782       0.58801558
H       -3.50885186      -0.94179962      -0.75608767
H       -2.24581304      -1.33495771      -1.92941932
H       -3.79979668      -2.16662821      -1.98804133
H       -6.05802715       1.13771640      -4.87836524
H       -5.97829233       2.23272098      -3.49674801
H       -7.45508213       1.31541815      -3.81566013
H       -6.08044090      -1.40072536      -4.51633931
H       -7.50247698      -1.18751408      -3.49811859
H       -6.10389140      -2.05911127      -2.87627427
H       -6.03156676      -0.47148484      -0.84967401
H       -7.45984850       0.33115976      -1.50081019
H       -6.03275770       1.28198360      -1.09520233
H       -2.22189623      -0.19022701      -4.68513848
H       -3.63697129       0.58847712      -5.39210030
H       -3.63297139      -1.15789836      -5.11796606
H       -3.38615043       4.12885599       0.69333695
H       -4.40012604       5.25395393      -0.23648568
H       -8.13342583       2.84162958       0.32783574
H       -8.51805501       2.77724916       2.05213154
H       -7.45636287       1.56116572       1.32967915
H       -5.23962143       1.09015214       2.60771942
H       -4.07583524       1.54442488       3.85382642
H       -3.79902933       2.01719740       2.17473763
H       -4.85876370       5.21062134       3.90797256
H       -3.59470829       4.49679865       2.90121340
H       -3.81444706       3.94706048       4.55985824
H       -6.93955118       3.86599584       4.53877228
H       -5.85079606       2.67783487       5.25358433
H       -7.06170311       2.16485904       4.07760269
H       -5.88895612       6.16770531       1.83710594
H       -7.40809568       5.68973598       2.58880289
H       -7.29483018       5.79915565       0.83015341
H       -0.62219207       6.83840009      -1.00639298
H       -1.22999164       6.63666360       0.65414232
H       -2.36766319       6.63781147      -0.71381305
H       -1.67109814       2.25352314      -3.36417426
69
Properties=species:S:1:pos:R:3 -90.0969620487=T converged=T charge=0 spin=1 pbc="F F F"
O       -1.27597425       0.82787160      -1.28758305
C       -1.73448115       2.13108135      -1.59138519
H       -1.56189515       2.35486515      -2.65755099
C       -3.23232135       2.18643870      -1.36210317
H       -3.45076643       1.77384243      -0.36972050
O       -3.90683338       1.48645426      -2.38167794
Si      -4.64162922      -0.00920205      -2.28070641
C       -5.54769518      -0.14238608      -0.65232974
C       -5.81140267      -0.01048954      -3.75906823
C       -6.87792771       1.07325997      -3.58439527
C       -5.01681633       0.28244284      -5.03592997
C       -6.48717896      -1.37891972      -3.88824429
C       -3.39777207      -1.38819925      -2.41099183
C       -3.73551255       3.63031308      -1.41032546
H       -3.69869667       3.96573131      -2.45767459
C       -5.16342833       3.74502707      -0.91440533
O       -5.33205317       3.19378242       0.37018945
Si      -4.95422889       3.85472647       1.85369008
C       -5.07795692       5.71503959       1.78086945
C       -6.23296652       3.11190122       3.02487514
C       -7.64156891       3.36227949       2.48060777
C       -6.00432725       1.60051327       3.13155713
C       -6.10841371       3.74320932       4.41558730
C       -3.23555760       3.36199971       2.39242110
O       -2.95413694       4.48863939      -0.59279728
C       -1.58728621       4.53425886      -0.94133246
H       -1.49870080       4.86832015      -1.99611187
O       -0.94571612       5.41864693      -0.10101953
C       -1.30615810       6.77412868      -0.31302823
C       -0.97910123       3.15612715      -0.75911804
H       -1.05122293       2.90056694       0.30026709
O        0.40258635       3.11022037      -1.07712557
H       -0.31149815       0.86632147      -1.26525491
H       -5.93449412       0.82325496      -0.31938080
H       -4.88329237      -0.52419224       0.12676584
H       -6.38514720      -0.83978297      -0.73452634
H       -7.46614070       0.92525126      -2.67512389
H       -7.57120770       1.06550443      -4.43275470
H       -6.42189228       2.06474105      -3.54321744
H       -4.26790525      -0.48809567      -5.23209450
H       -4.50698634       1.24507961      -4.96899699
H       -5.68853816       0.31595070      -5.90073941
H       -7.08547440      -1.62446395      -3.00725573
H       -5.75583734      -2.17702968      -4.03503709
H       -7.15955379      -1.38577080      -4.75280417
H       -3.86580042      -2.35534269      -2.21242011
H       -2.60992719      -1.22861612      -1.67420651
H       -2.92749824      -1.42740261      -3.39525237
H       -5.45785848       4.79959374      -0.93469125
H       -5.81506345       3.20145371      -1.59927954
H       -4.79351435       6.14351919       2.74489124
H       -6.08226217       6.06651966       1.53618429
H       -4.38189852       6.09738187       1.03211360
H       -7.86201706       4.43016409       2.40587541
H       -8.39100483       2.91801603       3.14509736
H       -7.76414166       2.91766478       1.49146631
H       -5.02287009       1.36861423       3.55196408
H       -6.08052019       1.11889440       2.15417447
H       -6.75831262       1.14736364       3.78490303
H       -5.11730913       3.58705875       4.84856818
H       -6.83727843       3.29340396       5.09869279
H       -6.30227688       4.81827338       4.39106592
H       -3.02314554       2.32319582       2.12716843
H       -3.11911513       3.45804748       3.47462584
H       -2.49077558       3.99934230       1.91509073
H       -1.09667997       7.07223892      -1.34616935
H       -0.69744392       7.36960576       0.36266216
H       -2.36249970       6.94257821      -0.09695395
H        0.53916155       3.50478227      -1.94663018
69
Properties=species:S:1:pos:R:3 -90.1000499314=T converged=T charge=0 spin=1 pbc="F F F"
O       -1.63680995       2.38023527       0.60946853
C       -1.72459444       2.07685869      -0.77369150
H       -1.36379942       1.05477842      -0.90925839
C       -3.17864890       2.13159809      -1.25895880
H       -3.80597114       1.60638225      -0.53373573
O       -3.24554786       1.52128371      -2.54609552
Si      -3.82879494       0.00276963      -2.92242946
C       -3.27069484      -1.23500035      -1.63874079
C       -5.71402110       0.03614803      -3.03119820
C       -6.31971683       0.29919673      -1.64594596
C       -6.14357587       1.14831891      -3.99514841
C       -6.22288155      -1.31307581      -3.55876977
C       -3.04121154      -0.33883437      -4.57519141
C       -3.70336323       3.55686498      -1.40269883
H       -4.56103858       3.49800752      -2.07458788
C       -4.23101387       4.15912602      -0.10418722
O       -5.34924997       3.38005723       0.26135894
Si      -6.36591016       3.63520006       1.55064406
C       -7.67336587       2.33196914       1.30675606
C       -5.44929617       3.41288373       3.19005353
C       -4.55461519       2.16947988       3.10781083
C       -4.59169030       4.64167963       3.52084979
C       -6.48408853       3.22527993       4.30888485
C       -7.09822201       5.35250127       1.44002254
O       -2.78561184       4.42322773      -2.07520155
C       -1.44806555       4.40950348      -1.65356204
H       -0.91668629       5.01426575      -2.39501251
O       -1.28529314       4.96837984      -0.36497341
C       -1.49211868       6.37229095      -0.33055089
C       -0.85109978       3.00393819      -1.62008119
H        0.14132832       3.07028531      -1.16970816
O       -0.68324612       2.52353457      -2.93565182
H       -1.44311463       3.32401185       0.69709295
H       -3.74237499      -2.20396197      -1.81806435
H       -3.52770411      -0.92867988      -0.62265416
H       -2.18952944      -1.37821592      -1.68702837
H       -7.41316217       0.31249362      -1.71154815
H       -6.00740680       1.26167086      -1.23165004
H       -6.04727989      -0.48126721      -0.92990289
H       -7.23573063       1.19932015      -4.05421020
H       -5.76752267       0.97441168      -5.00627389
H       -5.77991710       2.12485355      -3.66846233
H       -7.31442326      -1.29392106      -3.64264191
H       -5.96365319      -2.13984715      -2.89288973
H       -5.82493347      -1.54205396      -4.55039757
H       -3.29127138       0.43695355      -5.30160802
H       -3.34932444      -1.30120262      -4.98664488
H       -1.95428335      -0.35277092      -4.46646466
H       -3.47644201       4.15620488       0.68378884
H       -4.52138411       5.19724268      -0.30694359
H       -7.25651753       1.32683746       1.39773647
H       -8.09191730       2.42342368       0.30247702
H       -8.48851549       2.43098698       2.02477693
H       -3.79088277       2.26081341       2.33178580
H       -5.13772207       1.26890719       2.89628824
H       -4.04180274       2.01022282       4.06247966
H       -4.06577111       4.48637318       4.46862661
H       -5.19972424       5.54311890       3.62664924
H       -3.83376736       4.83674619       2.75836347
H       -5.97904646       3.10703335       5.27310064
H       -7.09981421       2.33774196       4.14905159
H       -7.15220221       4.08683350       4.39487603
H       -7.79230625       5.53775454       2.26347614
H       -7.64960764       5.46897868       0.50481465
H       -6.33003024       6.12750288       1.47911416
H       -1.40921752       6.68711653       0.70676240
H       -2.47971284       6.63427940      -0.71329236
H       -0.72834398       6.88067666      -0.92611028
H       -1.54988504       2.21588605      -3.24098306
69
Properties=species:S:1:pos:R:3 -90.0982240267=T converged=T charge=0 spin=1 pbc="F F F"
O       -2.59259159       2.48633179      -4.09030558
C       -2.98835712       3.20999751      -2.94050825
H       -3.70491462       3.99702861      -3.21271676
C       -3.68616629       2.25943192      -1.98530486
H       -3.03740116       1.38613031      -1.82971480
O       -4.94702093       1.88481939      -2.46712028
Si      -5.54170962       0.81320071      -3.59296459
C       -5.42469499       1.51084293      -5.31770389
C       -4.69174627      -0.87429365      -3.48495337
C       -4.55780111      -1.30965812      -2.02143388
C       -5.56877271      -1.89616915      -4.22354095
C       -3.30721226      -0.85154524      -4.14397623
C       -7.33388452       0.69814970      -3.08849968
C       -3.92985472       2.95592358      -0.63918901
H       -4.67771857       3.74622092      -0.80369561
C       -4.46278026       1.98040500       0.39458283
O       -5.19907943       2.59244814       1.42677448
Si      -4.71742963       3.63843095       2.62132598
C       -4.76742124       5.39268560       1.97145214
C       -6.00433299       3.40575228       3.98099567
C       -5.98449387       1.94602640       4.44566292
C       -5.70420403       4.32455561       5.16986949
C       -7.39327738       3.72975703       3.41993970
C       -2.99666048       3.22608842       3.22315706
O       -2.72521635       3.51791659      -0.12163447
C       -2.16721521       4.49739091      -0.97063181
H       -2.89648464       5.31348646      -1.12508838
O       -0.99793032       4.98370593      -0.40955913
C       -1.19108183       5.83051275       0.71379611
C       -1.78623949       3.85672916      -2.28929158
H       -1.03789637       3.08595628      -2.06841783
O       -1.28382009       4.80812607      -3.21007994
H       -2.08044544       3.08734673      -4.64440882
H       -5.89230943       2.49765857      -5.34703227
H       -5.94901105       0.87066914      -6.03111952
H       -4.38818031       1.61900909      -5.63361222
H       -5.52608361      -1.33486356      -1.51488282
H       -3.89953895      -0.64597145      -1.45650333
H       -4.13080858      -2.31701549      -1.96525521
H       -5.08891880      -2.88039414      -4.20738925
H       -5.71538783      -1.62340010      -5.27187499
H       -6.55134055      -2.00107626      -3.75845834
H       -2.82449858      -1.82904735      -4.03262848
H       -2.64897647      -0.09712095      -3.70976901
H       -3.38083296      -0.64105784      -5.21336630
H       -7.73274245       1.70775978      -2.97622722
H       -7.46095111       0.19204732      -2.13013990
H       -7.93655109       0.17898941      -3.83451757
H       -5.13354935       1.28308389      -0.10900738
H       -3.61156763       1.41850038       0.80017842
H       -4.07548375       5.50555960       1.13493801
H       -4.48148592       6.11111681       2.74372993
H       -5.76812916       5.65108406       1.61906126
H       -6.18145879       1.26739505       3.61394615
H       -6.75483363       1.77998391       5.20562537
H       -5.02364366       1.67256847       4.88792035
H       -6.45612776       4.18526658       5.95332046
H       -5.72274771       5.37942657       4.88655487
H       -4.72893787       4.11153839       5.61401782
H       -8.16053026       3.54191436       4.17799075
H       -7.62075347       3.11008437       2.55074781
H       -7.47648717       4.77737530       3.12175899
H       -2.96188470       2.27067615       3.75031319
H       -2.64123326       4.00075680       3.90769806
H       -2.30455866       3.17580698       2.38069560
H       -0.20421372       6.15853037       1.02924758
H       -1.67396400       5.29603117       1.53272711
H       -1.79391310       6.70217555       0.44054804
H       -0.51766911       5.22681752      -2.80209271
69
Properties=species:S:1:pos:R:3 -90.1022843751=T converged=T charge=0 spin=1 pbc="F F F"
O       -1.32884248       2.52653074       0.16166586
C       -1.89515321       2.16414478      -1.08726881
H       -1.69983038       1.09924562      -1.23296489
C       -3.41526100       2.37705167      -1.08664134
H       -3.83147184       1.97233474      -0.15874062
O       -3.97444551       1.71624627      -2.21921871
Si      -4.50780898       0.13309442      -2.28452421
C       -5.40550444      -0.27794941      -0.69959363
C       -5.63626194       0.12052944      -3.78950681
C       -4.88263946       0.69727176      -4.99361353
C       -6.08943958      -1.30668809      -4.11222047
C       -6.86247625       0.99466904      -3.50779163
C       -3.06428923      -1.03253719      -2.49543405
C       -3.81154296       3.84576068      -1.18068213
H       -4.84354151       3.86593327      -1.53640288
C       -3.81886667       4.57478907       0.16025442
O       -4.88429695       4.04907806       0.92365379
Si      -4.79252119       3.54824913       2.50800103
C       -3.98293831       4.87453668       3.54495729
C       -6.59449028       3.27315024       2.97206688
C       -7.34495023       4.60690018       2.90779560
C       -7.22849482       2.29986892       1.97185455
C       -6.70180086       2.69060726       4.38404354
C       -3.78138801       1.98601936       2.66250578
O       -3.07702353       4.55518412      -2.18406244
C       -1.68540157       4.39536217      -2.20674671
H       -1.36425338       4.89677194      -3.12382611
O       -1.05711574       4.98702818      -1.08694685
C       -1.07761309       6.40695984      -1.11167023
C       -1.25864925       2.92982055      -2.24737993
H       -0.17277895       2.89060956      -2.14538632
O       -1.58664703       2.36583260      -3.49800384
H       -1.03001820       3.44446297       0.09874780
H       -6.08674609       0.51882560      -0.39407929
H       -4.69648219      -0.45140016       0.11391055
H       -5.98998539      -1.19409235      -0.81667442
H       -3.98354055       0.12214645      -5.22923942
H       -4.59225652       1.73501842      -4.81751381
H       -5.52480463       0.68204856      -5.88072583
H       -6.77465598      -1.29696193      -4.96628126
H       -6.61932625      -1.76814829      -3.27503407
H       -5.24752760      -1.94961441      -4.37708260
H       -6.56951422       2.01726377      -3.26006766
H       -7.46168636       0.60011944      -2.68367075
H       -7.50614936       1.03817021      -4.39291599
H       -3.40577344      -2.03177869      -2.77550416
H       -2.50697946      -1.13160896      -1.56099328
H       -2.37121683      -0.67912825      -3.26185061
H       -2.86391418       4.48723658       0.68079344
H       -3.99819538       5.63571613      -0.03446700
H       -4.06845022       4.63158475       4.60702526
H       -4.43257357       5.85565558       3.38295771
H       -2.91658633       4.94603636       3.31712955
H       -7.27514895       5.05040755       1.91255828
H       -6.95448062       5.32604678       3.63169870
H       -8.40606790       4.45516635       3.13312132
H       -8.29103258       2.16348344       2.20098234
H       -6.75619980       1.31483613       2.00946909
H       -7.15159401       2.67897941       0.95074422
H       -6.18968289       1.72884071       4.46548108
H       -7.75314830       2.52658705       4.64324028
H       -6.28155371       3.36368280       5.13541716
H       -3.53777413       1.79443221       3.71094315
H       -2.83899489       2.08394709       2.11667052
H       -4.30838770       1.11069520       2.27451579
H       -0.49289913       6.77641740      -1.95883616
H       -0.62434926       6.75285419      -0.18582239
H       -2.09754801       6.78899774      -1.18524913
H       -2.54217676       2.20227857      -3.49361107
69
Properties=species:S:1:pos:R:3 -90.1012867668=T converged=T charge=0 spin=1 pbc="F F F"
O       -1.58810365       2.90941615      -0.34108039
C       -2.11653196       2.78541884      -1.65094902
H       -1.70865678       1.87106594      -2.08752788
C       -3.64353760       2.64644959      -1.63319125
H       -3.91914110       1.92603686      -0.85889629
O       -4.02817156       2.18144903      -2.92514780
Si      -5.18677874       1.02661081      -3.26755142
C       -5.48116190       1.26288454      -5.09203212
C       -4.52667781      -0.70620231      -2.89585618
C       -3.25019856      -0.95267856      -3.70989814
C       -4.21746006      -0.85611828      -1.40007435
C       -5.58745168      -1.74502488      -3.29071846
C       -6.71872238       1.37292840      -2.25620085
C       -4.36077507       3.95827001      -1.32903906
H       -5.38224932       3.85283457      -1.69727757
C       -4.49449271       4.24724755       0.16611975
O       -5.43325544       3.32779256       0.68447162
Si      -5.27932236       2.38458075       2.04801783
C       -3.67754473       1.41915848       2.01958248
C       -5.36115525       3.46556824       3.59632018
C       -4.12185009       4.36751554       3.67693558
C       -6.62601920       4.32958020       3.53384957
C       -5.41036873       2.57219271       4.84338864
C       -6.75252082       1.24762118       1.92450886
O       -3.83651973       5.06847021      -2.06203662
C       -2.44485504       5.22876365      -2.09818075
H       -2.27283247       6.02308133      -2.83098530
O       -1.91604768       5.60701556      -0.84153236
C       -2.24945677       6.93449977      -0.46611210
C       -1.71040210       3.96299592      -2.53718360
H       -0.63899366       4.13921337      -2.42255552
O       -1.95127740       3.71652217      -3.90356263
H       -1.49769960       3.85275691      -0.14411297
H       -5.88304959       2.26168757      -5.27629866
H       -6.19286193       0.53639845      -5.48853225
H       -4.55276863       1.16933493      -5.65984051
H       -2.48123710      -0.20678185      -3.49451901
H       -3.44615996      -0.92518184      -4.78434146
H       -2.83393558      -1.93846019      -3.47759598
H       -3.40819259      -0.19521702      -1.07998403
H       -3.90243204      -1.88162874      -1.18081856
H       -5.09318761      -0.64363637      -0.77926263
H       -5.20226451      -2.75587802      -3.12128129
H       -5.86141931      -1.67408799      -4.34631868
H       -6.50084122      -1.64232753      -2.70014369
H       -7.40566447       0.52430830      -2.27701733
H       -7.24983725       2.24038547      -2.65399911
H       -6.47819473       1.58611459      -1.21170592
H       -3.53720502       4.17841443       0.68554528
H       -4.87549573       5.26767789       0.28025781
H       -3.34318509       1.18683421       3.03312828
H       -2.87056527       1.95884000       1.51946593
H       -3.81114537       0.47031360       1.49439767
H       -3.19588574       3.78626610       3.69303657
H       -4.14893720       4.96818332       4.59229305
H       -4.06616488       5.06159050       2.83475896
H       -6.69084165       4.98343117       4.40993028
H       -7.53021573       3.71599373       3.51364762
H       -6.63626266       4.96001802       2.64156214
H       -5.47096507       3.18672502       5.74769541
H       -4.51826200       1.94770054       4.93455074
H       -6.28069097       1.91183122       4.83917929
H       -6.88962638       0.65343551       2.82959392
H       -6.61440124       0.55398836       1.09125959
H       -7.67073846       1.80821479       1.73933433
H       -1.83987733       7.10531414       0.52607026
H       -3.33053899       7.07634079      -0.44312016
H       -1.80762980       7.64807776      -1.16723695
H       -2.79424691       3.24347232      -3.97122293
69
Properties=species:S:1:pos:R:3 -90.1023012415=T converged=T charge=0 spin=1 pbc="F F F"
O       -1.34221067       2.49396892       0.25202959
C       -1.87956291       2.10456638      -1.00141661
H       -1.70650106       1.03090562      -1.10593337
C       -3.39315013       2.35381480      -1.05571889
H       -3.84694073       1.99247485      -0.12766017
O       -3.93649028       1.66666920      -2.18013255
Si      -4.45695508       0.07770011      -2.21993182
C       -5.30770341      -0.33080672      -0.60928767
C       -5.62278656       0.04271999      -3.69568763
C       -6.12306731      -1.38118928      -3.95740062
C       -6.81769052       0.96034313      -3.41806122
C       -4.88054974       0.55579980      -4.93523264
C       -3.00662115      -1.07378908      -2.46307604
C       -3.74966423       3.82738891      -1.21168690
H       -4.76804343       3.85978010      -1.60381260
C       -3.78580764       4.59865370       0.10502658
O       -4.89007584       4.12156723       0.84445786
Si      -4.87196353       3.66876292       2.44557210
C       -4.11924425       5.03043585       3.47941399
C       -6.69326554       3.39711698       2.82917759
C       -7.44987675       4.71919712       2.66856478
C       -7.26777992       2.37476100       1.84192500
C       -6.86745008       2.87513890       4.25812289
C       -3.86456469       2.11643695       2.69662288
O       -2.96435845       4.48757603      -2.21038996
C       -1.57741467       4.29268860      -2.18220265
H       -1.21386005       4.75733851      -3.10282336
O       -0.97005161       4.90250928      -1.06072002
C       -0.95256787       6.32105931      -1.12782590
C       -1.18893743       2.81616339      -2.16509588
H       -0.10797074       2.75124186      -2.03031004
O       -1.49651437       2.22289704      -3.40749554
H       -1.02169206       3.40308128       0.16975511
H       -5.82598085      -1.29008162      -0.68512755
H       -6.03982355       0.42692916      -0.32303029
H       -4.57864345      -0.42384006       0.19985883
H       -6.65639437      -1.79225126      -3.09666016
H       -5.30534739      -2.06063816      -4.20670117
H       -6.81838218      -1.38313938      -4.80333985
H       -7.47999154       0.99145249      -4.28987055
H       -6.49110327       1.98184573      -3.21213747
H       -7.40871016       0.61103179      -2.56794475
H       -4.55044882       1.58783417      -4.79908854
H       -5.54465296       0.53544150      -5.80593665
H       -4.00767881      -0.05731658      -5.17334697
H       -3.33938684      -2.06366927      -2.78373217
H       -2.45347392      -1.20466072      -1.53013609
H       -2.31118259      -0.68641012      -3.21064784
H       -2.85208318       4.50472101       0.66210567
H       -3.93207877       5.65687501      -0.12827590
H       -4.56374128       6.00369819       3.26453357
H       -3.04325836       5.10020970       3.30162990
H       -4.25575305       4.82047957       4.54316896
H       -8.51970392       4.56691441       2.84761327
H       -7.33361348       5.11926907       1.65943324
H       -7.10159656       5.47330312       3.37831509
H       -6.79461244       1.39559557       1.95178171
H       -7.13654343       2.70635605       0.80973462
H       -8.34074705       2.24230432       2.01877580
H       -6.49505741       3.58638340       4.99944085
H       -6.34869791       1.92524639       4.40863182
H       -7.92883252       2.70756523       4.46977671
H       -3.65258861       1.97050972       3.75918218
H       -2.90627656       2.18997035       2.17529307
H       -4.37972700       1.22444108       2.33139631
H       -0.33641524       6.64980631      -1.96947318
H       -0.51453995       6.68268428      -0.20067103
H       -1.95981998       6.72661226      -1.23990345
H       -2.45693982       2.09316462      -3.42945427
69
Properties=species:S:1:pos:R:3 -90.1002087946=T converged=T charge=0 spin=1 pbc="F F F"
O       -1.64209581       2.16911376       0.31704203
C       -1.84604996       2.00089039      -1.07696785
H       -1.63578038       0.95648137      -1.31565249
C       -3.30388283       2.29022817      -1.45679372
H       -3.95303831       1.80905977      -0.72099860
O       -3.54978592       1.79048686      -2.76894805
Si      -4.25886840       0.33401829      -3.17446846
C       -3.24291720      -1.09232304      -2.52492539
C       -6.03293587       0.20821139      -2.51840089
C       -6.07256175      -0.30806706      -1.07311658
C       -6.71658432       1.57887913      -2.58842655
C       -6.79433811      -0.78709915      -3.40947867
C       -4.19588299       0.39004570      -5.03526202
C       -3.63171503       3.78099925      -1.46918882
H       -4.51327649       3.88936494      -2.10198326
C       -4.03034872       4.32961041      -0.10220511
O       -5.23229114       3.67066017       0.23188336
Si      -6.09844721       3.77199667       1.64460172
C       -7.67298995       2.87580482       1.21355878
C       -5.18196974       2.92743252       3.06747539
C       -6.19231533       2.61984324       4.18215739
C       -4.55878641       1.61807715       2.56685134
C       -4.08173240       3.83224093       3.63766006
C       -6.42585214       5.56753654       2.05113114
O       -2.63441611       4.57587466      -2.11594159
C       -1.29402328       4.34364525      -1.77914745
H       -0.71914876       4.93817450      -2.49612398
O       -0.99261863       4.75190933      -0.45924478
C       -1.00790860       6.16110605      -0.28893107
C       -0.90273130       2.87298331      -1.90493549
H        0.11574288       2.75887842      -1.52865087
O       -0.89273394       2.49671061      -3.26479665
H       -1.32726921       3.07193216       0.46592690
H       -3.16433934      -1.08130131      -1.43581876
H       -2.23424246      -1.06667727      -2.94208708
H       -3.70142786      -2.04269003      -2.81036070
H       -5.63302212      -1.30428228      -0.98510132
H       -7.11152783      -0.37770073      -0.73248274
H       -5.54708254       0.35342425      -0.37900728
H       -6.66480862       2.00803975      -3.59283696
H       -6.26420118       2.28927155      -1.89273477
H       -7.77542931       1.48578758      -2.32310147
H       -6.86236171      -0.44150831      -4.44283266
H       -7.81541429      -0.91517974      -3.03623604
H       -6.32545808      -1.77547791      -3.41683029
H       -4.58229684      -0.52453516      -5.48659254
H       -3.15862635       0.50949087      -5.35672774
H       -4.76296935       1.23441230      -5.43235883
H       -3.25864402       4.15920023       0.65148017
H       -4.19075026       5.40983768      -0.20097118
H       -7.48163118       1.82435079       0.98798460
H       -8.11114506       3.32701687       0.32104867
H       -8.40837514       2.92587255       2.01747579
H       -6.68074928       3.52574980       4.55247803
H       -5.68508620       2.15217265       5.03221431
H       -6.97139535       1.93288385       3.84528743
H       -3.79059058       1.79514947       1.81053535
H       -5.31228207       0.95141262       2.13692167
H       -4.08565226       1.08358872       3.39768673
H       -3.55688376       3.31883201       4.44991121
H       -4.49081718       4.75967038       4.04525376
H       -3.33346761       4.09666265       2.88625502
H       -5.49902194       6.12277141       2.21017631
H       -7.02544440       5.66362520       2.95959418
H       -6.97277905       6.04600067       1.23617379
H       -0.81743402       6.36259181       0.76227551
H       -1.97423211       6.58131762      -0.57163283
H       -0.22306413       6.62237963      -0.89525747
H       -1.81295309       2.34874338      -3.52952165
69
Properties=species:S:1:pos:R:3 -90.1012328945=T converged=T charge=0 spin=1 pbc="F F F"
O       -1.66556001       2.09044051       0.59532712
C       -1.97815345       1.73694040      -0.74146324
H       -1.78275772       0.66820807      -0.85491685
C       -3.46124565       1.97136496      -1.04336601
H       -4.04576968       1.59023192      -0.20085332
O       -3.76394631       1.27451962      -2.24934224
Si      -5.04998742       0.22502722      -2.42557664
C       -6.62481409       1.09507920      -1.92992450
C       -4.99251960      -0.23048890      -4.24964571
C       -3.67308152      -0.94366252      -4.56538921
C       -6.16616291      -1.15485911      -4.59353435
C       -5.08099893       1.04272557      -5.09788949
C       -4.80495315      -1.25043380      -1.30805542
C       -3.81622232       3.44529791      -1.22796418
H       -4.74638155       3.47365882      -1.79788725
C       -4.10779040       4.17047450       0.08317255
O       -5.27273724       3.57468307       0.60844059
Si      -6.10990520       3.97252573       1.98620542
C       -7.62410608       2.89734998       1.84667240
C       -5.10385600       3.58472716       3.54058636
C       -4.41164733       2.22708659       3.38177694
C       -4.04279861       4.65898155       3.80272114
C       -6.04417146       3.52875715       4.75121736
C       -6.56805944       5.78172331       1.92897187
O       -2.88327212       4.15327562      -2.04665586
C       -1.51726500       3.96657928      -1.79248963
H       -1.01190316       4.46445868      -2.62554964
O       -1.11487403       4.54559317      -0.56716310
C       -1.11434466       5.96402021      -0.58821725
C       -1.11581060       2.49286306      -1.75327511
H       -0.06942776       2.43471450      -1.44672613
O       -1.20759010       1.94096476      -3.04798222
H       -1.34840840       3.00421663       0.59476515
H       -7.44514019       0.38414300      -1.81177483
H       -6.92727721       1.84222850      -2.66493266
H       -6.48685930       1.60603798      -0.97298053
H       -2.80741676      -0.32429728      -4.32100401
H       -3.62547761      -1.17437582      -5.63428885
H       -3.57915421      -1.88483068      -4.01990526
H       -6.12825850      -2.08810953      -4.02499877
H       -6.13148563      -1.41340812      -5.65705215
H       -7.12991563      -0.67603349      -4.39963680
H       -6.02771841       1.56593844      -4.94735387
H       -5.01054350       0.78460348      -6.15915885
H       -4.27077120       1.73709205      -4.86696990
H       -5.63711044      -1.95240582      -1.39968045
H       -4.75817175      -0.93701484      -0.26220902
H       -3.88298469      -1.78470023      -1.54034254
H       -3.27698014       4.08738095       0.78436259
H       -4.26815385       5.23163210      -0.14159915
H       -8.08709525       3.07186263       0.87272410
H       -8.36674971       3.10613373       2.61783115
H       -7.35680033       1.84025386       1.90682614
H       -5.13531589       1.42175463       3.23180836
H       -3.84516949       1.99583000       4.29009161
H       -3.71404014       2.21710228       2.54128489
H       -3.33935108       4.75490380       2.97236308
H       -3.46392275       4.39260445       4.69323858
H       -4.49272904       5.63783866       3.98102434
H       -6.56345478       4.47730213       4.91248930
H       -5.46433605       3.31334168       5.65467783
H       -6.79582153       2.74411575       4.64562651
H       -7.15636268       6.06391035       2.80477835
H       -7.16944286       5.98950859       1.04191402
H       -5.68729338       6.42560896       1.89947715
H       -0.84324691       6.30213406       0.40804784
H       -2.09659271       6.35659224      -0.85457007
H       -0.37645133       6.33332704      -1.30538624
H       -2.13704311       1.71055969      -3.19675144
69
Properties=species:S:1:pos:R:3 -90.1019691714=T converged=T charge=0 spin=1 pbc="F F F"
O       -1.54803742       3.09293211       0.14560482
C       -1.93886497       2.61514481      -1.13051091
H       -1.42791054       1.66388042      -1.29713530
C       -3.44736240       2.34358653      -1.18408160
H       -3.73208874       1.79974950      -0.27671404
O       -3.68591849       1.54952168      -2.34513927
Si      -4.71816658       0.23540862      -2.38248356
C       -6.47065028       0.79598502      -2.07668944
C       -4.46170754      -0.47206026      -4.10473111
C       -4.83831678       0.58540742      -5.14867258
C       -2.98668080      -0.84825634      -4.28574325
C       -5.33346743      -1.71567978      -4.30509191
C       -4.24695697      -0.96297915      -1.02948704
C       -4.28900565       3.61506909      -1.26220695
H       -5.25733968       3.33019240      -1.67841058
C       -4.59823083       4.21710243       0.10795631
O       -5.50688827       3.34085269       0.74342288
Si      -5.42760086       2.68567124       2.27184381
C       -3.76057024       1.89638712       2.58795891
C       -5.77252067       4.01995685       3.56312635
C       -4.61584814       5.02469630       3.61439018
C       -7.06389717       4.75701286       3.19838137
C       -5.93226688       3.37815329       4.94566157
C       -6.77509063       1.40212261       2.21601390
O       -3.77718561       4.57201689      -2.19280822
C       -2.40361404       4.84402622      -2.16878007
H       -2.23034977       5.46103747      -3.05422039
O       -2.02006858       5.55100555      -1.00510953
C       -2.48990869       6.89142684      -0.97913319
C       -1.54371739       3.58362349      -2.24509814
H       -0.50263358       3.87954227      -2.10474328
O       -1.65424588       3.00017346      -3.52398196
H       -1.55512211       4.06044534       0.11697189
H       -7.14841450      -0.06058837      -2.03768061
H       -6.82736524       1.48017120      -2.84931363
H       -6.53664172       1.31244912      -1.11436979
H       -4.65946710       0.19903817      -6.15759236
H       -4.24241811       1.49329240      -5.03415266
H       -5.89306860       0.86262938      -5.08407840
H       -2.33278625       0.01511902      -4.14740455
H       -2.81725157      -1.23304845      -5.29698378
H       -2.67651765      -1.62467935      -3.58217827
H       -5.08161296      -2.50801376      -3.59675500
H       -5.18535389      -2.12009300      -5.31155731
H       -6.39692640      -1.49010843      -4.19838849
H       -3.20106056      -1.26973185      -1.08614255
H       -4.87011261      -1.85910605      -1.08539372
H       -4.41697315      -0.51879784      -0.04516508
H       -3.69596506       4.37264302       0.70331653
H       -5.07825112       5.18806095      -0.04629391
H       -3.76707682       0.84977524       2.27149867
H       -3.51396315       1.91224081       3.65270948
H       -2.94869217       2.39384137       2.05178281
H       -4.49053409       5.54784295       2.66317451
H       -3.66818409       4.54271787       3.86783290
H       -4.81116226       5.78545616       4.37834882
H       -7.92493516       4.08481558       3.20702291
H       -6.99957122       5.20908945       2.20638099
H       -7.26349329       5.55625507       3.92013542
H       -5.02627379       2.85560854       5.26216091
H       -6.76191801       2.66798835       4.96912779
H       -6.14066740       4.14851527       5.69580764
H       -7.72755796       1.84857445       1.92498439
H       -6.90478968       0.88776798       3.16973932
H       -6.52062681       0.65301957       1.46170542
H       -3.57749770       6.93149120      -1.06873849
H       -2.03929546       7.46193064      -1.79681743
H       -2.18481841       7.32283093      -0.02824006
H       -2.46168225       2.46345742      -3.52488205
69
Properties=species:S:1:pos:R:3 -90.1004456250=T converged=T charge=0 spin=1 pbc="F F F"
O       -1.55090870       2.28530374      -0.06056012
C       -1.93327686       2.29316182      -1.42637343
H       -1.71013596       1.30788895      -1.83993457
C       -3.44001965       2.52790954      -1.57726430
H       -3.95844390       1.91062631      -0.83970972
O       -3.79382380       2.14859110      -2.90549470
Si      -5.19242684       1.36173725      -3.37173492
C       -5.03164325       1.35725836      -5.22727610
C       -5.27727918      -0.39654703      -2.66796541
C       -5.84678908      -0.40507463      -1.24199208
C       -6.20994013      -1.22404338      -3.56748888
C       -3.88266609      -1.03237898      -2.67033529
C       -6.68757820       2.32445397      -2.80333258
C       -3.84442869       3.98232183      -1.33728606
H       -4.80625235       4.12461040      -1.83084825
C       -4.09485901       4.29576456       0.13627094
O       -5.21543973       3.51655701       0.49562546
Si      -5.92121812       3.33539681       1.98706061
C       -7.43397970       2.32424746       1.58760352
C       -4.77390334       2.42606244       3.18363676
C       -4.08396069       1.26898612       2.44962347
C       -3.71422121       3.37147012       3.76479962
C       -5.62061930       1.86774815       4.33690836
C       -6.38519444       5.01323754       2.66871460
O       -2.98301799       4.92924512      -1.97155609
C       -1.59964880       4.74146982      -1.84817798
H       -1.15692851       5.46710326      -2.53760601
O       -1.14219855       4.98265969      -0.53137542
C       -1.19867957       6.35060432      -0.15745379
C       -1.15599734       3.33196506      -2.23432081
H       -0.09244627       3.24000728      -2.00492747
O       -1.30626774       3.14667601      -3.62414424
H       -1.25752658       3.17755746       0.17202524
H       -5.91862698       0.94865062      -5.71314323
H       -4.16663757       0.77697794      -5.55590534
H       -4.89472643       2.38127386      -5.58108129
H       -5.88319832      -1.43097983      -0.86041474
H       -6.86404810      -0.00737939      -1.21204826
H       -5.24066863       0.18002290      -0.54523243
H       -6.31333947      -2.23729182      -3.16640139
H       -5.82504878      -1.31099210      -4.58543577
H       -7.21397508      -0.79381385      -3.62406276
H       -3.43140776      -1.01903607      -3.66597290
H       -3.94095414      -2.07728785      -2.34792065
H       -3.20241948      -0.51436511      -1.99100725
H       -6.65484614       2.50207961      -1.72534513
H       -7.60579345       1.77405782      -3.02374841
H       -6.74352075       3.29060119      -3.30871248
H       -3.22894895       4.06190211       0.75962153
H       -4.31553243       5.36577240       0.22891641
H       -8.00553766       2.82363743       0.80252790
H       -8.08487737       2.19848390       2.45370618
H       -7.16208753       1.33321794       1.21717110
H       -3.46719300       0.69306181       3.14797886
H       -3.42977752       1.62232575       1.64915784
H       -4.81166669       0.57883819       2.01232272
H       -4.16785639       4.18488787       4.33598298
H       -3.08618718       3.81634366       2.98877952
H       -3.05197849       2.82275724       4.44234634
H       -6.35976585       1.14519573       3.98471151
H       -6.15324227       2.65845941       4.87306568
H       -4.97972729       1.35661845       5.06254125
H       -5.50858514       5.64926492       2.80860998
H       -6.88395923       4.92467191       3.63691260
H       -7.06767451       5.52154328       1.98459401
H       -2.21165949       6.74363736      -0.25622225
H       -0.52055244       6.94020157      -0.78116136
H       -0.88304355       6.41648234       0.88080879
H       -2.22437619       2.88321132      -3.78708998
