52
-73.6936301134 converged=true
O  -4.40639836936154072333 1.53916364545421835430 -1.81936828933319461044
C  -3.36696505325580153212 1.72334856072695097318 -0.89442275195285403377
H  -3.75666364117472451056 1.65963580773288899017 0.13518984578580275913
C  -2.24789679092578520425 0.69651797365786349836 -1.06619506327967683568
H  -1.73161909966246208015 0.90613719173138307372 -2.01247330952711500629
C  -1.27394401956118064057 0.85661986081800045589 0.09445799787165379269
H  -1.74604610560633966010 0.42519305734665141516 0.98719090154701960582
C  -0.00585146548748332208 0.05352985255156841871 -0.19919885238358001067
O  -0.30725441061974317902 -1.30854116659753327845 -0.32280204421296193606
Si -1.70439953295518598075 -1.86784654093448820866 -0.99026095121063040239
C  -2.44520361572241640147 -3.10257030336867867248 0.28292068933777775319
C  -3.63927178421553909615 -3.85873227888007130915 -0.30054496891802162661
C  -1.38352252774575901206 -4.11575829990588726304 0.71780516319979881246
C  -2.91630314310316496318 -2.34423151189774037206 1.53123337317268304325
C  -1.32717648856759384834 -2.47892758523595357900 -2.79055473664000297518
C  -0.67298371207198481869 -3.86350628323960787469 -2.79255997509512488008
C  -2.60722385023699620987 -2.54157895915579912227 -3.63255586033318467187
C  -0.35550775626998382117 -1.50172816754922533455 -3.47120872841631733507
O  -2.76974335357226131293 -0.60164814602381877506 -1.09644389514487472503
O  -1.00712883303589717521 2.21541503236277792510 0.40179735263131671763
C  -1.28859836101489211302 3.15024786231823794580 -0.60653321003096138941
H  -1.12735832819836012675 4.12216569977150015802 -0.11479160100658994392
O  -0.44323452606260382858 3.00514725643751878792 -1.71212351217253200275
C  0.89241155182177112071 3.42440088631671502029 -1.47151708441676820627
C  -2.74705959591012183196 3.11213444089652746527 -1.11135729432837693231
H  -2.71650334085708156096 3.29514604424254997639 -2.19623168619052799855
O  -3.46037204480966309461 4.12621442556774375987 -0.45680004149639480415
H  -4.59070058221023913347 0.59033832507848960081 -1.85940984988646085263
H  0.70805345695787369475 0.16279714448067070243 0.62319382799555900210
H  0.45173213377216792086 0.42091132040157863692 -1.12463529989241495244
H  -3.33491341686666897814 -4.46265796704356443314 -1.15076387508675104243
H  -4.40962636785618400381 -3.16637922782402414512 -0.62810422260035647657
H  -4.06834134982538042635 -4.52299603800934857389 0.44891563564848641077
H  -1.07962800395756253202 -4.74158162303280139582 -0.11501025795744200531
H  -1.77800173219601509444 -4.76011958240286325861 1.50280233747025748769
H  -0.50352425857679428134 -3.60473188998457949594 1.09750329438188143349
H  -2.08141698392776186566 -1.83244976592264974258 2.00495514847554545668
H  -3.34190745716558712530 -3.03992974708051555410 2.25355613003929367011
H  -3.67611763832911409011 -1.61083359603542830563 1.27324187853430714767
H  0.22544315057743388730 -3.86349859551176599837 -2.18131776918297459744
H  -0.40033785344219469104 -4.14974138635030165290 -3.80764624748475899452
H  -1.35590899332345382611 -4.61360356117730407988 -2.40376554547179521748
H  -3.07465312763919307315 -1.56245554026159139127 -3.69098103368417707060
H  -3.32291654158041271927 -3.23528303561529595456 -3.20136628218155294689
H  -2.37450183442907469811 -2.87219159805299595334 -4.64402751020637172275
H  -0.78300662232747275660 -0.50281943374256199419 -3.53281850107951767015
H  -0.13679361074512294549 -1.83623247782748411083 -4.48473606274299640972
H  0.58049934675206316115 -1.44693634666927062327 -2.92056968125363836108
H  1.32141089228510288933 2.88961338023664993102 -0.62031526574285655862
H  0.92224941715359853855 4.50087242958652122837 -1.27538193574738301095
H  1.44719317781069523043 3.19548251878718536645 -2.37821186932395844948
H  -4.37555700272780612181 4.10373793882944770672 -0.76897851047609266928
52
-73.6919685649 converged=true
O  -4.32893415125496083817 1.56639819358993093168 -2.01793355904523430411
C  -3.39670595338857017609 1.71346679941508051037 -0.98193255413594582315
H  -3.88654826736137826160 1.53387704647237765876 -0.00868387521609115254
C  -2.23904510666909839500 0.72060652890444321095 -1.12390036065318543734
H  -1.71385318178682211077 0.93648292583684056289 -2.06234390999999295246
C  -1.28588177100846889900 0.89175013131783331666 0.05331911615224282919
H  -1.78336023723272929509 0.49083606355426390166 0.94727378586342281253
C  -0.02264004101128236357 0.06400074589471294040 -0.18824973514021503540
O  -0.33216439028127320299 -1.29877901358899938700 -0.26137877063989511939
Si -1.70073279955378109385 -1.85946182005755211719 -0.98690631072426204806
C  -2.50664520052824268959 -3.06401156097964832981 0.27571538376508053503
C  -3.67158389969813114817 -3.83107872188866771523 -0.35044864892280391810
C  -1.47105578288687333099 -4.06896805944201300775 0.78605054879852209737
C  -3.03930700213593407710 -2.27657473098352758356 1.48040185663136414362
C  -1.24785513069089715188 -2.50711813937382554940 -2.75550486160420904369
C  -0.60077270026793549995 -3.89404120445763712866 -2.70279998456951364716
C  -2.48888355619064416402 -2.57956945283999239393 -3.65300194140069445226
C  -0.24286373947684047891 -1.54557544716996941858 -3.40944343273735128719
O  -2.74406720235726586665 -0.58607380950360110639 -1.15926502324905067454
O  -0.98212091964931380605 2.25175631516327090509 0.32430831800936243958
C  -1.32823634392064793275 3.17205355316330095405 -0.68410982011068599551
H  -1.08597014205540398635 4.15069804325834290637 -0.23794142243147520244
O  -0.60051031817606981278 2.98394116403925746539 -1.86009110843270741853
C  0.75625338152327925556 3.39589836568880087952 -1.76849109952045502325
C  -2.84144672208417059522 3.15159296931148080745 -1.00721073623198820179
H  -2.97968997508933730600 3.54755533149940394111 -2.01751554158288071150
O  -3.54004598383028978859 4.01654038543066604916 -0.15610071013997484091
H  -4.53541510703136729887 0.62398909479150210800 -2.09198345962024712108
H  0.67759519785899913202 0.20224801860228602823 0.64160680631836064514
H  0.45350869434680607384 0.39185476241180761114 -1.11907274452345539828
H  -3.32665091052204520139 -4.45163669108322856971 -1.17274559504102304786
H  -4.42431435709585052507 -3.14527617822353899868 -0.72890010653496295490
H  -4.13756449733032827254 -4.48081306147528035666 0.38974351553365926826
H  -1.12616635914044849187 -4.71238554181136937160 -0.01696987488730061777
H  -1.90689907987674045486 -4.69644047827270494366 1.56288460762468073284
H  -0.61038730289698883702 -3.55125032885908797908 1.19959490421346925970
H  -2.22864222019157143251 -1.75512813052356131394 1.98466212903249861199
H  -3.50382059608603313450 -2.95453962953693771709 2.19554226401210605957
H  -3.78308812593805265934 -1.54902940712001324641 1.16538885868611696850
H  0.26916237181433633197 -3.88672494872960161416 -2.05154394273618478906
H  -0.28385431473032896044 -4.19987926991345528194 -3.69915542121036766687
H  -1.30399727995883685239 -4.63448882238619574991 -2.33188675061843486702
H  -2.94742895000344873324 -1.59935890671136515806 -3.75063086891383568044
H  -3.22747097723967391047 -3.26173926679866443834 -3.24241580940551266110
H  -2.21243361464749410672 -2.92984265159991341676 -4.64675095680123906305
H  -0.66197294731461564510 -0.54540045509638890309 -3.50047339824094416727
H  0.01367183164793117633 -1.89470898237961193900 -4.40906792898679533721
H  0.67107403145094979280 -1.49007017038502653783 -2.82279413433524872801
H  1.21338792813312590368 3.13812346445083978352 -2.72060076236900716395
H  1.26635269284025442360 2.87898426616390601396 -0.95147301782222404309
H  0.81435149348185875695 4.47691528250571124659 -1.60629620628473879229
H  -3.44742046450724437534 3.71565542972584417214 0.75830229017941386260
52
-73.6918742033 converged=true
O  -3.33529144839846392046 2.41231808042932671654 -2.20219147833591177843
C  -2.90072718307518595537 1.85694040076021593677 -0.99217244552171712790
H  -3.78640613388060343070 1.39555499333440025111 -0.54135585413659881304
C  -1.85464498439610370184 0.73899681359909141776 -1.20047638348250562679
H  -1.30021744518922210965 0.94914767403002819890 -2.12713531246326148505
C  -0.85743483569936329580 0.70282468147732335417 -0.04304889548654156073
H  -1.41358551406089172353 0.48906786720424610948 0.88079385343304372746
C  0.18478931062867776092 -0.39393201724506077266 -0.26048979169706920622
O  -0.38589138539116563109 -1.66773826876058262059 -0.29231924558601996011
Si -1.80366976676369361599 -1.93961135495031333775 -1.08957933043355814640
C  -2.90375801209556616556 -2.93124139436626540700 0.13602934864789850700
C  -2.12294963147557647076 -4.10703439069435471964 0.72833217716229303740
C  -3.33995996770305092483 -2.01739552302274427475 1.28816547081462795532
C  -4.15980578644629162000 -3.46624830764845937026 -0.55207838487263893867
C  -1.42775482170881118371 -2.69470734137129053209 -2.83408642063688898105
C  -0.27455575864652637108 -1.91461186358913448835 -3.48404038836038587590
C  -1.00779498246626308955 -4.16425171649004255414 -2.74111621680513195543
C  -2.64974569039553875527 -2.58792246667985814668 -3.75346591864181267084
O  -2.52519599783152992600 -0.48090076301413864357 -1.33256519253590566265
O  -0.14764545603017142916 1.92374791769475095293 0.09592019993556699653
C  -0.84397035119559138394 3.08436454762372402882 -0.25997629290023027693
H  -0.43073202469929561254 3.87456852883525959541 0.38855675686465485086
O  -0.65519338298210105798 3.42075762328361010489 -1.61103379426006387831
C  0.67665038129158627811 3.80033187484796330935 -1.92414646970256475456
C  -2.35745344470039164264 2.95740561718436145711 -0.04842698549928248219
H  -2.81540748921314598618 3.91042505937344531119 -0.35258722720080359903
O  -2.58546200511674140188 2.69948910031388944475 1.31084515029471182501
H  -2.58233554994731751009 2.85540231732406635246 -2.61897946868980691093
H  0.90503621381715948502 -0.36915056801654738683 0.56263283861022506116
H  0.71657125090267426160 -0.19260318529953973643 -1.19779682644634588584
H  -2.72679086331597897441 -4.62276974715539878957 1.47438601709952399332
H  -1.21080170810281217975 -3.75522671797988527587 1.20153992460845726598
H  -1.85108062717424659560 -4.82075818105130871061 -0.04312804129955116750
H  -2.47356420420391165393 -1.62850004660563119074 1.81833381524297088561
H  -3.95360502548731318484 -2.57221361587125318948 1.99715254545402798314
H  -3.92109948947386932616 -1.18100051201668243550 0.90879720434671962259
H  -3.90000125075205339442 -4.18802266521087496187 -1.32150680150348120989
H  -4.71685489545499692099 -2.65562316003930032338 -1.01394054005187772560
H  -4.80576902610882150668 -3.96299713138818576752 0.17144690280189145426
H  0.62901125138062319309 -1.99523924254813267432 -2.88394454537623268209
H  -0.53229686792613617463 -0.86307874087988745160 -3.59254130886383604704
H  -0.06186361141171858868 -2.31366175235025650636 -4.47542450657272006254
H  -1.82520691131423151710 -4.77520318680472222184 -2.36821500648284466450
H  -0.15926660978496309795 -4.27858462590764254685 -2.07158859629387448464
H  -0.72632454051880912527 -4.54013693009066798822 -3.72421874572132161063
H  -2.98628772441409218175 -1.55722923334010499019 -3.82404017213660507579
H  -3.47284740945462377937 -3.18564202443802457765 -3.37414881395110954898
H  -2.40124422551907823475 -2.94289427127481850732 -4.75311631500503128933
H  0.94726165352228886007 4.71454690266208586991 -1.38664475436754663917
H  0.69557277888720792092 3.97853473970186088948 -2.99656843927216698376
H  1.37676810489844037022 3.00486763608085993837 -1.65903489585995878031
H  -3.53225690540225034653 2.76209857034050099145 1.49297760113702215889
52
-73.6918345539 converged=true
O  -4.32616646502773782856 1.50595246541402838503 -1.84551123222379231947
C  -3.19388768300538661293 1.60206465153990906813 -1.02508851250069565886
H  -3.46116807679678917253 1.38775101240411347092 0.02223246225384700736
C  -2.16405012313445865857 0.56436665484379577862 -1.48726087817348728848
H  -2.03489890712013199447 0.67749924212999057538 -2.57162228156772343368
C  -0.81714110515211468844 0.78976114849261258577 -0.79139106383105017883
H  -0.95627586793048369174 0.55662754197212405138 0.27754295465595379966
C  0.23984444081767053447 -0.15094561339649054110 -1.36503234944682372287
O  -0.09765275032443621051 -1.49410594156898302032 -1.19473495829822540237
Si -1.65769102931877854168 -2.03129131751611691215 -1.27591355129928696321
C  -2.01497184957624364543 -3.01710196849661738128 0.33708061375119102721
C  -1.30170874306354011907 -4.36934377984291266728 0.32626303168627135420
C  -1.51490591299904164835 -2.21959400073335721970 1.54902790279088020675
C  -3.51877661789610129972 -3.24820161438548815624 0.50844263893072372262
C  -1.86504524698434348551 -2.91266662320487101923 -2.98681564316783232371
C  -3.17061741511968708807 -3.70863671637175906781 -3.06323272617850372868
C  -1.89405915773616229103 -1.85199298117337241010 -4.09805044821779063113
C  -0.69259156744841621212 -3.86094205323714367850 -3.26370752336357838885
O  -2.64070133754696056982 -0.71356717662334390173 -1.19373190224099556822
O  -0.34933112061976068219 2.10723592819181293478 -0.94661188381920313706
C  -1.23126108461038508146 3.05853201828896592573 -0.38789090669006875967
H  -1.36796867967938062804 2.82938908783619602616 0.69268574362978307946
O  -0.71832753024206930093 4.33142654952691241732 -0.55909086099058546981
C  0.48382838071720524198 4.58477302724483237739 0.15629660502321640614
C  -2.59493192928495641780 3.01445111869461124243 -1.09415230628224513509
H  -2.42884873580524995873 3.27944677280767971084 -2.14952270393073918697
O  -3.50959096849519536221 3.89623055102414017625 -0.49573053816679935046
H  -4.94664151085188041890 2.19745455532769939921 -1.57627067497542827645
H  1.19328071721475970079 0.02259103263187345334 -0.85663703472042040943
H  0.36689349884415634051 0.07771216284244308881 -2.42972235262654745469
H  -0.23346628503628630291 -4.23555519913471023585 0.18038046652223793664
H  -1.68240665616573803476 -4.99826879893669318022 -0.47350463083048976998
H  -1.46109470547982933653 -4.88989112029373540480 1.27003333683065888771
H  -2.03405838150286744082 -1.26603493273086264992 1.61669029401726072059
H  -0.44667953573319296723 -2.03331496745768980361 1.47128286535851615646
H  -1.70239110540996274601 -2.77488439077825788104 2.46745298515900746139
H  -4.05359495617055287653 -2.30366948995245746090 0.46937361665721399895
H  -3.71970230273608359894 -3.72559485208258545086 1.46710860253134822706
H  -3.90578246357110669962 -3.88813924592143633774 -0.27814442373796632868
H  -4.02093287095139384490 -3.06974811167691941094 -2.84003512911382216544
H  -3.16110528916198152416 -4.53266702394744491755 -2.35506496064573411786
H  -3.30157692016898085541 -4.12331602614034231635 -4.06208877102329690700
H  -1.99644116839229268656 -2.33015430983987048563 -5.07181919325213659278
H  -0.97378546236526775104 -1.27098859560134958002 -4.10333520865662126909
H  -2.73523481820796821040 -1.17674929013331430738 -3.95951425797751888069
H  -0.78896311121291040624 -4.29779195334292563047 -4.25693210519447085005
H  -0.66635798369158338872 -4.66671411741540076434 -2.53659473849333405582
H  0.25202229438150358654 -3.32688646675766985794 -3.20958928532259957223
H  0.73711083034748847709 5.62103514704980167238 -0.05282426708392895520
H  1.28218070366182246289 3.92406792119187830536 -0.18540134983852507577
H  0.32589210785268996062 4.44424038778191299315 1.23076578059039465352
H  -3.12135754210948945797 4.78140970145691657223 -0.49130924650602214587
52
-73.6918061217 converged=true
O  -4.16094584723549942851 1.86787348416036547150 -1.69083769186156729347
C  -3.15512955237889247684 1.84486551741569115848 -0.71492869642391787544
H  -3.59751094638901891543 1.63156881806338471819 0.27416522769961382267
C  -2.11008367884565961603 0.76562655186768591165 -1.01431310989636869202
H  -1.64198915700768699466 0.99677760257486713869 -1.97834735676375217395
C  -1.05440107173452890521 0.76503965994068678924 0.08575023055154096241
H  -1.51009833869082266133 0.33941311689044217914 0.99013344001799263872
C  0.10540600186020165907 -0.14374586601760597215 -0.32315208206750078990
O  -0.32721809420518832567 -1.46302414393550472838 -0.49109787771294022285
Si -1.81397498025406811450 -1.85653950744166129638 -1.08184332045057818306
C  -2.64366752269513272111 -3.03570122257944907673 0.19105722470121722090
C  -1.97399591192669121575 -4.40999657440863757074 0.16433793000523277961
C  -2.49884642546411539499 -2.45813598352995743568 1.60537018233613992813
C  -4.13658297407678077207 -3.20736921510716621597 -0.10035030808397060742
C  -1.54047357856510913621 -2.47194974529251343398 -2.89716180822098312575
C  -0.34788982100586629542 -3.43337018862951826037 -2.96547731820402660219
C  -2.77179387837797275296 -3.18543370114001422877 -3.46179269889249585646
C  -1.23088095707373801346 -1.26886686550931981898 -3.80158052085187225799
O  -2.74054414769864340684 -0.48525613341602114037 -1.08526265728398163546
O  -0.60489770947683951796 2.06832543518816081018 0.42456343807127905343
C  -0.94311474904417857967 3.09150562279861862436 -0.48258447720401520531
H  -0.57566036960840705206 4.00722135551228220152 0.00973788079258142147
O  -0.33373213563253911751 2.93511063443567010722 -1.72798004058671272887
C  1.05627396201143586296 3.22808693449419781274 -1.73013317761602802847
C  -2.47249947700852601429 3.22688855774720328995 -0.67127555449876152860
H  -2.65659170323877891207 3.72129283555758405555 -1.62939503977325728101
O  -3.01668407488453649279 4.06802134228262612936 0.30746945336039210872
H  -4.46801869559259579034 0.95901929013841136218 -1.81513889474399658930
H  0.87372705971801067903 -0.13974857405340695982 0.45660820701100313102
H  0.54294715141942972991 0.22678975749855401212 -1.25770065186765256371
H  -0.90526000187620425663 -4.31757222935606321812 0.33635127132927533644
H  -2.12802644853679812087 -4.89320910997494262773 -0.79641324688221382111
H  -2.39530512338322632004 -5.05276921344785989731 0.93658583818198937188
H  -3.00175425816958885150 -1.49623305550920049356 1.67881576408897426056
H  -1.45057085811462038727 -2.32678194900131884992 1.86155901899376297060
H  -2.94914301783736299001 -3.13191890647610549081 2.33347150929568325495
H  -4.63839708411599183080 -2.24434805381481883302 -0.09128274604217390120
H  -4.59567939633636513008 -3.84401120296252196695 0.65545187581477537542
H  -4.29486893110602796497 -3.66522026232695008474 -1.07159616540731872369
H  0.54687815872720735300 -2.96405357661350166154 -2.56609965753440949499
H  -0.15700294559442751208 -3.72180138666766557876 -3.99844438228582088612
H  -0.54157067734378205870 -4.33322685522667150337 -2.38973249790477115795
H  -3.64838562925204445975 -2.54567631120600168515 -3.40916111100411889367
H  -2.97517580132625214517 -4.09728647223580466630 -2.90699737176498596014
H  -2.60457648380088757634 -3.45539083941672808820 -4.50383810345420876331
H  -2.06600793853449582471 -0.57261180769971598004 -3.82057576339424009859
H  -1.04451823299665225164 -1.60411677970712207575 -4.82136018092308038518
H  -0.34471395666774240496 -0.74175752320326460154 -3.45419558577992891202
H  1.22339042835143851917 4.28052792216991839780 -1.47994465345637338238
H  1.40392236763589295379 3.02763036732617818458 -2.74059559135402341923
H  1.58981025063101188977 2.59707169535939907945 -1.01429403006911367235
H  -2.86726279725000976484 3.68372675448532138631 1.18223587801002483211
52
-73.6916343817 converged=true
O  -4.07191529587017342351 1.66189767802341159530 -2.26641626093666825881
C  -3.05203496343487223896 1.68154947511559460516 -1.30001718061346971389
H  -3.47846800788802879012 1.49316534475986473218 -0.29987957386976349383
C  -1.98363803668547777903 0.61861799611407941590 -1.57200458368075679516
H  -1.58806647796769007108 0.76002213823057163111 -2.58714202987109409548
C  -0.84256858143144963691 0.79967210395878463025 -0.57069228317473186252
H  -1.24874574091225332140 0.63876852531154693082 0.44189979220541841798
C  0.26985680648635246293 -0.21466415836030516839 -0.82242678823472470384
O  -0.18523669191386238353 -1.52839103846681378940 -0.70557007108834612907
Si -1.67868219247604244515 -2.00239501248716145199 -1.21167402586398109676
C  -2.51784116491173470820 -2.91135868251220664149 0.26076326024797946701
C  -4.02130627276641128276 -3.07669767183946429867 0.02257412636311562082
C  -1.89705909162705177451 -4.29264341121785442112 0.47236228298258153835
C  -2.32574299720724431140 -2.09585464745285587895 1.54650832122615233821
C  -1.43532334404359795954 -2.93850288313978236232 -2.88872085177951998247
C  -0.26812199335478714701 -3.92748156928443403757 -2.78661903001847255368
C  -2.68855557586304616535 -3.70763711461430922611 -3.31587820922396225853
C  -1.10018942039070877215 -1.92225449885910082415 -3.99175794142602313741
O  -2.58290325509688933892 -0.64274487200622387739 -1.46974817798844581418
O  -0.28480084246330394926 2.08504478098027856703 -0.68386384357374963017
C  -1.19284042683469948543 3.13712300021769419089 -0.40086189989767406772
H  -1.52730622007849503596 3.05040942173639795243 0.65566803003325824228
O  -0.55071040702207230133 4.33603850032776971801 -0.62314816055032318243
C  0.45139435614790923701 4.65339578597728475984 0.33206071537913151026
C  -2.43245937828048841567 3.08590715675071258772 -1.30720180302777100323
H  -2.11078836753000320670 3.32922283507433203198 -2.33006500730281107536
O  -3.34823226591744127489 4.03324017772212695121 -0.83087712707873229157
H  -4.37687649319966354255 0.74938285124274806037 -2.35578303848569525769
H  1.06855657217881749865 -0.06934566499841432474 -0.08920489994753788565
H  0.67982718739732894697 -0.03924429863526179840 -1.82353962907109390379
H  -4.21175837606639724697 -3.69227444195538723193 -0.85089095357064126190
H  -4.48998787464705362282 -2.10944983718964351738 -0.13297691677663647791
H  -4.48743848131928757539 -3.55289456920916713045 0.88450296847717546633
H  -2.32755812238015025173 -4.77014949050741332570 1.35198664321913741837
H  -0.82297562386628697606 -4.21153562690110927491 0.61346453065431361118
H  -2.08510630214468317689 -4.93408092449095558862 -0.38406630934011809497
H  -2.78452777444321464273 -1.11402249332457969899 1.44969926353482247983
H  -1.26863680967383718468 -1.96743767765562083127 1.76506843888244246976
H  -2.79188097223447995177 -2.60698224747902829179 2.38808511087190034061
H  -0.08777440594673757701 -4.39599792140460987611 -3.75325976332819788439
H  -0.48365705957573390528 -4.70821956868559610143 -2.06363727628010984461
H  0.63911282044979045303 -3.41857973991389574309 -2.47301750159075561797
H  -2.91663864852651233406 -4.49594101879737984007 -2.60379875445056185868
H  -2.53363934408869262427 -4.16818552605269232458 -4.29078092969599378392
H  -3.54626182551255464404 -3.04396958819548135722 -3.38182667748889898007
H  -1.91474643571307745482 -1.21459175630937421531 -4.12587891123317618280
H  -0.93632417411318635825 -2.43569171888094615497 -4.93849070374097376401
H  -0.19487440182856397008 -1.37054365332219463269 -3.74673211628927127492
H  0.01915296645247321905 4.71046549570958106301 1.33676289330196662597
H  0.83868906379533370021 5.62576164078804552560 0.03819203877193388941
H  1.25082491736315426500 3.90927365467237297736 0.31833253415722229107
H  -4.13630455302317567856 3.98606476143605981122 -1.39070171981792367610
52
-73.6914840180 converged=true
O  -3.94338875148080925115 1.71425758995621335679 -2.70520471016585872803
C  -3.52874342527821882598 1.52217467035046616353 -1.38092499312741301409
H  -4.34220235671717169623 0.97757947681614165703 -0.89057748578374040793
C  -2.25188998888744418281 0.65758749677035122083 -1.30960685182188996123
H  -1.64316937776086713363 0.87442972939874730187 -2.19884293045305234671
C  -1.41821585349993228853 0.95776684401432521376 -0.06556810188494033298
H  -1.98319902474184339702 0.59043667154938450636 0.80424616670602699919
C  -0.09679309538514813127 0.18773179089703850853 -0.12572749356152623790
O  -0.29480882373441397171 -1.19405878584207569837 -0.12508309310181953133
Si -1.54872878526049317927 -1.89004417861147144819 -0.94418271781850204860
C  -2.42050886849779534060 -3.04585759453176319056 0.31957671646102325802
C  -3.10879857684098315218 -2.20420248091895576437 1.40222923843427604851
C  -3.48149605448432009069 -3.90822787456294040709 -0.36424766657997909025
C  -1.40242950943059874191 -3.96049893166840316638 1.00515389376909514141
C  -0.88534857155957247254 -2.63325014805899826342 -2.60498800672201280548
C  -2.03837241397413615474 -2.89552614723481571701 -3.58100663619758430301
C  0.07663265630314652910 -1.63152577246526542254 -3.26285046886624963136
C  -0.12194297371216555881 -3.94183807180107770307 -2.38309762703164196296
O  -2.61534159618752148901 -0.69306337803407458420 -1.31809909619624865407
O  -1.11418658682926796644 2.33674365066609013297 0.11130959402109597001
C  -1.84854380658573203000 3.24842109904144127341 -0.67060073607149517372
H  -1.68298377080504213410 4.21721819529612229616 -0.17087176500766476650
O  -1.41908435514470210315 3.30472127479234067948 -1.99858181447286087362
C  -0.12605588061469297223 3.87146860110168500313 -2.15985493314532028819
C  -3.33787397892594572824 2.88191968116434527047 -0.65923931070344277128
H  -3.90742255300443019905 3.63504421958778412005 -1.21406150743026808314
O  -3.84112789697121526089 2.89922694061836949686 0.64814194904608468661
H  -3.26001532113882541708 2.21620755139232272768 -3.17087919148600061447
H  0.50602244662340378767 0.44095617061229996914 0.75214444486927778399
H  0.44910139689141770347 0.49115365121083409683 -1.02715782494752438936
H  -3.61050973142214548517 -2.85286039321158835236 2.11950873075093770836
H  -3.85057487982676649452 -1.54398631905874683667 0.95965739850901732311
H  -2.37854803052590391133 -1.60428264997725067431 1.94105995713688983528
H  -4.01377133206974967550 -4.50954282275932705204 0.37228000721246501392
H  -3.02414941836992579027 -4.58355059474528658825 -1.08216587997236013408
H  -4.20155670256340219026 -3.28484669559184094823 -0.88720466649762097511
H  -1.89249229162620036249 -4.56306257347285271209 1.76935430129264714694
H  -0.61941240299584032769 -3.37224689179315717524 1.47519686457796384005
H  -0.93843058382193789146 -4.63143482493110258957 0.28916742699378539250
H  -2.70904850511698169768 -3.65618278478456470992 -3.19295878618075867905
H  -1.64994660194127695796 -3.23850486992246189288 -4.53938754236615338300
H  -2.61633855231698753130 -1.98999804528491996969 -3.74445454579036818288
H  0.45258444981078627123 -2.03391654843758917792 -4.20300632990126032951
H  0.92587798560544865012 -1.43208280957352562801 -2.61338879352626518582
H  -0.43033052987461384298 -0.69323538244724181023 -3.47853739634176895024
H  0.30076425729055777936 -4.29576714025265005148 -3.32272170002917377474
H  -0.78426923193392317213 -4.71366026812420368941 -2.00079136354250008978
H  0.68744660053540629363 -3.79850880527977174950 -1.67206273617630740702
H  -0.12898430476319999727 4.91936557128245244286 -1.84481994414538985616
H  0.10468365440512572562 3.80120177624729205235 -3.21980445232489076446
H  0.61312459791186890712 3.31947233570129363045 -1.57422877696991392327
H  -3.19829274875493663188 2.49593879491035153251 1.24654118656128920506
52
-73.6913164949 converged=true
O  -4.00997982089506699310 1.99928885421036373060 -2.05154164480917344804
C  -3.33835257300023613425 1.68019360668691719596 -0.86443054832091903439
H  -4.07436603086761728321 1.17153242660511969220 -0.23317397231388459211
C  -2.16571276344488072851 0.70952324864808613558 -1.12284941471611077191
H  -1.75253969955847699325 0.92732573128219331071 -2.11712801061362521082
C  -1.05242945723270553415 0.86177755069961958778 -0.08774251862070514552
H  -1.44183035833351969046 0.49176529692200754429 0.87251105536519846240
C  0.14437418248536593168 -0.01063347939959669031 -0.47276680598133236089
O  -0.17879533940902225808 -1.36774822356289060821 -0.50449846918546836783
Si -1.64506297601990980617 -1.90446721646593708499 -1.04305893380073322341
C  -2.37695842550179214925 -3.05270462420724797425 0.31282882859313221324
C  -1.64721822649194726829 -4.39551574414329504492 0.34669297900427342718
C  -2.22854914892601474463 -2.38941531307402987849 1.68845629343309533432
C  -3.86664408772782053347 -3.30240826305183921008 0.06423782590277582472
C  -1.36896916804276758128 -2.60827880693687541580 -2.82606866386106503342
C  -2.58332836906197638172 -3.39818881247468373985 -3.32134330162971025402
C  -1.13570782224267419203 -1.44341722814045381185 -3.80063902630916761183
C  -0.13704568450027454496 -3.51997964439162558392 -2.87085325404166669117
O  -2.65114805460606817178 -0.60275210201450546421 -1.10053224607053223849
O  -0.58554447793233244113 2.19751600983005301870 0.06966085426242796252
C  -1.39058794291684972855 3.21378492261895720716 -0.47919007120436463154
H  -1.02486911075615472200 4.13244746631483739208 0.00890237938027782505
O  -1.27473231106837703308 3.31982925684468765937 -1.86725406291062112629
C  -0.00462348774660048534 3.78143278110915037615 -2.30554071695876672266
C  -2.86478726889831847302 2.96569910309309436869 -0.13677335128821399568
H  -3.47538077929392308363 3.79795469152923459433 -0.50263969850291334573
O  -3.05039843123825527016 2.92686543259539222461 1.25151904516665379852
H  -3.40024909688812915221 2.48216979517016378409 -2.62681025048115657228
H  0.94139411813676532326 0.12922583056589975747 0.26435689858839706012
H  0.51501348821404246969 0.31099452613229905396 -1.45405732823373368134
H  -2.02613199721887582427 -5.01264297441179174086 1.16087837956645567594
H  -0.58060411037379711097 -4.24748294433891615540 0.49205001799383851768
H  -1.79635030959464891964 -4.93761067216817473025 -0.58299796189766905918
H  -2.77784237990787241657 -1.45108153629735303625 1.71967828010494927504
H  -1.18215719976384847634 -2.19344207747067665437 1.90917104694602968173
H  -2.62767748861075123301 -3.04160831778201590225 2.46455922116375258923
H  -4.02070598283849545140 -3.84948484578068761408 -0.86054619288462308457
H  -4.40296320795036955076 -2.36045015684656034338 -0.00627875267093269684
H  -4.29198427334924215160 -3.88572232658070459976 0.88043116453068037686
H  -3.48239442655173636609 -2.78933457453386601799 -3.27319233225534667042
H  -2.73610362634585158048 -4.28819159299857854961 -2.71696561309549977636
H  -2.43377822225833018166 -3.71338686977742593598 -4.35351819196896183684
H  -0.96121946919226775030 -1.82417984428243595829 -4.80650050525744987340
H  -0.26557708780111988212 -0.85986940104962350517 -3.50619932728316374693
H  -2.00533639067850355531 -0.79130513334908070266 -3.83002659115847876592
H  0.04849196508390596350 -3.85121994353401175815 -3.89189054904945574975
H  -0.28207091703282194395 -4.39759549849023123613 -2.24835360284908691852
H  0.74267256498163436440 -2.99328842784765658536 -2.51114442658232261962
H  -0.03722425765971548728 3.76543544681469821711 -3.39204264188423643134
H  0.79131876596833383708 3.12772551449464097928 -1.94057692425827998939
H  0.17295783800396513641 4.80093178156021149761 -1.94987789152932755599
H  -2.31338066314399704027 2.45524732167483294987 1.66184952447688583099
52
-73.6909238251 converged=true
O  -4.70861365017173838510 1.26337789155204038849 -1.60135765824859177542
C  -3.57925051717192621581 1.55828836610640442117 -0.82489058401198600556
H  -3.89994730410123358055 1.45604029461057749018 0.21870603390072651528
C  -2.37704142739373169846 0.64560816039211543771 -1.08335127816404641621
H  -1.93113277279183126467 0.92353441129799651588 -2.04998367173397610941
C  -1.36186307008996232426 0.89410136159078235085 0.03015587197571423239
H  -1.74550341825465515910 0.41745139080360649242 0.94143991644524183116
C  -0.03748889965300472582 0.21719923798503759649 -0.32462895197185215324
O  -0.20094828312196377773 -1.16697140603939453207 -0.44774343751175993411
Si -1.58510709858020915064 -1.87159624033249993857 -0.99909909904551974513
C  -2.22656260721612886400 -3.09398951958010703933 0.34019082198447225807
C  -3.66631228219112115241 -3.52191701036730231422 0.04170444574953502404
C  -1.34356608909507890814 -4.34003395495624566536 0.41221867625765939991
C  -2.20840141914766618925 -2.41226047248972541581 1.71481442216870005879
C  -1.16232493049007201691 -2.55128133434971759996 -2.76319528641936873470
C  -2.24802331242512032361 -3.48958686948405416572 -3.29705025927490735782
C  -1.02650765929924725484 -1.37454812264543280165 -3.74191863173480321336
C  0.17180835164941266058 -3.30627901164079318619 -2.74587578765154383120
O  -2.74632456445128170230 -0.70085211948371850532 -1.11702535059719654242
O  -1.20011282348065417835 2.26989776768252671246 0.33611354671147486428
C  -1.62302503038489209786 3.18087587751208289433 -0.64277163274032433904
H  -1.52220467148912397271 4.16063801846572189902 -0.15052424338397241144
O  -0.83615195241348894140 3.12276139445332034938 -1.79926010174576589407
C  0.46807582397380009809 3.65987099032508877983 -1.63296890504658653853
C  -3.09752272296490804848 3.00647525956041228312 -1.06094690224694998548
H  -3.14580489108030469936 3.21409931303864659924 -2.14275549592647784891
O  -3.86579975024877020573 3.94160074152909389866 -0.35204291675049059762
H  -4.43263536798171209341 0.98611994031786343040 -2.48331937776296163278
H  0.69592084097371609275 0.39937372519820024674 0.46747861238832144615
H  0.34328881088274876277 0.63037770224698574939 -1.26631195867988477488
H  -4.04478808593165517493 -4.15360187127931368423 0.84478390825509919182
H  -3.72071413928484728828 -4.08251491264352228683 -0.88618433077538316667
H  -4.31015043427808031140 -2.65175401329108195725 -0.04825717750445046583
H  -0.30864482148259697603 -4.06518999032039385355 0.59651389353014350192
H  -1.39089230902701266324 -4.89923734481392969542 -0.51800427911346202947
H  -1.67705335229072560743 -4.99475779695011201653 1.21663442966792212374
H  -2.54848030794920266118 -3.10624534327289669733 2.48276015637869651442
H  -2.87125077350275104138 -1.54967732884982067887 1.72180731293073918664
H  -1.20315800285530016822 -2.08532923657713631371 1.96968594352577763829
H  -2.01996439592585463885 -3.78765665316686606090 -4.31978862717666345361
H  -3.21889663667159187099 -3.00159373432525011793 -3.28815508174389314888
H  -2.30986116536425534207 -4.38875033728156083157 -2.69041577034653256462
H  -0.75429222318123900770 -1.73814218928760677585 -4.73217372499225064075
H  -0.25341457160575875385 -0.68376492551000822573 -3.41174061183434673694
H  -1.96620981847323705871 -0.83405129492778840028 -3.82503430865170956920
H  0.11028739450778246578 -4.18772980053335874828 -2.11535483107450783535
H  0.96501905765656159630 -2.67151672358540803742 -2.36126867357622582944
H  0.43717580243852882660 -3.62355964241375883006 -3.75369017050979936201
H  0.41188493126707914627 4.73052353396898261906 -1.41258664176847648086
H  0.98081895081959968863 3.50072159258623605282 -2.57860703081832376427
H  0.99879547499716903047 3.15184704748116883977 -0.82384988143582715825
H  -4.80021788565242335522 3.76886518169367645825 -0.53409531989935066232
52
-73.6907489799 converged=true
O  -4.67299852111679214772 1.32445931328334554067 -1.58038933111122892328
C  -3.53160093848956302409 1.59600893035841395751 -0.81410969012771361442
H  -3.84664327643255710143 1.49500910863727054512 0.23080646605274313110
C  -2.34822603981991484545 0.66120428810722087221 -1.08408408972747949406
H  -1.90434268301250653188 0.93723989161173371087 -2.05290861394560852915
C  -1.32050756854606943236 0.88876401389651382701 0.02191810394348392421
H  -1.71162308543433483443 0.42354801172012046528 0.93603224880425561771
C  -0.01574316511726880918 0.17680604258175869337 -0.33911592293503445283
O  -0.21542088781346913073 -1.20627760852288057336 -0.41557167019109342299
Si -1.60735068147968229724 -1.87546826329392524180 -0.99164554283495787157
C  -2.22550018803002291889 -3.09380032299879026425 0.36153382658229737956
C  -3.37516217830036957537 -3.95880598914697223734 -0.15626248353029426053
C  -1.08635165289623625284 -4.00631821228419049419 0.82345182979026243508
C  -2.72851221132916066381 -2.30657389127825407371 1.57891040552061334701
C  -1.25449979366490405042 -2.54890643378137493613 -2.77382097611080258304
C  -2.55673392465955373609 -2.83572080452533192840 -3.52959194253596475477
C  -0.46359108769989920695 -1.49571081994784793601 -3.56616906413023482258
C  -0.41919849756080274084 -3.83154440957682318469 -2.73513221171146625466
O  -2.73974121907157597278 -0.67798713857408010597 -1.12428039514583266723
O  -1.12463284019256493096 2.26094769388556393608 0.32360480219859555362
C  -1.54076447732265786605 3.17929428542807901437 -0.65057388386049941342
H  -1.41295031962867101427 4.15787964035141222041 -0.16208631945656792883
O  -0.77101916330725905890 3.10245605119597911425 -1.81765854428094675299
C  0.55188669781403087988 3.59632482055780755559 -1.66548190340229695927
C  -3.02358035817439319004 3.03517274861325514479 -1.05072834712681850711
H  -3.07889311173260882271 3.24640723094797500892 -2.13185921602725070301
O  -3.76530750935581437489 3.98398198914360968104 -0.33199918497183833477
H  -4.41251517311677687871 1.10624016108841516370 -2.48367940377078522118
H  0.73537803021062964071 0.36279240784017119381 0.43519707055898537718
H  0.35506115311717834082 0.55520698290725678525 -1.29868477592537101550
H  -3.04036349947160111640 -4.59752403342575277634 -0.96895674208483861811
H  -4.18877844481342620497 -3.33597476655272373591 -0.51769754594417816129
H  -3.75595789059878537586 -4.59851263778656971226 0.63937394608918052263
H  -1.42217621072188582509 -4.64257174642487324689 1.64160733965923788524
H  -0.24210340770004856736 -3.41545611613393251815 1.16705690863320366013
H  -0.74608034835414838160 -4.64383570027671943592 0.01359145073893341937
H  -3.09386434206313820638 -2.99156079496454463396 2.34328627661900412704
H  -3.54143084508915428898 -1.64231493934877459395 1.29609846330741995679
H  -1.92433623041053381009 -1.71513838236174942509 2.01170857458387253303
H  -2.33870902616274944918 -3.14229429811107507931 -4.55194581041577617242
H  -3.18526792175575135246 -1.95055613692518714508 -3.55920423958967990785
H  -3.11808300591510612065 -3.62998992571036627197 -3.04753251218348797380
H  -1.02284956353577061172 -0.56567269192462110716 -3.64581157143167544632
H  -0.26413100773949760303 -1.85610543128315819139 -4.57477640759907089318
H  0.48849020105371354639 -1.28952696010075418265 -3.08317533238299823495
H  0.49886108428571485085 -3.67408858820493566810 -2.17557255764210477622
H  -0.16037349735824313335 -4.14424997595954991425 -3.74602116223603509582
H  -0.97536300296222211426 -4.63794274823179364375 -2.26534405681441786129
H  1.04861295303192325612 3.42047749288706981474 -2.61661488373011019704
H  1.07385174199144439733 3.06974253053228451904 -0.86268286607743793759
H  0.53333152283403006955 4.66794382106647987030 -1.44373284591527673015
H  -4.70528458638083968424 3.82778231101551380533 -0.50049566617508489674
52
-73.6905796861 converged=true
O  -4.08935409566091045974 1.63355513082230485722 -2.02357248832330105515
C  -3.08056368376043909763 1.63726070043128402176 -1.04442065549164331273
H  -3.51269839028748398491 1.40330524803370204623 -0.05718310421574690494
C  -1.98208692511392525759 0.61325096736235795714 -1.34779151832643195874
H  -1.58326366402032991942 0.81301403588805876144 -2.35310283752210391839
C  -0.85265219990587892696 0.78010654437325588351 -0.32970580528485382565
H  -1.25974772401693835278 0.54481098970671715254 0.66727269312136527901
C  0.29171645341047724997 -0.18344195018853320933 -0.63067796890628768924
O  -0.12601689976078800370 -1.51330687035080035940 -0.54737707334250107483
Si -1.59383054711815352888 -2.01104217511281158082 -1.10322984011301183926
C  -2.36653538675056163143 -3.03668049150470276132 0.32769239988717968615
C  -3.63034006972212708320 -3.77103826312972723045 -0.12199521095891885381
C  -1.35816827789017890993 -4.06474226947356154227 0.84786173005317300166
C  -2.73725360690004881903 -2.10466421714284646072 1.48914878023508423510
C  -1.36307729874190886044 -2.83538176553274956504 -2.84061024844655651833
C  -2.69385763160165492280 -2.93316199795653664850 -3.59581298146250771808
C  -0.40063660280035318095 -1.98322362387626283109 -3.68304022212895620925
C  -0.76392242422248579636 -4.23931140200914136074 -2.72033676986126859987
O  -2.53925644253167526188 -0.66943575613148875725 -1.31314934743126610073
O  -0.34772177249654534492 2.09176711826212047285 -0.35839177797689281135
C  -1.31008538513420602634 3.07075253527686165000 0.00556660548290022206
H  -1.71511192982400517693 2.84465004053076819801 1.00694173546047993639
O  -0.67735069749980469922 4.28636598137243041151 0.15265741061515480936
C  -0.11696845451964965612 4.86041046573404322828 -1.02403961686330857717
C  -2.48007963951925658463 3.04905950335836450904 -1.00155392563706557851
H  -2.09391115049688281147 3.28046712560346209742 -2.00668598066211067987
O  -3.43220750061802970521 3.99560520392306894877 -0.60428973748340220062
H  -4.38369639332283078659 0.72119934690791331899 -2.14286104154337930794
H  1.09314794951940763568 -0.03593055734407046842 0.09872853536379944117
H  0.68282547835431550709 0.03267657542726420949 -1.63078528421388124769
H  -3.39957268808722812281 -4.49485370382787419175 -0.89848452702159831151
H  -4.36462697087198492341 -3.07092816072204177757 -0.51040632840218735922
H  -4.07422018586720113831 -4.30605921246317890905 0.71679075625108845671
H  -1.76692192965214145417 -4.58890828697114105950 1.71102689433487897830
H  -0.43506661226457077341 -3.57502600610782783619 1.14406373025410079691
H  -1.12251350256622028922 -4.79896359793002069694 0.08406149216554203996
H  -3.46097340744574877291 -1.35958427394704317592 1.16820465632545955614
H  -1.85357583707380690896 -1.59501228725458155111 1.86677572470511021763
H  -3.17405559451074514854 -2.67811089526574486186 2.30588659764136671981
H  -3.12987255698094379852 -1.94724717143075531922 -3.72944289093844183469
H  -3.40509296005763051340 -3.54930922258402548053 -3.05425946688919580652
H  -2.53519848031386407783 -3.37584014961749945272 -4.57833938296294284953
H  -0.27552503705111330845 -2.42526443946396907947 -4.67083589347395911062
H  0.57640339240418558830 -1.92646222603072070356 -3.20909344677396157763
H  -0.78602720512593649005 -0.97388442494754778878 -3.81301704531343776949
H  -1.45163285178856593660 -4.90911798005999777672 -2.21166461137613890031
H  0.16765903946628157861 -4.21200254974601229208 -2.16148600635519017032
H  -0.56263493924615737285 -4.64931003909129447749 -3.70917886986284495165
H  0.45709317975212959695 4.11853404925977439888 -1.58153978779714532443
H  0.54287387852697710500 5.64885724282218415482 -0.66879190015990341855
H  -0.89582101958605520053 5.29401733985328437626 -1.65692492166290650246
H  -4.22108279870627445263 3.86283982226553490591 -1.14982122671107589440
52
-73.6904869627 converged=true
O  -4.39648051220408575546 1.45237307470129550779 -2.00821567924959332174
C  -3.48785002922080611398 1.59297156786546301177 -0.94901450174620927136
H  -3.97039279209769002676 1.33666655092497288493 0.00741982717172495754
C  -2.26788923176972767592 0.68614173638692932400 -1.13818167222445554287
H  -1.78262361424780491070 0.95054821796063593276 -2.08683398149118204401
C  -1.29650012825207228140 0.90007307949746717668 0.01551704720502433688
H  -1.77060624536946775720 0.50770180000944331589 0.92630450869571023809
C  -0.01148616477488295651 0.10783789962998957535 -0.23217221373169882881
O  -0.26435966937361854434 -1.26618000670384533990 -0.27866583191860572200
Si -1.61997175409115468092 -1.88344894699927989379 -0.98129056236911738065
C  -2.37970407638007941387 -3.08586765015517450195 0.31265812688625027604
C  -3.51255648966839073566 -3.91623600004695804344 -0.29131870397510428727
C  -1.30604853918284335990 -4.03477757760968636092 0.85150667660159529149
C  -2.94333327834683489144 -2.28604785880855132518 1.49480256689468782305
C  -1.15041542398290985716 -2.56016783075122544844 -2.73519695953744523820
C  -2.39415449743988517639 -2.74435270837949696343 -3.61203768861348972763
C  -0.22009865567739383962 -1.55623391718684445095 -3.43426791658668584262
C  -0.41324829861043110846 -3.89942364986756206946 -2.64565730477498650686
O  -2.69694158527105631862 -0.64704230331521062070 -1.19004918618917887585
O  -0.99609049927098591848 2.26801321927877275186 0.24673118769166801911
C  -1.52379203243165495252 3.19527339836709023402 -0.66277961566048548825
H  -1.30932445015422693757 4.16489438391499167125 -0.18041100582087588045
O  -0.90593545212709569725 3.13992497352666566357 -1.91753595035399859725
C  0.44106760180784276848 3.58970701380045920104 -1.91571374840265495898
C  -3.05113062216012043137 3.06362069502282485800 -0.86965846774595878532
H  -3.29178620599051185991 3.52720726369216830420 -1.83597055602752901038
O  -3.76103733660893180257 3.66399061858248753509 0.18156224596344494593
H  -4.57951848070545075586 0.50836890754193375663 -2.11008182343185968222
H  0.69478527700707748416 0.28971793972124082472 0.58399000032923042980
H  0.43892831271393561998 0.43899166096803998727 -1.17526100188364934773
H  -4.28714446356707146180 -3.27235287588765277889 -0.69832630000119655378
H  -3.95991528764214884006 -4.55489993883609223246 0.46971299992133297430
H  -3.14007973503882453770 -4.55377514006841543903 -1.08834236322684119180
H  -0.92469507120495986197 -4.67718419124759599015 0.06426220198917143023
H  -1.72168930406038334091 -4.66604915997665958827 1.63628982006219891865
H  -0.47330513877349766894 -3.47203527800332434339 1.26329679325120669553
H  -3.71814437185185475698 -1.60023802214541310818 1.16130038114647526903
H  -2.15491326478979150494 -1.71373975838404302152 1.97867855711270235197
H  -3.37576325905476082312 -2.96074250107666125942 2.23293509974695236764
H  -2.10667556481634177246 -3.09744574582599296875 -4.60162330535821073596
H  -2.92517459919159028559 -1.80321862660949783219 -3.72370819345844861203
H  -3.07452899058856932157 -3.46854821940103486000 -3.17430015578225077633
H  0.04258232594217692402 -1.91724662700465198206 -4.42810394387045125342
H  0.69778625989686848818 -1.42474217210851139548 -2.86618451212221625468
H  -0.70539703538360498669 -0.58849469404420029495 -3.54494087672478563888
H  -0.08932402142192108485 -4.21856633053726604032 -3.63556507111725402126
H  -1.06291370533097806472 -4.66952540755635947534 -2.23938490198279360754
H  0.46209193468502163249 -3.81379066450156090085 -2.00724225733004013605
H  0.80942253575705724877 3.43767046164272294106 -2.92724439586204709940
H  1.04197117502367331277 3.01834143394737708377 -1.20362527381724415676
H  0.48701048286954828903 4.65254684577934352063 -1.65617575424749574609
H  -3.68579602757678115310 4.62505106027687862280 0.12689363596688707503
52
-73.6904620276 converged=true
O  -3.92405412863360414377 1.87738546296137620573 -2.13080875578014072858
C  -2.89324730704154253758 1.78538181000019591238 -1.18441374317315051279
H  -3.30952459979816282498 1.59268010391922620883 -0.18273495715446386178
C  -1.92838373735154910982 0.64499052548835500431 -1.54826542467095307209
H  -1.61443607343371064999 0.78169841049597987848 -2.59334837626509528974
C  -0.68564359761229209944 0.69295885868832751697 -0.66133639926667298070
H  -1.00549254271776256076 0.53397415025432071189 0.38192286796551822015
C  0.29986920730505950417 -0.40600964976675035789 -1.04855110154235875441
O  -0.25351013645272946206 -1.67579041487794877519 -0.87565982772450279281
Si -1.82251069310759805653 -2.00510422948304167790 -1.25641652690462346520
C  -2.55037438582208952909 -2.88718932094152336276 0.29051188360442870007
C  -1.62999178773598796255 -4.02519811936129379148 0.74022225151789644570
C  -2.66695077548115699884 -1.88509460255545890917 1.44698435822174453769
C  -3.93974558206761082957 -3.46028905399128694498 0.00841598527313092148
C  -1.88163826831370961656 -2.89839421491561477495 -2.97258727264000777168
C  -0.93776613830972987973 -2.17925271034748702093 -3.94912924000307175021
C  -1.42774983633781893388 -4.35684529683829069313 -2.86537151665332068262
C  -3.29367915354509799286 -2.86595294319284699114 -3.56833881354670356956
O  -2.61785480647702195611 -0.56625283295399486683 -1.42091783952151651249
O  -0.03444903500047957756 1.93233941338695869305 -0.79336013642407676727
C  -0.83593650198586344491 3.00998057631589732708 -0.35471783964138547951
H  -1.08052985816246782669 2.85531656088710894537 0.72043177322098528315
O  -0.15201235310227456665 4.19794352199997788944 -0.53734980259926723445
C  1.01275675825853239687 4.33944679848684167212 0.26515647391661056886
C  -2.15545791223287652727 3.12676961994630087105 -1.14497293577740988368
H  -1.91306367552094247486 3.41962890589323009749 -2.17606898125120595822
O  -2.98746039353025505392 4.07363370675747127336 -0.53208835182656355478
H  -4.36432921661301431726 1.01777432362682196398 -2.16950494501336965669
H  1.18878366420947667592 -0.33948455618473621920 -0.41439669420400027100
H  0.60030409993176636618 -0.25521128502421119855 -2.09117561248845174049
H  -1.57550880344825672275 -4.80205413483968523991 -0.01576200651546577625
H  -2.00496643749548786317 -4.47048112148279308542 1.66118548177213276595
H  -0.62508189242020284482 -3.65345960415862514026 0.91788352404129480711
H  -3.31499196023638997843 -1.05587252880272464139 1.17378763417559883742
H  -1.68743328248115154189 -1.49220128561518583510 1.71050130145510093094
H  -3.08543374371650891419 -2.37355389371457992098 2.32613344674444721960
H  -4.35369126014001306402 -3.90830387664877809684 0.91114100570699907422
H  -3.88983527683894569904 -4.23019422902721409230 -0.75641620833981670913
H  -4.61613140511475883443 -2.68057948120507782974 -0.33028458386564618632
H  -1.22737025542693056757 -1.13765739973115875827 -4.07347252495182043930
H  -0.97470454356493663184 -2.65796168483860384413 -4.92700705107938485838
H  0.08791877778204626459 -2.21699646372383174509 -3.58996666853153989507
H  -1.38353208971467367405 -4.81196041309094013627 -3.85406258127531664570
H  -2.12316023489187877260 -4.93228841749397517447 -2.26064673540775151750
H  -0.44211695004671880405 -4.41942850941365339423 -2.41200721074229651464
H  -3.99693322528615535560 -3.39427970646121623943 -2.93199986839742887668
H  -3.29749593423203268827 -3.33815919966878338343 -4.54989151209505937601
H  -3.63750673146430258953 -1.84140886433337280792 -3.67827466318563534031
H  1.40891304377213444354 5.32552957616039623900 0.03587637415889610715
H  1.74702790130170715344 3.57060328121258141465 0.01885721606069545864
H  0.75557120922299159105 4.27444702289236300174 1.32761184301151513587
H  -2.55254813887666687222 4.93568741531111765397 -0.57653671238730574977
52
-73.6903201719 converged=true
O  -4.28343183723150833231 1.61730351523134840974 -2.02873254463928276436
C  -3.44828047042294194569 1.56263457821677498316 -0.90337029901997412118
H  -3.98301264952945999198 1.11710362767936799422 -0.04914627713868902070
C  -2.20203828669241019611 0.70940015201210004925 -1.17088681586105791688
H  -1.74411452834548019730 1.04137193207067135781 -2.11211031478958766172
C  -1.20877487609610678732 0.89128619807776354733 -0.02953897445206221661
H  -1.68942536397984910401 0.53304582003044043148 0.89298606317545492495
C  0.04868218002686797163 0.05705673297064028926 -0.27694572936410832842
O  -0.23558553222446554365 -1.31006015791094565515 -0.29203086519478871352
Si -1.58550424405950241002 -1.89308766132614514355 -1.03381846238606467381
C  -2.41115208351305065904 -3.06149483745236317134 0.25157984214781237142
C  -3.54130606318908824903 -3.87853074008249354421 -0.37519444395601497799
C  -1.37456835643816610570 -4.02310854223013691922 0.83920736113579752491
C  -2.99635422432401377080 -2.23170047626308676314 1.40192977702242949078
C  -1.09446491123943334678 -2.59950136703496603729 -2.76910599498157239395
C  -2.32468061625408450865 -2.78604273521878376130 -3.66415994521460408606
C  -0.14590444777967781498 -1.61096584168175471774 -3.46525265018889294666
C  -0.36930271699507555283 -3.94236900527682365691 -2.64689177920598517346
O  -2.60816802520496526796 -0.62618612143602636610 -1.30082417570610764379
O  -0.82315539477438171012 2.24529371183529491418 0.15709611979243720548
C  -1.54382106990334966312 3.21632672319568557739 -0.55333721029977744887
H  -1.28891011610282824051 4.15582203103788039300 -0.02978580488925208769
O  -1.16017167399547682649 3.30841906209064262612 -1.89511267675803862787
C  0.16452483360380742994 3.78320135418251357606 -2.08118201368255650863
C  -3.06884616947259125652 2.99668215856499564609 -0.49981533836477876065
H  -3.52896372211317288503 3.67387909910620180653 -1.23254471081930994103
O  -3.56606742354934347361 3.21923838429246345072 0.79404110140905048709
H  -4.44260399813169559735 0.70924555441121150956 -2.31926271583332166415
H  0.76868407580777975419 0.24078352254177692870 0.52607505778272978247
H  0.49527482691672619630 0.36233228052889532300 -1.23049960078785058926
H  -4.02755861035286955030 -4.49356593063293097146 0.38149013691372890555
H  -3.15656632361799616149 -4.53828357828044204325 -1.14800679755085432987
H  -4.28737221020425529616 -3.22537799840377870098 -0.81909346972750951554
H  -1.82552265395284529781 -4.62744369476803285579 1.62564483907200685309
H  -0.54021755326225950888 -3.46996519441869466505 1.26065104711094688739
H  -0.98780634795220523259 -4.69086466763188170148 0.07576383970076050467
H  -3.74146574123361208564 -1.53150597607096106145 1.03220036813162918676
H  -2.21227772207884276767 -1.67161216470998730266 1.90666610008049897118
H  -3.47160200334596069638 -2.88508636283446406878 2.13291505755658894472
H  -2.02336545356070640622 -3.14801674444081980297 -4.64647537891702633317
H  -2.85014250457254902926 -1.84379954264175571765 -3.79067254820705645812
H  -3.01452206052041793427 -3.50422739859174292576 -3.23180379533480310883
H  0.77010051736040341375 -1.49033362584043205246 -2.89145831160803989945
H  -0.61809121386459531244 -0.63745590668793816747 -3.58195591898516640939
H  0.11847801329556273409 -1.97868388557287766538 -4.45615521654861712619
H  -0.02537816125418257407 -4.27609168302925901628 -3.62522852359883085427
H  -1.03333044927014450209 -4.70324720919083194559 -2.24612901427463329540
H  0.49143551793535844574 -3.85469496166739089560 -1.98920929254946865505
H  0.25924186957980999146 4.80743331686615249509 -1.70518310824610397347
H  0.34228526297095807074 3.76165058107891514538 -3.15348449057311608357
H  0.88359602982975515850 3.14247691185317368223 -1.56397256682914731485
H  -3.45156531672084465612 4.14657676345313230826 1.03891106545262790206
52
-73.6902126218 converged=true
O  -4.40988115093048005377 1.32721013454598324444 -1.97839215131737988784
C  -3.45348611802791083392 1.57309627268211826845 -0.98008403814408451282
H  -3.91469451192872064382 1.48994599242970426900 0.01826497483833788849
C  -2.26875568002894478781 0.60955162682448704725 -1.06165848694720366119
H  -1.69856351901585345132 0.83624371510948758424 -1.97115856110639953158
C  -1.38685629396405873948 0.83478698316018407066 0.16075469111511853093
H  -1.88382778061030631278 0.37374887764427044967 1.02387004475005882753
C  -0.04676439173614088674 0.13091758507776174447 -0.04723618246846617019
O  -0.23086063585134164455 -1.24214283807022596307 -0.25505130114110219353
Si -1.57706726323094681419 -1.91030328338655142062 -0.92293445245881144956
C  -2.33640167653905184153 -3.14049162983828988871 0.34809654314360183314
C  -2.39193081898233161908 -2.48524563151139954442 1.73486411035475374121
C  -3.76118336733672009586 -3.54068547713602033156 -0.04509378034427213855
C  -1.47998697693209146919 -4.40281134644336535899 0.45181567173762093859
C  -1.03488817839673030718 -2.57426989377217108057 -2.65920994480394146109
C  -2.08877729721352611847 -3.49061498349378762640 -3.28683492145913502824
C  -0.80850856078514476977 -1.38798450446818555370 -3.60937175847943114704
C  0.28314401478782325050 -3.34965526277039327141 -2.55003318456640570844
O  -2.71423866202914787493 -0.71722849494346430088 -1.10842995154063839180
O  -1.23815906154632227043 2.20959255459700099067 0.47598723323434599664
C  -1.47139816797181932628 3.10414452932559115084 -0.56789914939956687157
H  -1.37762276816923234790 4.09589630480038380256 -0.10389166350166201269
O  -0.49866438260443746167 2.92933504233961805596 -1.57304249230598913734
C  0.03164900658429514735 4.13008261986253533138 -2.10520699136282551933
C  -2.90024279324047684625 2.99567938635733188590 -1.15904550981078613425
H  -2.82945552633973296253 3.18281226778595982552 -2.24254050464683540866
O  -3.70006695777260130598 3.96954776526414576665 -0.54427358785965229693
H  -4.53383036702653896555 0.36927017696610653363 -2.02746366784673526240
H  0.58372635878240042295 0.25691477472487023181 0.83837718058323429382
H  0.46003981935723259333 0.57663107878526320693 -0.91056998641776654146
H  -1.39747309544752873478 -2.19077728248030467739 2.06080383218912110976
H  -2.79967052310159481010 -3.18470391975875344315 2.46379829528296356855
H  -3.03004623680108409189 -1.60426446015914869747 1.71836178085222979206
H  -4.18509394890487040897 -4.20502914827877471993 0.70727043106769338365
H  -3.77214459650018962833 -4.05653289248324178118 -1.00002043378406524354
H  -4.39367290585077263643 -2.66146953918190787292 -0.12475808865014659244
H  -0.45290386203689481093 -4.14843152485348998226 0.69832094937744204621
H  -1.48393187826632710902 -4.94853744794860617162 -0.48745995944570719161
H  -1.86927271866451638616 -5.06246475358581715653 1.22658466390917464395
H  -2.22095301247781273801 -4.38938441230787823599 -2.69090016666022080472
H  -1.77812643534483205698 -3.79182486373104943311 -4.28654763323804299802
H  -3.04654405768638625318 -2.98321723954224715669 -3.36274229639759303367
H  -0.05270096888830955173 -0.71337397825606796431 -3.21207424251443907082
H  -1.73024403808999016618 -0.83055727606639850880 -3.75902074320226642357
H  -0.46605589348756892853 -1.74495251936662798542 -4.58024094759824329515
H  1.05371404490357911676 -2.73201240158776625933 -2.09756072869673904080
H  0.62054684949764005175 -3.65790658163580806317 -3.53886888627463669366
H  0.16102050353447716624 -4.23811600385156150850 -1.93844299151585586216
H  0.76102042266686908967 3.82595346439738381861 -2.85271380634805193921
H  0.52154501913215134401 4.71984210838294515611 -1.32461537079945101958
H  -0.75112723065434228165 4.73210001498682153454 -2.57661054525033694773
H  -4.60342172883252764848 3.87694631486006269228 -0.87639129413084149167
52
-73.6898617723 converged=true
O  -4.60317608666079092217 1.46443479072357019000 -1.20480846752696013624
C  -3.38752326604178666258 1.66463047720363754856 -0.54486215040739727211
H  -3.61432032666603575422 1.48464829368637452056 0.51299597748154668331
C  -2.27893551399755978082 0.69486472440914792692 -0.98335440521832695460
H  -1.94691839817559908532 0.97425399961856506970 -1.99299113353441215146
C  -1.11176926939643161418 0.83214044383833485341 -0.00736058498189362531
H  -1.40891958288007534961 0.35584563149926706771 0.93602014861753568553
C  0.10010507303997817630 0.07120708609299664094 -0.54651409956595087269
O  -0.17806429222982633753 -1.29489763358448684016 -0.66375557550605868151
Si -1.66974790233829439856 -1.87813680639219215962 -1.05976701231378167556
C  -2.23125824097481295638 -3.09504217143157589476 0.31969315138380083319
C  -1.45432700194195452248 -4.40973221462026554462 0.24547411245801797897
C  -1.98308621729679934731 -2.46797310491113996989 1.69799818834841520498
C  -3.72778581002790421195 -3.39536885646408670425 0.19802991007432702020
C  -1.52680945444775661990 -2.52593653993722400131 -2.87908138116898015824
C  -2.75154208493482954623 -3.34578335945825777742 -3.29322686362017069683
C  -1.40895012598220126243 -1.32994692180914242385 -3.83642157121099680595
C  -0.27442443729387933082 -3.39310243135616929067 -3.05148712876295125085
O  -2.74032644936138458647 -0.62337576266740146735 -0.99516878974636469035
O  -0.80194868822435827482 2.18193559841542850108 0.30182472913195423914
C  -1.30486999659485269909 3.14598070567796295194 -0.58927681876994264520
H  -1.01973330323936672848 4.10539648067259577147 -0.12734729419314427812
O  -0.74971561308324585760 3.04154671869981374499 -1.86789122433715881755
C  0.60201767817800244664 3.47181909096574159435 -1.94538665477044658836
C  -2.84925195732297487083 3.10531136169870336516 -0.71844807448915171122
H  -3.09302104163829927330 3.45692732958935522447 -1.72698697000560152937
O  -3.45802343368681786018 4.02147491109202182002 0.14840746501474133545
H  -4.46637538230843222919 1.49667579936955319475 -2.15991676638049634462
H  0.94403336781504676445 0.18336652890203275490 0.14203038769424458643
H  0.38063381937446005843 0.47802079115436191259 -1.52530467927026469610
H  -0.38496099177165787886 -4.22633304579332058637 0.30399829310273718264
H  -1.66472532334603862125 -4.92876377201432358532 -0.68549161848884554438
H  -1.73943535180303165966 -5.06516398609909490602 1.06787592535558850670
H  -0.93017723414231212598 -2.23008518717506420970 1.82909658393930474318
H  -2.27909372299646939553 -3.16163243261775583903 2.48427148418458232371
H  -2.56738672175881843529 -1.55761588745296020164 1.81313175353140376700
H  -4.30209741190166994329 -2.47351430249760362301 0.20402561421097042960
H  -4.05585746362738586157 -4.01646156343766147501 1.03106985858202415685
H  -3.94432942030669497768 -3.92340027911804511973 -0.72533307815151526476
H  -3.66462483067454325436 -2.77539468966034608144 -3.14531407402103013737
H  -2.81772991746589696049 -4.25868667499371156282 -2.70778124300904998734
H  -2.68251613844553205013 -3.62373725587808248605 -4.34438079299552892820
H  -2.29838440558362355759 -0.70717098355667906695 -3.78285336078197564902
H  -1.29922822673899251988 -1.67910553512010651822 -4.86263740258008336781
H  -0.53986344888087800520 -0.72268208857780913412 -3.59186285533016214089
H  0.61428736327685729002 -2.84518030092343998660 -2.75131791049423624074
H  -0.16449868834620184899 -3.69169570742792174656 -4.09333568983010742670
H  -0.33767944204919309037 -4.29055324771859769584 -2.44408306984338397072
H  1.23031966251144520008 2.91150452402942505614 -1.24835243095888603904
H  0.67330776883349563455 4.54043075833450071599 -1.71925254383100778455
H  0.91816439597161392250 3.28697697244713094022 -2.96910056821691537010
H  -3.34254651241583733423 3.73233972457379525878 1.06329070120209445705
52
-73.6896438070 converged=true
O  -4.23687179314312789558 1.60799035324439398842 -1.92190312188290524098
C  -3.29447687663759403165 1.74824613976769893675 -0.89256223250985944340
H  -3.76955998302338457506 1.56885175971011237017 0.08600432928979517833
C  -2.19588696071533329146 0.70100271495978216940 -1.08391305943264670830
H  -1.71650562776055615188 0.89403019955570361965 -2.05098559293493565292
C  -1.17069556253497730758 0.81941078697423708199 0.04315364082518580169
H  -1.62830334359720496629 0.39761584848538311654 0.94808578907214613452
C  0.05337642311194135125 -0.03189817775244174758 -0.30213864137710810809
O  -0.28571949786600048249 -1.38573374718422703822 -0.39993388253764794449
Si -1.73064463474865459780 -1.89077736109690741628 -1.01965936699377857089
C  -2.46890576510547266054 -3.09732726510455513846 0.28284680266567163720
C  -1.43709993136254454704 -4.15470212378906289530 0.68224730808591660391
C  -2.86759501600280763967 -2.32034209245119438236 1.54450250567287605818
C  -3.71407475875900416895 -3.79765665394963658485 -0.26149646836707518549
C  -1.45245198229193173134 -2.51717890171426983414 -2.83148943231924121733
C  -0.81959484949214922445 -3.91102287710055840364 -2.87082623893470456622
C  -2.78057677868214092598 -2.55671847472407121060 -3.59631304967972020847
C  -0.50943560699013068493 -1.55155353817768215663 -3.56599934927084705194
O  -2.73624624554786155528 -0.58660505588771394425 -1.07120611412454014300
O  -0.81040497290423108012 2.15593196399177777778 0.35604203056022742935
C  -1.14392885093407103980 3.11945840528487039478 -0.61248160702122111942
H  -0.84919169690654150440 4.07405625765790269099 -0.14399120712768831432
O  -0.46202766934343775240 2.94086144314900632679 -1.81644733766162058686
C  0.91526883864409458447 3.28404218773061806758 -1.75513686327159623701
C  -2.66144466173331428749 3.16256378759774214871 -0.89610426874286996934
H  -2.79185751074020949147 3.59358268078750953123 -1.89413298630733750727
O  -3.31812757640880384713 4.03122816151121288186 -0.00986220886437716437
H  -4.96287819498876459079 2.22734924187024496689 -1.77058389134149019029
H  0.80631736422924915608 0.06561137135271954968 0.48710765993379223637
H  0.47920505335262331137 0.31614827575612414190 -1.25022223561567424888
H  -0.52606806541072637096 -3.68096691980563051061 1.03629444309806872937
H  -1.18351222066592587367 -4.78760481762359990654 -0.16205761534099849541
H  -1.83326908190531434606 -4.78689032620700505305 1.47631920629507984444
H  -1.99772506670969129949 -1.84227509214211004895 1.98977800951353200887
H  -3.29806709144204335260 -2.99731968713289997908 2.28167683234132923076
H  -3.60486980201024564963 -1.55828418540099766787 1.30506183568637990078
H  -4.16031034123629073207 -4.43004238378347903193 0.50566786074322589428
H  -3.46102112655000171415 -4.42662552227025418716 -1.11040794718276480957
H  -4.45196241402658188235 -3.06741775461467813813 -0.58198583046390284235
H  -0.61183803340173947838 -4.20159678053157659150 -3.90002988690920471271
H  -1.48968879525911779282 -4.65060099435597962270 -2.44148972301885613945
H  0.11301072020616098612 -3.92497804522284088335 -2.31298883040761626972
H  -3.26414315597445670036 -1.58388829191685864828 -3.57105368672275957920
H  -3.45945842245209789212 -3.28160855966129538785 -3.15715468386317432703
H  -2.60851300640109506901 -2.83368724258284654383 -4.63586658991265210261
H  0.45414893020139124324 -1.49990283511321731424 -3.06444506528897875341
H  -0.93690832093260711932 -0.55197553738866689255 -3.61016225003210022848
H  -0.34506725930014225945 -1.89219828009172252870 -4.58790582255281442770
H  1.32637528044199037858 3.04863267937031778843 -2.73365860083876022202
H  1.42815555226036816627 2.70738308841441721597 -0.98112897567091250650
H  1.03106399669545889530 4.35277377645785623628 -1.54774278727980485471
H  -3.15308360724467284797 3.74786840114893760045 0.89945919802129958853
52
-73.6895988440 converged=true
O  -4.24355904502112224463 1.55750725780188714609 -1.97579743461913670544
C  -3.39856909285400687892 1.65747126134092725991 -0.85955257778253224554
H  -3.93361417398150114977 1.35396716189171462119 0.05403001623442604817
C  -2.23542611791000211952 0.68515608372821301675 -1.06877601429319857296
H  -1.80333603190522984150 0.89860938942267398755 -2.05296554256577046260
C  -1.17390371009000582525 0.85557529273052812524 0.01620788211635160181
H  -1.58008877993009555496 0.43088780076119370666 0.94478227203224562913
C  0.06814444918734330336 0.04630133626498067478 -0.36721940428551669289
O  -0.21300717312141226323 -1.32147281858607446026 -0.43929464867097611780
Si -1.65115223163644220250 -1.88914674709588936707 -1.01968047274049444795
C  -2.29295891427996423317 -3.12814166246373837055 0.30316231380646629923
C  -1.20088001881605666021 -4.13615605348450721124 0.66842106384040533840
C  -2.68630469411436667571 -2.36965418499601154778 1.57757868903322062692
C  -3.52070084890874035466 -3.88654286679665084137 -0.20107115280703624638
C  -1.40497527332901972486 -2.49838453825089557014 -2.84197960755062339899
C  -2.75452816304863468133 -2.59178877325630319106 -3.56360877760645244905
C  -0.52872840695700995539 -1.49119271261283881103 -3.60295701781885435722
C  -0.71492714243134081187 -3.86387297794020057040 -2.90703088700699208147
O  -2.71211495525916257421 -0.62896086585898214327 -1.03267900046249483381
O  -0.82658448751349011818 2.20578733292422191070 0.28804768710727213232
C  -1.33772308693121022571 3.16317919891532683963 -0.60729591636443580605
H  -1.03935354369938659502 4.12509742338831308928 -0.15555965296917229068
O  -0.81578271715504147021 3.05125009860892060232 -1.89450740989851995622
C  0.53690628677281493353 3.46999246451857734641 -2.00509104470749477400
C  -2.87612853975886784141 3.10719046640633100864 -0.66561099131577883270
H  -3.19970404827029764050 3.70897550928714592189 -1.52098112212864822190
O  -3.42700615215176362938 3.71404739737889633133 0.47489450337225513898
H  -5.05987844026152266963 2.04349398584939390133 -1.80214052781083955423
H  0.84560684902201055380 0.18688324101992348503 0.39093380964411506007
H  0.44256782969649632875 0.40325274368123287250 -1.33377319873528588090
H  -0.94067164754995469256 -4.75312770458964628517 -0.18566529873964532360
H  -1.54388575895911239755 -4.78944616305724579775 1.47016660424646472549
H  -0.30444433273885285196 -3.62018492378766643114 0.99987524564649810088
H  -3.47167366731772020216 -1.64906913321988746191 1.36423358013028028779
H  -1.82763013163418408524 -1.84377274881103536686 1.98923576787746902994
H  -3.05253551465916128649 -3.06617322181887619337 2.33113750304897493493
H  -4.30418340272741417607 -3.19267256538973676072 -0.49267443154147405604
H  -3.90861658255390187477 -4.54118654565138335499 0.57901587603465554110
H  -3.26738823796482069639 -4.50099873865373911741 -1.06041137198304280531
H  -2.60430679799616093817 -2.85112012387200053354 -4.61102714039805761104
H  -3.28039487260292306203 -1.64209991654223408375 -3.51270796584520628159
H  -3.38494416255273700145 -3.35129647645872807971 -3.11080358832669290337
H  -1.00227392220460886918 -0.51206881135987236675 -3.63209917553291772307
H  -0.38108769935515995897 -1.82359189055338122287 -4.63012730599102440010
H  0.44693041023398860645 -1.39662972463640833176 -3.13173484798979995247
H  -0.53405377328366832046 -4.14606955579930325229 -3.94364495451786423175
H  -1.33600519642452564284 -4.63106349571952957689 -2.45295838070772109774
H  0.23798897231001747699 -3.83771026486613120454 -2.38488676831016821467
H  0.62433240644420306964 4.53733180064748164995 -1.77712531606840395959
H  0.82379670294240447959 3.28571158690006015490 -3.03739955608378320306
H  1.17860229571209540467 2.90171199897133069712 -1.32669821624673067717
H  -3.02293471246071954184 3.32947537368935808644 1.26459390625177459100
52
-73.6894195718 converged=true
O  -3.90872594302611675587 1.84774189417194012464 -2.13550057425638595276
C  -3.17486093841706917829 1.80469460308443974128 -0.94001601454674021952
H  -3.82294906793591016125 1.50034489209723220782 -0.10304090576398938772
C  -2.08862580705533451564 0.73738456658613060757 -1.10234394603952035041
H  -1.57716455618856654652 0.92833935516374543884 -2.05200327297567852725
C  -1.08749944758313654702 0.78726450355730814845 0.05030691603948511670
H  -1.59399533993062503257 0.40005500645647573688 0.94572366672296248602
C  0.08900001079058017517 -0.14115676072968041943 -0.26076397432491849049
O  -0.31621050754856372400 -1.47222693049814346011 -0.38737237078463293560
Si -1.76976555543425395634 -1.89016617314800461358 -1.05075795674378347222
C  -2.68216364751560609747 -3.02647296635916385199 0.20495109077559647837
C  -2.04779142051191254126 -4.41650395812708840282 0.24861364541895913938
C  -2.60119351918128849377 -2.41668783185017232995 1.61070299266295635654
C  -4.16059901308004143061 -3.16655505440680595797 -0.16715204460309829315
C  -1.40107501261074118837 -2.56030366478978210765 -2.82900823057479433587
C  -0.23864159874516333026 -3.55984230338020246620 -2.81071079909876342384
C  -2.62476848849926192031 -3.24075535660350588785 -3.44800646944615785117
C  -1.00499299085536764053 -1.38536373302902027227 -3.73617453340237126724
O  -2.68854088174133964984 -0.52639832373072747984 -1.12870006816579260267
O  -0.61026125738206404847 2.08997706965988161443 0.35815195716764547385
C  -1.01905776789599977761 3.11948699748480384741 -0.51040393898836067255
H  -0.65310935146293691567 4.03542040739613039335 -0.01430840933702826057
O  -0.47992507928160144104 3.01460264147046119731 -1.79010048943022548329
C  0.90887863408039626378 3.30301961084632900167 -1.85478496811202431260
C  -2.55405334207974332728 3.18647339959902486939 -0.59557783157341304126
H  -2.81834630656195006537 3.89293311511203699027 -1.38861400699158910044
O  -3.07747453879206833705 3.71344307747640156592 0.59666801096139354676
H  -4.69936548357178462965 2.38716105845184456413 -2.00662662804658831206
H  0.81919414424275727171 -0.08901217985580966996 0.55347544685467897629
H  0.56938223298160384189 0.19224907194471430039 -1.18892078331493733501
H  -2.15779178074898769779 -4.91900269666906098109 -0.70829101736411559376
H  -2.52994192421849417585 -5.03003445002033711120 1.00917854827262032380
H  -0.98878809396620992445 -4.34599856887721802678 0.48100492148146356541
H  -3.08871718481554680125 -1.44460318105892904228 1.63221851296235498374
H  -1.56535347741417618650 -2.29739908513808765989 1.91860802751311498859
H  -3.10196474036831659760 -3.06383346098603137619 2.33014254361436989882
H  -4.27520146332008188494 -3.67807765651573692622 -1.11756388658960803539
H  -4.62399895973992514087 -2.18791843586375067687 -0.25175353360149010928
H  -4.68836941336064327857 -3.73899392578695177747 0.59515763554220058040
H  0.00354619247220022693 -3.87310628894252095833 -3.82560625623413130825
H  -0.49555529620945049096 -4.44218501403036380992 -2.23271304481576393641
H  0.64511471879676918206 -3.11060666273402386395 -2.36600551594603158989
H  -2.89147269325286071506 -4.13474883513341495700 -2.89077328866263272289
H  -2.41366043123546392124 -3.53430472584540655845 -4.47579498605324310745
H  -3.47693960832272663808 -2.56632923615299901599 -3.45007219992629821093
H  -1.81499609732386146810 -0.66292182561108647931 -3.80410425818602959680
H  -0.78177546713527878985 -1.74391309468052391196 -4.74072074083102457109
H  -0.11853235412135565419 -0.88352193444115767473 -3.35349470073465472097
H  1.19814227834657671679 3.14872776759846306760 -2.89131819328812689207
H  1.47723088333511221037 2.63721019815688650922 -1.19974151424830677293
H  1.09633515114705959448 4.34188099549362682694 -1.56418746314093448646
H  -2.68569839775093743839 3.24579408318760709307 1.34690490015325914364
52
-73.6892138874 converged=true
O  -4.15146968487463929876 1.32907223348284553310 -2.36056053037988711196
C  -3.29521000883173709184 1.48763534989046686263 -1.26155131513706297852
H  -3.82234669321992370783 1.24195621910438580571 -0.32595971700200165877
C  -2.11241416060340059246 0.52450574623885326542 -1.42151435937186354508
H  -1.70178797681503368722 0.65960076932043654185 -2.43088057893659659214
C  -1.02197652650132253527 0.82382745526646383727 -0.38612931175175779774
H  -1.42597500554200351530 0.55927853294410800888 0.60433021010200405065
C  0.21432968912990113530 -0.03048696790638028009 -0.65716373496655777764
O  -0.06249146854903986359 -1.39695331131951894221 -0.60319639013392545301
Si -1.50702891222457147080 -2.03482667264205741020 -1.08605325490272330846
C  -2.20638362517019492870 -3.07323640518107366049 0.37418882749382231800
C  -2.08795278101681036631 -2.27360562829876977631 1.67855380174673562976
C  -3.68557177778295042003 -3.39791621665134524477 0.14827322061134506903
C  -1.43052500768243517903 -4.37982594163679550547 0.54170322978985607776
C  -1.19716062912465570633 -2.89425382497799521531 -2.79300255637036087819
C  -2.38003068178796839405 -3.77069866178633272824 -3.21347641742141076904
C  -1.00340406144462046534 -1.81537244150379351026 -3.86961748992141663095
C  0.06738381489251810130 -3.76023108283837803612 -2.75355401088455664649
O  -2.56509288281621650185 -0.78554051352332432412 -1.26294582096950791517
O  -0.62169919745746082818 2.17287395488621459805 -0.40621851407755693586
C  -1.68296713783178719659 3.04875310277148958704 -0.10675120893086931240
H  -2.12126162774653170828 2.79449464250357326733 0.87598331469893131462
O  -1.21595084549734178125 4.34904516414434905158 0.04327307810429537049
C  -0.38375437631603714905 4.85016216334593064374 -1.00020151779522459279
C  -2.79089713431733166260 2.93557575575860063566 -1.17177161016713693442
H  -2.37557044029736585955 3.21364037786994538592 -2.15366684063272062488
O  -3.88224174638546681848 3.76113915338587334602 -0.84553888426397083578
H  -4.87415537685843602844 1.96511048075997774021 -2.26885990663289183189
H  0.97698194256003390024 0.18919774382156084869 0.09639207101200075734
H  0.61251235879577725640 0.23541047201120735011 -1.64376891543352243730
H  -2.47043526224654463874 -2.85923271922593658090 2.51385676569820759596
H  -2.66658199113570493211 -1.35469209248182687055 1.61512459889127590884
H  -1.05018208303754279065 -2.02153817069381647187 1.88178666047611420353
H  -4.25180292769057111002 -2.48607669123147090318 -0.01805272782447153723
H  -4.09553835352278561288 -3.91166088723065419330 1.01740991193159668882
H  -3.81455616966982002936 -4.03835674281838397093 -0.71846293286990414728
H  -1.79500045084484027846 -4.92865787379072273211 1.40944616045410953120
H  -0.37138814609845338666 -4.17972992932019860035 0.67825506321789230668
H  -1.55152611756870162374 -5.01307278628048536007 -0.33263366630545188052
H  -2.50229938397481088685 -4.60613839480445985686 -2.52954109905285928761
H  -2.21487225674434506928 -4.17354439826422218829 -4.21219000875267290951
H  -3.30023507486802225586 -3.19262158406635654373 -3.22223154997604677163
H  -0.15553528508267255859 -1.17685518533833954891 -3.62908053740393965469
H  -1.89517380316219186120 -1.19916972354688455837 -3.95693460530058827018
H  -0.81278281758651071964 -2.27940063489270716701 -4.83677111434813422619
H  0.26353068908135068860 -4.18339783544166277096 -3.73798978834240536173
H  -0.04430948933043876714 -4.57668267637254189140 -2.04677036757040387016
H  0.92728060442314941270 -3.16847226603309106707 -2.45222906109442018163
H  -0.02327573761290313570 5.80875074791454615308 -0.63450513274527731156
H  -0.94391002814490232442 4.99634511684069959614 -1.92736126130686513669
H  0.45394063993070687957 4.17611065677043757915 -1.17853436713126025204
H  -3.54432459379630415697 4.60502242106784009934 -0.51412580811975583384
52
-73.6890548815 converged=true
O  -4.17124393657620018416 1.59794350480458113850 -2.21862049315172349395
C  -3.07375740384689244422 1.65280258804281698914 -1.34506381607081859642
H  -3.49445656026527373683 1.46606129267373885838 -0.34972020797932201752
C  -2.00167397597268070797 0.59359382942794824967 -1.62921657925781837584
H  -1.61660123741808003928 0.73123047477908553748 -2.65204448439843698537
C  -0.84296804654981893901 0.80186209674050601404 -0.64817769057221352735
H  -1.23345190897471135294 0.66309533710218315772 0.37306235799964415634
C  0.26870128115097369204 -0.21661324844853840910 -0.88823446577328679652
O  -0.17325669920845521155 -1.52655653793861967316 -0.69911979095424037212
Si -1.67213090088318172555 -2.02299417918744017797 -1.17634523748620223316
C  -2.52257060927998022493 -2.84597959370189679262 0.33952986212797608978
C  -2.33682017609779402179 -1.95727472574260996652 1.57686272480889133618
C  -4.02520220727060706878 -3.00904025132289332234 0.09378394121806277184
C  -1.91652106700327484745 -4.21754391847363141466 0.63890878202661371965
C  -1.43781866241882827495 -3.04360155770710250067 -2.80419395482228850369
C  -1.07238881841355548907 -2.08895171451915695471 -3.95136944860271599467
C  -0.29782073161507871539 -4.05686573326918775706 -2.65000739324273570929
C  -2.71169385952137176332 -3.79493072825060506759 -3.20001980081253600829
O  -2.56409673568222817863 -0.67733748730987708431 -1.51025616621503644410
O  -0.28889339499927135790 2.08516000695204395399 -0.79701251699415998075
C  -1.19144638657145174321 3.13580884057518449737 -0.49341445811972628466
H  -1.49252654399510031880 3.05797582091205644161 0.57332978403445333804
O  -0.56266084049538189760 4.33581428213056252474 -0.74821785782576688550
C  0.46543606790408986740 4.66901954457327228454 0.17320430826750787823
C  -2.45531115910505581823 3.06496055336223394150 -1.36314407833449946494
H  -2.15561065242796257024 3.32249236332378261594 -2.39250927262810186846
O  -3.37449395528564366487 4.00149928220962625147 -0.87058500985090558899
H  -3.86039998734024258908 1.53892805974521973411 -3.13137682972513875512
H  1.08519047907416421594 -0.03347700278791543305 -0.18376149266740138266
H  0.65108136466972910128 -0.08382060232119425969 -1.90671476609891055176
H  -2.79758495282812891247 -0.98431019955587628623 1.41959290228566059611
H  -1.28073123677739442172 -1.81455494573675046865 1.79233350600706087263
H  -2.80656515026081532227 -2.41890925400760270492 2.44468258867815579904
H  -4.51250065330512306616 -3.39586173390788914617 0.98814055552301960361
H  -4.21303673582961568655 -3.69996349411135172502 -0.72205605956536278445
H  -4.47414545535747265603 -2.05340648088422961237 -0.16149382698475001074
H  -2.36212852788221283618 -4.64010396845051431569 1.53875439284226311898
H  -0.84346052458597331469 -4.13644599703523230261 0.78931967470849717650
H  -2.09852437932713442592 -4.90545437632992076260 -0.18213766249148177767
H  -1.87241488325831828554 -1.37293593071257635785 -4.12180915783387824547
H  -0.91510546091805067270 -2.65018333542035389172 -4.87170600094058059426
H  -0.15678253482739834546 -1.54585721504681594674 -3.72635629486217201389
H  -0.53525567347265945450 -4.79478240761263574399 -1.89003532362788728705
H  0.62182971403848386061 -3.55686037697754420250 -2.35904452005850329144
H  -0.12802886693812776109 -4.57737600910154984746 -3.59170941016481926056
H  -3.55133519594584257106 -3.11025612026969389134 -3.28500762653231781485
H  -2.95697738000798437952 -4.55031545035253337517 -2.45870611854971077292
H  -2.57314163649081706353 -4.29459115063228580311 -4.15814093310781984769
H  1.26533773795971438147 3.92569079602739057222 0.14844845381557947306
H  0.06141789267547137499 4.74069505163543070125 1.18864429386751835338
H  0.84248628736160302566 5.63741238424304746957 -0.14586323257250444208
H  -4.23103511960290923355 3.82036961786519357887 -1.28662614933485164315
52
-73.6889869599 converged=true
O  -3.91266427773457969863 1.90923135692767265148 -1.83560690664484638113
C  -3.00795090028912470714 1.83302860980819759540 -0.76661228994483199273
H  -3.55287538746150488578 1.63641002758726750166 0.17286220091232706864
C  -1.99403481492235945538 0.70344904520082418564 -0.97669554005849201772
H  -1.43701287779302044889 0.90336908214721067800 -1.89904016549756038401
C  -1.02753039788802080778 0.65748914621767928779 0.20140778361015088116
H  -1.56561092524624778655 0.24449052433213502855 1.06485018346434978653
C  0.13182269549550040821 -0.28213625796024627279 -0.12875284492207883513
O  -0.32580123655293902196 -1.57894215057691855719 -0.38947940675905956542
Si -1.79741598776406252824 -1.91955565691672802586 -1.04266242558289978781
C  -2.74501336762920811196 -3.06292116965613026025 0.18198440472017418656
C  -2.15137625394569509396 -4.47178287433237731108 0.17477147312136964707
C  -2.63273764987820113603 -2.50329505991734091452 1.60660952565579595586
C  -4.23113180714375758384 -3.14923269076088807594 -0.17693548169554917937
C  -1.45688273670471013510 -2.54706941945115872272 -2.84150084610906805693
C  -0.31374705635774446932 -3.56853200535152748074 -2.84867400492759870190
C  -2.69146203070050349382 -3.19396775735083604530 -3.47455981261086499501
C  -1.03643856782010557183 -1.35952514139513569447 -3.72105218054045927545
O  -2.67530657800272830826 -0.51671311938633868177 -1.09422929684622460833
O  -0.56367470664572261185 1.94379258860942916165 0.58341581645442075477
C  -0.75969837400909911995 2.96034842621482052749 -0.35798385742831395628
H  -0.36890433344494355516 3.86481827901187635632 0.13257141672635097684
O  -0.03002408976118897677 2.69082602037581519738 -1.53011195492251284023
C  0.62902166562679195927 3.81101334522547041672 -2.09342007065131907595
C  -2.26785089282590313076 3.18157110843955237556 -0.64463207523883936378
H  -2.37743716241609348572 3.70590411244038708816 -1.59889645710542382950
O  -2.83151424903085091600 4.02800454554999909362 0.32040855326789596802
H  -4.25461777642086502738 1.01811606500393092567 -1.99200538328012566325
H  0.82185816418966806118 -0.33280112669270750514 0.71947629462270978884
H  0.66950508452551260596 0.11040465408472999176 -0.99967405365182204768
H  -2.28316038783264563250 -4.93994075902131157818 -0.79667395472706015180
H  -2.64488114241270544369 -5.09577968985575768812 0.91925286315629373135
H  -1.08897565514922800567 -4.43903486161633864526 0.40023098979092797123
H  -1.59109668883534305373 -2.42792430742795151133 1.90870946814514530487
H  -3.14828143472546440051 -3.15755461621087185620 2.30886290493069790131
H  -3.08793039242188527282 -1.51715134051138722526 1.66672847276579672027
H  -4.76027212713652936316 -3.75660915997761346574 0.55666504878705658221
H  -4.37059347431605615952 -3.59861034517005418110 -1.15510056500208468933
H  -4.67630405659134673613 -2.15869064665282461846 -0.19011084574674441683
H  -0.08200960195577589040 -3.86549641841104030249 -3.87083834792183223428
H  -0.58484257397167982440 -4.45775447649897227365 -2.28802899648783553133
H  0.58027426966306072664 -3.14554147830602826019 -2.39934497190453210891
H  -2.97329537287125189593 -4.09379327047409269369 -2.93463579208621716532
H  -2.48277404365855325352 -3.47195578675466531848 -4.50698866624378702284
H  -3.53444466949225244434 -2.50846740334215123625 -3.46695944592789162542
H  -0.14727393482549056003 -0.87763838782299108399 -3.31957784082271478709
H  -1.83375773607781611396 -0.62278156211924373675 -3.78478798307463515371
H  -0.80903484208969711489 -1.70176322376618105459 -4.73015056972024261484
H  1.35220715006154112992 4.23350213014966403335 -1.38882996715608686422
H  -0.08678993760598263663 4.58440997767860825007 -2.38699724978014948817
H  1.14585084748985166492 3.43740414067370281259 -2.97441616266189079454
H  -2.72919736669291612685 3.63063897800951895789 1.19593901355036624778
52
-73.6888644113 converged=true
O  -4.51430006250343929253 1.24515504754683070665 -2.00692737987053826387
C  -3.38683693365572136003 1.47613904299927978236 -1.21496242415390454106
H  -3.71754829057615321375 1.27084894804374792798 -0.19150026550303278494
C  -2.22018013082758081111 0.52953643687320539613 -1.56681478748713609583
H  -1.96410983849130027501 0.66470272465270086037 -2.62917968485452746563
C  -0.98731430507489581494 0.87229617638641299138 -0.72419484347678508840
H  -1.23886432019473291533 0.67776759607339487346 0.33114736222871443694
C  0.19941424651272554591 -0.00520562535189694753 -1.11542342858878207323
O  -0.05942936340218518687 -1.36114091569836004325 -0.91473232451403008181
Si -1.54478797632215147928 -2.02432992013007861942 -1.19593582710848966855
C  -2.06928650658886947866 -2.96991486687767469732 0.39367994521865856683
C  -3.56198812512921580975 -3.30801746833121956826 0.35148734298264328046
C  -1.27035244323775375896 -4.26309019892620622016 0.55838084732814907696
C  -1.81556016018501731324 -2.08752257174665434292 1.62316959323249476732
C  -1.42205095404797110525 -2.98640649064658614265 -2.87193675236644363480
C  -2.63864353659978823075 -3.88709917278747330016 -3.10311394199770873570
C  -1.35301175745766211200 -1.97909674431369464465 -4.03006616717481858103
C  -0.15517830759975170807 -3.84846634764867978618 -2.91689261068046645775
O  -2.62224504827869608903 -0.78819808665956814231 -1.34799965456918324769
O  -0.60330028542791502844 2.21457127965694677840 -0.89839083949109332927
C  -1.60730325222216974268 3.11768649145024756564 -0.48586634755720325973
H  -1.82934082097982964044 2.94184255491425084017 0.58993947777430655321
O  -1.17878385364759319387 4.41615803920170435504 -0.69505027388893947382
C  -0.08719042736746240863 4.81831297925991108855 0.12206407852047718166
C  -2.90028936883036436711 2.93264151211944756881 -1.30183617566200005022
H  -2.65787046168259744050 3.16994183365015835818 -2.35178992196807046255
O  -3.90677882809657495145 3.78002753058839147116 -0.82241642511605661525
H  -4.32915475321164500144 1.49670796190936861159 -2.92121417502375724240
H  1.06547967639062202139 0.26505718229498220762 -0.50386744953553885829
H  0.44301844376288901373 0.18536244765211762342 -2.16718771761620976335
H  -3.87193090402957418306 -3.76225851000638922272 1.29219491212405812597
H  -3.77996666954128279770 -4.00551151015709550052 -0.45107339578533378610
H  -4.15031345780431859538 -2.40954853105159116922 0.18821725882695505838
H  -1.48376470410622474105 -4.95331094087804046922 -0.25303898456129403360
H  -1.53210049019441485463 -4.75322866818364531127 1.49558496763626913584
H  -0.20394712736566211753 -4.05495580396949950597 0.56229454406188850157
H  -2.10155819522965625623 -2.61759959441613787590 2.53100327880134301495
H  -2.40469241097486507996 -1.17495441506691244982 1.56343108257119012272
H  -0.76342445737477504508 -1.82314340423434639860 1.69590877278703922038
H  -2.58360448673217080184 -4.34911320396553424672 -4.08817252658939089827
H  -3.55851688405037869245 -3.31205916277745870957 -3.04065316430067689168
H  -2.67573632138556849469 -4.68018079283312804506 -2.36147683115650774965
H  -2.25428965788061930198 -1.37210882882191231857 -4.05989125727627087059
H  -1.26421600110551723972 -2.50464045435263527040 -4.98028577561647534111
H  -0.49006205009693792896 -1.32464376280760154359 -3.92416131452356076181
H  -0.06545818192123564749 -4.33415791458095966959 -3.88782246592694047393
H  -0.18319285339295365844 -4.61738831671549387892 -2.15110554843026324789
H  0.72828451793259274538 -3.23839627285713049787 -2.75015802645801166193
H  0.79229232216694756019 4.20485091307158498353 -0.08028149885439050948
H  -0.35399738068472275110 4.74025161773385850239 1.18113407070665465959
H  0.10857309274246929043 5.85522570774305073371 -0.13941345958192696841
H  -3.56767995399829773717 4.68586447297169783610 -0.82602386753467038627
52
-73.6882064621 converged=true
O  -4.54721728866221575061 1.15459536993560174523 -2.02684325441194923556
C  -3.61818036860567548985 1.49897912475414663014 -1.03602050910580678611
H  -4.05736366155649275100 1.39037210760302065715 -0.03356275675320841145
C  -2.39318940928265044832 0.59043208283965009642 -1.14521792349575135539
H  -1.89095233921428707013 0.81633248363398669412 -2.09413061921402920973
C  -1.45442111130301277022 0.88368789666712421749 0.02317632216563314529
H  -1.88421397046032268463 0.41346406401735613656 0.91684171698606165002
C  -0.09917385315710824933 0.22722505800342163162 -0.24827135949313805519
O  -0.22223387080014767037 -1.15999695274553316082 -0.38295579792051082091
Si -1.57288232166524055700 -1.89711334002681297761 -0.98202959496379926829
C  -2.21610634466077893734 -3.13650621378963023744 0.34203923629822807762
C  -3.64334032644773841980 -3.58492995473145548146 0.01634838101284508127
C  -1.31532840938139328202 -4.36891471738972914096 0.42521114002096349616
C  -2.23277207138709155032 -2.46173928799233365794 1.72018641008759254341
C  -1.09476606312865221149 -2.56625888472906016347 -2.73521396195502131121
C  -2.16147403239589985802 -3.51353014233024829593 -3.29050603756977366743
C  -0.96301234766097854045 -1.38382382262264069794 -3.70724296058250413211
C  0.24876923007137308197 -3.30365945611540201554 -2.69952651186438696840
O  -2.75595979313584837911 -0.75644726459884459313 -1.11121169320796719937
O  -1.32889345611471609843 2.26374120843754766952 0.32404478390858670878
C  -1.70334258315180209209 3.16030832620331292304 -0.68574671797910990989
H  -1.63006422749274593187 4.14201827573944481031 -0.18566146393496818501
O  -0.84848348945403340160 3.11904753752934915667 -1.79339545400129285468
C  0.45214158819311212056 3.62928271627681997558 -1.53776770733352874387
C  -3.14818449720199300401 2.95760850326807123167 -1.20341521381385319067
H  -3.12726597908850667551 3.17666098981235123233 -2.28159314319487815936
O  -4.07924308706216542930 3.77270886515242942494 -0.53815619784186696783
H  -5.35214587264525398780 1.66976760015731184872 -1.88592709995716689697
H  0.58240402746188557614 0.42277358081542315560 0.58665944561136385005
H  0.32885124223378392472 0.64840266981867422658 -1.16601598019114471860
H  -3.67023012238407275731 -4.15514205548707060700 -0.90684760368106887007
H  -4.29352818183206963454 -2.72267904941603333668 -0.09930452243585463634
H  -4.03278901657221666710 -4.21265010459228683715 0.81740673890580639593
H  -1.65502228735580581009 -5.03416284519853451940 1.21846229748276901894
H  -0.28909665232854986350 -4.07845213376867032906 0.63257433075769586850
H  -1.33448775462219759724 -4.92243185611496514298 -0.50929283467761288229
H  -2.90798105813590535007 -1.60899751549835512421 1.71886771257206416585
H  -1.23717793229634942520 -2.12112698671516142213 1.99385360523105448216
H  -2.57611953628823675544 -3.16532490724395554338 2.47794575260798399796
H  -1.90945063073781939877 -3.81102911229689578221 -4.30786756977746421171
H  -3.13380732071891365820 -3.02822004070751837901 -3.30271594841649474006
H  -2.23098208461239089218 -4.41256793017604032059 -2.68430845818218566379
H  -0.19806729258122079962 -0.68779071046045137106 -3.36853944188951803795
H  -1.90814417278443637649 -0.85273067083155917878 -3.79319112440998651437
H  -0.68045208300120796352 -1.74061995998498564298 -4.69737123150056934406
H  1.02597382362435585179 -2.66209841091732712925 -2.29362304284568097046
H  0.53721944976765767521 -3.60729204575829065504 -3.70520239995369937702
H  0.18645601746649353991 -4.19210439404382473327 -2.07889160164234132466
H  0.92516112057102439792 3.09675410450934140982 -0.70912042437350142343
H  0.40143381348258566632 4.69684045082557943829 -1.29941418012481291200
H  1.01843720321280217789 3.47911292424603058038 -2.45364667509398604039
H  -3.90239061471654657964 4.70348482603825601700 -0.72508885585824778275
52
-73.6881156090 converged=true
O  -4.05787140755962738581 1.63380766949852507253 -1.96277357556246090375
C  -3.03942284117178473934 1.64812830155717060521 -0.99847842925011343063
H  -3.45983726786356893257 1.41836573272697652470 -0.00326407867912759109
C  -2.00642655734697861192 0.56832741692665067479 -1.34240932167060411651
H  -1.72167340619544861902 0.69689980330586831503 -2.39478623727838435542
C  -0.76132361700394091120 0.71138956743058801013 -0.45847941676823000812
H  -1.05350515368176989028 0.43796291240199869410 0.56868382541918860440
C  0.33013035857539274609 -0.24789417398956564709 -0.92717202192187753163
O  -0.08071902046854328994 -1.58098560479737848539 -0.88269192745200619754
Si -1.63822415200112980749 -2.04897007430223609958 -1.16773260481900220675
C  -2.23093549790762946117 -3.07165050903993552822 0.34992870304403833615
C  -1.57335105007969722202 -4.45161497999216226873 0.37265281115455861638
C  -1.85323908625335720401 -2.33784118990200617816 1.64367594635484781662
C  -3.75194108683151750228 -3.24566707468254822544 0.32877655501084346312
C  -1.66589945401273076264 -2.86215525651860769329 -2.92377607311391018996
C  -2.98508419718368944729 -3.59081171230934170779 -3.19310492613164687015
C  -1.50594693771253540504 -1.76553071082360402144 -3.98795043444902397312
C  -0.51137591186491304640 -3.85717697816493121366 -3.08837537505388004533
O  -2.57330454079301951253 -0.69259630316320752730 -1.15271259512852797258
O  -0.23142209283025549915 2.01400058472505083529 -0.48516010588885360999
C  -1.14844832681990038914 2.98159709806098938145 -0.00872033931576599031
H  -1.49684957175392296946 2.69133559950832879082 1.00107900637631042073
O  -0.50520433437312162184 4.18912566938681241169 0.18276769085454103170
C  0.06042413141488989226 4.79582891478601958113 -0.97613782184222008809
C  -2.36316071901223168084 3.03297775072389708129 -0.95739900028166702306
H  -2.02102403683343245788 3.27446626105868165979 -1.96964796664094210499
O  -3.28689503086818612942 4.03262420858271930513 -0.61198930316065447421
H  -4.56388667042640161498 2.45511000642034726837 -1.87338434874029702293
H  1.20590445995829109727 -0.14249231803605266755 -0.27948252640566628724
H  0.61844182693295857156 0.02411415275526618274 -1.94953672529777666256
H  -1.87920238759341673429 -5.03660704549105897598 -0.49004610195355158275
H  -1.86478245992738189685 -4.99636682324132763711 1.27016890757515854560
H  -0.49096374805332843039 -4.35869073620515745660 0.35970745941156989645
H  -0.77739399106346218637 -2.19288588145066043467 1.70270019476816836246
H  -2.17142377353666971018 -2.91639739682024323741 2.51021615391165120457
H  -2.34108208657120853147 -1.36647196090467337726 1.68582221372964724537
H  -4.24296337525614397634 -2.27922041213493331568 0.26162395661958548487
H  -4.08614434742564469616 -3.74672958233106623283 1.23680614638348940204
H  -4.06304644130962344661 -3.84242832904739373134 -0.52273446336845053040
H  -3.82820788578564297211 -2.91943651569256790168 -3.05378968686804164179
H  -3.10103290706814505029 -4.43672821981539122760 -2.52113618593428157055
H  -3.00659656845517764268 -3.96664804790042779814 -4.21545873115740654669
H  -0.56805128764426915389 -1.23001971894115236239 -3.85340589845847381056
H  -2.32819281899055097185 -1.05597952212852952414 -3.93204976921489990360
H  -1.50292123478783845592 -2.20622291223325728282 -4.98444119803419383175
H  -0.61500226495007304095 -4.68822243194556431689 -2.39752702373568826744
H  0.44145827475572274601 -3.37308000322330769905 -2.89356311618697681354
H  -0.49964459412731665466 -4.25429913057101494189 -4.10266864400361619403
H  0.64816728942585633000 4.07139416420758148973 -1.54108930022323198372
H  0.70551560535458368584 5.58505822279747654591 -0.59718575930897066506
H  -0.71780923525637607696 5.22981655720182470048 -1.60903294788968453943
H  -3.43169856976623854905 4.03475096173630820573 0.34346441057661003526
52
-73.6879778909 converged=true
O  -4.05018573906907697335 1.52793924424479055091 -2.48998381152591541365
C  -3.10773817105007754691 1.63923792457830286295 -1.45788200506592002803
H  -3.59929799936765260071 1.47394104661818214907 -0.48181793784537685355
C  -2.03570183932019421746 0.55900131139938535885 -1.63539047526798198007
H  -1.67186971928064376236 0.60911016918124227804 -2.66945291013406560410
C  -0.86677759903815376763 0.80443488993946166143 -0.67556502095749504377
H  -1.23662171719724733876 0.62697507072365243896 0.34839648525051902794
C  0.26857297663683299405 -0.17527306135558545774 -0.96441846425909205642
O  -0.12965335283562784419 -1.50532825672552683649 -0.82418936447050317184
Si -1.64949245467963345746 -2.02669992947463128985 -1.20524926135842869179
C  -2.34660142670799842790 -2.93499418972876391365 0.34112195569064218681
C  -3.85708505914092558697 -3.15002937225310164493 0.21261926605905290266
C  -1.66516936991016484271 -4.29036181050595288866 0.53161566442582186554
C  -2.09099236348403128005 -2.08829161312954569851 1.59524945253915095833
C  -1.52054924118658374432 -2.98138734995641607739 -2.88371756142232538167
C  -1.30570344984355024565 -1.97089992089781196327 -4.02096298568875276658
C  -0.33259211646932351769 -3.95045718347933050296 -2.87631293060391479699
C  -2.79648792203363338871 -3.76951637387286808689 -3.19092586105810305241
O  -2.59868038214457985902 -0.69339087353964068416 -1.38461910418076872276
O  -0.34823791840518336649 2.10652969692417491032 -0.79023560640933609989
C  -1.29699722625948532517 3.11129770616056244847 -0.48659616308903119730
H  -1.66944419749205286152 2.93913916514874040686 0.55226525265380410623
O  -0.70303867858440360905 4.35051914798667738182 -0.59539718045897260801
C  0.32187051909370101299 4.60000612294731148211 0.35705681734976502106
C  -2.47648925022058108425 3.04555420020923550695 -1.46945310836821141365
H  -2.08952725620786416982 3.25912315398063112681 -2.47126739267101092068
O  -3.45701243665257651472 4.01792462680741824244 -1.22458393913139085285
H  -4.55903137263925639644 2.35192623940874279143 -2.51719531058078160868
H  1.09047961756615752194 0.00443082827384533307 -0.26455895931408623944
H  0.63230735805481330658 0.00691300409826045570 -1.98234492266265283078
H  -4.25545672604756752833 -3.58203351178396234289 1.13018783727512328596
H  -4.08508213866324609853 -3.82350440532961410867 -0.60733989547935740561
H  -4.35961655988793239658 -2.20571182260391340790 0.02391434054562013856
H  -0.58760460178511952911 -4.16858222514611220788 0.59897807197942620761
H  -1.88487141366940802456 -4.95131080457925065730 -0.30191023119790250107
H  -2.01866373516958264034 -4.76848077687486959775 1.44452789818903770680
H  -2.46799830830429467454 -2.60220089973002632888 2.47882203504725673326
H  -2.59974569002899835723 -1.13005869672777103929 1.51637942660084190649
H  -1.02666415869648064429 -1.91121522911262164968 1.72796081947836555059
H  -2.14456168235159738700 -1.28160976357077083243 -4.08320051886049384393
H  -1.22010261839774569737 -2.49129759223554891889 -4.97444657078737773048
H  -0.39204231128216049385 -1.40024834440028822513 -3.86543481118539666852
H  0.58912573672110557510 -3.42325176256236085592 -2.64651188952477767202
H  -0.22865717022675680070 -4.42509515946140918885 -3.85128110099493969898
H  -0.47144874971751749015 -4.72749203013952623564 -2.13083051750110019640
H  -3.66324104367719671771 -3.11401853595270017294 -3.17795972153877359645
H  -2.94750361734105315037 -4.55816680337661583877 -2.45891604713988964903
H  -2.72644806702364927986 -4.23140050417644086878 -4.17509476241789911910
H  -0.07300903475341158355 4.52323073726612534529 1.37605165090435344055
H  0.65918600556583006878 5.61489512744848529024 0.16321194459244181552
H  1.14703742785374362967 3.89661131840541097304 0.23162870593866724533
H  -3.68797375524784509793 4.02882807093221462225 -0.28616128136774077184
52
-73.6879548757 converged=true
O  -3.82511249704577371844 1.70061080149406884665 -2.45975562647513967818
C  -3.03154496361438008378 1.68065905085738598324 -1.30344156115940279506
H  -3.64735934453400778565 1.45278362690319950978 -0.41916800145742805217
C  -1.92837503900729667627 0.61545793448429630956 -1.42747467171723529944
H  -1.40646193938703056858 0.77038925856434792294 -2.38276908995290437332
C  -0.91480102025933562881 0.75047786382062797728 -0.29102211499294605712
H  -1.43426551800174539864 0.53967837941682295089 0.65749089998404608437
C  0.22311260297113544304 -0.25186850842925412319 -0.46114147710815278636
O  -0.23880634501594788510 -1.56825566691373996520 -0.43998191338177439214
Si -1.67576284026781929803 -2.01751380879984765215 -1.10953493872362285444
C  -2.66880988057240919886 -2.95822510966889673512 0.24252822344635016627
C  -4.13945224648131571143 -3.10752508330037535700 -0.15642924923506851265
C  -2.07842864458636711333 -4.34802121384479445254 0.48308164139094755818
C  -2.61123762402797021664 -2.17643391957561371797 1.56185253084163511161
C  -1.26081721984350658694 -2.91287102990702084782 -2.77523164510819064787
C  -0.80920918395077168217 -1.87174096310795512466 -3.81139232786499571048
C  -0.11478063608775990190 -3.91236870846276474367 -2.57853247371023241996
C  -2.46692678349881777677 -3.66180661374933880126 -3.34844035573496023872
O  -2.53914844412928708550 -0.64418539988643286343 -1.42545112275872520868
O  -0.35827582548662473272 2.04248073108455852065 -0.27227963011316647091
C  -1.32563775749674395144 3.03467860119273513675 -0.01927359052752786184
H  -1.82801297532528783663 2.83361340625416957550 0.94511755652015816409
O  -0.71384687337894203729 4.27016328757142371586 0.15525697805133664708
C  0.21082303895702803054 4.66954922131228489235 -0.85291008067448315089
C  -2.41836633262572364700 3.07095344610163589749 -1.11347131361266726834
H  -1.97660431437665073950 3.37357246153373502295 -2.07480734478235984142
O  -3.42850365030876069738 3.96531769700959380032 -0.72562870949539259868
H  -4.20089587722142709936 0.81792981070875492300 -2.57550262925165718286
H  0.93940676865088290626 -0.13246684342683701097 0.35710010970390482221
H  0.73567862027247699075 -0.04318123849355970378 -1.40748216010992788227
H  -4.24056655554110761841 -3.70081485000206900082 -1.05974961452668248185
H  -4.58449151931274467842 -2.13333111363689997830 -0.33664493285350216567
H  -4.69588584177961010369 -3.60037126121345796292 0.64009113281504692594
H  -2.17636365342220372554 -4.96610235630438623389 -0.40493008981562272908
H  -2.60085395057442303468 -4.84523518534918018474 1.29965183818546092809
H  -1.02505209438916811138 -4.27629075852748030684 0.73909126011384440602
H  -3.05742830375204110993 -1.19128289097489270532 1.44285647679969475377
H  -1.58268114029964501732 -2.05734115023364871888 1.89296766202084443265
H  -3.16319311608848297013 -2.70722247251423997483 2.33668373159688025353
H  0.07200226859119873701 -1.33724209208803967996 -3.46230767786203452729
H  -1.60059856524968835423 -1.15210922080412681012 -4.00652868637901171667
H  -0.55601949671522277185 -2.36224674664100087185 -4.75061012918389202753
H  0.75713963557449615038 -3.41802488933491321887 -2.15940827504376109403
H  0.16288132517511311192 -4.35730332168664524772 -3.53322091705111596127
H  -0.40748456353634621152 -4.70970124808017498452 -1.90234265641544131320
H  -3.31030424263215916625 -2.99035520249945019344 -3.48348196116806896327
H  -2.76986177333505390052 -4.46702490315975087043 -2.68488056528031648895
H  -2.21522471897021988596 -4.09784356710582819971 -4.31444349081492095621
H  0.98502774175504459464 3.91300923004099043823 -0.98290671782834204695
H  0.64780961524819513642 5.59332817879955968010 -0.48122992719555590657
H  -0.28793361736199951650 4.85474814956775269081 -1.80761752143325704623
H  -3.01158468770370735257 4.79216620100460222176 -0.44356485067066631078
52
-73.6879132959 converged=true
O  -4.08363075408369624597 1.69617037150123772804 -1.76339258056254655216
C  -2.87555011540550742311 1.66673533151737274238 -1.04558575795057473456
H  -3.07834740748997326421 1.48751474473651423835 0.02429791019557936416
C  -1.93369211650976291494 0.56837925293063806809 -1.54564419561480126397
H  -1.75974780450758205852 0.71235579105025881308 -2.62153650391095682792
C  -0.59809462396561641206 0.69678011548344709336 -0.81276698554138127051
H  -0.78598860023239258688 0.53736295018358515296 0.26233956352847664917
C  0.39182166739007451284 -0.35820294589846973787 -1.29925382900140817810
O  -0.07383306093221242428 -1.65032440552176362658 -1.04940887915755975968
Si -1.65518151243370903458 -2.06677617375346844852 -1.24260994010343850391
C  -2.14954539013034384709 -2.96036363963104109942 0.38821128217667766336
C  -1.11222283718088732485 -4.02999116460248796301 0.74126075901591104156
C  -2.19711918666502947772 -1.94535346380982687720 1.53831778974422084261
C  -3.52255351805705796409 -3.62454732251574496260 0.27546183712160599022
C  -1.86550898117604391224 -2.98944819181345655679 -2.93128765530402546347
C  -3.33439903842342122431 -3.03160295011498481799 -3.36791359316463667639
C  -1.06810365113860683550 -2.24627292755669305535 -4.01465480765201832014
C  -1.33561663288026721830 -4.42403364108768393237 -2.85713571052569914599
O  -2.54184267750177728118 -0.67333920926452806022 -1.33001177841423645631
O  -0.02481131486760368432 1.96359277443745483538 -1.03482197031440903423
C  -0.80346365169408706652 3.03489284117300872623 -0.55871509803425578600
H  -0.92687191777259569925 2.95263539916003914243 0.54043004705222785766
O  -0.09115512741315479062 4.18145352733410469170 -0.89175220069842486836
C  -0.10343172717151838391 5.20533552227303619730 0.08990791104042727966
C  -2.21007285617116178145 3.04028086558821897256 -1.19433665604437910801
H  -2.09605446056732258597 3.26572291860899843741 -2.26526708857503411565
O  -2.96910362652068515743 4.03290978300721647543 -0.55554029333332721752
H  -4.43453517928944052073 0.79622721936913964935 -1.78901568897903517907
H  1.34223659488167257336 -0.23483853314154201630 -0.77239362893647589559
H  0.56372041137284734091 -0.20977339531727728916 -2.37053081200748128055
H  -1.34605841358199507241 -4.47631550140203327004 1.70716878718225872902
H  -0.11867249832931436870 -3.59415717922632227399 0.79129591463308379673
H  -1.09877812831773780111 -4.81891109391612815216 -0.00401487494306751458
H  -2.92652985280183752792 -1.16564581519001553289 1.33324847148049352441
H  -1.22204416013269812069 -1.48440074038748637264 1.68048078560314140262
H  -2.47675860009345116808 -2.44238796120773704601 2.46637432967192982147
H  -3.79732730251182282188 -4.08716090020600564259 1.22285579704245561672
H  -3.51326231117326237552 -4.39875892198302587133 -0.48653545743843207294
H  -4.28349348763907045168 -2.89396115719533053579 0.01608612361505667998
H  -3.42487613860993844739 -3.53556465695551569439 -4.32931753514268979899
H  -3.73059231564932236580 -2.02525416340507558033 -3.46855385292668039199
H  -3.94086141717290239228 -3.56618479205966387724 -2.64326849533202379305
H  -0.00858192512472033542 -2.23421757075633697909 -3.77036260470433814973
H  -1.41421690844107628138 -1.21974177617849144362 -4.11812426967965183877
H  -1.19066973800241315828 -2.74201859290450666862 -4.97691110807619718770
H  -1.93022654949510141797 -5.01867952865346911295 -2.16927283512403201726
H  -0.30322724668373157719 -4.43393232628047861965 -2.51840727798871721888
H  -1.38229609414650678190 -4.89477745761615157249 -3.83828200674046238206
H  0.49304115670510206826 6.01291647153037622786 -0.32768121833380137176
H  0.34673484975286283927 4.85558100427268257704 1.02505335466636182673
H  -1.12292825572822629887 5.55007968511808158496 0.27941025926250784295
H  -3.86876556628592593867 3.98527153027769420746 -0.90911373277603824139
52
-73.6878573062 converged=true
O  -3.87204259720824151003 1.91336446914331315128 -2.06217539382892800504
C  -3.18426687885447901039 1.71377630986993167994 -0.85760555786311176707
H  -3.83857306235869177868 1.26473906805260916109 -0.09619045592556974000
C  -2.05091824495392893724 0.71679598564330460064 -1.12916044266756276926
H  -1.60177857716242044717 0.97861500757233743641 -2.09551614641526828819
C  -0.99250381374304952331 0.78096039033224706749 -0.03137096514277870618
H  -1.47088766238213319859 0.46404009404302715147 0.90723722473204349015
C  0.15806481149989459745 -0.17682243995452912033 -0.34864450935429658340
O  -0.25378093648916899561 -1.50989964243610863548 -0.38851399634316441389
Si -1.69667594830369306003 -1.93008026749807926059 -1.06988288579049450888
C  -2.55760493047917458753 -3.06778924356737903167 0.21956739030384220257
C  -1.60746509016944361115 -4.17638280616620960473 0.67961833008509664467
C  -2.95479683748335286708 -2.23993610547188604087 1.44878689662682802464
C  -3.82070970769990880811 -3.70596410796551456457 -0.35856782833669686994
C  -1.39207835829070969424 -2.59890628104268284204 -2.86245598691477098896
C  -0.80720342026022984250 -4.01388790985801691136 -2.85798995694235546949
C  -2.69635883314339430683 -2.60650293717656689196 -3.66778836061055768525
C  -0.39650360476478763161 -1.67614030970432326129 -3.58237975892854354498
O  -2.60398633453593930653 -0.56526616229204063035 -1.19606224916273617964
O  -0.43502039491586597109 2.07425444906825706681 0.15216934633405365673
C  -1.12086296955966346900 3.14544835996470695250 -0.43451954540557991002
H  -0.74133392289346111692 4.02804892934953961969 0.11541211434989029350
O  -0.85097418903124588674 3.29317466451353002554 -1.79754472000906928564
C  0.49778061815160112857 3.62920980696290929046 -2.08195277636266240506
C  -2.64540493501937312715 3.03647742221938887752 -0.26428705707506106037
H  -3.09122888164497311436 3.87253892513424169408 -0.82575509925634371644
O  -3.01985109916321059487 3.07505508829250784331 1.08812827110341459047
H  -4.71399338773756770848 2.35172329102081612007 -1.88520466563485289413
H  0.92313700398372500189 -0.08657436766567050412 0.42879982188757637118
H  0.59718224712088163741 0.11202649981177958960 -1.31109543332708056163
H  -0.68460531469089858092 -3.74986059152830142338 1.06193578733266846825
H  -1.35895259626230435757 -4.84070446674887477911 -0.14206942302555325419
H  -2.07191758087524080523 -4.76754191782041569780 1.46840678777070188232
H  -3.63569510465483647366 -1.44044021472417282936 1.16791272231820641991
H  -2.07477832665362660336 -1.80113594981621716329 1.91365152699520812973
H  -3.45012588423088217837 -2.87244224488374166881 2.18487211891723243085
H  -4.33198782420360650747 -4.29275273991145667196 0.40411814072952290111
H  -3.57385256992956001909 -4.36872561840834094937 -1.18343320412193264701
H  -4.50184175063942326744 -2.94182124842395609221 -0.72262832435827406563
H  0.10549512030092889070 -4.04943350307071181504 -2.26904255481481076373
H  -0.57653244202218734138 -4.33095279090962748114 -3.87446555741431719611
H  -1.51656983383842036694 -4.72125922189795588224 -2.43739925825731695852
H  -2.50229552603224503216 -2.90968469714757160816 -4.69610227015983916488
H  -3.14406171262833833424 -1.61654007786409037450 -3.67592460268011267388
H  -3.41373446330289054274 -3.29846421156974001221 -3.23717076431765526934
H  -0.22763997200449348490 -2.02635547651068570474 -4.60038974386302967901
H  0.55949028215075813364 -1.66310927468007041519 -3.06380725512268625721
H  -0.78247167517463656061 -0.66012342191382278322 -3.63566439771716343188
H  0.74654692485219875664 4.60617449715957771872 -1.65336197771066872875
H  0.57412178671600289093 3.66656164484514057733 -3.16567246689042214314
H  1.18012426603222797539 2.87601969388770317693 -1.67933806443547961607
H  -2.67116586541644629449 3.87175565174224267651 1.50929717670061647183
52
-73.6877687552 converged=true
O  -3.93807601191280731712 1.76168699438999443174 -2.13220746928391946540
C  -2.93462359439209130585 1.70939147537432756252 -1.15162180876322017831
H  -3.46340354972433228653 1.50149385885292652176 -0.21402249240526016738
C  -1.88927320575841806161 0.61210632526660468944 -1.38737791339408533808
H  -1.40155273887047049364 0.78351444178369888949 -2.36066732716554028570
C  -0.82231084405317089736 0.70204326739678302172 -0.28872915032927881640
H  -1.31159911915772986468 0.47291639768776916330 0.67135071451506145301
C  0.28429700788523470933 -0.32228827429424922180 -0.52477753564755902360
O  -0.20356652927993046376 -1.62969725393582498540 -0.50460947777326747854
Si -1.68201117482725481800 -2.03488975832648355535 -1.11145991999962712171
C  -2.66310664572389077520 -2.94639701639070983319 0.26783357861513668041
C  -2.54099575217780948577 -2.16821524411669086518 1.58488090792930957917
C  -4.14813485456456998435 -3.03894941538046481355 -0.09376232060528921775
C  -2.11851527055767707708 -4.35736211036108134209 0.49261289732655710871
C  -1.36084369519496561907 -2.93250215995363161525 -2.79679296528678245082
C  -0.88660249106867672353 -1.90394268593734006245 -3.83512415572676701458
C  -0.26311768900154852702 -3.99165320906223763942 -2.64479550405453789352
C  -2.62254758352458683390 -3.60831949677636787399 -3.34050145481545657233
O  -2.51082562443102208505 -0.63619353538621425947 -1.39389479432358531774
O  -0.23525125313521799697 1.97841165866335400025 -0.25111157490469770970
C  -1.16123595694679915269 3.00715828597078793649 0.07001200411551367075
H  -1.66232683073611520186 2.77596649925056704333 1.02536047409202435432
O  -0.47188846350809110497 4.17552565334322967061 0.31195425358437356422
C  0.21227697021618330275 4.75280594572471670745 -0.79563079032193551043
C  -2.23257704935257583756 3.07684482819756688343 -1.03838407009496691558
H  -1.72799901402957356567 3.28994258442694276212 -1.99693426635972359762
O  -3.15601990175375446412 4.08675869104687183864 -0.73936870758120654124
H  -3.54490721991665669321 1.68900412264299015774 -3.01153540891258764134
H  1.03583865212743519990 -0.22907324251094091094 0.26460837251597135733
H  0.76297623095670852322 -0.11018190986907971940 -1.48801535567162002138
H  -1.49944303693169711522 -2.07783432249714072881 1.88352536312269958074
H  -3.08251822657486140855 -2.68389233110483882427 2.37715261590714321827
H  -2.96390783453998984953 -1.17128769821396416795 1.47975416015108596213
H  -4.70812114382898450060 -3.48680108909847152887 0.72651100756666542324
H  -4.29491143990550661158 -3.64922241286219195544 -0.97929457250256790601
H  -4.55339637378621198138 -2.05084468505798911409 -0.29217784517808031985
H  -2.64104208624788761028 -4.83749660153284199993 1.31932698182935403963
H  -1.05773954452096186074 -4.32518685217455001180 0.72578532178846089096
H  -2.25833461797328638454 -4.96921660726604486058 -0.39423823664855728310
H  -1.65583978268951104162 -1.15598753324924952146 -4.00981986361479325609
H  -0.67006408310444043330 -2.39788834923275118172 -4.78160830138003944967
H  0.02023976528237203532 -1.40550422579606304474 -3.49880300900483787174
H  -0.03793170966900238916 -4.44120304352032579942 -3.61109802718691197398
H  -0.57637805695332100520 -4.77924444095943368183 -1.96659236303804041412
H  0.64535418207689598802 -3.54686834727749511487 -2.24834196770338801130
H  -2.42894816726637063908 -4.03246697290607247766 -4.32508379709926860102
H  -3.43638010413497285711 -2.89318053878773051579 -3.42531265817484564806
H  -2.93912048158949534837 -4.41387219917739415109 -2.68377223311641266434
H  0.88142698960487031457 5.49296180875874551219 -0.36277164285779328612
H  -0.48974869957267008758 5.24711889363506944761 -1.47236295691396579244
H  0.79078758953294769896 3.99715477358495263616 -1.32987050382889027134
H  -3.97914993479374734520 3.88011705701794795687 -1.20941621139022070786
52
-73.6876451679 converged=true
O  -4.39981613492943335331 1.24619691149672817687 -2.30391920789007187409
C  -3.35696080768323135146 1.48878892345042568301 -1.40076712490916155396
H  -3.70644500592835601793 1.30964260150429256946 -0.36630103268502856029
C  -2.16661518115041351606 0.55461259426771092329 -1.66090652992420118039
H  -1.84230812397059651175 0.68359477427769754776 -2.70303244885034033018
C  -1.00894478635586004600 0.93236770160073834113 -0.73875802146762414857
H  -1.33891730823698118513 0.77747493325688399324 0.30267640513393523349
C  0.20632596735349695294 0.04815963154789659750 -1.00337314118461495838
O  -0.07602779702619155699 -1.29594488255865858406 -0.75308028860002274030
Si -1.51504829482467529012 -1.98345092869565520211 -1.16470093251625117503
C  -2.11133253209444626819 -2.90262846232134830160 0.41688609073561200269
C  -2.52108087019421489572 -1.88094926769424208857 1.48627146984303548649
C  -3.31360193248905687824 -3.80178606896266479964 0.12581923706046027611
C  -0.98091062310521803802 -3.76222832772671278434 0.98955093838063978851
C  -1.29567669699574450348 -2.97782147994405654856 -2.80980468575666186837
C  -2.64876787616814013404 -3.28468627063862950166 -3.46175474519963355391
C  -0.46884293190163184306 -2.14182161384717240082 -3.79929387333602797128
C  -0.55539102105237492246 -4.29726450312063334991 -2.57439398280534881280
O  -2.59237471270999364492 -0.76384641275004572236 -1.46006650986428643257
O  -0.63179165732081088436 2.27024986607095780045 -0.94422666701084678742
C  -1.66386091903996780061 3.19695391744253409883 -0.65280364234206356144
H  -1.94189952798214626739 3.08040654848094153095 0.42192071184027390984
O  -1.20461174941559701068 4.47061395105102032943 -0.90546334102158598789
C  -0.17998920261267836729 4.91447986409382320261 -0.02694496813376234812
C  -2.91885288662441322316 2.95719324982913445155 -1.52406462972500000852
H  -2.66009023596448779259 3.17592501160808371452 -2.56381497217495635255
O  -3.94159492892882790116 3.85029056599248775683 -1.19946629120949044278
H  -4.56520815564167037337 0.29327498177807942437 -2.31210044985326756972
H  1.02646030693744316764 0.34602433180014224856 -0.34369463748881479148
H  0.52274178200314214138 0.18920481581352144307 -2.04244257029104048229
H  -3.32923668361090285828 -1.25025229503253942909 1.12412736266144763775
H  -1.67635438922972879183 -1.25030722883809297663 1.75467600678208457410
H  -2.86170733324560400135 -2.39414972374000889488 2.38477748988682414222
H  -3.04501721281187487378 -4.58846063344697085995 -0.57357339027634879347
H  -4.13087569290209444262 -3.22650502605586719795 -0.29980200087258812580
H  -3.66398781938448259154 -4.27244722784858499409 1.04378955184451394089
H  -0.09860684968109723059 -3.15661818532766691447 1.17504005692671986694
H  -0.70896867675060382119 -4.55466734199145140138 0.29960557017251243650
H  -1.29441522136383713182 -4.21868356646872655347 1.92780720079425682556
H  -3.26383010144739582614 -3.89845510114524795853 -2.81085953651427278288
H  -2.50030932312040210519 -3.82024111527212362205 -4.39856834396639140294
H  -3.18786732424704366551 -2.36566607266103012819 -3.67327246158138187582
H  0.52111503071391007680 -1.93983270068658164575 -3.39714486194969911281
H  -0.95942229421968183711 -1.19429194776238545295 -4.01330689216169655964
H  -0.35205346769904100057 -2.68018641453578432277 -4.73915741194252415625
H  -0.37006322865153995494 -4.79975064095922832053 -3.52283324148548304677
H  -1.14475534629263497877 -4.96312877220789783195 -1.95020972923577029512
H  0.39862719650794709025 -4.11998065139876956664 -2.08517276867434109278
H  0.04888720986381489553 5.93151801762320030065 -0.33475814541366977206
H  0.70724199988319025323 4.28421857597870126000 -0.11592034152884100884
H  -0.53270055601486299146 4.90710302844769419295 1.01030951184115913577
H  -4.29735607224316318309 3.64301806622604562591 -0.32472378406020441233
52
-73.6876087081 converged=true
O  -4.04723934630325743456 1.61970541413125035390 -2.21781851831373977291
C  -3.05702806359429413163 1.63311495650922067213 -1.22254334670407072139
H  -3.58488587779789824594 1.39823793167695553663 -0.29099527419333470757
C  -1.94433906324509697683 0.59924621615245887707 -1.43693900384076078680
H  -1.45493475819697204443 0.79650683750873418898 -2.40500011517939116246
C  -0.89795382578647242600 0.76475829553108043424 -0.32842896339363214508
H  -1.38615067650892886952 0.52586769291511503699 0.62983428244725492284
C  0.26262356461507807559 -0.20481643991153747342 -0.53567382696110965590
O  -0.16086676607752492529 -1.53282439880377507890 -0.45421492183646583474
Si -1.59996070819379698769 -2.03070977950362285824 -1.08720011677090933055
C  -2.50829583551522627971 -2.96284318589328732330 0.32861573339853689113
C  -2.93199705474789418247 -1.96510345330397973029 1.41476438291415851367
C  -3.76315993904541024051 -3.66733781191951324629 -0.18867954372504180949
C  -1.58421783316060826863 -4.00121001904360529267 0.97059767112171879688
C  -1.26136507986279422511 -2.94610228266973050992 -2.75890056902968350272
C  -0.67034127354268679966 -4.33960174100118045715 -2.52967770276202763569
C  -2.54438898904262966738 -3.08731350549609073752 -3.58574083194978676659
C  -0.24980291786228425721 -2.13286866602879898736 -3.58170416265332525185
O  -2.48509817171955882387 -0.68564825737042867093 -1.44976563186352547241
O  -0.38484740597187205857 2.07265611941605598645 -0.30690013577268282496
C  -1.36998772209175601056 3.04973840064730294941 -0.00174151374073439058
H  -1.85862207565255843633 2.80409493271957677152 0.95637973728187564149
O  -0.75023249840324879312 4.25995997157310224424 0.22367740086817944345
C  -0.08773331130684036694 4.85527636501329062924 -0.88742077958063514398
C  -2.44322809193327206145 3.04259446522022436454 -1.11064932809671934599
H  -1.95420437861183837747 3.28610994141507495314 -2.07014180528959101935
O  -3.43121774388122258159 3.99041991851782107403 -0.81377517215651118399
H  -3.63438666305499857856 1.60108793751743805345 -3.09121180705405640410
H  1.01303558615021560563 -0.04165389483206605181 0.24324422904166587145
H  0.72103374886645332786 -0.00876914608058998457 -1.51142594626778103972
H  -3.59605134737439424697 -1.20967692383537750445 1.00154358244262153832
H  -2.06143044565314692562 -1.47330725390810468589 1.84376372847722258541
H  -3.45749192756930323611 -2.48330215180045943413 2.21609260221072590369
H  -4.30253904994281732854 -4.13328574643542268063 0.63543450106923970999
H  -3.50124569325809087417 -4.44439643097091874324 -0.90127019084323656273
H  -4.42536678492693180687 -2.95810774853083646718 -0.67780687836990805017
H  -0.66966011416446336035 -3.53127404640043573991 1.32088137643360381546
H  -1.31554195590923472814 -4.77481266979078000645 0.25814130152238989879
H  -2.08014192294331667910 -4.47399421246402884123 1.81761368674402046253
H  -1.38845755533374082269 -4.98421716691253102738 -2.03056396925839699463
H  0.22432428412579841215 -4.28045152139801921010 -1.91570294381510697335
H  -0.40796787439984849577 -4.79971798941850824605 -3.48150729880464959720
H  -3.26283912343383164512 -3.72522827495816111210 -3.08037199238195658069
H  -2.31966726902641529051 -3.52694403398502531743 -4.55670104626554284266
H  -3.00810902670043311957 -2.11775471752889021815 -3.74179670610911507822
H  -0.05680822689805919978 -2.62604207604363537598 -4.53367883222245993124
H  0.69288350745854621060 -2.04155718499006377797 -3.04748980626221577239
H  -0.63238923299867644268 -1.13584110483285227744 -3.79010347375125977720
H  0.53097373680021786591 5.64176854781803083227 -0.46126585403129249929
H  -0.80796496005920970251 5.29522557048679409775 -1.58228971128072504193
H  0.54081961085801855127 4.12501933489893080065 -1.40000510113073906027
H  -4.23862545717161953718 3.73058498639373414818 -1.28470139431092778004
52
-73.6871473867 converged=true
O  -4.12824145972744993571 1.54237079655290099112 -2.39724500399428874786
C  -3.07547918415759902189 1.65586248263291890837 -1.48457837440293305420
H  -3.53949945117699726893 1.48480425975969332342 -0.50471846919312612911
C  -1.97910369395706609019 0.59194737106949435468 -1.68502157599774093910
H  -1.53882625209381185272 0.71621957341017228327 -2.68658638741157318464
C  -0.87803779085789490644 0.80759291982247527475 -0.64233272521442918990
H  -1.32451674763795712586 0.65060735548445103316 0.35375949807368289868
C  0.25251223410362322319 -0.20079509225416258822 -0.83139205513553504634
O  -0.19109055504186844843 -1.51057562801868439095 -0.64073655945816532231
Si -1.66232972220026553600 -2.01861431259791235249 -1.18950525578783938840
C  -2.52013436786656752631 -2.85671971759866138996 0.31519437924484017266
C  -2.89640147434184402897 -1.79100069103331360765 1.35310463543920933560
C  -3.79791901576628765369 -3.58113525109917185674 -0.11006322540477619931
C  -1.57862928684187076023 -3.86189310916534145335 0.98408434186749049744
C  -1.40733748452661844297 -3.03423806318177913255 -2.81635385787931369350
C  -0.42776987269197586095 -2.28103936153236652729 -3.72982574353902496256
C  -0.81973306202641604834 -4.41943040711917500829 -2.53352806832274612958
C  -2.72858270728435936547 -3.20578866390867522895 -3.57396226004293193768
O  -2.54077387395374820755 -0.68005930252284174653 -1.57948439943664409313
O  -0.33149751180631503722 2.09878051397908871323 -0.73922431681196332232
C  -1.27595876655595308335 3.12694649195064933167 -0.49656137493409746586
H  -1.68110240780891095902 2.99534359066935396143 0.53410501504278018459
O  -0.65401138940815473077 4.34921265966568704187 -0.62929311921697650423
C  0.32089383982361141534 4.62757623117801664137 0.36607065054883181077
C  -2.43614590871941372185 3.06052434334657430526 -1.51437515092998986610
H  -2.00855168263949579455 3.25726774694276155486 -2.50406495022418562613
O  -3.37828749844153808368 4.07248984482314480005 -1.31352527992271395085
H  -3.81390473726601531013 1.74538654007600912976 -3.28752302755760306141
H  1.04077806911609016538 -0.00428608064534552469 -0.09871369487739745097
H  0.66974506509224385198 -0.07742470208105556306 -1.83677502398755065904
H  -2.00677283604448630783 -1.28004139425277752018 1.71541463630610380164
H  -3.39285604487462544299 -2.25444725066438600436 2.20490497171035437773
H  -3.57199131281207460376 -1.05842308631278703146 0.91811756945386369111
H  -4.31077091023475666987 -3.98816973328393054032 0.76088799854120092725
H  -3.56789150848007441397 -4.40524954706018245787 -0.77960996359365419828
H  -4.47183034707318327605 -2.89909098395381903401 -0.62108424809437279279
H  -1.34045263295799843561 -4.67837818383406922607 0.30974102394048097509
H  -2.04561227565766223790 -4.27980852027896485623 1.87533286207104632481
H  -0.64926630884750347050 -3.37891820912929263798 1.27193302386215423283
H  -0.81149534695289560204 -1.29337999876331721794 -3.97711399444725621777
H  -0.28322335467502268713 -2.82969796033727094553 -4.65986245727304915221
H  0.53956831065856736274 -2.16980507127994748373 -3.24563699950892248225
H  -0.60816667959288617240 -4.93770875970211786665 -3.46799852999508084750
H  -1.51992080473397850326 -5.02417838930042925938 -1.96400529162006520778
H  0.10386206408512976829 -4.33606872716855029637 -1.96699286266902140241
H  -2.55371655065060831902 -3.70212756271653908868 -4.52784065899926080334
H  -3.18902763225380070367 -2.24049423426641602930 -3.76341655705084354722
H  -3.42895839001338398333 -3.80531097110394345151 -3.00082391952570182170
H  -0.13047015029984176948 4.60504623628818876568 1.36394245777754274940
H  0.68642514120191977511 5.62725714359162587641 0.14564517445552049857
H  1.13969989943118843456 3.90689537543511722362 0.31908549405410813193
H  -3.85028563256092981604 3.92742748948902598016 -0.48276834992842887484
52
-73.6871150683 converged=true
O  -4.28184482120878318057 1.48614566853535312596 -2.12264292346346339357
C  -3.41124357234020036955 1.65276016498852773573 -1.02932728533383444081
H  -3.92085271161875414947 1.47343741992768539895 -0.07650337549475283438
C  -2.23719005745037069488 0.67443487038999028194 -1.14317192269512979408
H  -1.71381777302036231170 0.88591723074311001795 -2.08389138248201399861
C  -1.28960090664160786922 0.86330899551477968679 0.03746897452306696685
H  -1.78791639063112195451 0.45570509686015348016 0.92761551132643815798
C  -0.01399578342335239256 0.05125036579189923280 -0.20254020430593744351
O  -0.28882964452353609985 -1.31830338822642434415 -0.27201639294969492955
Si -1.66171682159487654751 -1.89834016388590876012 -0.98021097245437327494
C  -2.44993569831291280181 -3.09846997052478201340 0.29909915193218772345
C  -3.63037919391734931196 -3.85512456749914900200 -0.31072777584181654476
C  -1.41533216632176483962 -4.10986133930650332502 0.79810067936925466192
C  -2.95933267945119560238 -2.30469384502371354984 1.50947659541176393283
C  -1.22299726896714400226 -2.56302172607868516963 -2.74675135632371336669
C  -0.52930160388660962845 -3.92709445428224412922 -2.69339564576434842280
C  -2.48505751483197467877 -2.68664880858255106233 -3.60820422090997894315
C  -0.26975056001993880095 -1.57616064840246550283 -3.43856179628968572359
O  -2.71276772228148832511 -0.64020910449926271557 -1.15153860206003222366
O  -0.98577970195227004879 2.21978658040773169091 0.31990134054435426236
C  -1.37218870104036905211 3.16047690239268774803 -0.64359006543823427116
H  -1.16084903940780526099 4.12466817860153778241 -0.14784242317176210513
O  -0.63554848846627698400 3.06137380544265624849 -1.82924570864317104224
C  0.72658815569199952655 3.43925761517234818143 -1.69398841583998605032
C  -2.87370296354454701770 3.09905873132501952227 -1.00851277566659969231
H  -2.96896411245690616809 3.49574921921648495982 -2.02921692217691784776
O  -3.66259655291300045832 3.82497242405822301947 -0.10065625305032666059
H  -5.17990074612527173770 1.32704271881387092513 -1.81471702789178168658
H  0.68415245330055873829 0.20850486652010125077 0.62616570610004629316
H  0.45512815989413124562 0.38567387000739383751 -1.13523770094832632260
H  -4.36488390294148143056 -3.15984121119496208507 -0.70740404145750235276
H  -4.11195743048761386262 -4.47790269010439789810 0.44261611092175456861
H  -3.29653261185535928490 -4.50099321475243563384 -1.11809612941779912276
H  -0.54988620784469199876 -3.59634243300505485053 1.20686357412018163693
H  -1.07828508732821948257 -4.75159262554885142293 -0.00950417857588070625
H  -1.84776104824314368891 -4.73831429710339868677 1.57608443797453534607
H  -3.41077681874577454124 -2.97836256662361353875 2.23712400460072746711
H  -3.70721342038566437083 -1.57778013918713178043 1.20326955208069441561
H  -2.13906238426956107901 -1.78069440995881977940 1.99529204789014458221
H  0.35548957219325694190 -3.88321792844575330861 -2.06396848366623153481
H  -0.22780249906843796914 -4.23615267696303909872 -3.69364782334412300457
H  -1.19942677039494371982 -4.68387168590547009472 -2.29515346611271597865
H  -2.22212392380719014895 -2.99723377200392704367 -4.61882314047346831387
H  -3.00431283657220093986 -1.73384077430679917065 -3.66215961634565800864
H  -3.16807835627786893440 -3.42072633546310900243 -3.19150566618598841018
H  0.65216339921906496535 -1.47100338711651867918 -2.87125206342241767743
H  -0.73340749565248608555 -0.59705492564715711978 -3.53988702358501683420
H  -0.01786219887697204634 -1.93401515212071140049 -4.43647441788108665151
H  1.18522747264293726310 3.25908635297950599607 -2.66302563269237158039
H  1.22257340809211867416 2.84357716604323762510 -0.92355998910204384345
H  0.80317309222807664604 4.50046394285441753169 -1.43445417104912698036
H  -3.47681952415980966009 4.76947605517641282091 -0.17889069428716142252
52
-73.6870947802 converged=true
O  -3.80102999718592604594 1.63891296699993294084 -2.54443042125422014266
C  -2.93808042391857071607 1.68664799311727442443 -1.44533521564686839866
H  -3.58444216492594236456 1.50736631549176847145 -0.57729591485723719124
C  -1.85429231325104826311 0.59100773041949117292 -1.47630910888907074252
H  -1.24031577852651175853 0.72509587723958990324 -2.38111919160054963385
C  -0.94742408162856672771 0.73358770796845651496 -0.24824016796387293748
H  -1.56176936574325986307 0.52910494499740989838 0.64360417154720561683
C  0.18747692486433420456 -0.28633176808010224468 -0.29765119017560270898
O  -0.29556810042238002012 -1.59601815516674516715 -0.26854645859395953611
Si -1.66940380702475765773 -2.04187688156846292031 -1.06653620636386481380
C  -2.77112639283444472937 -2.93781834677967568226 0.23017195276402935278
C  -3.28331094225422148725 -1.92263417023637317449 1.26057942085587426639
C  -3.98152822239502324209 -3.59530500148642051528 -0.43392942464789807655
C  -1.96975430792882710840 -4.00877511258423346874 0.97487511827442951962
C  -1.17519566435217082123 -2.97205627625883073151 -2.69074112803743048516
C  -0.04427824430209881257 -2.20088246856116054317 -3.38927136371278692195
C  -0.67178455484989907376 -4.38896123340726873607 -2.40288609152083054710
C  -2.36116773914551147939 -3.05949519462548247262 -3.65812010773716433931
O  -2.45972087596125144060 -0.66473429687843088587 -1.51102970319589235970
O  -0.38185846191966787977 2.01837125859346189216 -0.17100960947913879107
C  -1.36001094065177974279 3.03716988830723311210 -0.03497994180804031572
H  -1.99581524299085821816 2.81981163466362794168 0.84292687086349826764
O  -0.74566208920593823883 4.23407203675511745189 0.27271074877537193615
C  0.11454993063794716157 4.78184822513171425840 -0.72221284305706512363
C  -2.24789174512313172372 3.06026482541434052820 -1.30539629310818594554
H  -1.60261572157841780673 3.22323807603175405134 -2.17670040305796907987
O  -3.15242577628560471936 4.12715998749634671583 -1.30934131855218782725
H  -3.31115685040198659550 1.82638780406231360232 -3.35536569919137228624
H  0.83574579939790005767 -0.14770541981373197515 0.57258410235342838135
H  0.77760625302638652911 -0.11642237476677319563 -1.20519801016641969760
H  -3.91487630798820518407 -2.42005690150162244834 1.99579531847870161876
H  -3.86948185754502427258 -1.14793922271875303842 0.77231796380944839342
H  -2.45200740448774245905 -1.45791336353074685306 1.78658248859734025693
H  -4.55065274700159427823 -2.86300601138527799350 -1.00001502490125671052
H  -4.63410212375514696248 -4.03544265711129490626 0.31950707584550896989
H  -3.66730794850866903545 -4.38609856404667564078 -1.10947176676506154003
H  -1.08674952943823455165 -3.57230547839772549779 1.43277529152170735038
H  -1.64702679017009456786 -4.79373222243836316636 0.29817799764422758813
H  -2.58067718276505653208 -4.46054856079528949664 1.75577442178276377227
H  0.23877579432186046837 -2.70407044546942021412 -4.31310462270977801325
H  0.83313726729207093769 -2.14410523369926764303 -2.74945608309038735939
H  -0.36215061297296147202 -1.19080767633511497294 -3.63915552507711570485
H  -1.46673112765035495997 -5.00133717060720606185 -1.98650606596637246959
H  0.15301601921145713270 -4.36708648892733108937 -1.69567825585069131833
H  -0.32821106208054495745 -4.86143591591085133530 -3.32227252327472477589
H  -2.76969397251908144852 -2.07243950927427666997 -3.85427744478874423351
H  -3.15417032399832253375 -3.67380409833849252976 -3.24306520584681123864
H  -2.04521381258581325113 -3.50067861259689294684 -4.60272280928160348878
H  0.80274200051475830264 4.02295924768989543452 -1.09725259501710414867
H  0.66926212878563173803 5.56857240195451907994 -0.21611796570355756852
H  -0.46473258955022500594 5.21220376009472552425 -1.54310916761541006004
H  -3.80398692022738638130 4.01330215086952257764 -0.60575207460709223906
52
-73.6865973519 converged=true
O  -3.56870285445939305902 1.99728137362711732905 -2.35919436492781287029
C  -3.02242446603364722790 1.68999590280894329553 -1.10421269709484470845
H  -3.78860788580579654905 1.25098183392286932403 -0.44538686531706395133
C  -1.87029797084567217524 0.67756563462518959451 -1.21160549755032076469
H  -1.24732405849814109722 0.93705601184723430475 -2.07752241873939347272
C  -1.01295686767310000320 0.74533240869154970820 0.04837465166815357875
H  -1.65502828648959354751 0.50360321539672059377 0.90850493474172200337
C  0.13047953210392582157 -0.26635188925991054587 -0.01369251289803785632
O  -0.33168155411474087302 -1.58186930552735205424 -0.08376831565795028745
Si -1.64162005579346548245 -1.98317117576892032460 -0.99633456559354782733
C  -2.83911081783679852819 -2.96959030944385560247 0.14171826443301283049
C  -2.99472649165322923892 -2.23228347930887949246 1.47854793480195056965
C  -4.22543317262667184053 -3.09882650391280334290 -0.49427208922246923528
C  -2.29326893255150032758 -4.36924490892136230258 0.42612582631547324397
C  -0.97759152408445271210 -2.81437676156503968627 -2.61519546690073312334
C  0.11476649100168323514 -3.83851553461964378755 -2.28627767053508001993
C  -2.08356148777367211622 -3.51976537556250068661 -3.40470930819355643848
C  -0.36052517860157862195 -1.73506153675459984242 -3.51818859597203825729
O  -2.43027456685522569302 -0.59343734121246871638 -1.40014073877063616180
O  -0.43587173461168582378 2.03010355413380727541 0.24436959745216224604
C  -1.01475822021114803206 3.08585534510211667580 -0.45703596892458209222
H  -0.68831152932670769395 3.99146362034607982139 0.08409656167732193488
O  -0.50251869664668413762 3.11813459182655661195 -1.76990226754603652282
C  -0.37058344695192979579 4.40820596119427143833 -2.33345021652352846431
C  -2.55580933481374605876 2.99658308833871522836 -0.44378709142236016927
H  -2.96829533422256686137 3.82698018076284096622 -1.03560222730875084451
O  -3.05156414513110485487 3.01724502417596118775 0.87013689815619787993
H  -3.81132409384898629412 1.16819677694952339664 -2.79104800892997673145
H  0.74137587451458908383 -0.17265858213388685094 0.88906828358440570526
H  0.75459653009495331055 -0.03321290140614863162 -0.88436348275322962387
H  -3.40891100170777061606 -1.23836752662206506237 1.32287551792668911510
H  -2.03305993931834283472 -2.13412954308038660400 1.97576819476182508062
H  -3.66803417504099371627 -2.78222909105770321858 2.13529904201455345003
H  -4.63385070740652427190 -2.11716147434730750376 -0.71582805096063739647
H  -4.90471702403639664425 -3.61157849694621946313 0.18616219604458983383
H  -4.17866007845502984708 -3.66510311657389564743 -1.41915778041571050139
H  -1.29355457983803856514 -4.31006063786269066895 0.84744537641539618988
H  -2.24911617529652696490 -4.95754557284905139625 -0.48629424231534124079
H  -2.93759504469891830070 -4.89086917753690642030 1.13324012239917393252
H  -0.28731261370209160155 -4.65852025584023721194 -1.69915257482039772086
H  0.91438137429029864300 -3.37506884504256898794 -1.71504689834707679807
H  0.53521794909839903731 -4.24804950270550385483 -3.20406154095290496286
H  -1.68805480257189310933 -3.91067225222464420753 -4.34150102019327643887
H  -2.89339350801139172376 -2.83234963938119621574 -3.63283495771127196150
H  -2.48862585172799377631 -4.35270708656901561540 -2.83664116962399948108
H  0.03728116163754879864 -2.18617395455209040378 -4.42665028827624418284
H  0.45489648607362442867 -1.22505864861751678774 -3.00946791034422034272
H  -1.10651035892018079210 -0.99688181883629645164 -3.80202224309791780854
H  -1.34580776514135735944 4.88113290714895597944 -2.48243266904966208841
H  0.11069581908509240620 4.25923926241314099173 -3.29727728088957583452
H  0.25430411138240560653 5.04899877598945856505 -1.70189272457329066057
H  -2.78170899594772436103 3.83219677674124081790 1.31299831996100047071
52
-73.6863078743 converged=true
O  -3.78598259255226299302 1.59839068237577319742 -2.52364154835095533258
C  -3.22194485834886723552 1.69580906932237085449 -1.24110044596800928041
H  -3.97872111494944658006 1.47776707944489005264 -0.47146887486977573367
C  -2.11478322819406372446 0.64447668971185767539 -1.12731711645438092972
H  -1.41389544634643171683 0.80755059621254976499 -1.95245318205246776166
C  -1.38037025866921614359 0.77666779836217192390 0.20632561896030288118
H  -2.03735357757968715831 0.37856174450063617698 0.99093067919932797949
C  -0.11290176703382814871 -0.07873914244935720230 0.16684589451886222555
O  -0.40608136622610357946 -1.43011230380547349483 -0.04459469086808209859
Si -1.69240480652726299482 -1.94267813916631726379 -0.94152510689326351923
C  -2.74927087361694511003 -3.11569532155280715102 0.15833298018123920237
C  -2.96870776552318105246 -2.47540703485252322480 1.53538321299282332077
C  -4.12142018141609067783 -3.36595428353953529665 -0.47289796271411421724
C  -2.04391415627571948477 -4.45644306817609248128 0.36189544626467773369
C  -0.97003023022042844659 -2.61903989940623027621 -2.60538747550278326770
C  -0.50413295027581894736 -1.43750535922888156293 -3.46963577307760040469
C  0.23861915278321421674 -3.52677856373115616861 -2.34937279346237914979
C  -2.01372339189350846311 -3.40367623003890606981 -3.40464787546251024253
O  -2.66305284515364704134 -0.63903865841972751216 -1.21547569859394610781
O  -1.07425974358195297498 2.11633816960090381798 0.56524401559992498711
C  -1.18774692230212863819 3.05171951734330626493 -0.46665836062792387384
H  -0.94607713966259587846 4.01551480572568308958 0.00897195488401059116
O  -0.26648509280191312598 2.77372454614201657819 -1.49113297471236250225
C  0.36355836866779855931 3.91038994824664953853 -2.05369281583346641185
C  -2.64452863049943731610 3.11460652344256061497 -0.98218113480682223138
H  -2.65520113863367956952 3.66580773224197553617 -1.92870505742566011875
O  -3.44210154116775512989 3.85547499279845773401 -0.09328107048274436597
H  -4.59461866342504166028 2.12552397144779359195 -2.55674248534004400213
H  0.41620666931570116098 0.00451466226218799616 1.12174777124032454267
H  0.53790495234720370199 0.29675354049439750526 -0.63158576332032567713
H  -3.54912610963239583128 -3.14261204617554490426 2.17190201647679836938
H  -3.51497238093599762010 -1.54005807929043303517 1.43714523553070661066
H  -2.01704746341253438047 -2.27747769562105517593 2.02220530955854460586
H  -4.02549163326849690492 -3.90435121216884262196 -1.41033633526681745352
H  -4.62310175941571621649 -2.42376851322074937656 -0.67379943962478794361
H  -4.74266003405311042940 -3.95743150317479219780 0.19912420692545484968
H  -1.93952296584494687792 -4.98346027731010821071 -0.58237140012849886173
H  -2.61761517759680772954 -5.08830275112996854858 1.03931543949548021999
H  -1.05375580383966371834 -4.30598624126573525928 0.78311752828508529589
H  -0.07840247611263650995 -1.80056107538756426933 -4.40480635332210113120
H  0.25920585025177222960 -0.85813798147484321444 -2.95389860618547839266
H  -1.33992059624768100612 -0.78340341093875331957 -3.70697198853923692852
H  0.67847881910344409739 -3.84307743911426591410 -3.29446166156589548279
H  -0.05319750291054536895 -4.41287726969479088268 -1.79386068342876248138
H  0.99452217691103794728 -3.00175324330153081576 -1.77191155404893763148
H  -2.89764136131074856451 -2.79568202392783504706 -3.57818091442746588626
H  -2.31097417112192005106 -4.30232133958040385835 -2.87117460138785096646
H  -1.60455751896329679163 -3.70265666618593947135 -4.36906735655057154588
H  -0.36561976147891583899 4.57394957623881381892 -2.52808079648603767353
H  1.04909491143727717777 3.52535135394857146451 -2.80501109600394871180
H  0.91975845738780592775 4.46659465903393648745 -1.29250169879698084685
H  -3.32712235918258425471 3.50475911443245102816 0.80022538246971008924
52
-73.6862579200 converged=true
O  -3.65273247075478035839 1.80762556672507290756 -2.66760020157399591056
C  -3.28662343677374657602 1.61789754551283326833 -1.32781459561558357052
H  -4.08657881028392822031 1.09706348144323229121 -0.77573235581127941707
C  -2.06290928864144396115 0.68932141976294558638 -1.31349305978374331083
H  -1.45801242321119195466 0.92882447859891592579 -2.19756796886780580991
C  -1.23006241326676435399 0.90664058673462388782 -0.05239270011546071082
H  -1.86252929168414516070 0.66071621988123374614 0.81414866979830891047
C  -0.00638360556994088668 -0.01106031526258377529 -0.04932891122028260078
O  -0.35140882203281109675 -1.36358653834370868729 -0.03517639270948458297
Si -1.59254799506671673726 -1.92257355356896497689 -0.96568600113302693888
C  -2.65804289161721296608 -3.01525140336843833211 0.20460531698898742903
C  -3.34557905677186262494 -2.12758656397345990996 1.25017352499405198785
C  -3.73899342967701375784 -3.76921118034536029029 -0.57044576309313199669
C  -1.77939895326359187600 -4.02744604205885980974 0.94355989668697981543
C  -0.88667080562137212674 -2.69995346931922686196 -2.59389745700547891261
C  -0.27046247450063520823 -4.08079545983763747330 -2.35304492012453714267
C  -1.98412838361416543620 -2.82915713650497702147 -3.65642861063043289604
C  0.21094999760389532284 -1.78263420044974307821 -3.15483581960614589690
O  -2.51649102404460300875 -0.63080456328948364408 -1.39065529571709722845
O  -0.74958282212978755155 2.23468529433024665209 0.07658285565600819744
C  -1.48062567151707757951 3.23390688249813829103 -0.57790768616654575318
H  -1.28811325761202954965 4.14519380910621926262 0.01579263422204557621
O  -1.06821208370635245544 3.42435256402301213541 -1.90041922909457428048
C  0.26068914938664522474 3.90395107674605235104 -2.01954514223046377452
C  -2.98867846698589456622 2.95308704780547603974 -0.60071909780400867263
H  -3.45134972738735124054 3.77111375891741129607 -1.17363383577129143376
O  -3.42700168290485507328 2.95635006064682537286 0.73285592121099818463
H  -4.48766764050035504852 2.29065083862515495028 -2.72094993365469317581
H  0.58754988197086599477 0.19236796485255136524 0.84680531554886551149
H  0.60087185567107659345 0.21704190269861955986 -0.93293013703400440306
H  -3.94485371211935653690 -2.73705018526489585184 1.92591668254225600876
H  -3.99839620545370344473 -1.40582216308778229497 0.76619614169038530171
H  -2.60684795339472197284 -1.58944718727345746245 1.83978419271792370537
H  -4.37721951933253361489 -4.32718584953457430231 0.11423616714974849096
H  -3.29212692234824011450 -4.47532945373956181356 -1.26486061771017244126
H  -4.35769528059107713602 -3.07655905765436488153 -1.13436650797355009779
H  -2.37639184678298365228 -4.59624171340086107307 1.65585901450715722305
H  -0.98662596686579073779 -3.51719424644692235660 1.48278458969018744895
H  -1.32247351469670615387 -4.72505047752245399550 0.24884257151602606761
H  0.18558832747827747056 -4.45572670362112255305 -3.26868613937399254965
H  -1.03064279571565231564 -4.79133411472338721637 -2.04019603694036666397
H  0.49345071685323982358 -4.03140433265973641141 -1.58151775970578079011
H  -2.44834137887621228202 -1.86472384848351913078 -3.84324308871970732326
H  -2.75703469850964655308 -3.51980761190124891158 -3.33307639256838861286
H  -1.56235814499989289494 -3.19898636276728032257 -4.59045166936025239579
H  1.03452358299291513610 -1.69343260959213415262 -2.44995382638810221820
H  -0.18425911785137616405 -0.78997189351517849154 -3.36152282986140304999
H  0.60216391431587701355 -2.19074348661555928786 -4.08647283702865138366
H  0.35362157970763141712 4.89210317610610001537 -1.55604850167070485334
H  0.45905113484758097719 3.97021622734355439377 -3.08648506845800740805
H  0.96599554588119684873 3.21741814036317252956 -1.54418638119142359599
H  -4.39149170003104138971 2.90080368140525646226 0.76190927679410780371
52
-73.6860895071 converged=true
O  -3.66888362426877634448 1.90379815034140720265 -2.45966361356785068182
C  -3.20715502345074909840 1.68417468174147644255 -1.15428924532664911595
H  -3.98333654928944014273 1.19191012481339164708 -0.54509152148647255220
C  -2.02894839850150532357 0.70324496519326440414 -1.24614770066820135241
H  -1.48429834177300734588 0.92730506977021209813 -2.17164999512998191378
C  -1.08914543245033668128 0.85665749270214552880 -0.05262143884518377668
H  -1.65397868016837024108 0.60302938895875768388 0.85731195113044256217
C  0.09729275143543270055 -0.10075607044081358321 -0.18041952877080058570
O  -0.28769031371463649194 -1.44198397269944766919 -0.19148606901538978153
Si -1.63755630174646871211 -1.92924088370943791482 -1.00440076099242481256
C  -2.68145244341712984948 -2.99429917477432638862 0.21068167014650196478
C  -4.11081513694267641768 -3.16595755176842530432 -0.31013997139963778160
C  -2.05876030870312698440 -4.37570584050594568737 0.41164089629869793363
C  -2.75078449531183366616 -2.29471103359946670963 1.57453044465950720010
C  -1.06794368299252706578 -2.70409762941737508157 -2.68634281174841094142
C  0.09442007471112745520 -3.68176322795025878776 -2.47854776130655984900
C  -2.20983485785572275617 -3.44169685962919125188 -3.39088811174744364507
C  -0.58619085802783899020 -1.58152813722885388081 -3.61837860767352648139
O  -2.54986081367931083363 -0.59363729552690991387 -1.29773720417297755425
O  -0.55320863330333613916 2.16337608782628709747 0.07760742736590064972
C  -1.27736709370232537353 3.20463393516949679451 -0.51550756753172277680
H  -1.00355972406670135300 4.09569939785389180997 0.07682454291569706939
O  -0.94323128274539180804 3.39661200427216680708 -1.85971087415991442882
C  0.39418368329190478505 3.82272468654687980205 -2.05974193088576562616
C  -2.79576811410647341205 2.99685050923563167657 -0.44202844990443368456
H  -3.25416050809569057378 3.84189993591332346057 -0.97826426656057641207
O  -3.14605224301085240057 3.00918120987409398737 0.91750548565684697522
H  -4.48704202632456272681 2.41707156723366267670 -2.44331646203554875285
H  0.76802185677979339928 0.04937796343696443380 0.67094143999010924517
H  0.64140866909019100817 0.14362264945615332845 -1.10100803147050863018
H  -4.12121041585121794526 -3.73316824601993335619 -1.23555126839898821167
H  -4.56242751449548755716 -2.19717572071581290771 -0.50225248959936474868
H  -4.71808727079125045378 -3.69620897338245590902 0.42295724696141934196
H  -2.06113235394346716589 -4.93796885607988667033 -0.51803814627773936419
H  -2.62428582502915519470 -4.94275197958487666483 1.15055665826937270069
H  -1.03265870672625759141 -4.28484001439311601445 0.75685028723169733844
H  -1.75481090041335097141 -2.16761426587374916863 1.99084946807812190883
H  -3.34368354282767565877 -2.88623644592891626104 2.27156898928809170002
H  -3.21418905284743194883 -1.31547568312121088141 1.47812897734669856931
H  -0.21346301103739584448 -4.52667947884674681802 -1.87017879459817448762
H  0.92337305513187395434 -3.18950159672169331060 -1.97734748927002823571
H  0.44439851637851690569 -4.05952937375431233136 -3.43861956295171689035
H  -1.88273996254307718345 -3.79958461337480457587 -4.36657268304978174456
H  -3.06076220843180291098 -2.78086614177538038462 -3.53295676495145327678
H  -2.53144771348560926327 -4.30036005270289312108 -2.80780156786280166159
H  -1.38899769814999451967 -0.87487528281955539988 -3.81501404402776422842
H  -0.25643063563343515554 -1.99790005357309063960 -4.56994051672480239290
H  0.25167236969827277981 -1.04480115426247865962 -3.17777800796153053753
H  0.53016986886134498391 3.88201620687709603175 -3.13681799141774231288
H  1.09927132589079423752 3.10837208310797485922 -1.62696471533702302636
H  0.55434863145186819011 4.80597962913293841325 -1.60414243915387522144
H  -4.10829910286534882857 2.99863787072442367077 1.00818292064393322249
52
-73.6859520595 converged=true
O  -4.02276015936020137076 1.54623331753010795353 -2.36219157390163925214
C  -3.09662265115639279145 1.63800268644633995052 -1.32005780155219221150
H  -3.67724001192617766520 1.44407387952428489797 -0.41231187197846697057
C  -1.97877902398235483439 0.58036583128837926360 -1.43683499709372330955
H  -1.46273343423753887649 0.71552746189704574675 -2.40036895542552297655
C  -0.95651078491606345011 0.76077764188339136453 -0.30911351350415960937
H  -1.46814612933194776900 0.55386385815134020483 0.64401572756135649911
C  0.20132472508335852446 -0.22234542865699646885 -0.46609789386039490733
O  -0.22655123905459451095 -1.54925046176893910221 -0.41507523269086532558
Si -1.66227340658827449360 -2.04122912209505535941 -1.06478963574257567970
C  -2.63335030139317760600 -2.97577629555816525198 0.30527040495612500770
C  -2.59476547392601597508 -2.16439205396486755717 1.60711634051441332183
C  -4.09939296453081070126 -3.15599445082110552363 -0.09805837851016341311
C  -2.01999603931156457293 -4.34964245817500572144 0.57745246058406141110
C  -1.24507317492086544419 -2.95618537074771570161 -2.72022871769969443179
C  -0.81034937181693944552 -1.92540104816566426393 -3.77348498739674642621
C  -0.09219848010811415584 -3.94707410602328057081 -2.52212228780082625690
C  -2.45443224392132597345 -3.71434347204327508507 -3.27411305007684738655
O  -2.54897122929945352254 -0.69136989398617954006 -1.39006305471946456365
O  -0.41883925032244517794 2.06189126560822355572 -0.30671055634369126519
C  -1.40367843399784453240 3.04402165140206815153 -0.08851078757726982271
H  -1.92741258164037887468 2.85213378876802181594 0.86571471929658505573
O  -0.81716967066572065992 4.29263522854193624312 0.07779472808608645096
C  0.12766414804834269603 4.68950902855151507964 -0.91346912466771712502
C  -2.45577472285396058993 3.03298229921943907073 -1.22010788720101315263
H  -1.94783505252866584456 3.25062067673365895359 -2.17670348255738765886
O  -3.44681686293357270046 3.99249538946432380726 -0.96607133555340574116
H  -3.60541469100667955061 1.80211846134799547059 -3.19507201152379582965
H  0.91845079482197178322 -0.06791898844314103734 0.34578941378000993545
H  0.70579734576048558381 -0.02290223916109712654 -1.41888221637824596399
H  -3.06863250398045339651 -1.19541001981951344746 1.46562152398615386240
H  -1.56929977579510260277 -2.01015855490908101899 1.93388442708326935282
H  -3.13148344575102210996 -2.69266271222508946082 2.39445293494475919260
H  -4.66112979075895239589 -3.60892616515715269898 0.71841322838138865770
H  -4.18723927222976399776 -3.79862123205446344798 -0.96835930423536198397
H  -4.54749917963422589651 -2.19616179657706123152 -0.33841602552985317054
H  -0.96990291953233154221 -4.25449153633636090177 0.83990377972387886274
H  -2.10001522428024500755 -4.98667866646022073240 -0.29900647555406090206
H  -2.53990597388344063745 -4.84057217601645906058 1.39951573932841566439
H  -0.54933310495868981072 -2.42682019482204136551 -4.70475962697424243686
H  0.06103570540146852075 -1.36891418915317153449 -3.43415463048397739954
H  -1.61822827400006707954 -1.22719466832848134175 -3.97736838611208032290
H  -0.37194877446738994209 -4.73270567962066301959 -1.82713933111485404837
H  0.78315558115215155865 -3.44105649499766474975 -2.12441998743752424872
H  0.17374541275116639483 -4.40867285864345692659 -3.47231484128991230165
H  -2.21557411461551856391 -4.14961999385411672847 -4.24387471652167036495
H  -3.30393918519892570984 -3.04714522522004660487 -3.39357599764067607850
H  -2.74099990651202540803 -4.52085677077769343413 -2.60494370484347825823
H  -0.35590525204220191391 4.88977551643319419128 -1.87308726520917234737
H  0.89506973423232638609 3.92558649537884729597 -1.03822787128353644093
H  0.56940190899152121062 5.60560939708280603355 -0.52867688466335238662
H  -3.02461127287105302486 4.77753044933009718420 -0.58740102557661577620
52
-73.6853337905 converged=true
O  -3.96492370383709946680 1.66943517315517420130 -2.18337907986741042166
C  -2.86673105491716562199 1.65517661162454476909 -1.30830284495483506468
H  -3.29658999174379463426 1.47876650977558421474 -0.31476239378174430961
C  -1.84648226065625697956 0.55084971258590376131 -1.60607151844382745054
H  -1.45195321257775544765 0.68649959573636221144 -2.62547781208444419576
C  -0.68205505411485733980 0.68819187322604435941 -0.61835576016075366468
H  -1.08192110405503472137 0.53582748469859198259 0.39749936435858224115
C  0.38686046717642930126 -0.36914333810421529058 -0.88294100160290245327
O  -0.11029548521292209529 -1.66349509539077011766 -0.72617180697763306085
Si -1.62955311095702670698 -2.08429596213980694586 -1.21084493924366487505
C  -2.51116835552454498171 -2.90840196887541369009 0.28646871781684213332
C  -4.01881382580209134403 -3.01230210864089942291 0.03898099018480771782
C  -1.95412628255955489465 -4.30707364072184084591 0.55333270211333029920
C  -2.29327258388959620561 -2.05528633480126554645 1.54336833693429009706
C  -1.43929982210680140753 -3.07350909104786751413 -2.86402179753711294552
C  -0.33764360266206905337 -4.13181096485875976043 -2.73721535744251376343
C  -2.74072968201507816133 -3.76795444759752706787 -3.27470217200120039536
C  -1.04067274885008309582 -2.10572373003159629690 -3.98887297822631659017
O  -2.46654222456779814721 -0.69461095191241539748 -1.50680005012065532100
O  -0.07014261990906711652 1.95156080869032955150 -0.72769951164883894812
C  -0.92301437093983329518 3.02337966392213708389 -0.40437963496115902906
H  -1.26125711463903655840 2.93234594535954595784 0.64765153449945067621
O  -0.15706286912710365478 4.16976205492542462139 -0.58162552076139151236
C  -0.37270910004268142934 5.19216544942212099301 0.37749292988584204345
C  -2.17190757332175765626 3.03011998523247516601 -1.31001672105807176472
H  -1.83389655201286538855 3.26925015632531046350 -2.33231866621628913805
O  -3.05416645140067855024 4.01802508713121131478 -0.84375114430423225897
H  -3.65902378424426366621 1.56692859401704787103 -3.09365227043955393071
H  1.20902008116762060830 -0.23489639291236535934 -0.17414899471473899162
H  0.77669704289925767249 -0.22782910669699385497 -1.89730439796351002535
H  -4.23138327529446378605 -3.67127138045932221999 -0.79681906372450050924
H  -4.43484461322158196595 -2.03445859767613068669 -0.18605525619638996204
H  -4.51851752155370700592 -3.40861242434041677996 0.92231659483368289010
H  -2.41424820260007688688 -4.73447641874042357557 1.44366863163518099888
H  -0.87886823751313747355 -4.26795422795129653082 0.70433870078826843475
H  -2.16114976646656398174 -4.96896693953687496048 -0.28292572836457419161
H  -2.77750167035706185814 -2.52059149667728066291 2.40120201690158729946
H  -2.72061297954581826630 -1.06376871000821227042 1.40947467928153025163
H  -1.23274154377836508978 -1.95377313484816750311 1.76015128466445003319
H  -0.18012195172403533405 -4.62707267181503478781 -3.69448363144185165652
H  -0.60704267433979630653 -4.88512988610587672866 -2.00333215252725649336
H  0.59726215216567246635 -3.67561683585546772335 -2.42372294660770748465
H  -3.01268113300975404201 -4.53066989376036133308 -2.55047794630417357098
H  -2.62097311775895658315 -4.25041250882203236472 -4.24397468423013712879
H  -3.55460958599991982965 -3.05104102518629538565 -3.34264645270872584604
H  -0.10450642230260975829 -1.60334505018905382201 -3.75404496912217666704
H  -1.81311981613416239867 -1.35573228354295638454 -4.13936444617019905223
H  -0.90762523991755894581 -2.65001234504752369858 -4.92307891204680103669
H  -0.12927190997883197809 4.84022294164989297371 1.38551772035543740991
H  -1.40860983197830225144 5.53925179408658152624 0.34969230769557069216
H  0.29915080132657556611 5.99931000475104170278 0.09533871715820896320
H  -3.91769650957397796986 3.85742951797904165545 -1.25397266514989169650
52
-73.6850547405 converged=true
O  -3.68435007989322826916 2.13745312592706238064 -2.35391975005531239873
C  -3.15316720250826465488 1.60233097703918492272 -1.16734183264634605592
H  -3.89569245266969677033 0.95946950572238531851 -0.67113138956156337400
C  -1.91086913550382408999 0.72839954416068264376 -1.42558147361793174923
H  -1.42388062150344119061 1.06070545569059060398 -2.35463030610436341306
C  -0.92017618374583243224 0.92017737294038692841 -0.28044003913900905633
H  -1.42522505983556113662 0.68533799111488236111 0.66698843944231511749
C  0.28697644984386050382 0.00052993380404908752 -0.43137360457912343747
O  -0.07794650313971196454 -1.34478144095154883431 -0.35394235886839697791
Si -1.44297649246400094825 -1.89965312359173399415 -1.09203867255356135146
C  -2.49584546028687626062 -2.81353373495973357876 0.23664505290115234182
C  -3.92805867977663414337 -3.03058095753731704391 -0.26041744836458013967
C  -1.88680564857045696137 -4.17076718521248412941 0.59175565161771448430
C  -2.56013435837422820285 -1.96603072419111502001 1.51480327656234181610
C  -0.88765369194583432222 -2.85085176830565911743 -2.68259739129776564326
C  -2.04447027431460259805 -3.61605466049688262231 -3.33020569264926091790
C  -0.34460704203032377357 -1.84419036293900440171 -3.70838469791320690661
C  0.23428207276381907143 -3.84221001072994017278 -2.35585686220735102125
O  -2.32651827507636665970 -0.59833199441126017071 -1.58240064879439623624
O  -0.44112987714153040208 2.24791851819744792351 -0.28537267254811737871
C  -1.41449687584566197174 3.25569578540183401927 -0.10442851231413752267
H  -1.27507007006063011190 3.68199745964162206135 0.90644408398823461681
O  -1.15055071572386369283 4.33968307033600453337 -0.93789295790844207090
C  -1.09707023703955908189 4.07292241103828978055 -2.33475264417041650233
C  -2.88186723375884046305 2.75394227074795150401 -0.18175466563941211628
H  -3.49022560885456822888 3.60916430563830958889 -0.51156871553831761990
O  -3.30832142297487186156 2.29800474059417147998 1.08242254064381726586
H  -3.97688188805471076748 1.40887034625288620759 -2.91610603366392062696
H  0.99959063962375971357 0.20374104108310553407 0.37305230036464753773
H  0.77400343634022306105 0.21042609239298082358 -1.39059428000633156230
H  -4.53167020753009985867 -3.49002143699189426584 0.52155331120626469144
H  -3.94443552543950692879 -3.68053054557646586176 -1.12983261876629015319
H  -4.38237283762094875783 -2.08305082087111514966 -0.53568084871699617189
H  -2.45089353840901980064 -4.63969964239148335849 1.39737698856116510093
H  -0.85572296541632153488 -4.05440660824351528646 0.91404238685590732949
H  -1.90744113168891971100 -4.83799096857767452207 -0.26567047816656275128
H  -1.56307228931353914270 -1.80036588740100222950 1.91535072724966837221
H  -3.15448434765337637486 -2.47501387588716026400 2.27291800338856919694
H  -3.02056985749656892182 -1.00031623261383018075 1.31598196577520787365
H  -1.71761781249085720980 -4.07837543038228655945 -4.26099985160919736416
H  -2.87324755562330746983 -2.94808117462250285357 -3.54862536789252658309
H  -2.40009750917041708718 -4.40289463025289151688 -2.67068758996147881390
H  -0.01903722331293433712 -2.36366151364450605143 -4.60894280241293863298
H  0.50842279950501234609 -1.30432660735765182380 -3.30291088265936139123
H  -1.11157703706990562686 -1.12614059043417658046 -3.98705827638921483924
H  -0.11694211141296495526 -4.61791435562666752190 -1.68257579185859573734
H  1.06747931228890058364 -3.33334206586277304041 -1.87899796920242345699
H  0.59332690073540650388 -4.31793191701662948390 -3.26782977017511822027
H  -2.04957480182665463531 3.68258682368169809607 -2.69915557851691545466
H  -0.29162884315011150527 3.36904125445855617826 -2.55753682641759727545
H  -0.88535146928143471090 5.03363430552565649378 -2.79801513126828593769
H  -3.33744345610113768430 3.03427793569154413689 1.70669770559836320167
52
-73.6847491180 converged=true
O  -3.68655423164026530003 2.16063807892398251909 -2.27725682138505369778
C  -3.12590721423332773554 1.65248539119174031597 -1.09171647427299856048
H  -3.86865964961112762666 1.03627863850309775984 -0.55873144347631586992
C  -1.92052637323886443710 0.73082750116431449694 -1.35721260931963283447
H  -1.45135004638954345779 1.01458129765320448357 -2.31071682653409204988
C  -0.88659173612890718186 0.92839966454780153970 -0.25031532738485118283
H  -1.36322744232536363640 0.74278196640066063150 0.72291635366054673995
C  0.29510901189231231179 -0.02299887739144945709 -0.41525354703336059270
O  -0.09279870807439483116 -1.36123920375722962106 -0.33606498214918234524
Si -1.46948210483614305488 -1.89983115085517351162 -1.06094368109183800897
C  -2.46725652408363949064 -2.87428231654810995011 0.26387975181013478831
C  -3.91308960298733765626 -3.09316849555711170794 -0.19045104009782032328
C  -1.82807028934292947753 -4.23403539503018055967 0.54731473882264136677
C  -2.49280785421071460206 -2.07278305480363211899 1.57222879455100139623
C  -0.95386526058606824208 -2.78829887566114775765 -2.70216582289761131364
C  -2.11151320349602666937 -3.57270216888406455524 -3.32568894387597735474
C  -0.48463122477512654562 -1.73837057678351758483 -3.72122944715416004158
C  0.20976017290487747324 -3.75319532696936475347 -2.44819677443691041674
O  -2.38802318936609125899 -0.58608505594688442564 -1.44792631952562267372
O  -0.37037557356894246219 2.23852906231033976781 -0.32108717356451776936
C  -1.30174232651396293292 3.28198896740298140529 -0.12624677405606532510
H  -1.14396736462714954108 3.70823558929501251313 0.87958848837313730051
O  -1.01256844623940889250 4.33811120435918695648 -0.98343142434350805381
C  -1.02340415647762150719 4.04287398228026262359 -2.37580467594492672490
C  -2.78779245161625555127 2.84313385584911637594 -0.16608960805920025550
H  -3.34920690592496228533 3.71222689663671578941 -0.53762442280187161536
O  -3.14216921977823648859 2.55438221951676602828 1.16716426281985441449
H  -3.97296666467393677635 1.42121669845477471839 -2.82845132496288798052
H  1.02203372863726271724 0.16486258020380906153 0.37999479413109638060
H  0.77493442265401912827 0.18022714797074257387 -1.37963181621268282662
H  -4.48407822890211527067 -3.58443736248502053954 0.59674846319510321813
H  -3.95160763009947579860 -3.71639384845145048786 -1.07847224746919856386
H  -4.38750126312602439782 -2.14367686453398142987 -0.42118338245871989045
H  -1.86536714769196909636 -4.86867784146707105464 -0.33398144990021094713
H  -2.35922391593159330725 -4.74219048691409827967 1.35160522826299978050
H  -0.78919614743732735551 -4.11334174960224796536 0.84188983767403047231
H  -1.48389078003389762728 -1.92012805153279053627 1.94679200528191831410
H  -3.06504247210554492398 -2.60695327996760273237 2.32997572507063788194
H  -2.95513618783511144983 -1.10026326702942989222 1.41871658475336070993
H  -2.96812407676114098365 -2.92626171430598835954 -3.49606599849656829448
H  -2.41791210883699747569 -4.38626148621554889928 -2.67407211862619931253
H  -1.80644141274207870040 -4.00110588440599102000 -4.27971792673822371000
H  0.36423815595715125504 -1.17795945266107215943 -3.33511577989903029717
H  -1.28608281513130462415 -1.04162248467604801050 -3.95337285437953989131
H  -0.17594508719990109569 -2.22384730119527951331 -4.64638058216161731195
H  -0.09053851313062155626 -4.55572832389227144745 -1.78159210384707522579
H  1.04706492976964393726 -3.23189243539451709353 -1.99237596148645534910
H  0.54439212824616745046 -4.19451592485665258891 -3.38632146453756011084
H  -0.78530983827156752852 4.98319337565102760124 -2.86734268466935304787
H  -2.00583762619789496284 3.69031225913381755177 -2.69822346740738305826
H  -0.26117540224462154619 3.29726319970814563121 -2.61412016788627177277
H  -4.10366413163576382317 2.57495868061723243159 1.26054044213819427256
52
-73.6845428863 converged=true
O  -3.62939394110244606395 2.22009975580443441601 -2.23224406676271591721
C  -3.06369875627407051155 1.68717517754591650458 -1.05981150796095446864
H  -3.81164570773581168339 1.08134217950894417903 -0.52258496715686297840
C  -1.88073655711329945639 0.74622489091452259835 -1.35463228175395378194
H  -1.41237105840068122298 1.04673613393657216619 -2.30383583768902688860
C  -0.83678301834427137873 0.89953482025208386652 -0.25087299248105043858
H  -1.31574453589438622458 0.71433910451768412031 0.72139744396776550595
C  0.31593998893565444774 -0.08322242046924610559 -0.43513360752670715570
O  -0.11448084735784980204 -1.40839362752614594143 -0.34398310557515432428
Si -1.50227043940274263001 -1.90236670666343110625 -1.07979985659100075068
C  -2.47584406740781792777 -2.87104036559579522958 0.26800179753629205237
C  -3.68337747783736979557 -3.59991228325050816039 -0.32364805096277404761
C  -1.56892762206426361615 -3.89700726943050135276 0.95309835337027282165
C  -2.97883221705189971118 -1.89289170549557783652 1.33777271721126700399
C  -1.06530776012988170898 -2.78807859711815630988 -2.74443208197214882915
C  -2.29702299767491124882 -2.93809161549478359277 -3.64415639298141291746
C  -0.02336604309498935272 -1.95010496105541997203 -3.50105908610361638011
C  -0.46731630092863274406 -4.17548780929356500025 -2.49786496146470504698
O  -2.37107757583615930130 -0.55916373789073436917 -1.48248307384555699784
O  -0.28699086375377036440 2.19668113550456700622 -0.30558178923526913007
C  -1.19055143577364574980 3.26095797122791619671 -0.09334618899157920424
H  -1.01554179030717861565 3.67155192478007696977 0.91609589195431784248
O  -0.87979928658346229220 4.31941146220933624988 -0.94043704538908823309
C  -0.90759327863792571556 4.04066680489618690331 -2.33580148910923801608
C  -2.68789600694700059336 2.86174092547162217670 -0.12774940339708007464
H  -3.22840426871491636973 3.74773781590352639270 -0.49083776082021546294
O  -3.04118796877795727340 2.57536041035167340141 1.20583103795007184900
H  -3.94288736764184122308 1.49258932736030036637 -2.78443791895604464415
H  1.06026260784544934523 0.08446988004418110041 0.34824283964568469862
H  0.78443347272580288276 0.10270724664987029850 -1.40779391103241158234
H  -3.36410721298619908026 -4.36407086288406897978 -1.02698023669357985099
H  -4.33681749623622803114 -2.90439513147842065521 -0.84346922874593199815
H  -4.25456831190650319741 -4.08711825672052153635 0.46599929454282662533
H  -1.24284883717771243994 -4.65789964029750436225 0.25081749198132419210
H  -2.10445043038380363853 -4.38821345119975880777 1.76493852380081905906
H  -0.68719973845943682633 -3.41200726193003056608 1.36186076049948567857
H  -3.63563624218089831430 -1.14727969406276963937 0.89729647658789613018
H  -2.14420829921776512350 -1.38262204590377502100 1.81282689369946314883
H  -3.53369527179227915781 -2.42855285124205888536 2.10711783935659635603
H  -3.04865610495843331051 -3.56399163323072576404 -3.17344751362490429258
H  -2.01569580723202124162 -3.39439511784312530907 -4.59249587480496934688
H  -2.74101650671024277273 -1.96788719905447906378 -3.84614962913806612832
H  0.89273732561334595559 -1.86469292246564433135 -2.92143929459705331553
H  -0.40279705565601897632 -0.95096987235441721165 -3.70528993657700889131
H  0.21824336089732221389 -2.42132882106225366670 -4.45320673789593524106
H  0.39029840932052506375 -4.11074500339360682233 -1.83335842690182326820
H  -0.14362705139471954041 -4.62070151881260127169 -3.43797491082331818646
H  -1.20259748188620374520 -4.83635567700551938231 -2.04721124170030321920
H  -1.89981594262947006690 3.71276522562516264614 -2.65433156452030427630
H  -0.16277346958098992680 3.28221159015584706964 -2.58853985706503264552
H  -0.65345843715009577224 4.98126733921403896943 -2.81870764959900865776
H  -4.00198627700958198261 2.60867693835051372986 1.30261211834146894972
52
-73.6844594251 converged=true
O  -2.60262264660696462926 2.39450308791412691534 -2.98563722452055202439
C  -2.83840228908996916601 1.74650963744327536453 -1.76393454329735210884
H  -3.85453686114066051971 1.31280000930432705353 -1.75373187829958609996
C  -1.84345700252240152217 0.57449476116335751463 -1.66056046647575294983
H  -1.27645966993848825055 0.56542590179801432981 -2.60038135496215616627
C  -0.86562721708222700734 0.78270709085203016286 -0.50459616775999760474
H  -1.40702005033063204387 0.61763460621091237357 0.43732159610094156754
C  0.26990182866680489937 -0.23000924580726356261 -0.59768443899000600616
O  -0.20160283484216923178 -1.54512176337706153006 -0.55851193592655690168
Si -1.68006717326503851595 -1.99654784291526454787 -1.12907508466330641639
C  -2.65699260732129749485 -2.82146783353288821417 0.30987935010815381709
C  -4.14651659656326021519 -2.92572691663228123815 -0.03021798912000228654
C  -2.12050857114089374988 -4.22137307801150818420 0.60962567475384576987
C  -2.51476915984291071737 -1.97108364522024470666 1.57933957631012145129
C  -1.35640082247111770641 -3.01461760208262585792 -2.74394776950308472152
C  -0.87720852663743165145 -2.06380867760753305973 -3.85146948843945668983
C  -0.26708258308790111535 -4.06930796242660886008 -2.52098493863007888649
C  -2.62499765088847070160 -3.71441512847052912605 -3.23831126024122717411
O  -2.53049444806426393484 -0.63159682053768595456 -1.50038311608963770283
O  -0.31196779343803116014 2.07848332959722181812 -0.53676248446546948045
C  -1.24855501095130394518 3.11384798971919884991 -0.31987841419835905121
H  -1.15836530009118376938 3.43559479665757994127 0.74027500323177197750
O  -0.98318431512828330376 4.18185978399044078202 -1.16877613829060855721
C  0.28943259278354127595 4.77803145513542126821 -0.97018077266076729881
C  -2.71167852128614450535 2.70127902294477628686 -0.56108657911869130874
H  -3.24485373077156147303 3.63696968087447114470 -0.79679148579020853127
O  -3.21233558340795211095 2.14002864324468866641 0.62453265652125367069
H  -3.00114192307021809825 3.27401614487798120479 -2.98035022967173102160
H  0.95717365925328645737 -0.09289809626490397321 0.24312395729213065465
H  0.82144866573306773994 -0.05682796531095579695 -1.52979251390130421839
H  -4.54373757858276405841 -1.94953263858303538214 -0.29117891938840478883
H  -4.70150656188487570120 -3.31254164152911911856 0.82384445269553130409
H  -4.30708079441975311141 -3.59285756740933326370 -0.87143893933675231622
H  -1.05600761159633860231 -4.18489106938792954082 0.82380572874084512236
H  -2.27871065077826484568 -4.88348305240102398272 -0.23713320408115812210
H  -2.63324138809591312693 -4.64749383568228235930 1.47139737513769475186
H  -3.06763824986194411082 -2.42598991653858364614 2.40057437486331615162
H  -2.90739345880540600575 -0.97004410677545349628 1.41666113949238425818
H  -1.47056363329364447878 -1.89163182215185710078 1.87112020256000288754
H  -1.63627581696551627211 -1.31712916943944247095 -4.07282962044765106668
H  -0.67213156240419125176 -2.62248373359717223963 -4.76435623233127625298
H  0.03802721872977854467 -1.55527465864912528559 -3.55507286584261938955
H  -0.04782947944900683979 -4.58659238216999387561 -3.45434504285037435878
H  -0.58440754735727495905 -4.80517909353392536076 -1.78878606583565669119
H  0.64565872339137819758 -3.60432763742920503347 -2.15908592642932717354
H  -2.43720361513762107109 -4.20845425441436926661 -4.19099588475561279921
H  -3.42941097939763261948 -2.99646500204564070202 -3.37421653220780637383
H  -2.95056691723984165776 -4.46782469424759209886 -2.52634542960531938149
H  1.08838770540670837228 4.05952453148137237804 -1.16138851301729495447
H  0.37734644263657668439 5.15561610410996706833 0.05430604988297105251
H  0.34314743554237581158 5.60045826190439566261 -1.67935675883361490435
H  -4.16305953789288274436 1.99247401495884246536 0.53254907228764025717
