
                                 *****************
                                 * O   R   C   A *
                                 *****************

                                            #,                                       
                                            ###                                      
                                            ####                                     
                                            #####                                    
                                            ######                                   
                                           ########,                                 
                                     ,,################,,,,,                         
                               ,,#################################,,                 
                          ,,##########################################,,             
                       ,#########################################, ''#####,          
                    ,#############################################,,   '####,        
                  ,##################################################,,,,####,       
                ,###########''''           ''''###############################       
              ,#####''   ,,,,##########,,,,          '''####'''          '####       
            ,##' ,,,,###########################,,,                        '##       
           ' ,,###''''                  '''############,,,                           
         ,,##''                                '''############,,,,        ,,,,,,###''
      ,#''                                            '''#######################'''  
     '                                                          ''''####''''         
             ,#######,   #######,   ,#######,      ##                                
            ,#'     '#,  ##    ##  ,#'     '#,    #''#        ,####,    ,#,          
            ##       ##  ##   ,#'  ##            #'  '#       #'       ,# #          
            ##       ##  #######   ##           ,######,      #####,      #          
            '#,     ,#'  ##    ##  '#,     ,#' ,#      #,     #,   #      #          
             '#######'   ##     ##  '#######'  #'      '#     '####' #    #          



                #########################################################
                #                        -***-                          #
                #          Department of theory and spectroscopy        #
                #                                                       #
                #                      Frank Neese                      #
                #                                                       #
                #     Directorship, Architecture, Infrastructure        #
                #                    SHARK, DRIVERS                     #
                #        Core code/Algorithms in most modules           #
                #                                                       #
                #        Max Planck Institute fuer Kohlenforschung      #
                #                Kaiser Wilhelm Platz 1                 #
                #                 D-45470 Muelheim/Ruhr                 #
                #                      Germany                          #
                #                                                       #
                #                  All rights reserved                  #
                #                        -***-                          #
                #########################################################


                         Program Version 6.1.0  -  RELEASE   -
                                (GIT: $679e74b$)
                          ($2025-06-10 18:02:51 +0200$)


 With contributions from (in alphabetic order):
[Max-Planck-Institut fuer Kohlenforschung]                               
  Daniel Aravena         : Magnetic Suceptibility                        
  Michael Atanasov       : Ab Initio Ligand Field Theory (pilot matlab implementation)
  Alexander A. Auer      : GIAO ZORA, VPT2 properties, NMR spectrum      
  Ute Becker             : All parallelization in ORCA, NUMFREQ, NUMCALC 
  Giovanni Bistoni       : ED, misc. LED, open-shell LED, HFLD           
  Dmytro Bykov           : pre 5.0 version of the SCF Hessian            
  Marcos Casanova-Páez   : Triplet and SCS-CIS(D). UHF-(DLPNO)-IP/EA/STEOM-CCSD. UHF-CVS-IP/STEOM-CCSD   
  Vijay G. Chilkuri      : MRCI spin determinant printing, contributions to CSF-ICE 
  Pauline Colinet        : FMM embedding                                 
  Dipayan Datta          : RHF DLPNO-CCSD density                        
  Achintya Kumar Dutta   : EOM-CC, STEOM-CC                              
  Nicolas Foglia         : Exact transition moments, OPA infrastructure, MCD improvements    
  Dmitry Ganyushin       : Spin-Orbit,Spin-Spin,Magnetic field MRCI      
  Miquel Garcia-Rates    : C-PCM and meta-GGA Hessian, CCSD/C-PCM, Gaussian charge scheme 
  Tiago L. C. Gouveia    : GS-ROHF, GS-ROCIS                             
  Yang Guo               : DLPNO-NEVPT2, F12-NEVPT2, CIM, IAO-localization        
  Andreas Hansen         : Spin unrestricted coupled pair/coupled cluster methods 
  Ingolf Harden          : AUTO-CI MPn and infrastructure                
  Benjamin Helmich-Paris : MC-RPA, TRAH-(SCF,CASSCF), AVAS, COSX integrals, SCF dyn. polar., MC-PDFT, srDFT 
  Lee Huntington         : MR-EOM, pCC                                   
  Robert Izsak           : Overlap fitted RIJCOSX, COSX-SCS-MP3, EOM     
  Riya Kayal             : Wick's Theorem for AUTO-CI, AUTO-CI UHF-CCSDT 
  Emily Kempfer          : AUTO-CI RHF CISDT and CCSDT, approximate NEVPT4
  Christian Kollmar      : KDIIS, OOCD, Brueckner-CCSD(T), CCSD density, CASPT2, CASPT2-K, improved NEVPT2 
  Axel Koslowski         : Symmetry handling                             
  Simone Kossmann        : meta-GGA functionals, TD-DFT gradient, OOMP2, (MP2 Hessian; deprecated post 5.0) 
  Lucas Lang             : DCDCAS, Hyperfine gauge corrections, ICE-SOC+SSC
  Marvin Lechner         : AUTO-CI (C++ implementation), FIC-MRCC        
  Spencer Leger          : CASSCF response                               
  Dagmar Lenk            : GEPOL surface, SMD, ORCA-2-JSON               
  Dimitrios Liakos       : Extrapolation schemes; Compound Job, Property file
  Dimitrios Manganas     : Further ROCIS development; embedding schemes. LFT, Crystal Embedding 
  Dimitrios Pantazis     : SARC Basis sets                               
  Anastasios Papadopoulos: AUTO-CI, single reference methods and gradients 
  Taras Petrenko         : pre 6.0 DFT Hessian and TD-DFT gradient,  ECA, NRVS 
  Petra Pikulova         : Analytic Raman intensities                    
  Peter Pinski           : DLPNO-MP2, DLPNO-MP2 Gradient                 
  Shashank Vittal Rao    : ES-AILFT, MagRelax                            
  Christoph Reimann      : Effective Core Potentials                     
  Marius Retegan         : Local ZFS, SOC                                
  Christoph Riplinger    : Optimizer, TS searches, QM/MM, DLPNO-CCSD(T), (RO)-DLPNO pert. Triples 
  Michael Roemelt        : Original ROCIS implementation, recursive CI coupling coefficients
  Masaaki Saitow         : Open-shell DLPNO-CCSD energy and density      
  Barbara Sandhoefer     : DKH picture change effects                    
  Yorick L. A. Schmerwitz: GMF and freeze-and-release deltaSCF, NEB S-IDPP initial path                    
  Kantharuban Sivalingam : CASSCF convergence/infrastructure, NEVPT2, NEVPT3, NEVPT4(SD), FIC-MRCI and CEPA variants
  Bernardo de Souza      : ESD, SOC TD-DFT                               
  Georgi L. Stoychev     : AutoAux, RI-MP2 NMR, DLPNO-MP2 response, X2C  
  Van Anh Tran           : RI-MP2 g-tensors                              
  Willem Van den Heuvel  : Paramagnetic NMR                              
  Zikuan Wang            : NOTCH, Electric field optimization            
  Frank Wennmohs         : Technical directorship and infrastructure     
  Hang Xu                : AUTO-CI-Response properties                   
                                                                         
[FACCTs GmbH]                                                            
  Markus Bursch, Nicolas Foglia, Miquel Garcia-Rates, Ingolf Harden, Hagen Neugebauer, Anastasios Papadopoulos, 
  Christoph Riplinger, Bernardo de Souza, Georgi L. Stoychev                                                    
                                                                 
  APM, various basis sets, CI-OPT, improved COSX, DLPNO-Multilevel,           
  DOCKER, DRACO, updates on ESD, Fragmentator, GOAT, IRC, LR-CPCM, L-BFGS, MBIS, meta-GGA TD-DFT gradient, ML-optimized integration grids, 
  MM, NACMEs, nearIR, NEB, NEB-TS, NL-DFT gradient (VV10), 2- and 3-layer-ONIOM, interface openCOSMO-RS, QMMM,   
  Crystal-QMMM, RESP, rigid body optimization, SF, symmetry and pop. for TD-DFT, various functionals, SOLVATOR                                   
                                                                         
[Other institutions]                                                     
  V. Asgeirsson          : NEB                                           
  Christoph Bannwarth    : sTDA-DFT, sTD-DFT, PBEh-3c, B97-3c, D3        
  Giovanni Bistoni       : ETS/NOCV, ADLD/ADEX, COVALED                  
  Martin Brehm           : Molecular dynamics                            
  Ronald Cardenas        : ETS/NOCV                                      
  Martina Colucci        : COVALED                                       
  Sebastian Ehlert       : rSCAN, r2SCAN, r2SCAN-3c, D4, dhf basis sets  
  Marvin Friede          : D4 for Fr, Ra, Ac-Lr                          
  Lars Goerigk           : TD-DFT with DH, B97 family of functionals     
  Stefan Grimme          : VdW corrections, initial TS optimization, DFT functionals, gCP, sTDA/sTD-DF 
  Waldemar Hujo          : DFT-NL                                        
  H. Jonsson             : NEB                                           
  Holger Kruse           : gCP                                           
  Marcel Mueller         : wB97X-3c, vDZP basis set                      
  Hagen Neugebauer       : wr2SCAN, Native XTB                           
  Gianluca Regni         : ADLD/ADEX                                     
  Tobias Risthaus        : pre 6.0 range-separated hybrid DFT and stability analysis
  Lukas Wittmann         : regularized MP2, r2SCAN double-hybrids, wr2SCAN        
                                                                         
We gratefully acknowledge several colleagues who have allowed us to      
interface, adapt or use parts of their codes:                            
  Ed Valeev, F. Pavosevic, A. Kumar             : LibInt (2-el integral package), F12 methods 
  Garnet Chan, S. Sharma, J. Yang, R. Olivares  : DMRG                   
  Ulf Ekstrom                                   : XCFun DFT Library      
  Mihaly Kallay                                 : mrcc  (arbitrary order and MRCC methods)
  Frank Weinhold                                : gennbo (NPA and NBO analysis)           
  Simon Mueller                                 : openCOSMO-RS                            
  Christopher J. Cramer and Donald G. Truhlar   : smd solvation model                     
  S Lehtola, MJT Oliveira, MAL Marques          : LibXC Library                           
  Liviu Ungur et al                             : ANISO software                          


 Your calculation uses the libint2 library for the computation of 2-el integrals
 For citations please refer to: http://libint.valeyev.net

 Your ORCA version has been built with support for libXC version: 7.0.0
 For citations please refer to: https://libxc.gitlab.io

 This ORCA versions uses:
   CBLAS   interface :  Fast vector & matrix operations
   LAPACKE interface :  Fast linear algebra routines
   SCALAPACK package :  Parallel linear algebra routines
   Shared memory     :  Shared parallel matrices
   BLAS/LAPACK       :  OpenBLAS 0.3.29  USE64BITINT DYNAMIC_ARCH NO_AFFINITY Cooperlake SINGLE_THREADED
        Core in use  :  Cooperlake
   Copyright (c) 2011-2014, The OpenBLAS Project


  ***********************************
  * Starting time: Wed Sep 10 11:31:42 2025
  * Host name:     node3306
  * Process ID:    3033390
  * Working dir.:  /orcd/home/002/kmoult/learning_mannose/(tBu)2Si/goat search
  ***********************************

Your calculation utilizes the semiempirical GFN2-xTB method
Please cite in your paper:
Bannwarth, C.; Ehlert S.; Grimme, S. J. Chem. Theory Comput. 2019, 15, 1652.
   

================================================================================

================================================================================
                                        WARNINGS
                       Please study these warnings very carefully!
================================================================================


================================================================================
 STARTING AUTOMATIC FRAGMENTATION: 
================================================================================

WARNING: Geometry Optimization
  ===> : Switching off AutoStart
         For restart on a previous wavefunction, please use MOREAD

WARNING: Found dipole moment calculation with XTB calculation
  ===> : Switching off dipole moment calculation


================================================================================
                                       INPUT FILE
================================================================================
NAME = goat_0.inp
|  1> ! xtb alpb(acetone) goat PAL4
|  2> 
|  3> *xyz 0 1
|  4> O         -3.59787        1.99214       -0.15617
|  5> C         -2.17738        1.81603       -0.01299
|  6> H         -2.01740        1.55654        1.04125
|  7> C         -1.69214        0.68559       -0.92657
|  8> H         -2.01549        0.92179       -1.95018
|  9> C         -0.15873        0.61121       -0.84372
| 10> H          0.15310        0.35666        0.17894
| 11> C          0.33624       -0.49718       -1.78250
| 12> O         -0.17093       -1.79014       -1.46127
| 13> Si        -1.80449       -1.97798       -1.14573
| 14> C         -2.00487       -3.39364        0.32022
| 15> C         -3.48389       -3.75944        0.53580
| 16> C         -1.18391       -4.65113       -0.02967
| 17> C         -1.44354       -2.79017        1.63318
| 18> C         -2.83314       -2.43309       -2.82099
| 19> C         -2.30905       -1.57078       -3.99533
| 20> C         -2.66097       -3.91478       -3.20557
| 21> C         -4.33268       -2.11821       -2.62433
| 22> O         -2.34807       -0.51836       -0.51391
| 23> O          0.42581        1.85495       -1.23185
| 24> C          0.05493        2.92760       -0.35516
| 25> H          0.38034        2.66742        0.65996
| 26> O          0.80487        4.10065       -0.68220
| 27> C          0.53049        4.64589       -1.96152
| 28> C         -1.47854        3.13692       -0.34829
| 29> H         -1.82755        3.48544       -1.32679
| 30> O         -1.88369        4.12591        0.60755
| 31> H         -3.98003        1.09639       -0.06461
| 32> H          1.43041       -0.55032       -1.72896
| 33> H          0.10860       -0.25540       -2.82879
| 34> H         -3.90843       -4.26646       -0.33523
| 35> H         -4.09356       -2.87195        0.73987
| 36> H         -3.59549       -4.44015        1.38784
| 37> H         -1.54950       -5.14460       -0.93370
| 38> H         -1.23609       -5.38589        0.78227
| 39> H         -0.12638       -4.41077       -0.18820
| 40> H         -2.00326       -1.89847        1.93867
| 41> H         -0.39095       -2.50263        1.52678
| 42> H         -1.50664       -3.51456        2.45348
| 43> H         -1.25252       -1.77457       -4.20315
| 44> H         -2.41249       -0.49974       -3.79202
| 45> H         -2.86770       -1.78200       -4.91486
| 46> H         -1.60356       -4.18752       -3.29790
| 47> H         -3.14079       -4.12625       -4.16857
| 48> H         -3.12134       -4.58180       -2.47138
| 49> H         -4.49322       -1.06139       -2.38084
| 50> H         -4.77550       -2.71302       -1.82025
| 51> H         -4.89906       -2.33413       -3.53784
| 52> H          1.28003        5.41478       -2.16969
| 53> H         -0.45121        5.12662       -1.97565
| 54> H          0.59378        3.88554       -2.74528
| 55> H         -2.85964        4.07371        0.63463
| 56> **                         ****END OF INPUT****
================================================================================

                       *****************************
                       * Geometry Optimization Run *
                       *****************************


                       *********************************
                       *              GOAT             *
                       * Global Optimization Algorithm *
                       *********************************

Geometry optimization settings:
Update method            Update   .... BFGS
Choice of coordinates    CoordSys .... (2022) Redundant Internals
Initial Hessian          InHess   .... Almloef's Model
Max. no of cycles        MaxIter  .... 156

Convergence Tolerances:
Energy Change            TolE     ....  5.0000e-06 Eh
Max. Gradient            TolMAXG  ....  3.0000e-04 Eh/bohr
RMS Gradient             TolRMSG  ....  1.0000e-04 Eh/bohr
Max. Displacement        TolMAXD  ....  4.0000e-03 bohr
RMS Displacement         TolRMSD  ....  2.0000e-03 bohr
Strict Convergence                .... True

------------------------------------------------------------------------------
                        ORCA OPTIMIZATION COORDINATE SETUP
------------------------------------------------------------------------------

The optimization will be done in redundant internal coordinates (2022)
Making redundant internal coordinates   ...  (2022 redundants) done
Evaluating the initial hessian          ...  (Almloef) done
Evaluating the coordinates              ...  done
Calculating the B-matrix                .... done
Calculating the G-matrix                .... done
The number of degrees of freedom        ....  265

    -----------------------------------------------------------------
                    Redundant Internal Coordinates


    -----------------------------------------------------------------
         Definition                    Initial Value    Approx d2E/dq
    -----------------------------------------------------------------
      1. B(C   1,O   0)                  1.4385         0.468256   
      2. B(H   2,C   1)                  1.0974         0.350405   
      3. B(C   3,C   1)                  1.5323         0.370415   
      4. B(H   4,C   3)                  1.0991         0.348201   
      5. B(C   5,C   3)                  1.5374         0.363493   
      6. B(H   6,C   5)                  1.0990         0.348350   
      7. B(C   7,C   5)                  1.5345         0.367388   
      8. B(O   8,C   7)                  1.4255         0.491110   
      9. B(Si  9,O   8)                  1.6743         0.855906   
     10. B(C  10,Si  9)                  2.0477         0.242396   
     11. B(C  11,C  10)                  1.5388         0.361743   
     12. B(C  12,C  10)                  1.5420         0.357500   
     13. B(C  13,C  10)                  1.5502         0.346852   
     14. B(C  14,Si  9)                  2.0179         0.270526   
     15. B(C  15,C  14)                  1.5483         0.349248   
     16. B(C  16,C  14)                  1.5404         0.359521   
     17. B(C  17,C  14)                  1.5448         0.353790   
     18. B(O  18,Si  9)                  1.6808         0.835719   
     19. B(O  18,C   3)                  1.4318         0.479953   
     20. B(O  19,C   5)                  1.4280         0.486663   
     21. B(C  20,O  19)                  1.4341         0.475857   
     22. B(H  21,C  20)                  1.0973         0.350579   
     23. B(O  22,C  20)                  1.4302         0.482806   
     24. B(C  23,O  22)                  1.4175         0.505875   
     25. B(C  24,C  20)                  1.5477         0.350050   
     26. B(C  24,C   1)                  1.5315         0.371494   
     27. B(H  25,C  24)                  1.0958         0.352533   
     28. B(O  26,C  24)                  1.4338         0.476368   
     29. B(H  27,O   0)                  0.9782         0.486400   
     30. B(H  27,O  18)                  2.3394         0.010000   
     31. B(H  28,C   7)                  1.0968         0.351258   
     32. B(H  29,C   7)                  1.0977         0.350024   
     33. B(H  30,C  11)                  1.0936         0.355348   
     34. B(H  31,C  11)                  1.0959         0.352389   
     35. B(H  32,C  11)                  1.0963         0.351909   
     36. B(H  33,C  12)                  1.0929         0.356279   
     37. B(H  34,C  12)                  1.0963         0.351881   
     38. B(H  35,C  12)                  1.0960         0.352215   
     39. B(H  36,C  13)                  1.0962         0.351941   
     40. B(H  37,C  13)                  1.0963         0.351819   
     41. B(H  38,C  13)                  1.0962         0.352014   
     42. B(H  39,C  15)                  1.0959         0.352392   
     43. B(H  40,C  15)                  1.0951         0.353465   
     44. B(H  41,C  15)                  1.0965         0.351646   
     45. B(H  42,C  16)                  1.0959         0.352361   
     46. B(H  43,C  16)                  1.0965         0.351601   
     47. B(H  44,C  16)                  1.0936         0.355411   
     48. B(H  45,C  17)                  1.0963         0.351829   
     49. B(H  46,C  17)                  1.0938         0.355087   
     50. B(H  47,C  17)                  1.0963         0.351841   
     51. B(H  48,C  23)                  1.0938         0.355145   
     52. B(H  49,C  23)                  1.0932         0.355922   
     53. B(H  50,C  23)                  1.0938         0.355097   
     54. B(H  51,O   0)                  2.3459         0.010000   
     55. B(H  51,O  26)                  0.9777         0.487187   
     56. A(C   1,O   0,H  27)          105.3296         0.348858   
     57. A(O   0,C   1,C   3)          110.1012         0.374818   
     58. A(C   3,C   1,C  24)          111.1767         0.362479   
     59. A(O   0,C   1,H   2)          105.5759         0.333113   
     60. A(H   2,C   1,C   3)          110.6185         0.322420   
     61. A(O   0,C   1,C  24)          108.8572         0.375006   
     62. A(H   2,C   1,C  24)          110.3486         0.322574   
     63. A(C   1,C   3,C   5)          108.6268         0.361134   
     64. A(C   1,C   3,H   4)          107.6705         0.322087   
     65. A(C   5,C   3,O  18)          113.6222         0.375194   
     66. A(H   4,C   3,C   5)          110.7316         0.321094   
     67. A(C   1,C   3,O  18)          107.6638         0.376418   
     68. A(H   4,C   3,O  18)          108.3205         0.334130   
     69. A(C   7,C   5,O  19)          109.3160         0.376788   
     70. A(H   6,C   5,O  19)          109.7851         0.334925   
     71. A(C   3,C   5,C   7)          108.8857         0.360629   
     72. A(H   6,C   5,C   7)          108.0859         0.321677   
     73. A(C   3,C   5,O  19)          110.5779         0.376094   
     74. A(C   3,C   5,H   6)          110.1412         0.321117   
     75. A(O   8,C   7,H  29)          109.9240         0.335699   
     76. A(O   8,C   7,H  28)          107.4568         0.335896   
     77. A(C   5,C   7,H  28)          109.0819         0.322116   
     78. A(H  28,C   7,H  29)          105.3125         0.288422   
     79. A(C   5,C   7,O   8)          113.7350         0.377381   
     80. A(C   5,C   7,H  29)          110.9235         0.321930   
     81. A(C   7,O   8,Si  9)          119.4283         0.471275   
     82. A(O   8,Si  9,C  10)          107.9354         0.450972   
     83. A(O   8,Si  9,O  18)          106.7948         0.564879   
     84. A(O   8,Si  9,C  14)          111.4817         0.460080   
     85. A(C  10,Si  9,C  14)          112.8634         0.369737   
     86. A(C  10,Si  9,O  18)          107.4335         0.449022   
     87. A(C  14,Si  9,O  18)          110.0644         0.458081   
     88. A(C  11,C  10,C  12)          110.4667         0.358662   
     89. A(Si  9,C  10,C  12)          110.4409         0.360384   
     90. A(Si  9,C  10,C  11)          111.0201         0.361109   
     91. A(C  12,C  10,C  13)          108.4733         0.356109   
     92. A(C  11,C  10,C  13)          108.7794         0.356823   
     93. A(Si  9,C  10,C  13)          107.5640         0.358533   
     94. A(H  30,C  11,H  31)          107.9268         0.289250   
     95. A(C  10,C  11,H  31)          111.6106         0.321469   
     96. A(C  10,C  11,H  30)          111.8239         0.321909   
     97. A(H  31,C  11,H  32)          107.5472         0.288810   
     98. A(C  10,C  11,H  32)          110.7535         0.321397   
     99. A(H  30,C  11,H  32)          106.9559         0.289188   
    100. A(H  34,C  12,H  35)          107.4595         0.288784   
    101. A(H  33,C  12,H  35)          107.5861         0.289346   
    102. A(C  10,C  12,H  35)          111.5731         0.320823   
    103. A(H  33,C  12,H  34)          107.1030         0.289303   
    104. A(C  10,C  12,H  34)          110.6818         0.320773   
    105. A(C  10,C  12,H  33)          112.1986         0.321426   
    106. A(H  37,C  13,H  38)          107.5304         0.288750   
    107. A(C  10,C  13,H  37)          111.5649         0.319183   
    108. A(C  10,C  13,H  38)          110.8367         0.319212   
    109. A(H  36,C  13,H  38)          107.4338         0.288766   
    110. A(H  36,C  13,H  37)          107.6930         0.288741   
    111. A(C  10,C  13,H  36)          111.5795         0.319201   
    112. A(C  16,C  14,C  17)          109.6535         0.357651   
    113. A(C  15,C  14,C  17)          108.1558         0.355895   
    114. A(C  15,C  14,C  16)          107.9691         0.356867   
    115. A(Si  9,C  14,C  17)          110.0703         0.366556   
    116. A(Si  9,C  14,C  15)          109.3611         0.365746   
    117. A(Si  9,C  14,C  16)          111.5451         0.367568   
    118. A(H  39,C  15,H  41)          107.2382         0.288776   
    119. A(C  14,C  15,H  41)          110.8743         0.319517   
    120. A(H  39,C  15,H  40)          107.9481         0.289010   
    121. A(C  14,C  15,H  40)          111.8343         0.319786   
    122. A(C  14,C  15,H  39)          111.5058         0.319627   
    123. A(H  40,C  15,H  41)          107.2166         0.288914   
    124. A(C  14,C  16,H  44)          111.8404         0.321594   
    125. A(H  42,C  16,H  44)          108.1167         0.289254   
    126. A(H  42,C  16,H  43)          107.4713         0.288766   
    127. A(C  14,C  16,H  43)          110.8459         0.321028   
    128. A(C  14,C  16,H  42)          111.6079         0.321141   
    129. A(H  43,C  16,H  44)          106.7250         0.289157   
    130. A(C  14,C  17,H  47)          110.8094         0.320221   
    131. A(H  46,C  17,H  47)          107.2348         0.289146   
    132. A(H  45,C  17,H  47)          107.4135         0.288729   
    133. A(H  45,C  17,H  46)          107.5567         0.289145   
    134. A(C  14,C  17,H  46)          112.0686         0.320702   
    135. A(C  14,C  17,H  45)          111.5247         0.320219   
    136. A(C   3,O  18,Si  9)          118.2756         0.467243   
    137. A(C   5,O  19,C  20)          112.2978         0.391631   
    138. A(O  22,C  20,C  24)          114.1816         0.373144   
    139. A(H  21,C  20,C  24)          108.7713         0.319478   
    140. A(O  19,C  20,C  24)          111.1064         0.372213   
    141. A(H  21,C  20,O  22)          104.5084         0.334837   
    142. A(O  19,C  20,O  22)          109.7600         0.391086   
    143. A(O  19,C  20,H  21)          108.1489         0.334032   
    144. A(C  20,O  22,C  23)          114.8587         0.395298   
    145. A(O  22,C  23,H  50)          111.5994         0.338169   
    146. A(H  49,C  23,H  50)          110.3889         0.289670   
    147. A(H  48,C  23,H  50)          108.2182         0.289571   
    148. A(H  48,C  23,H  49)          107.6862         0.289677   
    149. A(O  22,C  23,H  49)          110.7720         0.338300   
    150. A(O  22,C  23,H  48)          108.0307         0.338177   
    151. A(H  25,C  24,O  26)          106.6130         0.334400   
    152. A(C  20,C  24,O  26)          112.0991         0.372282   
    153. A(C   1,C  24,O  26)          108.6634         0.376120   
    154. A(C  20,C  24,H  25)          110.7705         0.319768   
    155. A(C   1,C  24,H  25)          108.9341         0.322895   
    156. A(C   1,C  24,C  20)          109.6598         0.359001   
    157. A(C  24,O  26,H  51)          105.2892         0.349965   
    158. D(C  24,C   1,O   0,H  27)    171.7124         0.018731   
    159. D(C   3,C   1,O   0,H  27)     49.6063         0.018731   
    160. D(H   2,C   1,O   0,H  27)    -69.8195         0.018731   
    161. D(C   5,C   3,C   1,H   2)    -68.7761         0.010967   
    162. D(H   4,C   3,C   1,C  24)    -65.7691         0.010967   
    163. D(C   5,C   3,C   1,O   0)    174.9159         0.010967   
    164. D(C   5,C   3,C   1,C  24)     54.1935         0.010967   
    165. D(H   4,C   3,C   1,H   2)    171.2613         0.010967   
    166. D(H   4,C   3,C   1,O   0)     54.9533         0.010967   
    167. D(C   7,C   5,C   3,H   4)    -60.6152         0.010586   
    168. D(H   6,C   5,C   3,O  18)    -56.8053         0.010586   
    169. D(C   7,C   5,C   3,C   1)   -178.6543         0.010586   
    170. D(H   6,C   5,C   3,H   4)   -178.9711         0.010586   
    171. D(C   7,C   5,C   3,O  18)     61.5506         0.010586   
    172. D(H   6,C   5,C   3,C   1)     62.9898         0.010586   
    173. D(H  28,C   7,C   5,H   6)    -60.5862         0.010799   
    174. D(H  28,C   7,C   5,O  19)     58.8725         0.010799   
    175. D(H  28,C   7,C   5,C   3)    179.7727         0.010799   
    176. D(O   8,C   7,C   5,O  19)    178.7972         0.010799   
    177. D(O   8,C   7,C   5,H   6)     59.3385         0.010799   
    178. D(O   8,C   7,C   5,C   3)    -60.3025         0.010799   
    179. D(Si  9,O   8,C   7,H  28)    167.5479         0.019048   
    180. D(Si  9,O   8,C   7,H  29)    -78.3449         0.019048   
    181. D(Si  9,O   8,C   7,C   5)     46.7080         0.019048   
    182. D(O  18,Si  9,O   8,C   7)    -28.9201         0.010000   
    183. D(C  14,Si  9,O   8,C   7)     91.3377         0.010000   
    184. D(C  10,Si  9,O   8,C   7)   -144.1735         0.010000   
    185. D(C  12,C  10,Si  9,O   8)    -49.5604         0.010000   
    186. D(C  11,C  10,Si  9,O  18)     72.7202         0.010000   
    187. D(C  11,C  10,Si  9,C  14)    -48.7911         0.010000   
    188. D(C  11,C  10,Si  9,O   8)   -172.4473         0.010000   
    189. D(C  12,C  10,Si  9,O  18)   -164.3929         0.010000   
    190. D(C  12,C  10,Si  9,C  14)     74.0959         0.010000   
    191. D(H  31,C  11,C  10,C  12)   -177.3508         0.010491   
    192. D(H  31,C  11,C  10,Si  9)    -54.4788         0.010491   
    193. D(H  30,C  11,C  10,C  13)   -175.2911         0.010491   
    194. D(H  30,C  11,C  10,C  12)    -56.3353         0.010491   
    195. D(H  31,C  11,C  10,C  13)     63.6933         0.010491   
    196. D(H  30,C  11,C  10,Si  9)     66.5368         0.010491   
    197. D(H  34,C  12,C  10,C  13)     58.6960         0.010264   
    198. D(H  34,C  12,C  10,C  11)    -60.4456         0.010264   
    199. D(H  34,C  12,C  10,Si  9)    176.3454         0.010264   
    200. D(H  33,C  12,C  10,C  13)    178.2708         0.010264   
    201. D(H  33,C  12,C  10,C  11)     59.1292         0.010264   
    202. D(H  33,C  12,C  10,Si  9)    -64.0799         0.010264   
    203. D(H  37,C  13,C  10,C  12)     60.3948         0.010000   
    204. D(H  37,C  13,C  10,C  11)   -179.4075         0.010000   
    205. D(H  37,C  13,C  10,Si  9)    -59.0750         0.010000   
    206. D(H  36,C  13,C  10,C  12)   -179.0919         0.010000   
    207. D(H  36,C  13,C  10,C  11)    -58.8942         0.010000   
    208. D(H  36,C  13,C  10,Si  9)     61.4383         0.010000   
    209. D(C  16,C  14,Si  9,O  18)   -163.8691         0.010000   
    210. D(C  16,C  14,Si  9,C  10)    -43.8583         0.010000   
    211. D(C  16,C  14,Si  9,O   8)     77.8161         0.010000   
    212. D(C  15,C  14,Si  9,O  18)     76.7708         0.010000   
    213. D(C  15,C  14,Si  9,C  10)   -163.2185         0.010000   
    214. D(C  15,C  14,Si  9,O   8)    -41.5441         0.010000   
    215. D(H  40,C  15,C  14,C  16)    179.3652         0.010000   
    216. D(H  40,C  15,C  14,Si  9)    -59.0896         0.010000   
    217. D(H  39,C  15,C  14,C  17)   -178.2433         0.010000   
    218. D(H  39,C  15,C  14,C  16)    -59.6586         0.010000   
    219. D(H  40,C  15,C  14,C  17)     60.7804         0.010000   
    220. D(H  39,C  15,C  14,Si  9)     61.8866         0.010000   
    221. D(H  43,C  16,C  14,C  17)     63.4534         0.010372   
    222. D(H  43,C  16,C  14,C  15)    -54.1710         0.010372   
    223. D(H  43,C  16,C  14,Si  9)   -174.3532         0.010372   
    224. D(H  42,C  16,C  14,C  17)   -176.7869         0.010372   
    225. D(H  42,C  16,C  14,C  15)     65.5887         0.010372   
    226. D(H  42,C  16,C  14,Si  9)    -54.5935         0.010372   
    227. D(H  46,C  17,C  14,C  16)     61.1852         0.010068   
    228. D(H  46,C  17,C  14,C  15)    178.6930         0.010068   
    229. D(H  46,C  17,C  14,Si  9)    -61.8835         0.010068   
    230. D(H  45,C  17,C  14,C  16)   -178.1642         0.010068   
    231. D(H  45,C  17,C  14,C  15)    -60.6565         0.010068   
    232. D(H  45,C  17,C  14,Si  9)     58.7670         0.010068   
    233. D(C   3,O  18,Si  9,C  14)    -91.4816         0.010000   
    234. D(C   3,O  18,Si  9,C  10)    145.2714         0.010000   
    235. D(C   3,O  18,Si  9,O   8)     29.6813         0.010000   
    236. D(Si  9,O  18,C   3,C   5)    -48.5504         0.019703   
    237. D(Si  9,O  18,C   3,H   4)     74.9408         0.019703   
    238. D(Si  9,O  18,C   3,C   1)   -168.8907         0.019703   
    239. D(C  20,O  19,C   5,C   7)   -177.2309         0.018695   
    240. D(C  20,O  19,C   5,H   6)    -58.8269         0.018695   
    241. D(C  20,O  19,C   5,C   3)     62.9041         0.018695   
    242. D(C  24,C  20,O  19,C   5)    -60.4558         0.017857   
    243. D(O  22,C  20,O  19,C   5)    172.2993         0.017857   
    244. D(H  21,C  20,O  19,C   5)     58.8531         0.017857   
    245. D(C  23,O  22,C  20,C  24)    -60.1484         0.018393   
    246. D(C  23,O  22,C  20,H  21)   -178.8704         0.018393   
    247. D(C  23,O  22,C  20,O  19)     65.3545         0.018393   
    248. D(H  50,C  23,O  22,C  20)    -51.0174         0.020247   
    249. D(H  49,C  23,O  22,C  20)     72.4131         0.020247   
    250. D(H  48,C  23,O  22,C  20)   -169.8654         0.020247   
    251. D(H  25,C  24,C  20,O  22)     58.6849         0.010000   
    252. D(H  25,C  24,C  20,H  21)    174.9586         0.010000   
    253. D(C   1,C  24,C  20,O  22)    178.9510         0.010000   
    254. D(C   1,C  24,C  20,H  21)    -64.7754         0.010000   
    255. D(C   1,C  24,C  20,O  19)     54.1607         0.010000   
    256. D(H  25,C  24,C   1,C   3)     69.1373         0.011027   
    257. D(H  25,C  24,C   1,H   2)   -167.7381         0.011027   
    258. D(H  25,C  24,C   1,O   0)    -52.3150         0.011027   
    259. D(H  25,C  24,C  20,O  19)    -66.1054         0.010000   
    260. D(C  20,C  24,C   1,C   3)    -52.2401         0.011027   
    261. D(C  20,C  24,C   1,H   2)     70.8844         0.011027   
    262. D(C  20,C  24,C   1,O   0)   -173.6924         0.011027   
    263. D(H  51,O  26,C  24,H  25)     67.6426         0.017896   
    264. D(H  51,O  26,C  24,C  20)   -170.9874         0.017896   
    265. D(H  51,O  26,C  24,C   1)    -49.6275         0.017896   
    -----------------------------------------------------------------

Number of atoms                         .... 52
Number of degrees of freedom            .... 265


         *************************************************************
         *                GEOMETRY OPTIMIZATION CYCLE   1            *
         *************************************************************
---------------------------------
CARTESIAN COORDINATES (ANGSTROEM)
---------------------------------
  O    -3.597870    1.992140   -0.156170
  C    -2.177380    1.816030   -0.012990
  H    -2.017400    1.556540    1.041250
  C    -1.692140    0.685590   -0.926570
  H    -2.015490    0.921790   -1.950180
  C    -0.158730    0.611210   -0.843720
  H     0.153100    0.356660    0.178940
  C     0.336240   -0.497180   -1.782500
  O    -0.170930   -1.790140   -1.461270
  Si   -1.804490   -1.977980   -1.145730
  C    -2.004870   -3.393640    0.320220
  C    -3.483890   -3.759440    0.535800
  C    -1.183910   -4.651130   -0.029670
  C    -1.443540   -2.790170    1.633180
  C    -2.833140   -2.433090   -2.820990
  C    -2.309050   -1.570780   -3.995330
  C    -2.660970   -3.914780   -3.205570
  C    -4.332680   -2.118210   -2.624330
  O    -2.348070   -0.518360   -0.513910
  O     0.425810    1.854950   -1.231850
  C     0.054930    2.927600   -0.355160
  H     0.380340    2.667420    0.659960
  O     0.804870    4.100650   -0.682200
  C     0.530490    4.645890   -1.961520
  C    -1.478540    3.136920   -0.348290
  H    -1.827550    3.485440   -1.326790
  O    -1.883690    4.125910    0.607550
  H    -3.980030    1.096390   -0.064610
  H     1.430410   -0.550320   -1.728960
  H     0.108600   -0.255400   -2.828790
  H    -3.908430   -4.266460   -0.335230
  H    -4.093560   -2.871950    0.739870
  H    -3.595490   -4.440150    1.387840
  H    -1.549500   -5.144600   -0.933700
  H    -1.236090   -5.385890    0.782270
  H    -0.126380   -4.410770   -0.188200
  H    -2.003260   -1.898470    1.938670
  H    -0.390950   -2.502630    1.526780
  H    -1.506640   -3.514560    2.453480
  H    -1.252520   -1.774570   -4.203150
  H    -2.412490   -0.499740   -3.792020
  H    -2.867700   -1.782000   -4.914860
  H    -1.603560   -4.187520   -3.297900
  H    -3.140790   -4.126250   -4.168570
  H    -3.121340   -4.581800   -2.471380
  H    -4.493220   -1.061390   -2.380840
  H    -4.775500   -2.713020   -1.820250
  H    -4.899060   -2.334130   -3.537840
  H     1.280030    5.414780   -2.169690
  H    -0.451210    5.126620   -1.975650
  H     0.593780    3.885540   -2.745280
  H    -2.859640    4.073710    0.634630

----------------------------
CARTESIAN COORDINATES (A.U.)
----------------------------
  NO LB    ZA    FRAG    MASS        X           Y           Z
   0 O   8.0000    1    15.999   -6.798989    3.764599   -0.295119
   1 C   6.0000    1    12.011   -4.114652    3.431799   -0.024548
   2 H   1.0000    1     1.008   -3.812334    2.941434    1.967677
   3 C   6.0000    1    12.011   -3.197681    1.295577   -1.750964
   4 H   1.0000    1     1.008   -3.808724    1.741931   -3.685306
   5 C   6.0000    1    12.011   -0.299956    1.155020   -1.594400
   6 H   1.0000    1     1.008    0.289317    0.673990    0.338148
   7 C   6.0000    1    12.011    0.635402   -0.939534   -3.368437
   8 O   8.0000    1    15.999   -0.323011   -3.382874   -2.761400
   9 Si 14.0000    1    28.086   -3.409992   -3.737840   -2.165116
  10 C   6.0000    1    12.011   -3.788655   -6.413050    0.605128
  11 C   6.0000    1    12.011   -6.583598   -7.104312    1.012515
  12 C   6.0000    1    12.011   -2.237266   -8.789362   -0.056068
  13 C   6.0000    1    12.011   -2.727895   -5.272657    3.086263
  14 C   6.0000    1    12.011   -5.353859   -4.597874   -5.330899
  15 C   6.0000    1    12.011   -4.363472   -2.968344   -7.550080
  16 C   6.0000    1    12.011   -5.028505   -7.397862   -6.057649
  17 C   6.0000    1    12.011   -8.187579   -4.002837   -4.959265
  18 O   8.0000    1    15.999   -4.437209   -0.979558   -0.971149
  19 O   8.0000    1    15.999    0.804664    3.505347   -2.327859
  20 C   6.0000    1    12.011    0.103803    5.532362   -0.671155
  21 H   1.0000    1     1.008    0.718738    5.040693    1.247144
  22 O   8.0000    1    15.999    1.520984    7.749105   -1.289171
  23 C   6.0000    1    12.011    1.002481    8.779460   -3.706736
  24 C   6.0000    1    12.011   -2.794036    5.927920   -0.658173
  25 H   1.0000    1     1.008   -3.453569    6.586527   -2.507270
  26 O   8.0000    1    15.999   -3.559658    7.796840    1.148103
  27 H   1.0000    1     1.008   -7.521167    2.071877   -0.122095
  28 H   1.0000    1     1.008    2.703083   -1.039954   -3.267261
  29 H   1.0000    1     1.008    0.205224   -0.482636   -5.345638
  30 H   1.0000    1     1.008   -7.385862   -8.062441   -0.633493
  31 H   1.0000    1     1.008   -7.735707   -5.427199    1.398152
  32 H   1.0000    1     1.008   -6.794491   -8.390667    2.622638
  33 H   1.0000    1     1.008   -2.928131   -9.721885   -1.764437
  34 H   1.0000    1     1.008   -2.335872  -10.177857    1.478276
  35 H   1.0000    1     1.008   -0.238824   -8.335147   -0.355646
  36 H   1.0000    1     1.008   -3.785613   -3.587588    3.663555
  37 H   1.0000    1     1.008   -0.738788   -4.729285    2.885196
  38 H   1.0000    1     1.008   -2.847137   -6.641556    4.636405
  39 H   1.0000    1     1.008   -2.366920   -3.353451   -7.942802
  40 H   1.0000    1     1.008   -4.558945   -0.944372   -7.165879
  41 H   1.0000    1     1.008   -5.419168   -3.367492   -9.287739
  42 H   1.0000    1     1.008   -3.030289   -7.913266   -6.232128
  43 H   1.0000    1     1.008   -5.935233   -7.797482   -7.877456
  44 H   1.0000    1     1.008   -5.898478   -8.658347   -4.670231
  45 H   1.0000    1     1.008   -8.490955   -2.005736   -4.499136
  46 H   1.0000    1     1.008   -9.024387   -5.126865   -3.439774
  47 H   1.0000    1     1.008   -9.257882   -4.410866   -6.685549
  48 H   1.0000    1     1.008    2.418906   10.232451   -4.100120
  49 H   1.0000    1     1.008   -0.852663    9.687908   -3.733437
  50 H   1.0000    1     1.008    1.122082    7.342606   -5.187827
  51 H   1.0000    1     1.008   -5.403936    7.698196    1.199277

      -----------------------------------------------------------      
     |                   =====================                   |     
     |                           x T B                           |     
     |                   =====================                   |     
     |                         S. Grimme                         |     
     |          Mulliken Center for Theoretical Chemistry        |     
     |                    University of Bonn                     |     
      -----------------------------------------------------------      

   * xtb version 6.7.1 (edcfbbe) compiled by 'albert@albert-system' on 2024-07-22

   xtb is free software: you can redistribute it and/or modify it under
   the terms of the GNU Lesser General Public License as published by
   the Free Software Foundation, either version 3 of the License, or
   (at your option) any later version.
   
   xtb is distributed in the hope that it will be useful,
   but WITHOUT ANY WARRANTY; without even the implied warranty of
   MERCHANTABILITY or FITNESS FOR A PARTICULAR PURPOSE.  See the
   GNU Lesser General Public License for more details.
   
   Cite this work as:
   * C. Bannwarth, E. Caldeweyher, S. Ehlert, A. Hansen, P. Pracht,
     J. Seibert, S. Spicher, S. Grimme, WIREs Comput. Mol. Sci., 2020, 11,
     e01493. DOI: 10.1002/wcms.1493
   
   for GFN2-xTB:
   * C. Bannwarth, S. Ehlert and S. Grimme., J. Chem. Theory Comput., 2019,
     15, 1652-1671. DOI: 10.1021/acs.jctc.8b01176
   for GFN1-xTB:
   * S. Grimme, C. Bannwarth, P. Shushkov, J. Chem. Theory Comput., 2017,
     13, 1989-2009. DOI: 10.1021/acs.jctc.7b00118
   for GFN0-xTB:
   * P. Pracht, E. Caldeweyher, S. Ehlert, S. Grimme, ChemRxiv, 2019, preprint.
     DOI: 10.26434/chemrxiv.8326202.v1
   for GFN-FF:
   * S. Spicher and S. Grimme, Angew. Chem. Int. Ed., 2020, 59, 15665-15673.
     DOI: 10.1002/anie.202004239
   
   for ALPB and GBSA implicit solvation:
   * S. Ehlert, M. Stahn, S. Spicher, S. Grimme, J. Chem. Theory Comput.,
     2021, 17, 4250-4261. DOI: 10.1021/acs.jctc.1c00471
   
   for ddCOSMO and CPCM-X implicit solvation:
   * M. Stahn, S. Ehlert, S. Grimme, J. Phys. Chem. A,
     2023, XX, XXXX-XXXX. DOI: 10.1021/acs.jpca.3c04382
   
   for DFT-D4:
   * E. Caldeweyher, C. Bannwarth and S. Grimme, J. Chem. Phys., 2017,
     147, 034112. DOI: 10.1063/1.4993215
   * E. Caldeweyher, S. Ehlert, A. Hansen, H. Neugebauer, S. Spicher,
     C. Bannwarth and S. Grimme, J. Chem. Phys., 2019, 150, 154122.
     DOI: 10.1063/1.5090222
   * E. Caldeweyher, J.-M. Mewes, S. Ehlert and S. Grimme, Phys. Chem. Chem. Phys.
     2020, 22, 8499-8512. DOI: 10.1039/D0CP00502A
   
   for sTDA-xTB:
   * S. Grimme and C. Bannwarth, J. Chem. Phys., 2016, 145, 054103.
     DOI: 10.1063/1.4959605
   
   in the mass-spec context:
   * V. Asgeirsson, C. Bauer and S. Grimme, Chem. Sci., 2017, 8, 4879.
     DOI: 10.1039/c7sc00601b
   * J. Koopman and S. Grimme, ACS Omega 2019, 4, 12, 15120-15133.
     DOI: 10.1021/acsomega.9b02011
   
   for metadynamics refer to:
   * S. Grimme, J. Chem. Theory Comput., 2019, 155, 2847-2862
     DOI: 10.1021/acs.jctc.9b00143
   
   for SPH calculations refer to:
   * S. Spicher and S. Grimme, J. Chem. Theory Comput., 2021, 17, 1701-1714
     DOI: 10.1021/acs.jctc.0c01306
   
   for ONIOM refer to:
   * C. Plett, A. Katbashev, S. Ehlert, S. Grimme, M. Bursch,
     Phys. Chem. Chem. Phys., 2023, 25, 17860-17868. DOI: 10.1039/D3CP02178E
   
   for DIPRO refer to:
   * J. Kohn, N. Gildemeister, S. Grimme, D. Fazzi, A. Hansen,
     J. Chem. Phys., 2023, just accepted.
   
   for PTB refer to:
   * S. Grimme, M. Mueller, A. Hansen, J. Chem. Phys., 2023, 158, 124111.
     DOI: 10.1063/5.0137838
   
   with help from (in alphabetical order)
   P. Atkinson, C. Bannwarth, F. Bohle, G. Brandenburg, E. Caldeweyher
   M. Checinski, S. Dohm, S. Ehlert, S. Ehrlich, I. Gerasimov, C. Hölzer
   A. Katbashev, J. Kohn, J. Koopman, C. Lavigne, S. Lehtola, F. März, M. Müller,
   F. Musil, H. Neugebauer, J. Pisarek, C. Plett, P. Pracht, F. Pultar,
   J. Seibert, P. Shushkov, S. Spicher, M. Stahn, M. Steiner, T. Strunk,
   J. Stückrath, T. Rose, and J. Unsleber
   
 * started run on 2025/09/10 at 11:31:43.401     
   ID    Z sym.   atoms
    1    8 O      1, 9, 19, 20, 23, 27
    2    6 C      2, 4, 6, 8, 11-18, 21, 24, 25
    3    1 H      3, 5, 7, 22, 26, 28-52
    4   14 Si     10

           -------------------------------------------------
          |                Calculation Setup                |
           -------------------------------------------------

          program call               : /home/kmoult/orca_6_1/otool_xtb goat_0_XTB.xyz --grad -c 0 -u 0 -P 4 --namespace goat_0 --input goat_0_XTB.input.tmp --alpb ACETONE --acc 0.200000
          hostname                   : node3306
          calculation namespace      : goat_0
          coordinate file            : goat_0_XTB.xyz
          omp threads                :                     4


           -------------------------------------------------
          |                 G F N 2 - x T B                 |
           -------------------------------------------------

        Reference                      10.1021/acs.jctc.8b01176
      * Hamiltonian:
        H0-scaling (s, p, d)           1.850000    2.230000    2.230000
        zeta-weighting                 0.500000
      * Dispersion:
        s8                             2.700000
        a1                             0.520000
        a2                             5.000000
        s9                             5.000000
      * Repulsion:
        kExp                           1.500000    1.000000
        rExp                           1.000000
      * Coulomb:
        alpha                          2.000000
        third order                    shell-resolved
        anisotropic                    true
        a3                             3.000000
        a5                             4.000000
        cn-shift                       1.200000
        cn-exp                         4.000000
        max-rad                        5.000000

      * Solvation model:               ALPB
        Solvent                        ACETONE
        Parameter file                 internal GFN2-xTB/ALPB
        Dielectric constant                2.0700E+01
        Reference state                gsolv [1 M gas/solution]
        Free energy shift                  5.9241E-03 Eh       3.7175E+00 kcal/mol
        Temperature                        2.9815E+02 K
        Density                            7.9000E-01 kg/L
        Solvent mass                       5.8080E+01 g/mol
        Interaction kernel             P16
        Born radius scaling (c1)           1.8274E+00
        Born radii integrator          GBOBC
        Born offset                        0.0000E+00 a0       0.0000E+00 AA
        H-bond correction              true
        Ion screening                  false
        Surface tension                    1.0000E-05 Eh       1.5569E+01 dyn/cm
        Grid points                               230 per atom

          ...................................................
          :                      SETUP                      :
          :.................................................:
          :  # basis functions                 124          :
          :  # atomic orbitals                 123          :
          :  # shells                           75          :
          :  # electrons                       130          :
          :  max. iterations                   250          :
          :  Hamiltonian                  GFN2-xTB          :
          :  restarted?                      false          :
          :  GBSA solvation                   true          :
          :  PC potential                    false          :
          :  electronic temp.          300.0000000     K    :
          :  accuracy                    0.2000000          :
          :  -> integral cutoff          0.3198970E+02      :
          :  -> integral neglect         0.2000000E-08      :
          :  -> SCF convergence          0.2000000E-06 Eh   :
          :  -> wf. convergence          0.2000000E-04 e    :
          :  Broyden damping             0.4000000          :
          :  net charge                          0          :
          :  unpaired electrons                  0          :
          ...................................................

 iter      E             dE          RMSdq      gap      omega  full diag
   1    -74.1908562 -0.741909E+02  0.440E+00    6.11       0.0  T
   2    -74.3475557 -0.156700E+00  0.247E+00    4.97       1.0  T
   3    -74.3371214  0.104342E-01  0.126E+00    5.82       1.0  T
   4    -74.3517993 -0.146779E-01  0.690E-01    4.92       1.0  T
   5    -74.3654209 -0.136216E-01  0.332E-01    5.21       1.0  T
   6    -74.3658426 -0.421656E-03  0.156E-01    5.25       1.0  T
   7    -74.3659234 -0.808322E-04  0.761E-02    5.27       1.0  T
   8    -74.3659453 -0.219199E-04  0.253E-02    5.28       1.0  T
   9    -74.3659491 -0.378138E-05  0.148E-02    5.28       1.0  T
  10    -74.3659495 -0.420986E-06  0.728E-03    5.28       1.9  T
  11    -74.3659506 -0.105395E-05  0.275E-03    5.28       5.0  T
  12    -74.3659506 -0.629679E-07  0.111E-03    5.28      12.5  T
  13    -74.3659506  0.256296E-08  0.499E-04    5.28      27.8  T
  14    -74.3659506 -0.521996E-08  0.132E-04    5.28     104.8  T
  15    -74.3659506 -0.116145E-09  0.643E-05    5.28     215.7  T

   *** convergence criteria satisfied after 15 iterations ***

         #    Occupation            Energy/Eh            Energy/eV
      -------------------------------------------------------------
         1        2.0000           -0.8034064             -21.8618
       ...           ...                  ...                  ...
        59        2.0000           -0.4268828             -11.6161
        60        2.0000           -0.4266134             -11.6087
        61        2.0000           -0.4221381             -11.4870
        62        2.0000           -0.4210752             -11.4580
        63        2.0000           -0.4128293             -11.2337
        64        2.0000           -0.4105355             -11.1712
        65        2.0000           -0.3678045             -10.0085 (HOMO)
        66                         -0.1737120              -4.7269 (LUMO)
        67                         -0.1499124              -4.0793
        68                         -0.1239459              -3.3727
        69                         -0.0817751              -2.2252
        70                         -0.0340851              -0.9275
       ...                                ...                  ...
       123                          0.7235960              19.6900
      -------------------------------------------------------------
                  HL-Gap            0.1940925 Eh            5.2815 eV
             Fermi-level           -0.2707583 Eh           -7.3677 eV

 SCC (total)                   0 d,  0 h,  0 min,  0.064 sec
 SCC setup                      ...        0 min,  0.004 sec (  5.696%)
 Dispersion                     ...        0 min,  0.001 sec (  0.947%)
 classical contributions        ...        0 min,  0.000 sec (  0.068%)
 integral evaluation            ...        0 min,  0.017 sec ( 26.871%)
 iterations                     ...        0 min,  0.033 sec ( 51.097%)
 molecular gradient             ...        0 min,  0.009 sec ( 14.184%)
 printout                       ...        0 min,  0.001 sec (  1.106%)

         :::::::::::::::::::::::::::::::::::::::::::::::::::::
         ::                     SUMMARY                     ::
         :::::::::::::::::::::::::::::::::::::::::::::::::::::
         :: total energy             -73.671069943061 Eh    ::
         :: total w/o Gsasa/hb       -73.642005931451 Eh    ::
         :: gradient norm              0.075458987906 Eh/a0 ::
         :: HOMO-LUMO gap              5.281526906087 eV    ::
         ::.................................................::
         :: SCC energy               -74.364624089106 Eh    ::
         :: -> isotropic ES            0.157152151517 Eh    ::
         :: -> anisotropic ES          0.006315288467 Eh    ::
         :: -> anisotropic XC          0.008103366610 Eh    ::
         :: -> dispersion             -0.051910809178 Eh    ::
         :: -> Gsolv                  -0.032320054134 Eh    ::
         ::    -> Gelec               -0.003256042524 Eh    ::
         ::    -> Gsasa               -0.029529151621 Eh    ::
         ::    -> Ghb                 -0.005459001253 Eh    ::
         ::    -> Gshift               0.005924141264 Eh    ::
         :: repulsion energy           0.693554146045 Eh    ::
         :: add. restraining           0.000000000000 Eh    ::
         :: total charge               0.000000000000 e     ::
         :::::::::::::::::::::::::::::::::::::::::::::::::::::


Property printout bound to 'properties.out'

           -------------------------------------------------
          | TOTAL ENERGY              -73.671069943061 Eh   |
          | GRADIENT NORM               0.075458987906 Eh/α |
          | HOMO-LUMO GAP               5.281526906087 eV   |
           -------------------------------------------------

------------------------------------------------------------------------
 * finished run on 2025/09/10 at 11:31:43.526     
------------------------------------------------------------------------
 total:
 * wall-time:     0 d,  0 h,  0 min,  0.124 sec
 *  cpu-time:     0 d,  0 h,  0 min,  0.374 sec
 * ratio c/w:     3.004 speedup
 SCF:
 * wall-time:     0 d,  0 h,  0 min,  0.066 sec
 *  cpu-time:     0 d,  0 h,  0 min,  0.228 sec
 * ratio c/w:     3.442 speedup


-------------------------   --------------------
FINAL SINGLE POINT ENERGY       -73.671069943060
-------------------------   --------------------


-------------
DIPOLE MOMENT
-------------
                                X             Y             Z
Total Dipole Moment    :     -0.90200      -1.00000      -0.75000
                        -----------------------------------------
Magnitude (a.u.)       :      1.54146
Magnitude (Debye)      :      3.91808


------------------
CARTESIAN GRADIENT
------------------

   1   O   :   -0.010998821    0.008203257    0.001141174
   2   C   :    0.018085626    0.002878396    0.001399420
   3   H   :   -0.007458531    0.000753342   -0.000291213
   4   C   :    0.007067574    0.004537802   -0.010628887
   5   H   :   -0.004091350    0.000834947   -0.000404529
   6   C   :    0.002612331    0.001869316    0.009294078
   7   H   :    0.003067431   -0.000259634   -0.001334548
   8   C   :   -0.007875359    0.008280557    0.003293862
   9   O   :    0.011199445   -0.017020426   -0.000955121
  10   Si  :    0.007081785    0.020293591   -0.007135117
  11   C   :   -0.007483412   -0.019241063    0.009562649
  12   C   :   -0.000286491   -0.000097722    0.000364539
  13   C   :    0.000149956   -0.000571584    0.000078679
  14   C   :    0.000640346   -0.000175274    0.000437337
  15   C   :   -0.006168929   -0.006849499   -0.008103721
  16   C   :   -0.000942665    0.000216670    0.000868940
  17   C   :    0.000382955    0.001444551    0.001018269
  18   C   :    0.001652305   -0.000123235    0.000418695
  19   O   :   -0.015792946   -0.001807290    0.011137162
  20   O   :    0.011288621    0.000538823   -0.005276034
  21   C   :   -0.010438815   -0.015136170    0.005582549
  22   H   :   -0.000181810   -0.002654211   -0.002741533
  23   O   :    0.012617751    0.025063150   -0.002362439
  24   C   :    0.000079424   -0.003826498    0.004992076
  25   C   :    0.009709479   -0.008438461   -0.008920967
  26   H   :   -0.002387016    0.004236885    0.004428632
  27   O   :   -0.003146608    0.011316261    0.008077054
  28   H   :   -0.002197117   -0.009710339    0.001148304
  29   H   :    0.001004090    0.002058192   -0.003586774
  30   H   :    0.004897353   -0.001360464   -0.003463110
  31   H   :   -0.003712126   -0.002562918   -0.002505095
  32   H   :   -0.005302777    0.003629436    0.001407459
  33   H   :   -0.002686890   -0.002520575    0.002452825
  34   H   :   -0.000202758   -0.004249184   -0.003732581
  35   H   :    0.001167064   -0.004063217    0.001288335
  36   H   :    0.006581872   -0.001571207   -0.000778114
  37   H   :   -0.001482488    0.004842466    0.003786317
  38   H   :    0.005387587    0.002431544    0.001869788
  39   H   :    0.000413684   -0.001114022    0.004171301
  40   H   :    0.004670228    0.000522954   -0.002691408
  41   H   :    0.000455294    0.004412253   -0.000797562
  42   H   :   -0.000766801    0.000497514   -0.004455065
  43   H   :    0.004996239   -0.003463466   -0.001432522
  44   H   :   -0.001228085   -0.003227286   -0.003063715
  45   H   :   -0.002047440   -0.004795550    0.001530253
  46   H   :   -0.003173286    0.005454320    0.001217054
  47   H   :   -0.004476140   -0.002236211    0.003235710
  48   H   :   -0.003994885   -0.000328391   -0.002160464
  49   H   :   -0.000454839    0.003319679   -0.005296106
  50   H   :    0.000885377    0.000427121    0.000750107
  51   H   :    0.001038079    0.000672687   -0.001924272
  52   H   :   -0.008153511   -0.001331816   -0.000911669

Difference to translation invariance:
           :    0.0000000000    0.0000000000    0.0000000000

Difference to rotation invariance:
           :    0.0006527741    0.0001640005   -0.0001651138

Norm of the Cartesian gradient     ...    0.0754589879
RMS gradient                       ...    0.0060415542
MAX gradient                       ...    0.0250631499
------------------------------------------------------------------------------
                         ORCA GEOMETRY RELAXATION STEP
------------------------------------------------------------------------------

Reading the OPT-File                    .... done
Getting information on internals        .... done
Copying old internal coords+grads       .... done
Making the new internal coordinates     .... (2022 redundants) done
Validating the new internal coordinates .... (2022 redundants) done
Calculating the B-matrix                .... done
Calculating the G,G- and P matrices     .... done
Transforming gradient to internals      .... done
Projecting the internal gradient        .... done
Number of atoms                         ....  52
Number of internal coordinates          .... 265
Current Energy                          ....   -73.671069943 Eh
Current gradient norm                   ....     0.075458988 Eh/bohr
Maximum allowed component of the step   ....  0.300
Current trust radius                    ....  0.300
Evaluating the initial hessian          ....  (Almloef) done
Projecting the Hessian                  .... done
Forming the augmented Hessian           .... done
Diagonalizing the augmented Hessian     .... done
Last element of RFO vector              ....  0.966121443
Lowest eigenvalues of augmented Hessian:
 -0.019626399  0.010000000  0.010000000  0.010000000  0.010018010
Length of the computed step             ....  0.267138142
The final length of the internal step   ....  0.267138142
Converting the step to Cartesian space:
 Initial RMS(Int)=    0.0164101656
Transforming coordinates:
 Iter   0:  RMS(Cart)=    0.0921280411 RMS(Int)=    0.0162946039
 Iter   5:  RMS(Cart)=    0.0000000091 RMS(Int)=    0.0000000064
done
Storing new coordinates                 .... done

                                .--------------------.
          ----------------------|Geometry convergence|-------------------------
          Item                value                   Tolerance       Converged
          ---------------------------------------------------------------------
          RMS gradient        0.0051471797            0.0001000000      NO
          MAX gradient        0.0313143217            0.0003000000      NO
          RMS step            0.0164101656            0.0020000000      NO
          MAX step            0.1195102802            0.0040000000      NO
          -------------------------------------------------------------------------
          ........................................................
          Max(Bonds)      0.0632      Max(Angles)    2.20
          Max(Dihed)        2.62      Max(Improp)    0.00
          ---------------------------------------------------------------------

    ---------------------------------------------------------------------------
                         Redundant Internal Coordinates
                            (Angstroem and degrees)

        Definition                    Value    dE/dq     Step     New-Value
    ----------------------------------------------------------------------------
     1. B(C   1,O   0)                1.4385  0.014716 -0.0149    1.4236   
     2. B(H   2,C   1)                1.0974 -0.001547  0.0022    1.0996   
     3. B(C   3,C   1)                1.5323  0.006398 -0.0057    1.5266   
     4. B(H   4,C   3)                1.0991  0.001761 -0.0025    1.0966   
     5. B(C   5,C   3)                1.5374  0.007789 -0.0112    1.5263   
     6. B(H   6,C   5)                1.0990 -0.000311  0.0004    1.0995   
     7. B(C   7,C   5)                1.5345  0.006124 -0.0092    1.5253   
     8. B(O   8,C   7)                1.4255  0.017923 -0.0186    1.4069   
     9. B(Si  9,O   8)                1.6743  0.014586 -0.0085    1.6658   
    10. B(C  10,Si  9)                2.0477  0.031314 -0.0632    1.9845   
    11. B(C  11,C  10)                1.5388  0.012134 -0.0168    1.5219   
    12. B(C  12,C  10)                1.5420  0.013332 -0.0187    1.5233   
    13. B(C  13,C  10)                1.5502  0.012825 -0.0185    1.5317   
    14. B(C  14,Si  9)                2.0179  0.019295 -0.0352    1.9827   
    15. B(C  15,C  14)                1.5483  0.009666 -0.0139    1.5345   
    16. B(C  16,C  14)                1.5404  0.010385 -0.0145    1.5259   
    17. B(C  17,C  14)                1.5448  0.010603 -0.0150    1.5298   
    18. B(O  18,Si  9)                1.6808  0.014239 -0.0084    1.6724   
    19. B(O  18,C   3)                1.4318  0.019317 -0.0203    1.4115   
    20. B(O  19,C   5)                1.4280  0.013357 -0.0152    1.4128   
    21. B(C  20,O  19)                1.4341  0.010943 -0.0132    1.4209   
    22. B(H  21,C  20)                1.0973 -0.001962  0.0028    1.1001   
    23. B(O  22,C  20)                1.4302  0.029351 -0.0309    1.3993   
    24. B(C  23,O  22)                1.4175  0.001270 -0.0013    1.4162   
    25. B(C  24,C  20)                1.5477  0.007996 -0.0120    1.5357   
    26. B(C  24,C   1)                1.5315  0.006153 -0.0056    1.5260   
    27. B(H  25,C  24)                1.0958 -0.001844  0.0026    1.0984   
    28. B(O  26,C  24)                1.4338  0.016331 -0.0166    1.4173   
    29. B(H  27,O   0)                0.9782  0.009120 -0.0099    0.9683   
    30. B(H  27,O  18)                2.3394 -0.002162  0.0223    2.3616   
    31. B(H  28,C   7)                1.0968  0.000727 -0.0010    1.0957   
    32. B(H  29,C   7)                1.0977  0.001985 -0.0028    1.0949   
    33. B(H  30,C  11)                1.0936  0.004623 -0.0065    1.0871   
    34. B(H  31,C  11)                1.0959  0.006152 -0.0088    1.0871   
    35. B(H  32,C  11)                1.0963  0.003745 -0.0053    1.0909   
    36. B(H  33,C  12)                1.0929  0.005071 -0.0071    1.0858   
    37. B(H  34,C  12)                1.0963  0.003623 -0.0052    1.0911   
    38. B(H  35,C  12)                1.0960  0.006118 -0.0087    1.0873   
    39. B(H  36,C  13)                1.0962  0.005753 -0.0082    1.0880   
    40. B(H  37,C  13)                1.0963  0.005628 -0.0080    1.0883   
    41. B(H  38,C  13)                1.0962  0.003834 -0.0055    1.0907   
    42. B(H  39,C  15)                1.0959  0.004917 -0.0070    1.0889   
    43. B(H  40,C  15)                1.0951  0.004122 -0.0058    1.0892   
    44. B(H  41,C  15)                1.0965  0.004030 -0.0057    1.0907   
    45. B(H  42,C  16)                1.0959  0.005805 -0.0083    1.0877   
    46. B(H  43,C  16)                1.0965  0.003849 -0.0055    1.0910   
    47. B(H  44,C  16)                1.0936  0.004816 -0.0068    1.0868   
    48. B(H  45,C  17)                1.0963  0.005991 -0.0085    1.0878   
    49. B(H  46,C  17)                1.0938  0.005407 -0.0076    1.0862   
    50. B(H  47,C  17)                1.0963  0.003929 -0.0056    1.0907   
    51. B(H  48,C  23)                1.0938  0.003030 -0.0043    1.0895   
    52. B(H  49,C  23)                1.0932 -0.000617  0.0009    1.0940   
    53. B(H  50,C  23)                1.0938  0.000973 -0.0014    1.0924   
    54. B(H  51,O   0)                2.3459 -0.001975  0.0162    2.3621   
    55. B(H  51,O  26)                0.9777  0.007490 -0.0082    0.9695   
    56. A(C   1,O   0,H  27)          105.33  0.000167    0.20    105.53   
    57. A(O   0,C   1,C   3)          110.10 -0.002289    0.38    110.49   
    58. A(C   3,C   1,C  24)          111.18  0.003069   -0.52    110.66   
    59. A(O   0,C   1,H   2)          105.58 -0.003990    1.68    107.25   
    60. A(H   2,C   1,C   3)          110.62  0.000613   -0.36    110.26   
    61. A(O   0,C   1,C  24)          108.86  0.002590   -0.73    108.13   
    62. A(H   2,C   1,C  24)          110.35 -0.000337   -0.35    110.00   
    63. A(C   1,C   3,C   5)          108.63 -0.001858    0.36    108.99   
    64. A(C   1,C   3,H   4)          107.67 -0.000924    0.60    108.27   
    65. A(C   5,C   3,O  18)          113.62  0.004752   -0.92    112.70   
    66. A(H   4,C   3,C   5)          110.73  0.002110   -0.61    110.13   
    67. A(C   1,C   3,O  18)          107.66 -0.000654    0.07    107.74   
    68. A(H   4,C   3,O  18)          108.32 -0.003753    0.59    108.91   
    69. A(C   7,C   5,O  19)          109.32  0.003631   -0.85    108.47   
    70. A(H   6,C   5,O  19)          109.79 -0.001331    0.26    110.05   
    71. A(C   3,C   5,C   7)          108.89 -0.005730    1.14    110.03   
    72. A(H   6,C   5,C   7)          108.09 -0.000812    0.47    108.56   
    73. A(C   3,C   5,O  19)          110.58  0.000857   -0.40    110.18   
    74. A(C   3,C   5,H   6)          110.14  0.003327   -0.61    109.53   
    75. A(O   8,C   7,H  29)          109.92 -0.000138    0.07    110.00   
    76. A(O   8,C   7,H  28)          107.46 -0.000694   -0.03    107.43   
    77. A(C   5,C   7,H  28)          109.08 -0.003789    0.55    109.63   
    78. A(H  28,C   7,H  29)          105.31 -0.005951    1.72    107.03   
    79. A(C   5,C   7,O   8)          113.74  0.007568   -1.42    112.31   
    80. A(C   5,C   7,H  29)          110.92  0.001796   -0.61    110.31   
    81. A(C   7,O   8,Si  9)          119.43 -0.003327    0.71    120.14   
    82. A(O   8,Si  9,C  10)          107.94  0.004495   -0.93    107.00   
    83. A(O   8,Si  9,O  18)          106.79 -0.001967    0.06    106.85   
    84. A(O   8,Si  9,C  14)          111.48  0.001903   -0.31    111.18   
    85. A(C  10,Si  9,C  14)          112.86 -0.009927    2.20    115.06   
    86. A(C  10,Si  9,O  18)          107.43  0.003315   -0.69    106.75   
    87. A(C  14,Si  9,O  18)          110.06  0.002643   -0.46    109.61   
    88. A(C  11,C  10,C  12)          110.47  0.000540   -0.26    110.20   
    89. A(Si  9,C  10,C  12)          110.44  0.000460   -0.13    110.31   
    90. A(Si  9,C  10,C  11)          111.02 -0.000719    0.22    111.24   
    91. A(C  12,C  10,C  13)          108.47 -0.000122   -0.03    108.45   
    92. A(C  11,C  10,C  13)          108.78  0.000239   -0.02    108.76   
    93. A(Si  9,C  10,C  13)          107.56 -0.000415    0.23    107.79   
    94. A(H  30,C  11,H  31)          107.93 -0.002311    0.38    108.31   
    95. A(C  10,C  11,H  31)          111.61  0.002400   -0.43    111.18   
    96. A(C  10,C  11,H  30)          111.82  0.002039   -0.37    111.45   
    97. A(H  31,C  11,H  32)          107.55 -0.002204    0.40    107.95   
    98. A(C  10,C  11,H  32)          110.75  0.002280   -0.39    110.36   
    99. A(H  30,C  11,H  32)          106.96 -0.002667    0.49    107.44   
   100. A(H  34,C  12,H  35)          107.46 -0.003541    0.60    108.06   
   101. A(H  33,C  12,H  35)          107.59 -0.001946    0.30    107.89   
   102. A(C  10,C  12,H  35)          111.57  0.003115   -0.58    110.99   
   103. A(H  33,C  12,H  34)          107.10 -0.002709    0.55    107.65   
   104. A(C  10,C  12,H  34)          110.68  0.001890   -0.32    110.36   
   105. A(C  10,C  12,H  33)          112.20  0.002619   -0.45    111.75   
   106. A(H  37,C  13,H  38)          107.53 -0.002107    0.39    107.92   
   107. A(C  10,C  13,H  37)          111.56  0.002782   -0.50    111.07   
   108. A(C  10,C  13,H  38)          110.84  0.001664   -0.28    110.55   
   109. A(H  36,C  13,H  38)          107.43 -0.002626    0.48    107.92   
   110. A(H  36,C  13,H  37)          107.69 -0.002749    0.46    108.15   
   111. A(C  10,C  13,H  36)          111.58  0.002569   -0.46    111.12   
   112. A(C  16,C  14,C  17)          109.65  0.000776   -0.21    109.44   
   113. A(C  15,C  14,C  17)          108.16  0.000171   -0.13    108.03   
   114. A(C  15,C  14,C  16)          107.97  0.000103   -0.15    107.82   
   115. A(Si  9,C  14,C  17)          110.07 -0.000843    0.30    110.37   
   116. A(Si  9,C  14,C  15)          109.36  0.000213    0.01    109.37   
   117. A(Si  9,C  14,C  16)          111.55 -0.000384    0.16    111.71   
   118. A(H  39,C  15,H  41)          107.24 -0.002345    0.42    107.66   
   119. A(C  14,C  15,H  41)          110.87  0.002088   -0.37    110.50   
   120. A(H  39,C  15,H  40)          107.95 -0.002136    0.38    108.33   
   121. A(C  14,C  15,H  40)          111.83  0.001588   -0.28    111.55   
   122. A(C  14,C  15,H  39)          111.51  0.002298   -0.40    111.10   
   123. A(H  40,C  15,H  41)          107.22 -0.001902    0.33    107.55   
   124. A(C  14,C  16,H  44)          111.84  0.002300   -0.41    111.43   
   125. A(H  42,C  16,H  44)          108.12 -0.001497    0.25    108.37   
   126. A(H  42,C  16,H  43)          107.47 -0.002497    0.45    107.92   
   127. A(C  14,C  16,H  43)          110.85  0.002077   -0.37    110.48   
   128. A(C  14,C  16,H  42)          111.61  0.002564   -0.45    111.16   
   129. A(H  43,C  16,H  44)          106.73 -0.003458    0.62    107.34   
   130. A(C  14,C  17,H  47)          110.81  0.002073   -0.34    110.47   
   131. A(H  46,C  17,H  47)          107.23 -0.002796    0.53    107.77   
   132. A(H  45,C  17,H  47)          107.41 -0.002187    0.42    107.83   
   133. A(H  45,C  17,H  46)          107.56 -0.002294    0.34    107.90   
   134. A(C  14,C  17,H  46)          112.07  0.002340   -0.43    111.64   
   135. A(C  14,C  17,H  45)          111.52  0.002379   -0.44    111.09   
   136. A(C   3,O  18,Si  9)          118.28 -0.000709    0.33    118.60   
   137. A(C   5,O  19,C  20)          112.30 -0.002269    0.26    112.56   
   138. A(O  22,C  20,C  24)          114.18 -0.003439    0.43    114.61   
   139. A(H  21,C  20,C  24)          108.77  0.000923    0.19    108.96   
   140. A(O  19,C  20,C  24)          111.11 -0.000385   -0.33    110.77   
   141. A(H  21,C  20,O  22)          104.51  0.001058   -0.20    104.31   
   142. A(O  19,C  20,O  22)          109.76  0.004763   -1.09    108.67   
   143. A(O  19,C  20,H  21)          108.15 -0.002956    1.09    109.24   
   144. A(C  20,O  22,C  23)          114.86 -0.004675    0.65    115.50   
   145. A(O  22,C  23,H  50)          111.60  0.001396   -0.26    111.34   
   146. A(H  49,C  23,H  50)          110.39 -0.000079    0.05    110.43   
   147. A(H  48,C  23,H  50)          108.22 -0.003652    0.56    108.78   
   148. A(H  48,C  23,H  49)          107.69 -0.003087    0.57    108.25   
   149. A(O  22,C  23,H  49)          110.77 -0.002513    0.41    111.19   
   150. A(O  22,C  23,H  48)          108.03  0.007914   -1.32    106.71   
   151. A(H  25,C  24,O  26)          106.61 -0.008463    1.61    108.23   
   152. A(C  20,C  24,O  26)          112.10  0.009972   -1.78    110.32   
   153. A(C   1,C  24,O  26)          108.66 -0.003152    0.79    109.46   
   154. A(C  20,C  24,H  25)          110.77 -0.000680   -0.13    110.64   
   155. A(C   1,C  24,H  25)          108.93  0.001333   -0.07    108.86   
   156. A(C   1,C  24,C  20)          109.66  0.000595   -0.34    109.32   
   157. A(C  24,O  26,H  51)          105.29  0.000533    0.18    105.47   
   158. D(C  24,C   1,O   0,H  27)    171.71  0.002191   -0.70    171.01   
   159. D(C   3,C   1,O   0,H  27)     49.61 -0.001836    0.17     49.77   
   160. D(H   2,C   1,O   0,H  27)    -69.82  0.000944   -0.58    -70.39   
   161. D(C   5,C   3,C   1,H   2)    -68.78 -0.002388    1.08    -67.70   
   162. D(H   4,C   3,C   1,C  24)    -65.77 -0.001187    0.19    -65.58   
   163. D(C   5,C   3,C   1,O   0)    174.92  0.003501   -0.99    173.93   
   164. D(C   5,C   3,C   1,C  24)     54.19 -0.000238    0.01     54.20   
   165. D(H   4,C   3,C   1,H   2)    171.26 -0.003336    1.25    172.51   
   166. D(H   4,C   3,C   1,O   0)     54.95  0.002553   -0.81     54.14   
   167. D(C   7,C   5,C   3,H   4)    -60.62 -0.002899    1.43    -59.18   
   168. D(H   6,C   5,C   3,O  18)    -56.81 -0.000305    0.18    -56.63   
   169. D(C   7,C   5,C   3,C   1)   -178.65 -0.001873    0.83   -177.82   
   170. D(H   6,C   5,C   3,H   4)   -178.97 -0.000418    0.53   -178.44   
   171. D(C   7,C   5,C   3,O  18)     61.55 -0.002787    1.08     62.63   
   172. D(H   6,C   5,C   3,C   1)     62.99  0.000608   -0.07     62.92   
   173. D(H  28,C   7,C   5,H   6)    -60.59 -0.000667   -0.05    -60.64   
   174. D(H  28,C   7,C   5,O  19)     58.87 -0.000666    0.06     58.93   
   175. D(H  28,C   7,C   5,C   3)    179.77 -0.000924   -0.24    179.53   
   176. D(O   8,C   7,C   5,O  19)    178.80  0.000710   -0.52    178.28   
   177. D(O   8,C   7,C   5,H   6)     59.34  0.000710   -0.63     58.71   
   178. D(O   8,C   7,C   5,C   3)    -60.30  0.000453   -0.82    -61.12   
   179. D(Si  9,O   8,C   7,H  28)    167.55  0.002578   -1.04    166.50   
   180. D(Si  9,O   8,C   7,H  29)    -78.34 -0.004877    1.00    -77.34   
   181. D(Si  9,O   8,C   7,C   5)     46.71  0.003080   -0.82     45.89   
   182. D(O  18,Si  9,O   8,C   7)    -28.92  0.000207    1.08    -27.84   
   183. D(C  14,Si  9,O   8,C   7)     91.34  0.003293    0.38     91.72   
   184. D(C  10,Si  9,O   8,C   7)   -144.17 -0.004835    2.30   -141.87   
   185. D(C  12,C  10,Si  9,O   8)    -49.56  0.000915   -0.13    -49.69   
   186. D(C  11,C  10,Si  9,O  18)     72.72 -0.001204    0.88     73.60   
   187. D(C  11,C  10,Si  9,C  14)    -48.79 -0.000572    0.55    -48.24   
   188. D(C  11,C  10,Si  9,O   8)   -172.45  0.000403    0.14   -172.30   
   189. D(C  12,C  10,Si  9,O  18)   -164.39 -0.000691    0.61   -163.78   
   190. D(C  12,C  10,Si  9,C  14)     74.10 -0.000059    0.28     74.37   
   191. D(H  31,C  11,C  10,C  12)   -177.35 -0.000120    0.03   -177.32   
   192. D(H  31,C  11,C  10,Si  9)    -54.48  0.000345   -0.17    -54.65   
   193. D(H  30,C  11,C  10,C  13)   -175.29 -0.000286    0.15   -175.14   
   194. D(H  30,C  11,C  10,C  12)    -56.34  0.000033   -0.05    -56.38   
   195. D(H  31,C  11,C  10,C  13)     63.69 -0.000440    0.23     63.92   
   196. D(H  30,C  11,C  10,Si  9)     66.54  0.000499   -0.25     66.29   
   197. D(H  34,C  12,C  10,C  13)     58.70  0.000621   -0.48     58.22   
   198. D(H  34,C  12,C  10,C  11)    -60.45  0.000085   -0.29    -60.73   
   199. D(H  34,C  12,C  10,Si  9)    176.35  0.000308   -0.29    176.05   
   200. D(H  33,C  12,C  10,C  13)    178.27  0.000219   -0.30    177.97   
   201. D(H  33,C  12,C  10,C  11)     59.13 -0.000317   -0.10     59.02   
   202. D(H  33,C  12,C  10,Si  9)    -64.08 -0.000093   -0.11    -64.19   
   203. D(H  37,C  13,C  10,C  12)     60.39 -0.000221    0.08     60.48   
   204. D(H  37,C  13,C  10,C  11)   -179.41  0.000499   -0.26   -179.67   
   205. D(H  37,C  13,C  10,Si  9)    -59.07 -0.000467    0.13    -58.95   
   206. D(H  36,C  13,C  10,C  12)   -179.09 -0.000033   -0.00   -179.09   
   207. D(H  36,C  13,C  10,C  11)    -58.89  0.000687   -0.34    -59.24   
   208. D(H  36,C  13,C  10,Si  9)     61.44 -0.000280    0.04     61.48   
   209. D(C  16,C  14,Si  9,O  18)   -163.87  0.000100    0.20   -163.67   
   210. D(C  16,C  14,Si  9,C  10)    -43.86 -0.000440    0.47    -43.39   
   211. D(C  16,C  14,Si  9,O   8)     77.82 -0.000348    0.62     78.44   
   212. D(C  15,C  14,Si  9,O  18)     76.77  0.000073    0.28     77.05   
   213. D(C  15,C  14,Si  9,C  10)   -163.22 -0.000467    0.55   -162.67   
   214. D(C  15,C  14,Si  9,O   8)    -41.54 -0.000374    0.70    -40.85   
   215. D(H  40,C  15,C  14,C  16)    179.37  0.000478   -0.21    179.15   
   216. D(H  40,C  15,C  14,Si  9)    -59.09  0.000200   -0.10    -59.19   
   217. D(H  39,C  15,C  14,C  17)   -178.24 -0.000609    0.20   -178.05   
   218. D(H  39,C  15,C  14,C  16)    -59.66  0.000463   -0.21    -59.87   
   219. D(H  40,C  15,C  14,C  17)     60.78 -0.000593    0.19     60.97   
   220. D(H  39,C  15,C  14,Si  9)     61.89  0.000185   -0.10     61.79   
   221. D(H  43,C  16,C  14,C  17)     63.45  0.000548   -0.30     63.16   
   222. D(H  43,C  16,C  14,C  15)    -54.17 -0.000145    0.06    -54.11   
   223. D(H  43,C  16,C  14,Si  9)   -174.35 -0.000241    0.04   -174.31   
   224. D(H  42,C  16,C  14,C  17)   -176.79  0.000495   -0.27   -177.06   
   225. D(H  42,C  16,C  14,C  15)     65.59 -0.000198    0.08     65.67   
   226. D(H  42,C  16,C  14,Si  9)    -54.59 -0.000294    0.07    -54.52   
   227. D(H  46,C  17,C  14,C  16)     61.19 -0.000588    0.32     61.51   
   228. D(H  46,C  17,C  14,C  15)    178.69  0.000065   -0.05    178.65   
   229. D(H  46,C  17,C  14,Si  9)    -61.88 -0.000065    0.06    -61.82   
   230. D(H  45,C  17,C  14,C  16)   -178.16 -0.000224    0.15   -178.01   
   231. D(H  45,C  17,C  14,C  15)    -60.66  0.000429   -0.22    -60.87   
   232. D(H  45,C  17,C  14,Si  9)     58.77  0.000299   -0.11     58.66   
   233. D(C   3,O  18,Si  9,C  14)    -91.48 -0.002493   -0.64    -92.12   
   234. D(C   3,O  18,Si  9,C  10)    145.27  0.005956   -2.62    142.65   
   235. D(C   3,O  18,Si  9,O   8)     29.68  0.000126   -1.24     28.44   
   236. D(Si  9,O  18,C   3,C   5)    -48.55 -0.001699    0.82    -47.73   
   237. D(Si  9,O  18,C   3,H   4)     74.94  0.001492   -0.16     74.78   
   238. D(Si  9,O  18,C   3,C   1)   -168.89 -0.001879    0.89   -168.00   
   239. D(C  20,O  19,C   5,C   7)   -177.23 -0.003069    0.88   -176.35   
   240. D(C  20,O  19,C   5,H   6)    -58.83 -0.002673    1.10    -57.72   
   241. D(C  20,O  19,C   5,C   3)     62.90  0.001173    0.25     63.15   
   242. D(C  24,C  20,O  19,C   5)    -60.46  0.000920   -1.18    -61.63   
   243. D(O  22,C  20,O  19,C   5)    172.30  0.002084   -0.67    171.63   
   244. D(H  21,C  20,O  19,C   5)     58.85 -0.000030   -0.46     58.39   
   245. D(C  23,O  22,C  20,C  24)    -60.15  0.000011    0.05    -60.10   
   246. D(C  23,O  22,C  20,H  21)   -178.87  0.000052   -0.29   -179.16   
   247. D(C  23,O  22,C  20,O  19)     65.35  0.000726   -0.95     64.41   
   248. D(H  50,C  23,O  22,C  20)    -51.02  0.000266    0.54    -50.47   
   249. D(H  49,C  23,O  22,C  20)     72.41 -0.000658    0.72     73.13   
   250. D(H  48,C  23,O  22,C  20)   -169.87 -0.001075    0.84   -169.02   
   251. D(H  25,C  24,C  20,O  22)     58.68  0.000803    0.04     58.73   
   252. D(H  25,C  24,C  20,H  21)    174.96  0.000677    0.18    175.14   
   253. D(C   1,C  24,C  20,O  22)    178.95  0.002415   -0.34    178.61   
   254. D(C   1,C  24,C  20,H  21)    -64.78  0.002289   -0.20    -64.98   
   255. D(C   1,C  24,C  20,O  19)     54.16 -0.000996    1.05     55.21   
   256. D(H  25,C  24,C   1,C   3)     69.14  0.000540   -0.86     68.28   
   257. D(H  25,C  24,C   1,H   2)   -167.74  0.003222   -1.92   -169.66   
   258. D(H  25,C  24,C   1,O   0)    -52.31 -0.000277   -0.52    -52.84   
   259. D(H  25,C  24,C  20,O  19)    -66.11 -0.002608    1.44    -64.67   
   260. D(C  20,C  24,C   1,C   3)    -52.24  0.000171   -0.45    -52.69   
   261. D(C  20,C  24,C   1,H   2)     70.88  0.002853   -1.51     69.37   
   262. D(C  20,C  24,C   1,O   0)   -173.69 -0.000646   -0.11   -173.81   
   263. D(H  51,O  26,C  24,H  25)     67.64 -0.001903    0.93     68.57   
   264. D(H  51,O  26,C  24,C  20)   -170.99 -0.002353    0.77   -170.22   
   265. D(H  51,O  26,C  24,C   1)    -49.63  0.002658   -0.25    -49.88   
    ----------------------------------------------------------------------------

Geometry step timings:
Preparation and reading OPT file:      0.001 s ( 3.360 %)
Internal coordinates            :      0.000 s ( 0.136 %)
B/P matrices and projection     :      0.006 s (24.953 %)
Hessian update/contruction      :      0.007 s (31.071 %)
Making the step                 :      0.006 s (26.929 %)
Converting the step to Cartesian:      0.001 s ( 2.277 %)
Storing new data                :      0.001 s ( 3.823 %)
Checking convergence            :      0.000 s ( 0.119 %)
Final printing                  :      0.002 s ( 7.328 %)
Total time                      :      0.024 s

Time for energy+gradient        :      0.154 s
Time for complete geometry iter :      0.191 s

         *************************************************************
         *                GEOMETRY OPTIMIZATION CYCLE   2            *
         *************************************************************
---------------------------------
CARTESIAN COORDINATES (ANGSTROEM)
---------------------------------
  O    -3.619904    1.990568   -0.189401
  C    -2.222040    1.779352   -0.022000
  H    -2.057336    1.505332    1.030139
  C    -1.736792    0.661307   -0.941369
  H    -2.036431    0.905586   -1.967578
  C    -0.216424    0.565521   -0.846981
  H     0.071574    0.293028    0.178522
  C     0.299404   -0.509671   -1.798074
  O    -0.209174   -1.784563   -1.489222
  Si   -1.831467   -1.982457   -1.166883
  C    -1.973986   -3.317892    0.294126
  C    -3.422793   -3.714110    0.539528
  C    -1.139760   -4.549859   -0.032464
  C    -1.415428   -2.678416    1.568936
  C    -2.839911   -2.429211   -2.814432
  C    -2.315390   -1.578333   -3.978675
  C    -2.674158   -3.897094   -3.196991
  C    -4.325903   -2.115637   -2.630739
  O    -2.383049   -0.530192   -0.547650
  O     0.372792    1.799007   -1.203986
  C     0.014465    2.850885   -0.318510
  H     0.320584    2.584142    0.703917
  O     0.784084    3.978001   -0.627122
  C     0.559575    4.537434   -1.908620
  C    -1.502824    3.087291   -0.339324
  H    -1.826449    3.439460   -1.328129
  O    -1.861259    4.067617    0.619414
  H    -4.024647    1.113477   -0.122598
  H     1.391584   -0.567009   -1.731152
  H     0.054850   -0.250005   -2.833226
  H    -3.837829   -4.250083   -0.310323
  H    -4.042257   -2.840851    0.728097
  H    -3.494858   -4.371167    1.407404
  H    -1.512872   -5.067050   -0.911205
  H    -1.161305   -5.254551    0.800301
  H    -0.103084   -4.280007   -0.218868
  H    -1.991713   -1.799902    1.851689
  H    -0.379302   -2.374651    1.432555
  H    -1.451494   -3.384881    2.399167
  H    -1.265279   -1.788388   -4.175746
  H    -2.419243   -0.513478   -3.774498
  H    -2.872783   -1.794169   -4.891036
  H    -1.623321   -4.163730   -3.284416
  H    -3.152414   -4.097706   -4.156855
  H    -3.133957   -4.553127   -2.462633
  H    -4.477549   -1.065469   -2.391076
  H    -4.764245   -2.706930   -1.831979
  H    -4.877527   -2.332295   -3.546401
  H     1.352945    5.265117   -2.076062
  H    -0.400011    5.061383   -1.948737
  H     0.610949    3.775331   -2.689628
  H    -2.829730    4.048303    0.659574

----------------------------
CARTESIAN COORDINATES (A.U.)
----------------------------
  NO LB    ZA    FRAG    MASS        X           Y           Z
   0 O   8.0000    1    15.999   -6.840627    3.761629   -0.357916
   1 C   6.0000    1    12.011   -4.199047    3.362488   -0.041575
   2 H   1.0000    1     1.008   -3.887802    2.844665    1.946681
   3 C   6.0000    1    12.011   -3.282062    1.249689   -1.778929
   4 H   1.0000    1     1.008   -3.848297    1.711310   -3.718184
   5 C   6.0000    1    12.011   -0.408982    1.068680   -1.600562
   6 H   1.0000    1     1.008    0.135255    0.553743    0.337358
   7 C   6.0000    1    12.011    0.565791   -0.963138   -3.397868
   8 O   8.0000    1    15.999   -0.395282   -3.372336   -2.814221
   9 Si 14.0000    1    28.086   -3.460970   -3.746301   -2.205090
  10 C   6.0000    1    12.011   -3.730293   -6.269907    0.555818
  11 C   6.0000    1    12.011   -6.468141   -7.018651    1.019560
  12 C   6.0000    1    12.011   -2.153834   -8.597987   -0.061347
  13 C   6.0000    1    12.011   -2.674770   -5.061473    2.964860
  14 C   6.0000    1    12.011   -5.366653   -4.590544   -5.318506
  15 C   6.0000    1    12.011   -4.375453   -2.982617   -7.518605
  16 C   6.0000    1    12.011   -5.053426   -7.364440   -6.041437
  17 C   6.0000    1    12.011   -8.174773   -3.997975   -4.971375
  18 O   8.0000    1    15.999   -4.503311   -1.001918   -1.034909
  19 O   8.0000    1    15.999    0.704476    3.399630   -2.275203
  20 C   6.0000    1    12.011    0.027334    5.387392   -0.601897
  21 H   1.0000    1     1.008    0.605817    4.883321    1.330209
  22 O   8.0000    1    15.999    1.481703    7.517332   -1.185089
  23 C   6.0000    1    12.011    1.057443    8.574507   -3.606769
  24 C   6.0000    1    12.011   -2.839925    5.834135   -0.641230
  25 H   1.0000    1     1.008   -3.451488    6.499637   -2.509800
  26 O   8.0000    1    15.999   -3.517270    7.686683    1.170523
  27 H   1.0000    1     1.008   -7.605482    2.104166   -0.231677
  28 H   1.0000    1     1.008    2.629712   -1.071492   -3.271403
  29 H   1.0000    1     1.008    0.103652   -0.472441   -5.354021
  30 H   1.0000    1     1.008   -7.252446   -8.031492   -0.586425
  31 H   1.0000    1     1.008   -7.638758   -5.368430    1.375904
  32 H   1.0000    1     1.008   -6.604324   -8.260308    2.659607
  33 H   1.0000    1     1.008   -2.858914   -9.575337   -1.721927
  34 H   1.0000    1     1.008   -2.194548   -9.929662    1.512349
  35 H   1.0000    1     1.008   -0.194801   -8.088040   -0.413600
  36 H   1.0000    1     1.008   -3.763792   -3.401321    3.499185
  37 H   1.0000    1     1.008   -0.716777   -4.487440    2.707136
  38 H   1.0000    1     1.008   -2.742926   -6.396498    4.533769
  39 H   1.0000    1     1.008   -2.391032   -3.379563   -7.891017
  40 H   1.0000    1     1.008   -4.571706   -0.970332   -7.132768
  41 H   1.0000    1     1.008   -5.428773   -3.390489   -9.242718
  42 H   1.0000    1     1.008   -3.067632   -7.868309   -6.206646
  43 H   1.0000    1     1.008   -5.957199   -7.743542   -7.855318
  44 H   1.0000    1     1.008   -5.922321   -8.604163   -4.653703
  45 H   1.0000    1     1.008   -8.461341   -2.013445   -4.518478
  46 H   1.0000    1     1.008   -9.003118   -5.115357   -3.461939
  47 H   1.0000    1     1.008   -9.217191   -4.407400   -6.701727
  48 H   1.0000    1     1.008    2.556696    9.949629   -3.923188
  49 H   1.0000    1     1.008   -0.755911    9.564628   -3.682580
  50 H   1.0000    1     1.008    1.154527    7.134342   -5.082661
  51 H   1.0000    1     1.008   -5.347415    7.650183    1.246415

      -----------------------------------------------------------      
     |                   =====================                   |     
     |                           x T B                           |     
     |                   =====================                   |     
     |                         S. Grimme                         |     
     |          Mulliken Center for Theoretical Chemistry        |     
     |                    University of Bonn                     |     
      -----------------------------------------------------------      

   * xtb version 6.7.1 (edcfbbe) compiled by 'albert@albert-system' on 2024-07-22

   xtb is free software: you can redistribute it and/or modify it under
   the terms of the GNU Lesser General Public License as published by
   the Free Software Foundation, either version 3 of the License, or
   (at your option) any later version.
   
   xtb is distributed in the hope that it will be useful,
   but WITHOUT ANY WARRANTY; without even the implied warranty of
   MERCHANTABILITY or FITNESS FOR A PARTICULAR PURPOSE.  See the
   GNU Lesser General Public License for more details.
   
   Cite this work as:
   * C. Bannwarth, E. Caldeweyher, S. Ehlert, A. Hansen, P. Pracht,
     J. Seibert, S. Spicher, S. Grimme, WIREs Comput. Mol. Sci., 2020, 11,
     e01493. DOI: 10.1002/wcms.1493
   
   for GFN2-xTB:
   * C. Bannwarth, S. Ehlert and S. Grimme., J. Chem. Theory Comput., 2019,
     15, 1652-1671. DOI: 10.1021/acs.jctc.8b01176
   for GFN1-xTB:
   * S. Grimme, C. Bannwarth, P. Shushkov, J. Chem. Theory Comput., 2017,
     13, 1989-2009. DOI: 10.1021/acs.jctc.7b00118
   for GFN0-xTB:
   * P. Pracht, E. Caldeweyher, S. Ehlert, S. Grimme, ChemRxiv, 2019, preprint.
     DOI: 10.26434/chemrxiv.8326202.v1
   for GFN-FF:
   * S. Spicher and S. Grimme, Angew. Chem. Int. Ed., 2020, 59, 15665-15673.
     DOI: 10.1002/anie.202004239
   
   for ALPB and GBSA implicit solvation:
   * S. Ehlert, M. Stahn, S. Spicher, S. Grimme, J. Chem. Theory Comput.,
     2021, 17, 4250-4261. DOI: 10.1021/acs.jctc.1c00471
   
   for ddCOSMO and CPCM-X implicit solvation:
   * M. Stahn, S. Ehlert, S. Grimme, J. Phys. Chem. A,
     2023, XX, XXXX-XXXX. DOI: 10.1021/acs.jpca.3c04382
   
   for DFT-D4:
   * E. Caldeweyher, C. Bannwarth and S. Grimme, J. Chem. Phys., 2017,
     147, 034112. DOI: 10.1063/1.4993215
   * E. Caldeweyher, S. Ehlert, A. Hansen, H. Neugebauer, S. Spicher,
     C. Bannwarth and S. Grimme, J. Chem. Phys., 2019, 150, 154122.
     DOI: 10.1063/1.5090222
   * E. Caldeweyher, J.-M. Mewes, S. Ehlert and S. Grimme, Phys. Chem. Chem. Phys.
     2020, 22, 8499-8512. DOI: 10.1039/D0CP00502A
   
   for sTDA-xTB:
   * S. Grimme and C. Bannwarth, J. Chem. Phys., 2016, 145, 054103.
     DOI: 10.1063/1.4959605
   
   in the mass-spec context:
   * V. Asgeirsson, C. Bauer and S. Grimme, Chem. Sci., 2017, 8, 4879.
     DOI: 10.1039/c7sc00601b
   * J. Koopman and S. Grimme, ACS Omega 2019, 4, 12, 15120-15133.
     DOI: 10.1021/acsomega.9b02011
   
   for metadynamics refer to:
   * S. Grimme, J. Chem. Theory Comput., 2019, 155, 2847-2862
     DOI: 10.1021/acs.jctc.9b00143
   
   for SPH calculations refer to:
   * S. Spicher and S. Grimme, J. Chem. Theory Comput., 2021, 17, 1701-1714
     DOI: 10.1021/acs.jctc.0c01306
   
   for ONIOM refer to:
   * C. Plett, A. Katbashev, S. Ehlert, S. Grimme, M. Bursch,
     Phys. Chem. Chem. Phys., 2023, 25, 17860-17868. DOI: 10.1039/D3CP02178E
   
   for DIPRO refer to:
   * J. Kohn, N. Gildemeister, S. Grimme, D. Fazzi, A. Hansen,
     J. Chem. Phys., 2023, just accepted.
   
   for PTB refer to:
   * S. Grimme, M. Mueller, A. Hansen, J. Chem. Phys., 2023, 158, 124111.
     DOI: 10.1063/5.0137838
   
   with help from (in alphabetical order)
   P. Atkinson, C. Bannwarth, F. Bohle, G. Brandenburg, E. Caldeweyher
   M. Checinski, S. Dohm, S. Ehlert, S. Ehrlich, I. Gerasimov, C. Hölzer
   A. Katbashev, J. Kohn, J. Koopman, C. Lavigne, S. Lehtola, F. März, M. Müller,
   F. Musil, H. Neugebauer, J. Pisarek, C. Plett, P. Pracht, F. Pultar,
   J. Seibert, P. Shushkov, S. Spicher, M. Stahn, M. Steiner, T. Strunk,
   J. Stückrath, T. Rose, and J. Unsleber
   
 * started run on 2025/09/10 at 11:31:43.592     
   ID    Z sym.   atoms
    1    8 O      1, 9, 19, 20, 23, 27
    2    6 C      2, 4, 6, 8, 11-18, 21, 24, 25
    3    1 H      3, 5, 7, 22, 26, 28-52
    4   14 Si     10

           -------------------------------------------------
          |                Calculation Setup                |
           -------------------------------------------------

          program call               : /home/kmoult/orca_6_1/otool_xtb goat_0_XTB.xyz --grad -c 0 -u 0 -P 4 --namespace goat_0 --input goat_0_XTB.input.tmp --alpb ACETONE --acc 0.200000
          hostname                   : node3306
          calculation namespace      : goat_0
          coordinate file            : goat_0_XTB.xyz
          omp threads                :                     4


           -------------------------------------------------
          |                 G F N 2 - x T B                 |
           -------------------------------------------------

        Reference                      10.1021/acs.jctc.8b01176
      * Hamiltonian:
        H0-scaling (s, p, d)           1.850000    2.230000    2.230000
        zeta-weighting                 0.500000
      * Dispersion:
        s8                             2.700000
        a1                             0.520000
        a2                             5.000000
        s9                             5.000000
      * Repulsion:
        kExp                           1.500000    1.000000
        rExp                           1.000000
      * Coulomb:
        alpha                          2.000000
        third order                    shell-resolved
        anisotropic                    true
        a3                             3.000000
        a5                             4.000000
        cn-shift                       1.200000
        cn-exp                         4.000000
        max-rad                        5.000000

      * Solvation model:               ALPB
        Solvent                        ACETONE
        Parameter file                 internal GFN2-xTB/ALPB
        Dielectric constant                2.0700E+01
        Reference state                gsolv [1 M gas/solution]
        Free energy shift                  5.9241E-03 Eh       3.7175E+00 kcal/mol
        Temperature                        2.9815E+02 K
        Density                            7.9000E-01 kg/L
        Solvent mass                       5.8080E+01 g/mol
        Interaction kernel             P16
        Born radius scaling (c1)           1.8274E+00
        Born radii integrator          GBOBC
        Born offset                        0.0000E+00 a0       0.0000E+00 AA
        H-bond correction              true
        Ion screening                  false
        Surface tension                    1.0000E-05 Eh       1.5569E+01 dyn/cm
        Grid points                               230 per atom
q/qsh data taken from xtbrestart
CAMM data taken from xtbrestart

          ...................................................
          :                      SETUP                      :
          :.................................................:
          :  # basis functions                 124          :
          :  # atomic orbitals                 123          :
          :  # shells                           75          :
          :  # electrons                       130          :
          :  max. iterations                   250          :
          :  Hamiltonian                  GFN2-xTB          :
          :  restarted?                       true          :
          :  GBSA solvation                   true          :
          :  PC potential                    false          :
          :  electronic temp.          300.0000000     K    :
          :  accuracy                    0.2000000          :
          :  -> integral cutoff          0.3198970E+02      :
          :  -> integral neglect         0.2000000E-08      :
          :  -> SCF convergence          0.2000000E-06 Eh   :
          :  -> wf. convergence          0.2000000E-04 e    :
          :  Broyden damping             0.4000000          :
          :  net charge                          0          :
          :  unpaired electrons                  0          :
          ...................................................

 iter      E             dE          RMSdq      gap      omega  full diag
   1    -74.4224991 -0.744225E+02  0.338E-01    5.50       0.0  T
   2    -74.4228564 -0.357321E-03  0.215E-01    5.37       1.0  T
   3    -74.4226053  0.251123E-03  0.144E-01    5.47       1.0  T
   4    -74.4230855 -0.480247E-03  0.382E-02    5.39       1.0  T
   5    -74.4230896 -0.407461E-05  0.243E-02    5.40       1.0  T
   6    -74.4230906 -0.102129E-05  0.831E-03    5.39       1.7  T
   7    -74.4230907 -0.872945E-07  0.422E-03    5.39       3.3  T
   8    -74.4230909 -0.196737E-06  0.202E-03    5.39       6.9  T
   9    -74.4230909 -0.153485E-07  0.101E-03    5.39      13.7  T
  10    -74.4230909 -0.469834E-08  0.232E-04    5.40      59.8  T
  11    -74.4230909 -0.522292E-09  0.121E-04    5.40     114.4  T
  12    -74.4230909 -0.807603E-10  0.487E-05    5.40     284.9  T

   *** convergence criteria satisfied after 12 iterations ***

         #    Occupation            Energy/Eh            Energy/eV
      -------------------------------------------------------------
         1        2.0000           -0.8116620             -22.0864
       ...           ...                  ...                  ...
        59        2.0000           -0.4267405             -11.6122
        60        2.0000           -0.4260242             -11.5927
        61        2.0000           -0.4225716             -11.4988
        62        2.0000           -0.4198285             -11.4241
        63        2.0000           -0.4130320             -11.2392
        64        2.0000           -0.4080852             -11.1046
        65        2.0000           -0.3697296             -10.0609 (HOMO)
        66                         -0.1714612              -4.6657 (LUMO)
        67                         -0.1443391              -3.9277
        68                         -0.1117856              -3.0418
        69                         -0.0627552              -1.7077
        70                         -0.0166290              -0.4525
       ...                                ...                  ...
       123                          0.7442930              20.2532
      -------------------------------------------------------------
                  HL-Gap            0.1982684 Eh            5.3952 eV
             Fermi-level           -0.2705954 Eh           -7.3633 eV

 SCC (total)                   0 d,  0 h,  0 min,  0.048 sec
 SCC setup                      ...        0 min,  0.001 sec (  1.337%)
 Dispersion                     ...        0 min,  0.000 sec (  0.758%)
 classical contributions        ...        0 min,  0.000 sec (  0.086%)
 integral evaluation            ...        0 min,  0.017 sec ( 34.831%)
 iterations                     ...        0 min,  0.022 sec ( 45.437%)
 molecular gradient             ...        0 min,  0.008 sec ( 17.210%)
 printout                       ...        0 min,  0.000 sec (  0.314%)

         :::::::::::::::::::::::::::::::::::::::::::::::::::::
         ::                     SUMMARY                     ::
         :::::::::::::::::::::::::::::::::::::::::::::::::::::
         :: total energy             -73.684776460814 Eh    ::
         :: total w/o Gsasa/hb       -73.656125761093 Eh    ::
         :: gradient norm              0.047739197536 Eh/a0 ::
         :: HOMO-LUMO gap              5.395157209017 eV    ::
         ::.................................................::
         :: SCC energy               -74.421729035905 Eh    ::
         :: -> isotropic ES            0.157583707612 Eh    ::
         :: -> anisotropic ES          0.003698781876 Eh    ::
         :: -> anisotropic XC          0.005730899468 Eh    ::
         :: -> dispersion             -0.052846958028 Eh    ::
         :: -> Gsolv                  -0.031718027057 Eh    ::
         ::    -> Gelec               -0.003067327336 Eh    ::
         ::    -> Gsasa               -0.029062603607 Eh    ::
         ::    -> Ghb                 -0.005512237379 Eh    ::
         ::    -> Gshift               0.005924141264 Eh    ::
         :: repulsion energy           0.736952575091 Eh    ::
         :: add. restraining           0.000000000000 Eh    ::
         :: total charge              -0.000000000000 e     ::
         :::::::::::::::::::::::::::::::::::::::::::::::::::::


Property printout bound to 'properties.out'

           -------------------------------------------------
          | TOTAL ENERGY              -73.684776460814 Eh   |
          | GRADIENT NORM               0.047739197536 Eh/α |
          | HOMO-LUMO GAP               5.395157209017 eV   |
           -------------------------------------------------

------------------------------------------------------------------------
 * finished run on 2025/09/10 at 11:31:43.663     
------------------------------------------------------------------------
 total:
 * wall-time:     0 d,  0 h,  0 min,  0.071 sec
 *  cpu-time:     0 d,  0 h,  0 min,  0.251 sec
 * ratio c/w:     3.541 speedup
 SCF:
 * wall-time:     0 d,  0 h,  0 min,  0.048 sec
 *  cpu-time:     0 d,  0 h,  0 min,  0.179 sec
 * ratio c/w:     3.737 speedup


-------------------------   --------------------
FINAL SINGLE POINT ENERGY       -73.684776460810
-------------------------   --------------------


-------------
DIPOLE MOMENT
-------------
                                X             Y             Z
Total Dipole Moment    :     -0.93300      -0.95700      -0.75100
                        -----------------------------------------
Magnitude (a.u.)       :      1.53308
Magnitude (Debye)      :      3.89678


------------------
CARTESIAN GRADIENT
------------------

   1   O   :   -0.006612429    0.002681402    0.000420779
   2   C   :    0.012761803    0.000441370    0.001167137
   3   H   :   -0.005135276    0.000790253    0.000239501
   4   C   :    0.005130022    0.004286795   -0.007081214
   5   H   :   -0.002274832   -0.000505812    0.001229362
   6   C   :   -0.001289956    0.000236382    0.005607586
   7   H   :    0.002051028    0.000567249   -0.001465300
   8   C   :   -0.005519573    0.006143706    0.002325837
   9   O   :    0.010058970   -0.004881170   -0.001270123
  10   Si  :    0.003054205    0.011974158   -0.005417260
  11   C   :   -0.005158990   -0.018302110    0.011879668
  12   C   :    0.003105115    0.001931944   -0.000791507
  13   C   :   -0.001686197    0.003654303    0.000289889
  14   C   :   -0.000641282   -0.000795486   -0.003330706
  15   C   :   -0.007084292   -0.006834340   -0.009220147
  16   C   :   -0.001576695   -0.001438577    0.002558509
  17   C   :    0.000397906    0.003757680    0.001603724
  18   C   :    0.003925350   -0.000249412    0.000456961
  19   O   :   -0.007210153    0.004175497    0.006997385
  20   O   :    0.003919538    0.000742758   -0.001335939
  21   C   :   -0.009340994   -0.008758872    0.002860318
  22   H   :    0.000789005   -0.000788955   -0.001970761
  23   O   :    0.004444994    0.009399466   -0.002545905
  24   C   :    0.000170863   -0.003776921    0.004905662
  25   C   :    0.006864677   -0.006929688   -0.006525398
  26   H   :   -0.001770618    0.003406872    0.002542501
  27   O   :   -0.003204602    0.005141101    0.004198437
  28   H   :    0.001601287   -0.002505258    0.000244500
  29   H   :    0.000653191    0.000348314   -0.001856421
  30   H   :    0.002336063   -0.001883399   -0.001139957
  31   H   :   -0.000848138   -0.000417565    0.000265579
  32   H   :   -0.000946791   -0.000142576    0.000202890
  33   H   :   -0.000845264   -0.000150829    0.000059848
  34   H   :    0.000637130   -0.000857425   -0.000051351
  35   H   :    0.000445230   -0.000807611   -0.000299361
  36   H   :    0.000839172   -0.001038044    0.000027681
  37   H   :    0.000363933    0.000509167    0.000959636
  38   H   :    0.000283128    0.000643710    0.000868119
  39   H   :    0.000170251    0.000454515    0.000625430
  40   H   :    0.000443506    0.000507306   -0.000832062
  41   H   :    0.000391849    0.000497612   -0.000484949
  42   H   :    0.000442815    0.000433660   -0.000781261
  43   H   :    0.000179146   -0.000891610   -0.000412068
  44   H   :    0.000057454   -0.001136885   -0.000310261
  45   H   :   -0.000240561   -0.000935370   -0.000570910
  46   H   :   -0.001043277    0.000394045    0.000050040
  47   H   :   -0.001152686    0.000174710   -0.000166655
  48   H   :   -0.001085717    0.000171639    0.000167014
  49   H   :   -0.000917577    0.001065790   -0.002771974
  50   H   :    0.000240423    0.000573878    0.000330908
  51   H   :    0.001038332    0.000617384   -0.000967315
  52   H   :   -0.001210489   -0.001694753   -0.001486097

Difference to translation invariance:
           :   -0.0000000000    0.0000000000   -0.0000000000

Difference to rotation invariance:
           :    0.0003411580    0.0000907186   -0.0000368177

Norm of the Cartesian gradient     ...    0.0477391975
RMS gradient                       ...    0.0038221948
MAX gradient                       ...    0.0183021101
------------------------------------------------------------------------------
                         ORCA GEOMETRY RELAXATION STEP
------------------------------------------------------------------------------

Reading the OPT-File                    .... done
Getting information on internals        .... done
Copying old internal coords+grads       .... done
Making the new internal coordinates     .... (2022 redundants) done
Validating the new internal coordinates .... (2022 redundants) done
Calculating the B-matrix                .... done
Calculating the G,G- and P matrices     .... done
Transforming gradient to internals      .... done
Projecting the internal gradient        .... done
Number of atoms                         ....  52
Number of internal coordinates          .... 265
Current Energy                          ....   -73.684776461 Eh
Current gradient norm                   ....     0.047739198 Eh/bohr
Maximum allowed component of the step   ....  0.300
Current trust radius                    ....  0.300
Updating the Hessian (BFGS)             .... done
Forming the augmented Hessian           .... done
Diagonalizing the augmented Hessian     .... done
Last element of RFO vector              ....  0.962109754
Lowest eigenvalues of augmented Hessian:
 -0.008065586  0.010000000  0.010000000  0.010002120  0.010013319
Length of the computed step             ....  0.283400587
The final length of the internal step   ....  0.283400587
Converting the step to Cartesian space:
 Initial RMS(Int)=    0.0174091597
Transforming coordinates:
 Iter   0:  RMS(Cart)=    0.0960881422 RMS(Int)=    0.3858039990
 Iter   5:  RMS(Cart)=    0.0000000453 RMS(Int)=    0.0000000321
done
Storing new coordinates                 .... done
The predicted energy change is          ....    -0.004356690
Previously predicted energy change      ....    -0.010513497
Actually observed energy change         ....    -0.013706518
Ratio of predicted to observed change   ....     1.303706836
New trust radius                        ....     0.300000000

                                .--------------------.
          ----------------------|Geometry convergence|-------------------------
          Item                value                   Tolerance       Converged
          ---------------------------------------------------------------------
          Energy change      -0.0137065177            0.0000050000      NO
          RMS gradient        0.0022214135            0.0001000000      NO
          MAX gradient        0.0185014380            0.0003000000      NO
          RMS step            0.0174091597            0.0020000000      NO
          MAX step            0.1318343790            0.0040000000      NO
          -------------------------------------------------------------------------
          ........................................................
          Max(Bonds)      0.0698      Max(Angles)    2.73
          Max(Dihed)        3.90      Max(Improp)    0.00
          ---------------------------------------------------------------------

    ---------------------------------------------------------------------------
                         Redundant Internal Coordinates
                            (Angstroem and degrees)

        Definition                    Value    dE/dq     Step     New-Value
    ----------------------------------------------------------------------------
     1. B(C   1,O   0)                1.4236  0.007079 -0.0126    1.4110   
     2. B(H   2,C   1)                1.0996 -0.000738  0.0020    1.1017   
     3. B(C   3,C   1)                1.5267  0.000891  0.0008    1.5275   
     4. B(H   4,C   3)                1.0966 -0.000641  0.0011    1.0977   
     5. B(C   5,C   3)                1.5263  0.000721 -0.0028    1.5235   
     6. B(H   6,C   5)                1.0995 -0.000970  0.0023    1.1018   
     7. B(C   7,C   5)                1.5254  0.000593 -0.0029    1.5224   
     8. B(O   8,C   7)                1.4069  0.005360 -0.0121    1.3948   
     9. B(Si  9,O   8)                1.6658  0.009818 -0.0109    1.6549   
    10. B(C  10,Si  9)                1.9845  0.018501 -0.0698    1.9147   
    11. B(C  11,C  10)                1.5219 -0.000802 -0.0007    1.5212   
    12. B(C  12,C  10)                1.5233 -0.000636 -0.0013    1.5219   
    13. B(C  13,C  10)                1.5317 -0.000324 -0.0020    1.5297   
    14. B(C  14,Si  9)                1.9827  0.011073 -0.0379    1.9448   
    15. B(C  15,C  14)                1.5345 -0.000453 -0.0010    1.5335   
    16. B(C  16,C  14)                1.5259 -0.000796 -0.0003    1.5256   
    17. B(C  17,C  14)                1.5298 -0.000466 -0.0011    1.5286   
    18. B(O  18,Si  9)                1.6724  0.008924 -0.0101    1.6623   
    19. B(O  18,C   3)                1.4115  0.006666 -0.0139    1.3976   
    20. B(O  19,C   5)                1.4128  0.002152 -0.0068    1.4060   
    21. B(C  20,O  19)                1.4209  0.001109 -0.0050    1.4158   
    22. B(H  21,C  20)                1.1001 -0.001422  0.0037    1.1038   
    23. B(O  22,C  20)                1.3993  0.009316 -0.0206    1.3786   
    24. B(C  23,O  22)                1.4162 -0.002036  0.0031    1.4193   
    25. B(C  24,C  20)                1.5357 -0.001268  0.0005    1.5362   
    26. B(C  24,C   1)                1.5260 -0.000335  0.0031    1.5291   
    27. B(H  25,C  24)                1.0984 -0.000674  0.0019    1.1003   
    28. B(O  26,C  24)                1.4173  0.006855 -0.0128    1.4044   
    29. B(H  27,O   0)                0.9683  0.000877 -0.0037    0.9646   
    30. B(H  27,O  18)                2.3616 -0.002259  0.0371    2.3987   
    31. B(H  28,C   7)                1.0957  0.000520 -0.0014    1.0944   
    32. B(H  29,C   7)                1.0949  0.000109 -0.0007    1.0942   
    33. B(H  30,C  11)                1.0871  0.000322 -0.0017    1.0854   
    34. B(H  31,C  11)                1.0871  0.000461 -0.0024    1.0848   
    35. B(H  32,C  11)                1.0909  0.000194 -0.0012    1.0897   
    36. B(H  33,C  12)                1.0858  0.000230 -0.0016    1.0842   
    37. B(H  34,C  12)                1.0911  0.000285 -0.0014    1.0897   
    38. B(H  35,C  12)                1.0873  0.000537 -0.0025    1.0848   
    39. B(H  36,C  13)                1.0880  0.000469 -0.0023    1.0858   
    40. B(H  37,C  13)                1.0883  0.000340 -0.0020    1.0863   
    41. B(H  38,C  13)                1.0907  0.000176 -0.0012    1.0895   
    42. B(H  39,C  15)                1.0889  0.000481 -0.0021    1.0868   
    43. B(H  40,C  15)                1.0892  0.000357 -0.0017    1.0875   
    44. B(H  41,C  15)                1.0907  0.000341 -0.0016    1.0891   
    45. B(H  42,C  16)                1.0877  0.000426 -0.0022    1.0855   
    46. B(H  43,C  16)                1.0910  0.000456 -0.0019    1.0892   
    47. B(H  44,C  16)                1.0868  0.000281 -0.0016    1.0851   
    48. B(H  45,C  17)                1.0878  0.000536 -0.0025    1.0853   
    49. B(H  46,C  17)                1.0862  0.000247 -0.0017    1.0845   
    50. B(H  47,C  17)                1.0907  0.000375 -0.0017    1.0890   
    51. B(H  48,C  23)                1.0895  0.000470 -0.0017    1.0878   
    52. B(H  49,C  23)                1.0940  0.000052  0.0000    1.0941   
    53. B(H  50,C  23)                1.0924  0.000311 -0.0009    1.0915   
    54. B(H  51,O   0)                2.3621 -0.001999  0.0299    2.3919   
    55. B(H  51,O  26)                0.9695  0.000509 -0.0028    0.9667   
    56. A(C   1,O   0,H  27)          105.54 -0.000912    0.76    106.30   
    57. A(O   0,C   1,C   3)          110.48 -0.000702    0.65    111.13   
    58. A(C   3,C   1,C  24)          110.65  0.000528   -0.32    110.33   
    59. A(O   0,C   1,H   2)          107.25 -0.002429    1.75    109.00   
    60. A(H   2,C   1,C   3)          110.25  0.001074   -0.88    109.37   
    61. A(O   0,C   1,C  24)          108.13  0.000937   -0.39    107.74   
    62. A(H   2,C   1,C  24)          110.00  0.000504   -0.72    109.28   
    63. A(C   1,C   3,C   5)          108.99 -0.000886    0.27    109.26   
    64. A(C   1,C   3,H   4)          108.27 -0.000347    0.39    108.67   
    65. A(C   5,C   3,O  18)          112.70  0.002283   -0.69    112.00   
    66. A(H   4,C   3,C   5)          110.12  0.001372   -0.89    109.23   
    67. A(C   1,C   3,O  18)          107.74 -0.000640    0.36    108.10   
    68. A(H   4,C   3,O  18)          108.90 -0.001914    0.64    109.54   
    69. A(C   7,C   5,O  19)          108.47  0.000046   -0.35    108.12   
    70. A(H   6,C   5,O  19)          110.05 -0.000276    0.30    110.35   
    71. A(C   3,C   5,C   7)          110.03 -0.001415    0.78    110.81   
    72. A(H   6,C   5,C   7)          108.56 -0.000521    0.28    108.84   
    73. A(C   3,C   5,O  19)          110.18 -0.000011    0.02    110.20   
    74. A(C   3,C   5,H   6)          109.52  0.002135   -1.02    108.50   
    75. A(O   8,C   7,H  29)          109.98 -0.001469    0.39    110.37   
    76. A(O   8,C   7,H  28)          107.43 -0.001021    0.12    107.54   
    77. A(C   5,C   7,H  28)          109.63 -0.001198    0.27    109.89   
    78. A(H  28,C   7,H  29)          107.03 -0.002475    1.50    108.53   
    79. A(C   5,C   7,O   8)          112.31  0.003888   -1.12    111.19   
    80. A(C   5,C   7,H  29)          110.29  0.001878   -0.94    109.35   
    81. A(C   7,O   8,Si  9)          120.14 -0.002419    1.01    121.15   
    82. A(O   8,Si  9,C  10)          107.00  0.003231   -1.26    105.74   
    83. A(O   8,Si  9,O  18)          106.84 -0.001770    0.22    107.06   
    84. A(O   8,Si  9,C  14)          111.18  0.001501   -0.42    110.76   
    85. A(C  10,Si  9,C  14)          115.06 -0.006918    2.73    117.79   
    86. A(C  10,Si  9,O  18)          106.74  0.002183   -0.83    105.91   
    87. A(C  14,Si  9,O  18)          109.61  0.002069   -0.59    109.02   
    88. A(C  11,C  10,C  12)          110.20  0.000452   -0.49    109.72   
    89. A(Si  9,C  10,C  12)          110.31  0.000330   -0.16    110.14   
    90. A(Si  9,C  10,C  11)          111.24 -0.000404    0.25    111.49   
    91. A(C  12,C  10,C  13)          108.44  0.000034   -0.07    108.37   
    92. A(C  11,C  10,C  13)          108.76  0.000253   -0.06    108.71   
    93. A(Si  9,C  10,C  13)          107.79 -0.000680    0.56    108.35   
    94. A(H  30,C  11,H  31)          108.31 -0.000859    0.27    108.57   
    95. A(C  10,C  11,H  31)          111.18  0.000828   -0.31    110.87   
    96. A(C  10,C  11,H  30)          111.45  0.000936   -0.33    111.12   
    97. A(H  31,C  11,H  32)          107.95 -0.000928    0.34    108.29   
    98. A(C  10,C  11,H  32)          110.36  0.000774   -0.26    110.10   
    99. A(H  30,C  11,H  32)          107.44 -0.000891    0.34    107.79   
   100. A(H  34,C  12,H  35)          108.06 -0.001476    0.50    108.56   
   101. A(H  33,C  12,H  35)          107.88 -0.000711    0.22    108.11   
   102. A(C  10,C  12,H  35)          110.99  0.001273   -0.46    110.52   
   103. A(H  33,C  12,H  34)          107.65 -0.001046    0.42    108.07   
   104. A(C  10,C  12,H  34)          110.36  0.000564   -0.20    110.15   
   105. A(C  10,C  12,H  33)          111.75  0.001214   -0.40    111.35   
   106. A(H  37,C  13,H  38)          107.92 -0.000718    0.26    108.18   
   107. A(C  10,C  13,H  37)          111.06  0.001163   -0.40    110.66   
   108. A(C  10,C  13,H  38)          110.55  0.000631   -0.23    110.32   
   109. A(H  36,C  13,H  38)          107.92 -0.001064    0.38    108.29   
   110. A(H  36,C  13,H  37)          108.15 -0.001144    0.40    108.55   
   111. A(C  10,C  13,H  36)          111.11  0.000988   -0.35    110.77   
   112. A(C  16,C  14,C  17)          109.44  0.000679   -0.34    109.10   
   113. A(C  15,C  14,C  17)          108.03 -0.000241    0.06    108.09   
   114. A(C  15,C  14,C  16)          107.82  0.000028   -0.12    107.70   
   115. A(Si  9,C  14,C  17)          110.37 -0.000453    0.29    110.66   
   116. A(Si  9,C  14,C  15)          109.37  0.000003    0.11    109.48   
   117. A(Si  9,C  14,C  16)          111.71 -0.000014   -0.00    111.70   
   118. A(H  39,C  15,H  41)          107.65 -0.001072    0.36    108.01   
   119. A(C  14,C  15,H  41)          110.50  0.000978   -0.34    110.16   
   120. A(H  39,C  15,H  40)          108.33 -0.000884    0.33    108.66   
   121. A(C  14,C  15,H  40)          111.55  0.000597   -0.21    111.34   
   122. A(C  14,C  15,H  39)          111.10  0.000930   -0.32    110.78   
   123. A(H  40,C  15,H  41)          107.55 -0.000689    0.23    107.78   
   124. A(C  14,C  16,H  44)          111.43  0.000969   -0.34    111.08   
   125. A(H  42,C  16,H  44)          108.37 -0.000454    0.15    108.52   
   126. A(H  42,C  16,H  43)          107.92 -0.001042    0.38    108.30   
   127. A(C  14,C  16,H  43)          110.48  0.000877   -0.30    110.18   
   128. A(C  14,C  16,H  42)          111.16  0.001036   -0.36    110.80   
   129. A(H  43,C  16,H  44)          107.34 -0.001557    0.54    107.88   
   130. A(C  14,C  17,H  47)          110.47  0.000971   -0.31    110.17   
   131. A(H  46,C  17,H  47)          107.77 -0.001199    0.45    108.21   
   132. A(H  45,C  17,H  47)          107.83 -0.001034    0.38    108.21   
   133. A(H  45,C  17,H  46)          107.89 -0.000990    0.29    108.18   
   134. A(C  14,C  17,H  46)          111.64  0.001150   -0.40    111.24   
   135. A(C  14,C  17,H  45)          111.09  0.000928   -0.34    110.74   
   136. A(C   3,O  18,Si  9)          118.60 -0.000871    0.68    119.28   
   137. A(C   5,O  19,C  20)          112.56 -0.002267    0.74    113.30   
   138. A(O  22,C  20,C  24)          114.61 -0.002772    0.87    115.47   
   139. A(H  21,C  20,C  24)          108.96  0.001470   -0.54    108.42   
   140. A(O  19,C  20,C  24)          110.77  0.001255   -0.48    110.29   
   141. A(H  21,C  20,O  22)          104.31  0.000715   -0.26    104.05   
   142. A(O  19,C  20,O  22)          108.67  0.000640   -0.28    108.40   
   143. A(O  19,C  20,H  21)          109.24 -0.001363    0.71    109.95   
   144. A(C  20,O  22,C  23)          115.50 -0.005027    1.22    116.72   
   145. A(O  22,C  23,H  50)          111.34  0.000879   -0.30    111.04   
   146. A(H  49,C  23,H  50)          110.43  0.000121   -0.06    110.37   
   147. A(H  48,C  23,H  50)          108.77 -0.002301    0.72    109.49   
   148. A(H  48,C  23,H  49)          108.25 -0.001872    0.65    108.90   
   149. A(O  22,C  23,H  49)          111.19 -0.001064    0.32    111.51   
   150. A(O  22,C  23,H  48)          106.71  0.004234   -1.32    105.39   
   151. A(H  25,C  24,O  26)          108.22 -0.003872    1.58    109.80   
   152. A(C  20,C  24,O  26)          110.31  0.003981   -1.54    108.78   
   153. A(C   1,C  24,O  26)          109.45 -0.001092    1.11    110.56   
   154. A(C  20,C  24,H  25)          110.65  0.000092   -0.53    110.12   
   155. A(C   1,C  24,H  25)          108.85  0.001377   -0.51    108.35   
   156. A(C   1,C  24,C  20)          109.32 -0.000547   -0.06    109.26   
   157. A(C  24,O  26,H  51)          105.48 -0.000925    0.74    106.21   
   158. D(C  24,C   1,O   0,H  27)    171.01  0.000655   -0.16    170.85   
   159. D(C   3,C   1,O   0,H  27)     49.78 -0.000160    0.08     49.86   
   160. D(H   2,C   1,O   0,H  27)    -70.40  0.000431   -0.26    -70.66   
   161. D(C   5,C   3,C   1,H   2)    -67.70 -0.001236    1.57    -66.13   
   162. D(H   4,C   3,C   1,C  24)    -65.58 -0.000464    0.51    -65.07   
   163. D(C   5,C   3,C   1,O   0)    173.92  0.001530   -0.44    173.48   
   164. D(C   5,C   3,C   1,C  24)     54.20  0.000475   -0.17     54.03   
   165. D(H   4,C   3,C   1,H   2)    172.51 -0.002175    2.26    174.77   
   166. D(H   4,C   3,C   1,O   0)     54.14  0.000591    0.24     54.38   
   167. D(C   7,C   5,C   3,H   4)    -59.18 -0.000624    0.78    -58.40   
   168. D(H   6,C   5,C   3,O  18)    -56.62 -0.000333    0.26    -56.37   
   169. D(C   7,C   5,C   3,C   1)   -177.82 -0.000477    0.66   -177.16   
   170. D(H   6,C   5,C   3,H   4)   -178.44 -0.000437    0.58   -177.86   
   171. D(C   7,C   5,C   3,O  18)     62.63 -0.000519    0.46     63.10   
   172. D(H   6,C   5,C   3,C   1)     62.93 -0.000291    0.45     63.38   
   173. D(H  28,C   7,C   5,H   6)    -60.63  0.000326   -0.50    -61.13   
   174. D(H  28,C   7,C   5,O  19)     58.94 -0.000278   -0.17     58.77   
   175. D(H  28,C   7,C   5,C   3)    179.53 -0.001117    0.11    179.64   
   176. D(O   8,C   7,C   5,O  19)    178.28  0.000122   -0.56    177.72   
   177. D(O   8,C   7,C   5,H   6)     58.71  0.000726   -0.89     57.82   
   178. D(O   8,C   7,C   5,C   3)    -61.13 -0.000717   -0.28    -61.41   
   179. D(Si  9,O   8,C   7,H  28)    166.51  0.001733   -1.65    164.86   
   180. D(Si  9,O   8,C   7,H  29)    -77.35 -0.002553    0.39    -76.96   
   181. D(Si  9,O   8,C   7,C   5)     45.89  0.001533   -1.37     44.52   
   182. D(O  18,Si  9,O   8,C   7)    -27.84 -0.000256    2.01    -25.83   
   183. D(C  14,Si  9,O   8,C   7)     91.72  0.002014    1.19     92.91   
   184. D(C  10,Si  9,O   8,C   7)   -141.87 -0.003436    3.47   -138.40   
   185. D(C  12,C  10,Si  9,O   8)    -49.69  0.000508   -0.75    -50.44   
   186. D(C  11,C  10,Si  9,O  18)     73.60 -0.000524    0.59     74.19   
   187. D(C  11,C  10,Si  9,C  14)    -48.24 -0.000319    0.19    -48.05   
   188. D(C  11,C  10,Si  9,O   8)   -172.30 -0.000020   -0.18   -172.48   
   189. D(C  12,C  10,Si  9,O  18)   -163.79  0.000003    0.02   -163.76   
   190. D(C  12,C  10,Si  9,C  14)     74.37  0.000209   -0.37     74.00   
   191. D(H  31,C  11,C  10,C  12)   -177.32  0.000003   -0.25   -177.58   
   192. D(H  31,C  11,C  10,Si  9)    -54.65  0.000460   -0.63    -55.29   
   193. D(H  30,C  11,C  10,C  13)   -175.14 -0.000339    0.06   -175.08   
   194. D(H  30,C  11,C  10,C  12)    -56.38  0.000122   -0.36    -56.74   
   195. D(H  31,C  11,C  10,C  13)     63.92 -0.000458    0.16     64.08   
   196. D(H  30,C  11,C  10,Si  9)     66.29  0.000580   -0.74     65.55   
   197. D(H  34,C  12,C  10,C  13)     58.22  0.000592   -0.83     57.39   
   198. D(H  34,C  12,C  10,C  11)    -60.73  0.000000   -0.42    -61.16   
   199. D(H  34,C  12,C  10,Si  9)    176.05 -0.000021   -0.29    175.76   
   200. D(H  33,C  12,C  10,C  13)    177.97  0.000449   -0.70    177.27   
   201. D(H  33,C  12,C  10,C  11)     59.02 -0.000144   -0.30     58.73   
   202. D(H  33,C  12,C  10,Si  9)    -64.19 -0.000165   -0.16    -64.35   
   203. D(H  37,C  13,C  10,C  12)     60.48 -0.000199    0.13     60.61   
   204. D(H  37,C  13,C  10,C  11)   -179.67  0.000512   -0.53   -180.20   
   205. D(H  37,C  13,C  10,Si  9)    -58.95 -0.000227    0.06    -58.89   
   206. D(H  36,C  13,C  10,C  12)   -179.09 -0.000197    0.13   -178.96   
   207. D(H  36,C  13,C  10,C  11)    -59.24  0.000514   -0.54    -59.77   
   208. D(H  36,C  13,C  10,Si  9)     61.48 -0.000226    0.05     61.53   
   209. D(C  16,C  14,Si  9,O  18)   -163.67  0.000036    0.01   -163.66   
   210. D(C  16,C  14,Si  9,C  10)    -43.39 -0.000321    0.36    -43.03   
   211. D(C  16,C  14,Si  9,O   8)     78.44  0.000008    0.38     78.81   
   212. D(C  15,C  14,Si  9,O  18)     77.05  0.000007    0.09     77.14   
   213. D(C  15,C  14,Si  9,C  10)   -162.67 -0.000349    0.44   -162.24   
   214. D(C  15,C  14,Si  9,O   8)    -40.85 -0.000020    0.46    -40.39   
   215. D(H  40,C  15,C  14,C  16)    179.15  0.000282   -0.23    178.92   
   216. D(H  40,C  15,C  14,Si  9)    -59.19  0.000284   -0.25    -59.44   
   217. D(H  39,C  15,C  14,C  17)   -178.05 -0.000479    0.26   -177.79   
   218. D(H  39,C  15,C  14,C  16)    -59.87  0.000209   -0.17    -60.04   
   219. D(H  40,C  15,C  14,C  17)     60.97 -0.000406    0.20     61.17   
   220. D(H  39,C  15,C  14,Si  9)     61.79  0.000211   -0.19     61.60   
   221. D(H  43,C  16,C  14,C  17)     63.16  0.000172   -0.47     62.69   
   222. D(H  43,C  16,C  14,C  15)    -54.11  0.000074   -0.28    -54.40   
   223. D(H  43,C  16,C  14,Si  9)   -174.31  0.000061   -0.34   -174.65   
   224. D(H  42,C  16,C  14,C  17)   -177.06  0.000119   -0.42   -177.48   
   225. D(H  42,C  16,C  14,C  15)     65.67  0.000021   -0.24     65.43   
   226. D(H  42,C  16,C  14,Si  9)    -54.52  0.000007   -0.30    -54.82   
   227. D(H  46,C  17,C  14,C  16)     61.51 -0.000146    0.26     61.76   
   228. D(H  46,C  17,C  14,C  15)    178.65  0.000123   -0.04    178.61   
   229. D(H  46,C  17,C  14,Si  9)    -61.82 -0.000286    0.30    -61.52   
   230. D(H  45,C  17,C  14,C  16)   -178.01  0.000014    0.11   -177.90   
   231. D(H  45,C  17,C  14,C  15)    -60.87  0.000283   -0.18    -61.06   
   232. D(H  45,C  17,C  14,Si  9)     58.66 -0.000126    0.15     58.81   
   233. D(C   3,O  18,Si  9,C  14)    -92.12 -0.001451   -1.44    -93.56   
   234. D(C   3,O  18,Si  9,C  10)    142.65  0.004356   -3.90    138.76   
   235. D(C   3,O  18,Si  9,O   8)     28.45  0.000465   -2.15     26.30   
   236. D(Si  9,O  18,C   3,C   5)    -47.72 -0.001060    1.45    -46.27   
   237. D(Si  9,O  18,C   3,H   4)     74.78  0.000859    0.31     75.09   
   238. D(Si  9,O  18,C   3,C   1)   -167.99 -0.000931    1.30   -166.70   
   239. D(C  20,O  19,C   5,C   7)   -176.35 -0.000820    0.42   -175.93   
   240. D(C  20,O  19,C   5,H   6)    -57.72 -0.001584    0.73    -56.99   
   241. D(C  20,O  19,C   5,C   3)     63.15  0.000890   -0.34     62.81   
   242. D(C  24,C  20,O  19,C   5)    -61.63 -0.000981   -0.21    -61.84   
   243. D(O  22,C  20,O  19,C   5)    171.62  0.001221   -0.78    170.84   
   244. D(H  21,C  20,O  19,C   5)     58.40  0.000747   -0.70     57.70   
   245. D(C  23,O  22,C  20,C  24)    -60.10  0.000224    0.01    -60.10   
   246. D(C  23,O  22,C  20,H  21)   -179.16 -0.000543    0.37   -178.79   
   247. D(C  23,O  22,C  20,O  19)     64.41  0.000371   -0.20     64.21   
   248. D(H  50,C  23,O  22,C  20)    -50.47 -0.000344    1.17    -49.30   
   249. D(H  49,C  23,O  22,C  20)     73.13 -0.000323    1.11     74.24   
   250. D(H  48,C  23,O  22,C  20)   -169.02 -0.000626    1.28   -167.74   
   251. D(H  25,C  24,C  20,O  22)     58.73 -0.000663    1.32     60.05   
   252. D(H  25,C  24,C  20,H  21)    175.14 -0.000454    1.16    176.30   
   253. D(C   1,C  24,C  20,O  22)    178.60  0.000748    0.32    178.92   
   254. D(C   1,C  24,C  20,H  21)    -64.98  0.000957    0.16    -64.83   
   255. D(C   1,C  24,C  20,O  19)     55.21  0.000989    0.41     55.62   
   256. D(H  25,C  24,C   1,C   3)     68.29  0.000573   -1.42     66.87   
   257. D(H  25,C  24,C   1,H   2)   -169.66  0.002614   -3.26   -172.91   
   258. D(H  25,C  24,C   1,O   0)    -52.84  0.000518   -1.77    -54.61   
   259. D(H  25,C  24,C  20,O  19)    -64.66 -0.000423    1.41    -63.25   
   260. D(C  20,C  24,C   1,C   3)    -52.69 -0.000053   -0.41    -53.10   
   261. D(C  20,C  24,C   1,H   2)     69.37  0.001989   -2.25     67.12   
   262. D(C  20,C  24,C   1,O   0)   -173.81 -0.000108   -0.77   -174.58   
   263. D(H  51,O  26,C  24,H  25)     68.59 -0.000794    0.75     69.35   
   264. D(H  51,O  26,C  24,C  20)   -170.22 -0.000704    0.20   -170.03   
   265. D(H  51,O  26,C  24,C   1)    -49.90  0.000417   -0.11    -50.00   
    ----------------------------------------------------------------------------

Geometry step timings:
Preparation and reading OPT file:      0.001 s ( 3.306 %)
Internal coordinates            :      0.000 s ( 0.143 %)
B/P matrices and projection     :      0.006 s (26.254 %)
Hessian update/contruction      :      0.009 s (40.666 %)
Making the step                 :      0.004 s (16.707 %)
Converting the step to Cartesian:      0.001 s ( 2.383 %)
Storing new data                :      0.001 s ( 3.849 %)
Checking convergence            :      0.000 s ( 0.147 %)
Final printing                  :      0.001 s ( 6.540 %)
Total time                      :      0.022 s

Time for energy+gradient        :      0.097 s
Time for complete geometry iter :      0.132 s

         *************************************************************
         *                GEOMETRY OPTIMIZATION CYCLE   3            *
         *************************************************************
---------------------------------
CARTESIAN COORDINATES (ANGSTROEM)
---------------------------------
  O    -3.653311    1.986297   -0.216039
  C    -2.274771    1.743811   -0.037272
  H    -2.094881    1.449994    1.009154
  C    -1.785799    0.633530   -0.965484
  H    -2.054671    0.894392   -1.997319
  C    -0.270654    0.517681   -0.855727
  H    -0.016636    0.218232    0.173731
  C     0.262816   -0.533198   -1.819521
  O    -0.259370   -1.793792   -1.529967
  Si   -1.867663   -1.998433   -1.197918
  C    -1.942939   -3.234022    0.262861
  C    -3.372907   -3.660311    0.558838
  C    -1.094654   -4.459970   -0.043368
  C    -1.368723   -2.548246    1.503843
  C    -2.854574   -2.443001   -2.813653
  C    -2.330321   -1.598932   -3.981665
  C    -2.687102   -3.911711   -3.190866
  C    -4.342173   -2.138118   -2.638061
  O    -2.429077   -0.552361   -0.600637
  O     0.334331    1.747147   -1.170720
  C    -0.016926    2.788987   -0.278648
  H     0.254040    2.508200    0.753886
  O     0.780435    3.880686   -0.548932
  C     0.626284    4.483435   -1.824590
  C    -1.530421    3.047055   -0.330367
  H    -1.821337    3.393397   -1.333448
  O    -1.855113    4.025647    0.623317
  H    -4.087680    1.126287   -0.170890
  H     1.351737   -0.599363   -1.732753
  H     0.013019   -0.244248   -2.844905
  H    -3.790500   -4.228307   -0.266433
  H    -4.004317   -2.796665    0.738282
  H    -3.399082   -4.293249    1.445480
  H    -1.488785   -5.011261   -0.889651
  H    -1.076800   -5.128559    0.816938
  H    -0.075729   -4.169009   -0.275558
  H    -1.957809   -1.675458    1.768571
  H    -0.344051   -2.233144    1.328035
  H    -1.372975   -3.233459    2.350896
  H    -1.281342   -1.811174   -4.170418
  H    -2.439711   -0.535533   -3.781818
  H    -2.888410   -1.825962   -4.888916
  H    -1.636423   -4.169486   -3.279423
  H    -3.170023   -4.111507   -4.146440
  H    -3.139396   -4.559696   -2.447197
  H    -4.494621   -1.089194   -2.404868
  H    -4.772269   -2.728889   -1.836740
  H    -4.882716   -2.364781   -3.555895
  H     1.471234    5.160699   -1.927791
  H    -0.300687    5.061300   -1.885885
  H     0.660647    3.734899   -2.618272
  H    -2.820282    4.044620    0.673005

----------------------------
CARTESIAN COORDINATES (A.U.)
----------------------------
  NO LB    ZA    FRAG    MASS        X           Y           Z
   0 O   8.0000    1    15.999   -6.903757    3.753557   -0.408254
   1 C   6.0000    1    12.011   -4.298695    3.295326   -0.070433
   2 H   1.0000    1     1.008   -3.958751    2.740091    1.907025
   3 C   6.0000    1    12.011   -3.374670    1.197199   -1.824499
   4 H   1.0000    1     1.008   -3.882765    1.690156   -3.774387
   5 C   6.0000    1    12.011   -0.511462    0.978275   -1.617090
   6 H   1.0000    1     1.008   -0.031438    0.412399    0.328303
   7 C   6.0000    1    12.011    0.496650   -1.007598   -3.438396
   8 O   8.0000    1    15.999   -0.490138   -3.389775   -2.891219
   9 Si 14.0000    1    28.086   -3.529371   -3.776491   -2.263737
  10 C   6.0000    1    12.011   -3.671623   -6.111416    0.496735
  11 C   6.0000    1    12.011   -6.373870   -6.916985    1.056050
  12 C   6.0000    1    12.011   -2.068597   -8.428122   -0.081953
  13 C   6.0000    1    12.011   -2.586513   -4.815487    2.841851
  14 C   6.0000    1    12.011   -5.394363   -4.616603   -5.317034
  15 C   6.0000    1    12.011   -4.403669   -3.021544   -7.524257
  16 C   6.0000    1    12.011   -5.077887   -7.392063   -6.029863
  17 C   6.0000    1    12.011   -8.205517   -4.040457   -4.985213
  18 O   8.0000    1    15.999   -4.590291   -1.043811   -1.135039
  19 O   8.0000    1    15.999    0.631793    3.301630   -2.212340
  20 C   6.0000    1    12.011   -0.031986    5.270422   -0.526569
  21 H   1.0000    1     1.008    0.480066    4.739810    1.424638
  22 O   8.0000    1    15.999    1.474808    7.333433   -1.037332
  23 C   6.0000    1    12.011    1.183505    8.472464   -3.447976
  24 C   6.0000    1    12.011   -2.892077    5.758100   -0.624304
  25 H   1.0000    1     1.008   -3.441828    6.412590   -2.519852
  26 O   8.0000    1    15.999   -3.505655    7.607371    1.177899
  27 H   1.0000    1     1.008   -7.724596    2.128374   -0.322935
  28 H   1.0000    1     1.008    2.554412   -1.132632   -3.274429
  29 H   1.0000    1     1.008    0.024602   -0.461562   -5.376090
  30 H   1.0000    1     1.008   -7.163008   -7.990341   -0.503485
  31 H   1.0000    1     1.008   -7.567063   -5.284931    1.395150
  32 H   1.0000    1     1.008   -6.423333   -8.113065    2.731561
  33 H   1.0000    1     1.008   -2.813397   -9.469911   -1.681197
  34 H   1.0000    1     1.008   -2.034857   -9.691572    1.543789
  35 H   1.0000    1     1.008   -0.143107   -7.878284   -0.520730
  36 H   1.0000    1     1.008   -3.699722   -3.166158    3.342116
  37 H   1.0000    1     1.008   -0.650163   -4.220030    2.509623
  38 H   1.0000    1     1.008   -2.594547   -6.110352    4.442550
  39 H   1.0000    1     1.008   -2.421386   -3.422624   -7.880948
  40 H   1.0000    1     1.008   -4.610385   -1.012010   -7.146600
  41 H   1.0000    1     1.008   -5.458304   -3.450567   -9.238713
  42 H   1.0000    1     1.008   -3.092392   -7.879187   -6.197211
  43 H   1.0000    1     1.008   -5.990476   -7.769622   -7.835636
  44 H   1.0000    1     1.008   -5.932598   -8.616577   -4.624533
  45 H   1.0000    1     1.008   -8.493603   -2.058279   -4.544541
  46 H   1.0000    1     1.008   -9.018281   -5.156852   -3.470935
  47 H   1.0000    1     1.008   -9.226996   -4.468789   -6.719667
  48 H   1.0000    1     1.008    2.780229    9.752309   -3.642998
  49 H   1.0000    1     1.008   -0.568215    9.564471   -3.563806
  50 H   1.0000    1     1.008    1.248441    7.057937   -4.947818
  51 H   1.0000    1     1.008   -5.329560    7.643224    1.271796

      -----------------------------------------------------------      
     |                   =====================                   |     
     |                           x T B                           |     
     |                   =====================                   |     
     |                         S. Grimme                         |     
     |          Mulliken Center for Theoretical Chemistry        |     
     |                    University of Bonn                     |     
      -----------------------------------------------------------      

   * xtb version 6.7.1 (edcfbbe) compiled by 'albert@albert-system' on 2024-07-22

   xtb is free software: you can redistribute it and/or modify it under
   the terms of the GNU Lesser General Public License as published by
   the Free Software Foundation, either version 3 of the License, or
   (at your option) any later version.
   
   xtb is distributed in the hope that it will be useful,
   but WITHOUT ANY WARRANTY; without even the implied warranty of
   MERCHANTABILITY or FITNESS FOR A PARTICULAR PURPOSE.  See the
   GNU Lesser General Public License for more details.
   
   Cite this work as:
   * C. Bannwarth, E. Caldeweyher, S. Ehlert, A. Hansen, P. Pracht,
     J. Seibert, S. Spicher, S. Grimme, WIREs Comput. Mol. Sci., 2020, 11,
     e01493. DOI: 10.1002/wcms.1493
   
   for GFN2-xTB:
   * C. Bannwarth, S. Ehlert and S. Grimme., J. Chem. Theory Comput., 2019,
     15, 1652-1671. DOI: 10.1021/acs.jctc.8b01176
   for GFN1-xTB:
   * S. Grimme, C. Bannwarth, P. Shushkov, J. Chem. Theory Comput., 2017,
     13, 1989-2009. DOI: 10.1021/acs.jctc.7b00118
   for GFN0-xTB:
   * P. Pracht, E. Caldeweyher, S. Ehlert, S. Grimme, ChemRxiv, 2019, preprint.
     DOI: 10.26434/chemrxiv.8326202.v1
   for GFN-FF:
   * S. Spicher and S. Grimme, Angew. Chem. Int. Ed., 2020, 59, 15665-15673.
     DOI: 10.1002/anie.202004239
   
   for ALPB and GBSA implicit solvation:
   * S. Ehlert, M. Stahn, S. Spicher, S. Grimme, J. Chem. Theory Comput.,
     2021, 17, 4250-4261. DOI: 10.1021/acs.jctc.1c00471
   
   for ddCOSMO and CPCM-X implicit solvation:
   * M. Stahn, S. Ehlert, S. Grimme, J. Phys. Chem. A,
     2023, XX, XXXX-XXXX. DOI: 10.1021/acs.jpca.3c04382
   
   for DFT-D4:
   * E. Caldeweyher, C. Bannwarth and S. Grimme, J. Chem. Phys., 2017,
     147, 034112. DOI: 10.1063/1.4993215
   * E. Caldeweyher, S. Ehlert, A. Hansen, H. Neugebauer, S. Spicher,
     C. Bannwarth and S. Grimme, J. Chem. Phys., 2019, 150, 154122.
     DOI: 10.1063/1.5090222
   * E. Caldeweyher, J.-M. Mewes, S. Ehlert and S. Grimme, Phys. Chem. Chem. Phys.
     2020, 22, 8499-8512. DOI: 10.1039/D0CP00502A
   
   for sTDA-xTB:
   * S. Grimme and C. Bannwarth, J. Chem. Phys., 2016, 145, 054103.
     DOI: 10.1063/1.4959605
   
   in the mass-spec context:
   * V. Asgeirsson, C. Bauer and S. Grimme, Chem. Sci., 2017, 8, 4879.
     DOI: 10.1039/c7sc00601b
   * J. Koopman and S. Grimme, ACS Omega 2019, 4, 12, 15120-15133.
     DOI: 10.1021/acsomega.9b02011
   
   for metadynamics refer to:
   * S. Grimme, J. Chem. Theory Comput., 2019, 155, 2847-2862
     DOI: 10.1021/acs.jctc.9b00143
   
   for SPH calculations refer to:
   * S. Spicher and S. Grimme, J. Chem. Theory Comput., 2021, 17, 1701-1714
     DOI: 10.1021/acs.jctc.0c01306
   
   for ONIOM refer to:
   * C. Plett, A. Katbashev, S. Ehlert, S. Grimme, M. Bursch,
     Phys. Chem. Chem. Phys., 2023, 25, 17860-17868. DOI: 10.1039/D3CP02178E
   
   for DIPRO refer to:
   * J. Kohn, N. Gildemeister, S. Grimme, D. Fazzi, A. Hansen,
     J. Chem. Phys., 2023, just accepted.
   
   for PTB refer to:
   * S. Grimme, M. Mueller, A. Hansen, J. Chem. Phys., 2023, 158, 124111.
     DOI: 10.1063/5.0137838
   
   with help from (in alphabetical order)
   P. Atkinson, C. Bannwarth, F. Bohle, G. Brandenburg, E. Caldeweyher
   M. Checinski, S. Dohm, S. Ehlert, S. Ehrlich, I. Gerasimov, C. Hölzer
   A. Katbashev, J. Kohn, J. Koopman, C. Lavigne, S. Lehtola, F. März, M. Müller,
   F. Musil, H. Neugebauer, J. Pisarek, C. Plett, P. Pracht, F. Pultar,
   J. Seibert, P. Shushkov, S. Spicher, M. Stahn, M. Steiner, T. Strunk,
   J. Stückrath, T. Rose, and J. Unsleber
   
 * started run on 2025/09/10 at 11:31:43.723     
   ID    Z sym.   atoms
    1    8 O      1, 9, 19, 20, 23, 27
    2    6 C      2, 4, 6, 8, 11-18, 21, 24, 25
    3    1 H      3, 5, 7, 22, 26, 28-52
    4   14 Si     10

           -------------------------------------------------
          |                Calculation Setup                |
           -------------------------------------------------

          program call               : /home/kmoult/orca_6_1/otool_xtb goat_0_XTB.xyz --grad -c 0 -u 0 -P 4 --namespace goat_0 --input goat_0_XTB.input.tmp --alpb ACETONE --acc 0.200000
          hostname                   : node3306
          calculation namespace      : goat_0
          coordinate file            : goat_0_XTB.xyz
          omp threads                :                     4


           -------------------------------------------------
          |                 G F N 2 - x T B                 |
           -------------------------------------------------

        Reference                      10.1021/acs.jctc.8b01176
      * Hamiltonian:
        H0-scaling (s, p, d)           1.850000    2.230000    2.230000
        zeta-weighting                 0.500000
      * Dispersion:
        s8                             2.700000
        a1                             0.520000
        a2                             5.000000
        s9                             5.000000
      * Repulsion:
        kExp                           1.500000    1.000000
        rExp                           1.000000
      * Coulomb:
        alpha                          2.000000
        third order                    shell-resolved
        anisotropic                    true
        a3                             3.000000
        a5                             4.000000
        cn-shift                       1.200000
        cn-exp                         4.000000
        max-rad                        5.000000

      * Solvation model:               ALPB
        Solvent                        ACETONE
        Parameter file                 internal GFN2-xTB/ALPB
        Dielectric constant                2.0700E+01
        Reference state                gsolv [1 M gas/solution]
        Free energy shift                  5.9241E-03 Eh       3.7175E+00 kcal/mol
        Temperature                        2.9815E+02 K
        Density                            7.9000E-01 kg/L
        Solvent mass                       5.8080E+01 g/mol
        Interaction kernel             P16
        Born radius scaling (c1)           1.8274E+00
        Born radii integrator          GBOBC
        Born offset                        0.0000E+00 a0       0.0000E+00 AA
        H-bond correction              true
        Ion screening                  false
        Surface tension                    1.0000E-05 Eh       1.5569E+01 dyn/cm
        Grid points                               230 per atom
q/qsh data taken from xtbrestart
CAMM data taken from xtbrestart

          ...................................................
          :                      SETUP                      :
          :.................................................:
          :  # basis functions                 124          :
          :  # atomic orbitals                 123          :
          :  # shells                           75          :
          :  # electrons                       130          :
          :  max. iterations                   250          :
          :  Hamiltonian                  GFN2-xTB          :
          :  restarted?                       true          :
          :  GBSA solvation                   true          :
          :  PC potential                    false          :
          :  electronic temp.          300.0000000     K    :
          :  accuracy                    0.2000000          :
          :  -> integral cutoff          0.3198970E+02      :
          :  -> integral neglect         0.2000000E-08      :
          :  -> SCF convergence          0.2000000E-06 Eh   :
          :  -> wf. convergence          0.2000000E-04 e    :
          :  Broyden damping             0.4000000          :
          :  net charge                          0          :
          :  unpaired electrons                  0          :
          ...................................................

 iter      E             dE          RMSdq      gap      omega  full diag
   1    -74.4454000 -0.744454E+02  0.296E-01    5.64       0.0  T
   2    -74.4457726 -0.372596E-03  0.183E-01    5.50       1.0  T
   3    -74.4456964  0.761777E-04  0.124E-01    5.60       1.0  T
   4    -74.4460046 -0.308164E-03  0.314E-02    5.53       1.0  T
   5    -74.4460054 -0.840303E-06  0.176E-02    5.53       1.0  T
   6    -74.4460059 -0.441528E-06  0.612E-03    5.53       2.3  T
   7    -74.4460060 -0.157179E-06  0.237E-03    5.53       5.9  T
   8    -74.4460061 -0.499412E-07  0.151E-03    5.53       9.2  T
   9    -74.4460061 -0.507947E-08  0.593E-04    5.53      23.4  T
  10    -74.4460061 -0.122444E-08  0.301E-04    5.53      46.1  T
  11    -74.4460061 -0.579163E-09  0.702E-05    5.53     197.5  T
  12    -74.4460061 -0.303544E-10  0.414E-05    5.53     334.8  T

   *** convergence criteria satisfied after 12 iterations ***

         #    Occupation            Energy/Eh            Energy/eV
      -------------------------------------------------------------
         1        2.0000           -0.8187846             -22.2803
       ...           ...                  ...                  ...
        59        2.0000           -0.4262892             -11.5999
        60        2.0000           -0.4248990             -11.5621
        61        2.0000           -0.4231111             -11.5134
        62        2.0000           -0.4185007             -11.3880
        63        2.0000           -0.4133487             -11.2478
        64        2.0000           -0.4057208             -11.0402
        65        2.0000           -0.3721877             -10.1277 (HOMO)
        66                         -0.1688940              -4.5958 (LUMO)
        67                         -0.1406457              -3.8272
        68                         -0.0966947              -2.6312
        69                         -0.0489770              -1.3327
        70                         -0.0053427              -0.1454
       ...                                ...                  ...
       123                          0.7700453              20.9540
      -------------------------------------------------------------
                  HL-Gap            0.2032937 Eh            5.5319 eV
             Fermi-level           -0.2705408 Eh           -7.3618 eV

 SCC (total)                   0 d,  0 h,  0 min,  0.035 sec
 SCC setup                      ...        0 min,  0.001 sec (  1.897%)
 Dispersion                     ...        0 min,  0.000 sec (  1.082%)
 classical contributions        ...        0 min,  0.000 sec (  0.116%)
 integral evaluation            ...        0 min,  0.004 sec ( 12.503%)
 iterations                     ...        0 min,  0.022 sec ( 60.899%)
 molecular gradient             ...        0 min,  0.008 sec ( 23.059%)
 printout                       ...        0 min,  0.000 sec (  0.405%)

         :::::::::::::::::::::::::::::::::::::::::::::::::::::
         ::                     SUMMARY                     ::
         :::::::::::::::::::::::::::::::::::::::::::::::::::::
         :: total energy             -73.689243635098 Eh    ::
         :: total w/o Gsasa/hb       -73.660729330109 Eh    ::
         :: gradient norm              0.019666314469 Eh/a0 ::
         :: HOMO-LUMO gap              5.531903145842 eV    ::
         ::.................................................::
         :: SCC energy               -74.444621463095 Eh    ::
         :: -> isotropic ES            0.158111021638 Eh    ::
         :: -> anisotropic ES          0.002541415502 Eh    ::
         :: -> anisotropic XC          0.004639313911 Eh    ::
         :: -> dispersion             -0.053600725757 Eh    ::
         :: -> Gsolv                  -0.031487191452 Eh    ::
         ::    -> Gelec               -0.002972886462 Eh    ::
         ::    -> Gsasa               -0.028799304429 Eh    ::
         ::    -> Ghb                 -0.005639141824 Eh    ::
         ::    -> Gshift               0.005924141264 Eh    ::
         :: repulsion energy           0.755377827997 Eh    ::
         :: add. restraining           0.000000000000 Eh    ::
         :: total charge              -0.000000000000 e     ::
         :::::::::::::::::::::::::::::::::::::::::::::::::::::


Property printout bound to 'properties.out'

           -------------------------------------------------
          | TOTAL ENERGY              -73.689243635098 Eh   |
          | GRADIENT NORM               0.019666314469 Eh/α |
          | HOMO-LUMO GAP               5.531903145842 eV   |
           -------------------------------------------------

------------------------------------------------------------------------
 * finished run on 2025/09/10 at 11:31:43.781     
------------------------------------------------------------------------
 total:
 * wall-time:     0 d,  0 h,  0 min,  0.058 sec
 *  cpu-time:     0 d,  0 h,  0 min,  0.211 sec
 * ratio c/w:     3.650 speedup
 SCF:
 * wall-time:     0 d,  0 h,  0 min,  0.036 sec
 *  cpu-time:     0 d,  0 h,  0 min,  0.142 sec
 * ratio c/w:     3.982 speedup


-------------------------   --------------------
FINAL SINGLE POINT ENERGY       -73.689243635100
-------------------------   --------------------


-------------
DIPOLE MOMENT
-------------
                                X             Y             Z
Total Dipole Moment    :     -0.95900      -0.89900      -0.75200
                        -----------------------------------------
Magnitude (a.u.)       :      1.51439
Magnitude (Debye)      :      3.84928


------------------
CARTESIAN GRADIENT
------------------

   1   O   :   -0.002437334    0.000141843   -0.000037462
   2   C   :    0.004350478   -0.001222580    0.000631544
   3   H   :   -0.002117769    0.000529989    0.000350361
   4   C   :    0.002097385    0.000972683   -0.002254274
   5   H   :   -0.000681129   -0.000803175    0.000875739
   6   C   :   -0.002745288   -0.001885300    0.000869348
   7   H   :    0.000842994    0.000456819   -0.000313668
   8   C   :   -0.002301585    0.001936880    0.000962168
   9   O   :    0.005891063    0.002669279    0.000039183
  10   Si  :   -0.001245361   -0.001149310    0.000454435
  11   C   :   -0.001756363   -0.005609582    0.002463425
  12   C   :    0.002203907    0.002506529   -0.001967972
  13   C   :   -0.001335973    0.003887509   -0.000777953
  14   C   :   -0.000558496    0.000362937   -0.003470319
  15   C   :   -0.003231174   -0.003691449   -0.003408215
  16   C   :   -0.000501263   -0.000749559    0.002017679
  17   C   :    0.000465345    0.002423546    0.001402909
  18   C   :    0.002749015    0.000108898    0.000881637
  19   O   :   -0.000157188    0.004928185    0.003354250
  20   O   :   -0.000508596    0.001065905    0.001009898
  21   C   :   -0.004016154   -0.000814033   -0.000377899
  22   H   :    0.001096395    0.000463457   -0.000396927
  23   O   :   -0.000994181   -0.001686306   -0.001556639
  24   C   :    0.000104493   -0.001985541    0.002856016
  25   C   :    0.002467659   -0.003347710   -0.002380904
  26   H   :   -0.001055747    0.001604851    0.001102549
  27   O   :   -0.000934938    0.001044685    0.000964089
  28   H   :    0.002556443    0.000553460   -0.000081573
  29   H   :    0.000239067   -0.000717883   -0.000421519
  30   H   :    0.000131222   -0.001226775    0.000105766
  31   H   :    0.000129718    0.000173200    0.000717449
  32   H   :    0.000464594   -0.000837574   -0.000159042
  33   H   :    0.000166787    0.000300844   -0.000323537
  34   H   :    0.000542955    0.000297902    0.000465058
  35   H   :   -0.000182273    0.000250528   -0.000272551
  36   H   :   -0.000826685   -0.000378549    0.000161081
  37   H   :    0.000575567   -0.000560051   -0.000179016
  38   H   :   -0.000900075    0.000013956    0.000192995
  39   H   :   -0.000018881    0.000335159   -0.000280124
  40   H   :   -0.000598464    0.000233694   -0.000080336
  41   H   :    0.000192968   -0.000480191   -0.000236232
  42   H   :    0.000408967    0.000148864    0.000372283
  43   H   :   -0.000931818    0.000109755    0.000094254
  44   H   :    0.000288927    0.000053855    0.000301453
  45   H   :    0.000315560    0.000288381   -0.000662509
  46   H   :   -0.000042787   -0.000891564   -0.000206560
  47   H   :    0.000068095    0.000536175   -0.000713429
  48   H   :    0.000120479    0.000168816    0.000429848
  49   H   :   -0.000553029    0.000041886   -0.000582894
  50   H   :    0.000111235    0.000664857   -0.000326074
  51   H   :    0.000650253    0.000333234   -0.000285577
  52   H   :    0.001400976   -0.001571428   -0.001322209

Difference to translation invariance:
           :    0.0000000000    0.0000000000    0.0000000000

Difference to rotation invariance:
           :   -0.0000626931   -0.0002322693   -0.0003146608

Norm of the Cartesian gradient     ...    0.0196663145
RMS gradient                       ...    0.0015745653
MAX gradient                       ...    0.0058910626
------------------------------------------------------------------------------
                         ORCA GEOMETRY RELAXATION STEP
------------------------------------------------------------------------------

Reading the OPT-File                    .... done
Getting information on internals        .... done
Copying old internal coords+grads       .... done
Making the new internal coordinates     .... (2022 redundants) done
Validating the new internal coordinates .... (2022 redundants) done
Calculating the B-matrix                .... done
Calculating the G,G- and P matrices     .... done
Transforming gradient to internals      .... done
Projecting the internal gradient        .... done
Number of atoms                         ....  52
Number of internal coordinates          .... 265
Current Energy                          ....   -73.689243635 Eh
Current gradient norm                   ....     0.019666314 Eh/bohr
Maximum allowed component of the step   ....  0.300
Current trust radius                    ....  0.300
Updating the Hessian (BFGS)             .... done
Forming the augmented Hessian           .... done
Diagonalizing the augmented Hessian     .... done
Last element of RFO vector              ....  0.989140129
Lowest eigenvalues of augmented Hessian:
 -0.001084187  0.010000000  0.010000004  0.010000128  0.010013686
Length of the computed step             ....  0.148589186
The final length of the internal step   ....  0.148589186
Converting the step to Cartesian space:
 Initial RMS(Int)=    0.0091277611
Transforming coordinates:
 Iter   0:  RMS(Cart)=    0.0399555197 RMS(Int)=    0.0091559510
done
Storing new coordinates                 .... done
The predicted energy change is          ....    -0.000554062
Previously predicted energy change      ....    -0.004356690
Actually observed energy change         ....    -0.004467174
Ratio of predicted to observed change   ....     1.025359598
New trust radius                        ....     0.450000000

                                .--------------------.
          ----------------------|Geometry convergence|-------------------------
          Item                value                   Tolerance       Converged
          ---------------------------------------------------------------------
          Energy change      -0.0044671743            0.0000050000      NO
          RMS gradient        0.0009671350            0.0001000000      NO
          MAX gradient        0.0041830943            0.0003000000      NO
          RMS step            0.0091277611            0.0020000000      NO
          MAX step            0.0406261938            0.0040000000      NO
          -------------------------------------------------------------------------
          ........................................................
          Max(Bonds)      0.0215      Max(Angles)    0.96
          Max(Dihed)        2.30      Max(Improp)    0.00
          ---------------------------------------------------------------------

    ---------------------------------------------------------------------------
                         Redundant Internal Coordinates
                            (Angstroem and degrees)

        Definition                    Value    dE/dq     Step     New-Value
    ----------------------------------------------------------------------------
     1. B(C   1,O   0)                1.4111  0.001412 -0.0022    1.4088   
     2. B(H   2,C   1)                1.1017 -0.000154  0.0005    1.1022   
     3. B(C   3,C   1)                1.5275 -0.000831  0.0025    1.5300   
     4. B(H   4,C   3)                1.0977 -0.000847  0.0012    1.0990   
     5. B(C   5,C   3)                1.5235 -0.002234  0.0028    1.5264   
     6. B(H   6,C   5)                1.1018 -0.000224  0.0005    1.1023   
     7. B(C   7,C   5)                1.5224 -0.001751  0.0017    1.5242   
     8. B(O   8,C   7)                1.3949 -0.003006  0.0012    1.3961   
     9. B(Si  9,O   8)                1.6549  0.003605 -0.0036    1.6513   
    10. B(C  10,Si  9)                1.9147 -0.003039 -0.0011    1.9136   
    11. B(C  11,C  10)                1.5212 -0.003730  0.0045    1.5257   
    12. B(C  12,C  10)                1.5219 -0.004183  0.0051    1.5270   
    13. B(C  13,C  10)                1.5297 -0.003301  0.0038    1.5335   
    14. B(C  14,Si  9)                1.9448  0.000590 -0.0058    1.9390   
    15. B(C  15,C  14)                1.5335 -0.002217  0.0024    1.5359   
    16. B(C  16,C  14)                1.5256 -0.003034  0.0036    1.5292   
    17. B(C  17,C  14)                1.5286 -0.002786  0.0032    1.5318   
    18. B(O  18,Si  9)                1.6622  0.002582 -0.0028    1.6594   
    19. B(O  18,C   3)                1.3976 -0.002113  0.0007    1.3983   
    20. B(O  19,C   5)                1.4060 -0.001967  0.0008    1.4068   
    21. B(C  20,O  19)                1.4158 -0.002895  0.0020    1.4178   
    22. B(H  21,C  20)                1.1038 -0.000221  0.0007    1.1046   
    23. B(O  22,C  20)                1.3786 -0.002500 -0.0005    1.3782   
    24. B(C  23,O  22)                1.4193 -0.001925  0.0022    1.4215   
    25. B(C  24,C  20)                1.5362 -0.003372  0.0041    1.5403   
    26. B(C  24,C   1)                1.5292 -0.001526  0.0031    1.5323   
    27. B(H  25,C  24)                1.1003 -0.000221  0.0007    1.1010   
    28. B(O  26,C  24)                1.4045  0.000132 -0.0013    1.4032   
    29. B(H  27,O   0)                0.9645 -0.002093  0.0010    0.9656   
    30. B(H  27,O  18)                2.3986 -0.001462  0.0215    2.4201   
    31. B(H  28,C   7)                1.0944  0.000247 -0.0005    1.0938   
    32. B(H  29,C   7)                1.0942 -0.000452  0.0005    1.0947   
    33. B(H  30,C  11)                1.0854 -0.000687  0.0005    1.0859   
    34. B(H  31,C  11)                1.0848 -0.000965  0.0007    1.0855   
    35. B(H  32,C  11)                1.0897 -0.000441  0.0002    1.0899   
    36. B(H  33,C  12)                1.0842 -0.000712  0.0005    1.0847   
    37. B(H  34,C  12)                1.0897 -0.000373  0.0001    1.0898   
    38. B(H  35,C  12)                1.0848 -0.000911  0.0007    1.0854   
    39. B(H  36,C  13)                1.0858 -0.000807  0.0005    1.0863   
    40. B(H  37,C  13)                1.0863 -0.000874  0.0007    1.0870   
    41. B(H  38,C  13)                1.0895 -0.000429  0.0002    1.0897   
    42. B(H  39,C  15)                1.0868 -0.000610  0.0003    1.0871   
    43. B(H  40,C  15)                1.0875 -0.000532  0.0003    1.0878   
    44. B(H  41,C  15)                1.0891 -0.000550  0.0004    1.0894   
    45. B(H  42,C  16)                1.0855 -0.000936  0.0007    1.0862   
    46. B(H  43,C  16)                1.0892 -0.000402  0.0001    1.0893   
    47. B(H  44,C  16)                1.0851 -0.000758  0.0006    1.0857   
    48. B(H  45,C  17)                1.0853 -0.000900  0.0007    1.0859   
    49. B(H  46,C  17)                1.0845 -0.000845  0.0007    1.0851   
    50. B(H  47,C  17)                1.0890 -0.000458  0.0002    1.0892   
    51. B(H  48,C  23)                1.0878 -0.000349  0.0001    1.0879   
    52. B(H  49,C  23)                1.0941  0.000277 -0.0004    1.0937   
    53. B(H  50,C  23)                1.0915 -0.000001 -0.0002    1.0914   
    54. B(H  51,O   0)                2.3919 -0.001100  0.0131    2.4049   
    55. B(H  51,O  26)                0.9666 -0.001840  0.0010    0.9676   
    56. A(C   1,O   0,H  27)          106.31 -0.001281    0.58    106.89   
    57. A(O   0,C   1,C   3)          111.14  0.000289    0.34    111.48   
    58. A(C   3,C   1,C  24)          110.31 -0.000817   -0.06    110.26   
    59. A(O   0,C   1,H   2)          109.01 -0.000895    0.57    109.58   
    60. A(H   2,C   1,C   3)          109.33  0.000816   -0.48    108.86   
    61. A(O   0,C   1,C  24)          107.75 -0.000040    0.01    107.75   
    62. A(H   2,C   1,C  24)          109.26  0.000637   -0.36    108.90   
    63. A(C   1,C   3,C   5)          109.26  0.000049   -0.03    109.23   
    64. A(C   1,C   3,H   4)          108.67 -0.000045    0.00    108.67   
    65. A(C   5,C   3,O  18)          111.99  0.000196   -0.05    111.94   
    66. A(H   4,C   3,C   5)          109.23  0.000463   -0.36    108.87   
    67. A(C   1,C   3,O  18)          108.11 -0.000361    0.25    108.36   
    68. A(H   4,C   3,O  18)          109.53 -0.000317    0.20    109.73   
    69. A(C   7,C   5,O  19)          108.12 -0.001262    0.10    108.22   
    70. A(H   6,C   5,O  19)          110.35  0.000084    0.12    110.47   
    71. A(C   3,C   5,C   7)          110.82  0.001265   -0.06    110.75   
    72. A(H   6,C   5,C   7)          108.85 -0.000207    0.02    108.87   
    73. A(C   3,C   5,O  19)          110.20 -0.000371    0.22    110.42   
    74. A(C   3,C   5,H   6)          108.50  0.000497   -0.40    108.10   
    75. A(O   8,C   7,H  29)          110.35 -0.001402    0.23    110.58   
    76. A(O   8,C   7,H  28)          107.54 -0.000769    0.12    107.66   
    77. A(C   5,C   7,H  28)          109.89  0.000558   -0.13    109.76   
    78. A(H  28,C   7,H  29)          108.51  0.000064    0.24    108.74   
    79. A(C   5,C   7,O   8)          111.18  0.000388   -0.03    111.14   
    80. A(C   5,C   7,H  29)          109.33  0.001126   -0.41    108.92   
    81. A(C   7,O   8,Si  9)          121.15 -0.001017    0.51    121.66   
    82. A(O   8,Si  9,C  10)          105.73  0.001039   -0.41    105.32   
    83. A(O   8,Si  9,O  18)          107.02 -0.000689    0.17    107.20   
    84. A(O   8,Si  9,C  14)          110.78  0.000902   -0.29    110.49   
    85. A(C  10,Si  9,C  14)          117.80 -0.002712    0.96    118.76   
    86. A(C  10,Si  9,O  18)          105.90  0.000029   -0.10    105.80   
    87. A(C  14,Si  9,O  18)          109.03  0.001481   -0.37    108.65   
    88. A(C  11,C  10,C  12)          109.72  0.000520   -0.49    109.23   
    89. A(Si  9,C  10,C  12)          110.14 -0.000254    0.18    110.33   
    90. A(Si  9,C  10,C  11)          111.48 -0.000265    0.25    111.73   
    91. A(C  12,C  10,C  13)          108.37  0.000665   -0.32    108.05   
    92. A(C  11,C  10,C  13)          108.70  0.000555   -0.28    108.42   
    93. A(Si  9,C  10,C  13)          108.35 -0.001203    0.66    109.02   
    94. A(H  30,C  11,H  31)          108.57 -0.000146    0.03    108.60   
    95. A(C  10,C  11,H  31)          110.87  0.000129   -0.08    110.78   
    96. A(C  10,C  11,H  30)          111.12  0.000408   -0.13    110.99   
    97. A(H  31,C  11,H  32)          108.29 -0.000065    0.08    108.37   
    98. A(C  10,C  11,H  32)          110.10 -0.000360    0.05    110.15   
    99. A(H  30,C  11,H  32)          107.79  0.000023    0.07    107.86   
   100. A(H  34,C  12,H  35)          108.55 -0.000092    0.09    108.64   
   101. A(H  33,C  12,H  35)          108.11 -0.000133    0.06    108.17   
   102. A(C  10,C  12,H  35)          110.52  0.000170   -0.10    110.42   
   103. A(H  33,C  12,H  34)          108.07 -0.000041    0.07    108.14   
   104. A(C  10,C  12,H  34)          110.15 -0.000329    0.03    110.18   
   105. A(C  10,C  12,H  33)          111.35  0.000413   -0.13    111.21   
   106. A(H  37,C  13,H  38)          108.18  0.000010    0.02    108.20   
   107. A(C  10,C  13,H  37)          110.66  0.000176   -0.09    110.57   
   108. A(C  10,C  13,H  38)          110.32  0.000090   -0.07    110.26   
   109. A(H  36,C  13,H  38)          108.29 -0.000111    0.06    108.36   
   110. A(H  36,C  13,H  37)          108.55 -0.000231    0.13    108.68   
   111. A(C  10,C  13,H  36)          110.76  0.000055   -0.06    110.71   
   112. A(C  16,C  14,C  17)          109.10  0.000570   -0.27    108.83   
   113. A(C  15,C  14,C  17)          108.08  0.000008   -0.06    108.02   
   114. A(C  15,C  14,C  16)          107.70  0.000130   -0.13    107.57   
   115. A(Si  9,C  14,C  17)          110.66 -0.000391    0.22    110.88   
   116. A(Si  9,C  14,C  15)          109.48 -0.000244    0.18    109.66   
   117. A(Si  9,C  14,C  16)          111.70 -0.000056    0.05    111.76   
   118. A(H  39,C  15,H  41)          108.01 -0.000259    0.10    108.12   
   119. A(C  14,C  15,H  41)          110.16  0.000106   -0.07    110.09   
   120. A(H  39,C  15,H  40)          108.66 -0.000220    0.09    108.75   
   121. A(C  14,C  15,H  40)          111.34  0.000229   -0.08    111.26   
   122. A(C  14,C  15,H  39)          110.78  0.000193   -0.09    110.69   
   123. A(H  40,C  15,H  41)          107.78 -0.000074    0.05    107.83   
   124. A(C  14,C  16,H  44)          111.08  0.000281   -0.11    110.97   
   125. A(H  42,C  16,H  44)          108.52 -0.000061    0.03    108.55   
   126. A(H  42,C  16,H  43)          108.30 -0.000094    0.09    108.39   
   127. A(C  14,C  16,H  43)          110.17 -0.000066   -0.03    110.15   
   128. A(C  14,C  16,H  42)          110.80  0.000141   -0.08    110.72   
   129. A(H  43,C  16,H  44)          107.87 -0.000219    0.11    107.98   
   130. A(C  14,C  17,H  47)          110.16  0.000071   -0.05    110.12   
   131. A(H  46,C  17,H  47)          108.21 -0.000149    0.10    108.31   
   132. A(H  45,C  17,H  47)          108.21 -0.000237    0.11    108.32   
   133. A(H  45,C  17,H  46)          108.18 -0.000216    0.07    108.25   
   134. A(C  14,C  17,H  46)          111.23  0.000391   -0.13    111.10   
   135. A(C  14,C  17,H  45)          110.74  0.000113   -0.08    110.66   
   136. A(C   3,O  18,Si  9)          119.27 -0.000798    0.53    119.80   
   137. A(C   5,O  19,C  20)          113.30 -0.000424    0.22    113.52   
   138. A(O  22,C  20,C  24)          115.48  0.000348    0.01    115.49   
   139. A(H  21,C  20,C  24)          108.43  0.000668   -0.28    108.15   
   140. A(O  19,C  20,C  24)          110.29  0.000918   -0.25    110.05   
   141. A(H  21,C  20,O  22)          104.05 -0.000505    0.17    104.22   
   142. A(O  19,C  20,O  22)          108.40 -0.001497    0.27    108.67   
   143. A(O  19,C  20,H  21)          109.96 -0.000009    0.10    110.06   
   144. A(C  20,O  22,C  23)          116.72 -0.000026    0.11    116.84   
   145. A(O  22,C  23,H  50)          111.03  0.000371   -0.12    110.91   
   146. A(H  49,C  23,H  50)          110.37  0.000030   -0.07    110.30   
   147. A(H  48,C  23,H  50)          109.48 -0.000851    0.29    109.77   
   148. A(H  48,C  23,H  49)          108.90 -0.000879    0.28    109.18   
   149. A(O  22,C  23,H  49)          111.51  0.000660   -0.10    111.42   
   150. A(O  22,C  23,H  48)          105.39  0.000628   -0.26    105.13   
   151. A(H  25,C  24,O  26)          109.79 -0.000604    0.49    110.28   
   152. A(C  20,C  24,O  26)          108.78 -0.000395   -0.23    108.55   
   153. A(C   1,C  24,O  26)          110.56  0.000456    0.47    111.03   
   154. A(C  20,C  24,H  25)          110.12  0.000560   -0.43    109.70   
   155. A(C   1,C  24,H  25)          108.32  0.000456   -0.28    108.03   
   156. A(C   1,C  24,C  20)          109.27 -0.000464   -0.01    109.26   
   157. A(C  24,O  26,H  51)          106.23 -0.001814    0.61    106.84   
   158. D(C  24,C   1,O   0,H  27)    170.86 -0.000262    0.39    171.25   
   159. D(C   3,C   1,O   0,H  27)     49.89  0.000594    0.24     50.13   
   160. D(H   2,C   1,O   0,H  27)    -70.68 -0.000018    0.28    -70.40   
   161. D(C   5,C   3,C   1,H   2)    -66.14 -0.000226    0.77    -65.37   
   162. D(H   4,C   3,C   1,C  24)    -65.07  0.000007    0.39    -64.67   
   163. D(C   5,C   3,C   1,O   0)    173.48  0.000171    0.15    173.63   
   164. D(C   5,C   3,C   1,C  24)     54.03  0.000568   -0.05     53.98   
   165. D(H   4,C   3,C   1,H   2)    174.76 -0.000788    1.22    175.98   
   166. D(H   4,C   3,C   1,O   0)     54.38 -0.000391    0.59     54.98   
   167. D(C   7,C   5,C   3,H   4)    -58.42  0.000649   -0.07    -58.48   
   168. D(H   6,C   5,C   3,O  18)    -56.36 -0.000119    0.15    -56.21   
   169. D(C   7,C   5,C   3,C   1)   -177.16  0.000402    0.16   -177.00   
   170. D(H   6,C   5,C   3,H   4)   -177.87 -0.000166    0.19   -177.68   
   171. D(C   7,C   5,C   3,O  18)     63.10  0.000696   -0.11     62.99   
   172. D(H   6,C   5,C   3,C   1)     63.39 -0.000413    0.41     63.80   
   173. D(H  28,C   7,C   5,H   6)    -61.12  0.000700   -0.45    -61.57   
   174. D(H  28,C   7,C   5,O  19)     58.77 -0.000053   -0.24     58.54   
   175. D(H  28,C   7,C   5,C   3)    179.64 -0.000545    0.05    179.69   
   176. D(O   8,C   7,C   5,O  19)    177.71 -0.000405   -0.20    177.52   
   177. D(O   8,C   7,C   5,H   6)     57.82  0.000347   -0.41     57.41   
   178. D(O   8,C   7,C   5,C   3)    -61.42 -0.000898    0.09    -61.33   
   179. D(Si  9,O   8,C   7,H  28)    164.86  0.000837   -1.17    163.69   
   180. D(Si  9,O   8,C   7,H  29)    -76.96 -0.000320   -0.70    -77.66   
   181. D(Si  9,O   8,C   7,C   5)     44.52  0.000410   -1.07     43.45   
   182. D(O  18,Si  9,O   8,C   7)    -25.83 -0.000963    1.90    -23.93   
   183. D(C  14,Si  9,O   8,C   7)     92.91  0.000912    1.39     94.30   
   184. D(C  10,Si  9,O   8,C   7)   -138.40 -0.001164    2.12   -136.28   
   185. D(C  12,C  10,Si  9,O   8)    -50.42  0.000055   -0.42    -50.84   
   186. D(C  11,C  10,Si  9,O  18)     74.18  0.000065   -0.07     74.11   
   187. D(C  11,C  10,Si  9,C  14)    -48.05 -0.000090   -0.13    -48.18   
   188. D(C  11,C  10,Si  9,O   8)   -172.46 -0.000250   -0.10   -172.56   
   189. D(C  12,C  10,Si  9,O  18)   -163.78  0.000369   -0.39   -164.16   
   190. D(C  12,C  10,Si  9,C  14)     73.99  0.000215   -0.45     73.54   
   191. D(H  31,C  11,C  10,C  12)   -177.58  0.000514   -0.66   -178.23   
   192. D(H  31,C  11,C  10,Si  9)    -55.29  0.000373   -0.59    -55.88   
   193. D(H  30,C  11,C  10,C  13)   -175.08 -0.000740    0.09   -174.99   
   194. D(H  30,C  11,C  10,C  12)    -56.74  0.000692   -0.77    -57.51   
   195. D(H  31,C  11,C  10,C  13)     64.08 -0.000919    0.20     64.28   
   196. D(H  30,C  11,C  10,Si  9)     65.55  0.000552   -0.70     64.85   
   197. D(H  34,C  12,C  10,C  13)     57.39  0.000949   -1.05     56.34   
   198. D(H  34,C  12,C  10,C  11)    -61.16 -0.000411   -0.22    -61.38   
   199. D(H  34,C  12,C  10,Si  9)    175.76 -0.000258   -0.33    175.43   
   200. D(H  33,C  12,C  10,C  13)    177.27  0.000947   -1.03    176.25   
   201. D(H  33,C  12,C  10,C  11)     58.73 -0.000413   -0.20     58.53   
   202. D(H  33,C  12,C  10,Si  9)    -64.35 -0.000259   -0.31    -64.67   
   203. D(H  37,C  13,C  10,C  12)     60.61 -0.000552    0.28     60.89   
   204. D(H  37,C  13,C  10,C  11)    179.80  0.000769   -0.66    179.14   
   205. D(H  37,C  13,C  10,Si  9)    -58.89  0.000059   -0.13    -59.03   
   206. D(H  36,C  13,C  10,C  12)   -178.96 -0.000690    0.36   -178.61   
   207. D(H  36,C  13,C  10,C  11)    -59.77  0.000631   -0.58    -60.36   
   208. D(H  36,C  13,C  10,Si  9)     61.53 -0.000079   -0.06     61.48   
   209. D(C  16,C  14,Si  9,O  18)   -163.66  0.000381    0.06   -163.60   
   210. D(C  16,C  14,Si  9,C  10)    -43.04 -0.000304    0.31    -42.72   
   211. D(C  16,C  14,Si  9,O   8)     78.82 -0.000207    0.26     79.08   
   212. D(C  15,C  14,Si  9,O  18)     77.14  0.000414    0.07     77.21   
   213. D(C  15,C  14,Si  9,C  10)   -162.24 -0.000271    0.33   -161.91   
   214. D(C  15,C  14,Si  9,O   8)    -40.38 -0.000174    0.27    -40.11   
   215. D(H  40,C  15,C  14,C  16)    178.92  0.000298   -0.23    178.69   
   216. D(H  40,C  15,C  14,Si  9)    -59.44  0.000166   -0.13    -59.57   
   217. D(H  39,C  15,C  14,C  17)   -177.79 -0.000440    0.20   -177.59   
   218. D(H  39,C  15,C  14,C  16)    -60.04  0.000306   -0.23    -60.27   
   219. D(H  40,C  15,C  14,C  17)     61.17 -0.000447    0.20     61.37   
   220. D(H  39,C  15,C  14,Si  9)     61.60  0.000173   -0.14     61.47   
   221. D(H  43,C  16,C  14,C  17)     62.69  0.000281   -0.54     62.15   
   222. D(H  43,C  16,C  14,C  15)    -54.40 -0.000106   -0.24    -54.64   
   223. D(H  43,C  16,C  14,Si  9)   -174.65  0.000145   -0.42   -175.07   
   224. D(H  42,C  16,C  14,C  17)   -177.48  0.000211   -0.49   -177.98   
   225. D(H  42,C  16,C  14,C  15)     65.43 -0.000176   -0.20     65.23   
   226. D(H  42,C  16,C  14,Si  9)    -54.82  0.000075   -0.37    -55.19   
   227. D(H  46,C  17,C  14,C  16)     61.76 -0.000194    0.30     62.06   
   228. D(H  46,C  17,C  14,C  15)    178.61  0.000273   -0.05    178.56   
   229. D(H  46,C  17,C  14,Si  9)    -61.52 -0.000252    0.27    -61.26   
   230. D(H  45,C  17,C  14,C  16)   -177.90 -0.000131    0.24   -177.66   
   231. D(H  45,C  17,C  14,C  15)    -61.06  0.000337   -0.11    -61.16   
   232. D(H  45,C  17,C  14,Si  9)     58.81 -0.000189    0.21     59.02   
   233. D(C   3,O  18,Si  9,C  14)    -93.56 -0.000591   -1.41    -94.98   
   234. D(C   3,O  18,Si  9,C  10)    138.76  0.001796   -2.30    136.46   
   235. D(C   3,O  18,Si  9,O   8)     26.30  0.000906   -1.87     24.43   
   236. D(Si  9,O  18,C   3,C   5)    -46.26 -0.000393    1.09    -45.18   
   237. D(Si  9,O  18,C   3,H   4)     75.08  0.000104    0.74     75.81   
   238. D(Si  9,O  18,C   3,C   1)   -166.68 -0.000337    0.98   -165.70   
   239. D(C  20,O  19,C   5,C   7)   -175.94  0.000575   -0.14   -176.08   
   240. D(C  20,O  19,C   5,H   6)    -56.99 -0.000392    0.01    -56.98   
   241. D(C  20,O  19,C   5,C   3)     62.81  0.000043   -0.26     62.55   
   242. D(C  24,C  20,O  19,C   5)    -61.83 -0.000692    0.07    -61.76   
   243. D(O  22,C  20,O  19,C   5)    170.84 -0.000703    0.03    170.87   
   244. D(H  21,C  20,O  19,C   5)     57.69  0.000703   -0.36     57.34   
   245. D(C  23,O  22,C  20,C  24)    -60.09 -0.000181    0.90    -59.19   
   246. D(C  23,O  22,C  20,H  21)   -178.79 -0.000852    1.13   -177.67   
   247. D(C  23,O  22,C  20,O  19)     64.20  0.000085    0.79     65.00   
   248. D(H  50,C  23,O  22,C  20)    -49.30 -0.000609    0.78    -48.52   
   249. D(H  49,C  23,O  22,C  20)     74.24  0.000178    0.52     74.76   
   250. D(H  48,C  23,O  22,C  20)   -167.75 -0.000157    0.65   -167.10   
   251. D(H  25,C  24,C  20,O  22)     60.06 -0.000721    1.06     61.12   
   252. D(H  25,C  24,C  20,H  21)    176.31 -0.000683    1.09    177.40   
   253. D(C   1,C  24,C  20,O  22)    178.92 -0.000110    0.43    179.35   
   254. D(C   1,C  24,C  20,H  21)    -64.83 -0.000072    0.46    -64.37   
   255. D(C   1,C  24,C  20,O  19)     55.62  0.000887    0.27     55.88   
   256. D(H  25,C  24,C   1,C   3)     66.88  0.000509   -1.10     65.78   
   257. D(H  25,C  24,C   1,H   2)   -172.91  0.001411   -1.98   -174.89   
   258. D(H  25,C  24,C   1,O   0)    -54.61  0.000671   -1.49    -56.10   
   259. D(H  25,C  24,C  20,O  19)    -63.24  0.000277    0.89    -62.35   
   260. D(C  20,C  24,C   1,C   3)    -53.10 -0.000169   -0.39    -53.49   
   261. D(C  20,C  24,C   1,H   2)     67.12  0.000734   -1.28     65.84   
   262. D(C  20,C  24,C   1,O   0)   -174.58 -0.000006   -0.79   -175.37   
   263. D(H  51,O  26,C  24,H  25)     69.40  0.000025    0.02     69.42   
   264. D(H  51,O  26,C  24,C  20)   -170.03  0.000099   -0.34   -170.37   
   265. D(H  51,O  26,C  24,C   1)    -50.05 -0.000442   -0.18    -50.23   
    ----------------------------------------------------------------------------

Geometry step timings:
Preparation and reading OPT file:      0.001 s ( 4.229 %)
Internal coordinates            :      0.000 s ( 0.132 %)
B/P matrices and projection     :      0.006 s (24.618 %)
Hessian update/contruction      :      0.010 s (42.598 %)
Making the step                 :      0.004 s (15.458 %)
Converting the step to Cartesian:      0.001 s ( 2.160 %)
Storing new data                :      0.001 s ( 3.760 %)
Checking convergence            :      0.000 s ( 0.136 %)
Final printing                  :      0.002 s ( 6.910 %)
Total time                      :      0.024 s

Time for energy+gradient        :      0.083 s
Time for complete geometry iter :      0.118 s

         *************************************************************
         *                GEOMETRY OPTIMIZATION CYCLE   4            *
         *************************************************************
---------------------------------
CARTESIAN COORDINATES (ANGSTROEM)
---------------------------------
  O    -3.661535    1.996069   -0.231348
  C    -2.287585    1.741365   -0.051931
  H    -2.101436    1.436568    0.990798
  C    -1.796512    0.633225   -0.985651
  H    -2.048723    0.907053   -2.019635
  C    -0.280132    0.508458   -0.863848
  H    -0.044012    0.192993    0.165627
  C     0.255404   -0.537127   -1.835022
  O    -0.279059   -1.797681   -1.562200
  Si   -1.881324   -2.002968   -1.219613
  C    -1.930783   -3.212898    0.262092
  C    -3.355939   -3.649557    0.587611
  C    -1.081530   -4.447321   -0.032377
  C    -1.344045   -2.516277    1.495858
  C    -2.866921   -2.455593   -2.826962
  C    -2.344528   -1.621042   -4.005797
  C    -2.702115   -3.930267   -3.196575
  C    -4.358709   -2.152451   -2.656074
  O    -2.447642   -0.554930   -0.639930
  O     0.338324    1.737747   -1.155930
  C    -0.015214    2.776418   -0.257916
  H     0.233124    2.482909    0.777567
  O     0.792055    3.866011   -0.503792
  C     0.648935    4.498212   -1.768881
  C    -1.530361    3.044034   -0.330595
  H    -1.798893    3.384225   -1.342698
  O    -1.855978    4.027881    0.615444
  H    -4.112548    1.143233   -0.190997
  H     1.342540   -0.609542   -1.738285
  H     0.013012   -0.229334   -2.857199
  H    -3.782042   -4.225918   -0.228104
  H    -3.990337   -2.788028    0.771138
  H    -3.362026   -4.276822    1.478917
  H    -1.491087   -5.017338   -0.859334
  H    -1.045668   -5.096343    0.842383
  H    -0.068053   -4.156884   -0.290647
  H    -1.932379   -1.641952    1.759388
  H    -0.320389   -2.203096    1.307011
  H    -1.340238   -3.196614    2.347088
  H    -1.295320   -1.835205   -4.192962
  H    -2.455292   -0.555865   -3.814693
  H    -2.905057   -1.857924   -4.909440
  H    -1.651073   -4.187727   -3.290654
  H    -3.192742   -4.135868   -4.147121
  H    -3.148702   -4.571899   -2.443155
  H    -4.512929   -1.100948   -2.432844
  H    -4.786207   -2.737551   -1.848336
  H    -4.896705   -2.390291   -3.572827
  H     1.508587    5.159430   -1.854697
  H    -0.267856    5.092640   -1.816813
  H     0.666433    3.763465   -2.575684
  H    -2.821880    4.066588    0.658427

----------------------------
CARTESIAN COORDINATES (A.U.)
----------------------------
  NO LB    ZA    FRAG    MASS        X           Y           Z
   0 O   8.0000    1    15.999   -6.919298    3.772023   -0.437184
   1 C   6.0000    1    12.011   -4.322910    3.290703   -0.098135
   2 H   1.0000    1     1.008   -3.971138    2.714721    1.872337
   3 C   6.0000    1    12.011   -3.394916    1.196622   -1.862611
   4 H   1.0000    1     1.008   -3.871526    1.714082   -3.816558
   5 C   6.0000    1    12.011   -0.529373    0.960846   -1.632437
   6 H   1.0000    1     1.008   -0.083170    0.364704    0.312990
   7 C   6.0000    1    12.011    0.482643   -1.015023   -3.467689
   8 O   8.0000    1    15.999   -0.527344   -3.397125   -2.952130
   9 Si 14.0000    1    28.086   -3.555187   -3.785061   -2.304735
  10 C   6.0000    1    12.011   -3.648652   -6.071498    0.495282
  11 C   6.0000    1    12.011   -6.341806   -6.896663    1.110424
  12 C   6.0000    1    12.011   -2.043796   -8.404219   -0.061183
  13 C   6.0000    1    12.011   -2.539878   -4.755075    2.826762
  14 C   6.0000    1    12.011   -5.417696   -4.640397   -5.342184
  15 C   6.0000    1    12.011   -4.430516   -3.063326   -7.569860
  16 C   6.0000    1    12.011   -5.106258   -7.427128   -6.040652
  17 C   6.0000    1    12.011   -8.236767   -4.067543   -5.019253
  18 O   8.0000    1    15.999   -4.625374   -1.048665   -1.209293
  19 O   8.0000    1    15.999    0.639339    3.283865   -2.184391
  20 C   6.0000    1    12.011   -0.028750    5.246669   -0.487391
  21 H   1.0000    1     1.008    0.440541    4.692017    1.469388
  22 O   8.0000    1    15.999    1.496767    7.305703   -0.952029
  23 C   6.0000    1    12.011    1.226310    8.500388   -3.342701
  24 C   6.0000    1    12.011   -2.891963    5.752391   -0.624734
  25 H   1.0000    1     1.008   -3.399414    6.395258   -2.537332
  26 O   8.0000    1    15.999   -3.507290    7.611592    1.163021
  27 H   1.0000    1     1.008   -7.771589    2.160398   -0.360932
  28 H   1.0000    1     1.008    2.537033   -1.151868   -3.284883
  29 H   1.0000    1     1.008    0.024590   -0.433378   -5.399324
  30 H   1.0000    1     1.008   -7.147024   -7.985828   -0.431054
  31 H   1.0000    1     1.008   -7.540643   -5.268610    1.457240
  32 H   1.0000    1     1.008   -6.353308   -8.082023    2.794748
  33 H   1.0000    1     1.008   -2.817746   -9.481394   -1.623906
  34 H   1.0000    1     1.008   -1.976025   -9.630693    1.591874
  35 H   1.0000    1     1.008   -0.128601   -7.855372   -0.549244
  36 H   1.0000    1     1.008   -3.651668   -3.102840    3.324761
  37 H   1.0000    1     1.008   -0.605447   -4.163248    2.469893
  38 H   1.0000    1     1.008   -2.532682   -6.040726    4.435353
  39 H   1.0000    1     1.008   -2.447800   -3.468036   -7.923549
  40 H   1.0000    1     1.008   -4.639830   -1.050433   -7.208724
  41 H   1.0000    1     1.008   -5.489763   -3.510968   -9.277498
  42 H   1.0000    1     1.008   -3.120076   -7.913658   -6.218435
  43 H   1.0000    1     1.008   -6.033407   -7.815657   -7.836924
  44 H   1.0000    1     1.008   -5.950184   -8.639637   -4.616895
  45 H   1.0000    1     1.008   -8.528199   -2.080490   -4.597409
  46 H   1.0000    1     1.008   -9.044620   -5.173221   -3.492849
  47 H   1.0000    1     1.008   -9.253431   -4.516996   -6.751665
  48 H   1.0000    1     1.008    2.850817    9.749909   -3.504869
  49 H   1.0000    1     1.008   -0.506175    9.623695   -3.433278
  50 H   1.0000    1     1.008    1.259376    7.111917   -4.867337
  51 H   1.0000    1     1.008   -5.332580    7.684737    1.244246

      -----------------------------------------------------------      
     |                   =====================                   |     
     |                           x T B                           |     
     |                   =====================                   |     
     |                         S. Grimme                         |     
     |          Mulliken Center for Theoretical Chemistry        |     
     |                    University of Bonn                     |     
      -----------------------------------------------------------      

   * xtb version 6.7.1 (edcfbbe) compiled by 'albert@albert-system' on 2024-07-22

   xtb is free software: you can redistribute it and/or modify it under
   the terms of the GNU Lesser General Public License as published by
   the Free Software Foundation, either version 3 of the License, or
   (at your option) any later version.
   
   xtb is distributed in the hope that it will be useful,
   but WITHOUT ANY WARRANTY; without even the implied warranty of
   MERCHANTABILITY or FITNESS FOR A PARTICULAR PURPOSE.  See the
   GNU Lesser General Public License for more details.
   
   Cite this work as:
   * C. Bannwarth, E. Caldeweyher, S. Ehlert, A. Hansen, P. Pracht,
     J. Seibert, S. Spicher, S. Grimme, WIREs Comput. Mol. Sci., 2020, 11,
     e01493. DOI: 10.1002/wcms.1493
   
   for GFN2-xTB:
   * C. Bannwarth, S. Ehlert and S. Grimme., J. Chem. Theory Comput., 2019,
     15, 1652-1671. DOI: 10.1021/acs.jctc.8b01176
   for GFN1-xTB:
   * S. Grimme, C. Bannwarth, P. Shushkov, J. Chem. Theory Comput., 2017,
     13, 1989-2009. DOI: 10.1021/acs.jctc.7b00118
   for GFN0-xTB:
   * P. Pracht, E. Caldeweyher, S. Ehlert, S. Grimme, ChemRxiv, 2019, preprint.
     DOI: 10.26434/chemrxiv.8326202.v1
   for GFN-FF:
   * S. Spicher and S. Grimme, Angew. Chem. Int. Ed., 2020, 59, 15665-15673.
     DOI: 10.1002/anie.202004239
   
   for ALPB and GBSA implicit solvation:
   * S. Ehlert, M. Stahn, S. Spicher, S. Grimme, J. Chem. Theory Comput.,
     2021, 17, 4250-4261. DOI: 10.1021/acs.jctc.1c00471
   
   for ddCOSMO and CPCM-X implicit solvation:
   * M. Stahn, S. Ehlert, S. Grimme, J. Phys. Chem. A,
     2023, XX, XXXX-XXXX. DOI: 10.1021/acs.jpca.3c04382
   
   for DFT-D4:
   * E. Caldeweyher, C. Bannwarth and S. Grimme, J. Chem. Phys., 2017,
     147, 034112. DOI: 10.1063/1.4993215
   * E. Caldeweyher, S. Ehlert, A. Hansen, H. Neugebauer, S. Spicher,
     C. Bannwarth and S. Grimme, J. Chem. Phys., 2019, 150, 154122.
     DOI: 10.1063/1.5090222
   * E. Caldeweyher, J.-M. Mewes, S. Ehlert and S. Grimme, Phys. Chem. Chem. Phys.
     2020, 22, 8499-8512. DOI: 10.1039/D0CP00502A
   
   for sTDA-xTB:
   * S. Grimme and C. Bannwarth, J. Chem. Phys., 2016, 145, 054103.
     DOI: 10.1063/1.4959605
   
   in the mass-spec context:
   * V. Asgeirsson, C. Bauer and S. Grimme, Chem. Sci., 2017, 8, 4879.
     DOI: 10.1039/c7sc00601b
   * J. Koopman and S. Grimme, ACS Omega 2019, 4, 12, 15120-15133.
     DOI: 10.1021/acsomega.9b02011
   
   for metadynamics refer to:
   * S. Grimme, J. Chem. Theory Comput., 2019, 155, 2847-2862
     DOI: 10.1021/acs.jctc.9b00143
   
   for SPH calculations refer to:
   * S. Spicher and S. Grimme, J. Chem. Theory Comput., 2021, 17, 1701-1714
     DOI: 10.1021/acs.jctc.0c01306
   
   for ONIOM refer to:
   * C. Plett, A. Katbashev, S. Ehlert, S. Grimme, M. Bursch,
     Phys. Chem. Chem. Phys., 2023, 25, 17860-17868. DOI: 10.1039/D3CP02178E
   
   for DIPRO refer to:
   * J. Kohn, N. Gildemeister, S. Grimme, D. Fazzi, A. Hansen,
     J. Chem. Phys., 2023, just accepted.
   
   for PTB refer to:
   * S. Grimme, M. Mueller, A. Hansen, J. Chem. Phys., 2023, 158, 124111.
     DOI: 10.1063/5.0137838
   
   with help from (in alphabetical order)
   P. Atkinson, C. Bannwarth, F. Bohle, G. Brandenburg, E. Caldeweyher
   M. Checinski, S. Dohm, S. Ehlert, S. Ehrlich, I. Gerasimov, C. Hölzer
   A. Katbashev, J. Kohn, J. Koopman, C. Lavigne, S. Lehtola, F. März, M. Müller,
   F. Musil, H. Neugebauer, J. Pisarek, C. Plett, P. Pracht, F. Pultar,
   J. Seibert, P. Shushkov, S. Spicher, M. Stahn, M. Steiner, T. Strunk,
   J. Stückrath, T. Rose, and J. Unsleber
   
 * started run on 2025/09/10 at 11:31:43.841     
   ID    Z sym.   atoms
    1    8 O      1, 9, 19, 20, 23, 27
    2    6 C      2, 4, 6, 8, 11-18, 21, 24, 25
    3    1 H      3, 5, 7, 22, 26, 28-52
    4   14 Si     10

           -------------------------------------------------
          |                Calculation Setup                |
           -------------------------------------------------

          program call               : /home/kmoult/orca_6_1/otool_xtb goat_0_XTB.xyz --grad -c 0 -u 0 -P 4 --namespace goat_0 --input goat_0_XTB.input.tmp --alpb ACETONE --acc 0.200000
          hostname                   : node3306
          calculation namespace      : goat_0
          coordinate file            : goat_0_XTB.xyz
          omp threads                :                     4


           -------------------------------------------------
          |                 G F N 2 - x T B                 |
           -------------------------------------------------

        Reference                      10.1021/acs.jctc.8b01176
      * Hamiltonian:
        H0-scaling (s, p, d)           1.850000    2.230000    2.230000
        zeta-weighting                 0.500000
      * Dispersion:
        s8                             2.700000
        a1                             0.520000
        a2                             5.000000
        s9                             5.000000
      * Repulsion:
        kExp                           1.500000    1.000000
        rExp                           1.000000
      * Coulomb:
        alpha                          2.000000
        third order                    shell-resolved
        anisotropic                    true
        a3                             3.000000
        a5                             4.000000
        cn-shift                       1.200000
        cn-exp                         4.000000
        max-rad                        5.000000

      * Solvation model:               ALPB
        Solvent                        ACETONE
        Parameter file                 internal GFN2-xTB/ALPB
        Dielectric constant                2.0700E+01
        Reference state                gsolv [1 M gas/solution]
        Free energy shift                  5.9241E-03 Eh       3.7175E+00 kcal/mol
        Temperature                        2.9815E+02 K
        Density                            7.9000E-01 kg/L
        Solvent mass                       5.8080E+01 g/mol
        Interaction kernel             P16
        Born radius scaling (c1)           1.8274E+00
        Born radii integrator          GBOBC
        Born offset                        0.0000E+00 a0       0.0000E+00 AA
        H-bond correction              true
        Ion screening                  false
        Surface tension                    1.0000E-05 Eh       1.5569E+01 dyn/cm
        Grid points                               230 per atom
q/qsh data taken from xtbrestart
CAMM data taken from xtbrestart

          ...................................................
          :                      SETUP                      :
          :.................................................:
          :  # basis functions                 124          :
          :  # atomic orbitals                 123          :
          :  # shells                           75          :
          :  # electrons                       130          :
          :  max. iterations                   250          :
          :  Hamiltonian                  GFN2-xTB          :
          :  restarted?                       true          :
          :  GBSA solvation                   true          :
          :  PC potential                    false          :
          :  electronic temp.          300.0000000     K    :
          :  accuracy                    0.2000000          :
          :  -> integral cutoff          0.3198970E+02      :
          :  -> integral neglect         0.2000000E-08      :
          :  -> SCF convergence          0.2000000E-06 Eh   :
          :  -> wf. convergence          0.2000000E-04 e    :
          :  Broyden damping             0.4000000          :
          :  net charge                          0          :
          :  unpaired electrons                  0          :
          ...................................................

 iter      E             dE          RMSdq      gap      omega  full diag
   1    -74.4425153 -0.744425E+02  0.937E-02    5.54       0.0  T
   2    -74.4425188 -0.349233E-05  0.622E-02    5.54       1.0  T
   3    -74.4425181  0.749736E-06  0.154E-02    5.55       1.0  T
   4    -74.4425199 -0.185157E-05  0.120E-02    5.54       1.2  T
   5    -74.4425201 -0.223645E-06  0.404E-03    5.54       3.4  T
   6    -74.4425204 -0.253527E-06  0.105E-03    5.54      13.3  T
   7    -74.4425204 -0.285590E-07  0.605E-04    5.54      22.9  T
   8    -74.4425204 -0.379470E-08  0.223E-04    5.54      62.2  T
   9    -74.4425204 -0.229306E-09  0.114E-04    5.54     121.8  T
  10    -74.4425204 -0.816271E-10  0.410E-05    5.54     338.2  T

   *** convergence criteria satisfied after 10 iterations ***

         #    Occupation            Energy/Eh            Energy/eV
      -------------------------------------------------------------
         1        2.0000           -0.8183125             -22.2674
       ...           ...                  ...                  ...
        59        2.0000           -0.4257852             -11.5862
        60        2.0000           -0.4245448             -11.5525
        61        2.0000           -0.4230923             -11.5129
        62        2.0000           -0.4182078             -11.3800
        63        2.0000           -0.4137755             -11.2594
        64        2.0000           -0.4056120             -11.0373
        65        2.0000           -0.3728637             -10.1461 (HOMO)
        66                         -0.1691395              -4.6025 (LUMO)
        67                         -0.1424510              -3.8763
        68                         -0.0936715              -2.5489
        69                         -0.0488806              -1.3301
        70                         -0.0049506              -0.1347
       ...                                ...                  ...
       123                          0.7761281              21.1195
      -------------------------------------------------------------
                  HL-Gap            0.2037242 Eh            5.5436 eV
             Fermi-level           -0.2710016 Eh           -7.3743 eV

 SCC (total)                   0 d,  0 h,  0 min,  0.032 sec
 SCC setup                      ...        0 min,  0.001 sec (  1.995%)
 Dispersion                     ...        0 min,  0.000 sec (  1.151%)
 classical contributions        ...        0 min,  0.000 sec (  0.128%)
 integral evaluation            ...        0 min,  0.004 sec ( 13.865%)
 iterations                     ...        0 min,  0.018 sec ( 56.878%)
 molecular gradient             ...        0 min,  0.008 sec ( 25.479%)
 printout                       ...        0 min,  0.000 sec (  0.460%)

         :::::::::::::::::::::::::::::::::::::::::::::::::::::
         ::                     SUMMARY                     ::
         :::::::::::::::::::::::::::::::::::::::::::::::::::::
         :: total energy             -73.690031657999 Eh    ::
         :: total w/o Gsasa/hb       -73.661375714760 Eh    ::
         :: gradient norm              0.009749867654 Eh/a0 ::
         :: HOMO-LUMO gap              5.543618133180 eV    ::
         ::.................................................::
         :: SCC energy               -74.441142274212 Eh    ::
         :: -> isotropic ES            0.157851729264 Eh    ::
         :: -> anisotropic ES          0.002827504751 Eh    ::
         :: -> anisotropic XC          0.004989146854 Eh    ::
         :: -> dispersion             -0.053532210942 Eh    ::
         :: -> Gsolv                  -0.031635441502 Eh    ::
         ::    -> Gelec               -0.002979498263 Eh    ::
         ::    -> Gsasa               -0.028846275973 Eh    ::
         ::    -> Ghb                 -0.005733808530 Eh    ::
         ::    -> Gshift               0.005924141264 Eh    ::
         :: repulsion energy           0.751110616214 Eh    ::
         :: add. restraining           0.000000000000 Eh    ::
         :: total charge              -0.000000000000 e     ::
         :::::::::::::::::::::::::::::::::::::::::::::::::::::


Property printout bound to 'properties.out'

           -------------------------------------------------
          | TOTAL ENERGY              -73.690031657999 Eh   |
          | GRADIENT NORM               0.009749867654 Eh/α |
          | HOMO-LUMO GAP               5.543618133180 eV   |
           -------------------------------------------------

------------------------------------------------------------------------
 * finished run on 2025/09/10 at 11:31:43.897     
------------------------------------------------------------------------
 total:
 * wall-time:     0 d,  0 h,  0 min,  0.056 sec
 *  cpu-time:     0 d,  0 h,  0 min,  0.202 sec
 * ratio c/w:     3.610 speedup
 SCF:
 * wall-time:     0 d,  0 h,  0 min,  0.032 sec
 *  cpu-time:     0 d,  0 h,  0 min,  0.128 sec
 * ratio c/w:     3.983 speedup


-------------------------   --------------------
FINAL SINGLE POINT ENERGY       -73.690031658000
-------------------------   --------------------


-------------
DIPOLE MOMENT
-------------
                                X             Y             Z
Total Dipole Moment    :     -0.96900      -0.86300      -0.74500
                        -----------------------------------------
Magnitude (a.u.)       :      1.49625
Magnitude (Debye)      :      3.80316


------------------
CARTESIAN GRADIENT
------------------

   1   O   :   -0.001565662    0.000501126   -0.000077011
   2   C   :    0.001795947   -0.000923169    0.000138570
   3   H   :   -0.000796013    0.000383205    0.000130954
   4   C   :    0.001145135    0.000125362   -0.001085777
   5   H   :   -0.000151856   -0.000306746    0.000274177
   6   C   :   -0.001646422   -0.001808707   -0.000169639
   7   H   :    0.000362978    0.000201754    0.000032099
   8   C   :   -0.000814180    0.001063678    0.000059901
   9   O   :    0.003218850    0.001395751    0.000875407
  10   Si  :   -0.001365632   -0.001665415   -0.000408213
  11   C   :   -0.001041213   -0.001251829   -0.000671310
  12   C   :    0.000874447    0.001325744   -0.001023829
  13   C   :   -0.000557474    0.001722082   -0.000373895
  14   C   :   -0.000145651    0.000294270   -0.001300575
  15   C   :   -0.001070718   -0.001697246   -0.000655200
  16   C   :   -0.000152697   -0.000228353    0.000880847
  17   C   :    0.000216004    0.000989371    0.000561477
  18   C   :    0.001132804    0.000169089    0.000544870
  19   O   :    0.000095885    0.002249185    0.002593407
  20   O   :   -0.000457615    0.000827679    0.000619962
  21   C   :   -0.001655347    0.000097360   -0.000690892
  22   H   :    0.000616452    0.000404903    0.000315718
  23   O   :   -0.000463996   -0.001058473   -0.000875018
  24   C   :   -0.000070004   -0.000977137    0.001564703
  25   C   :    0.001223983   -0.001961543   -0.001054042
  26   H   :   -0.000651086    0.000820920    0.000457574
  27   O   :   -0.000049852    0.001079606    0.000827012
  28   H   :    0.001371616   -0.000007703   -0.000084605
  29   H   :    0.000106442   -0.000478655   -0.000165239
  30   H   :   -0.000138686   -0.000385134    0.000138986
  31   H   :    0.000131381   -0.000046638    0.000497036
  32   H   :    0.000238015   -0.000385794   -0.000039443
  33   H   :    0.000083392   -0.000001724    0.000016720
  34   H   :    0.000377327    0.000143829    0.000329163
  35   H   :   -0.000104432   -0.000034199    0.000019756
  36   H   :   -0.000416353   -0.000139173    0.000052239
  37   H   :    0.000251590   -0.000350103   -0.000083903
  38   H   :   -0.000409090    0.000003213    0.000082070
  39   H   :    0.000050113    0.000078537    0.000080595
  40   H   :   -0.000312787    0.000034904   -0.000089437
  41   H   :    0.000052734   -0.000270488   -0.000201170
  42   H   :    0.000150018    0.000056227    0.000077221
  43   H   :   -0.000394067    0.000062146    0.000014852
  44   H   :    0.000126016    0.000085353    0.000043723
  45   H   :    0.000123529    0.000110035   -0.000377152
  46   H   :   -0.000011690   -0.000383044   -0.000119690
  47   H   :   -0.000010016    0.000281357   -0.000432644
  48   H   :    0.000025660    0.000063154    0.000107472
  49   H   :   -0.000182516    0.000081744   -0.000108173
  50   H   :    0.000062491    0.000365780   -0.000412905
  51   H   :    0.000270869    0.000179461   -0.000146463
  52   H   :    0.000531378   -0.000835554   -0.000690284

Difference to translation invariance:
           :    0.0000000000    0.0000000000    0.0000000000

Difference to rotation invariance:
           :   -0.0002388999   -0.0001597564   -0.0002935023

Norm of the Cartesian gradient     ...    0.0097498677
RMS gradient                       ...    0.0007806142
MAX gradient                       ...    0.0032188501
------------------------------------------------------------------------------
                         ORCA GEOMETRY RELAXATION STEP
------------------------------------------------------------------------------

Reading the OPT-File                    .... done
Getting information on internals        .... done
Copying old internal coords+grads       .... done
Making the new internal coordinates     .... (2022 redundants) done
Validating the new internal coordinates .... (2022 redundants) done
Calculating the B-matrix                .... done
Calculating the G,G- and P matrices     .... done
Transforming gradient to internals      .... done
Projecting the internal gradient        .... done
Number of atoms                         ....  52
Number of internal coordinates          .... 265
Current Energy                          ....   -73.690031658 Eh
Current gradient norm                   ....     0.009749868 Eh/bohr
Maximum allowed component of the step   ....  0.300
Current trust radius                    ....  0.450
Updating the Hessian (BFGS)             .... done
Forming the augmented Hessian           .... done
Diagonalizing the augmented Hessian     .... done
Last element of RFO vector              ....  0.985599024
Lowest eigenvalues of augmented Hessian:
 -0.000578751  0.009700798  0.010000004  0.010002579  0.010024774
Length of the computed step             ....  0.171570047
The final length of the internal step   ....  0.171570047
Converting the step to Cartesian space:
 Initial RMS(Int)=    0.0105394642
Transforming coordinates:
 Iter   0:  RMS(Cart)=    0.0448829578 RMS(Int)=    0.0105812199
done
Storing new coordinates                 .... done
The predicted energy change is          ....    -0.000297894
Previously predicted energy change      ....    -0.000554062
Actually observed energy change         ....    -0.000788023
Ratio of predicted to observed change   ....     1.422264384
New trust radius                        ....     0.450000000

                                .--------------------.
          ----------------------|Geometry convergence|-------------------------
          Item                value                   Tolerance       Converged
          ---------------------------------------------------------------------
          Energy change      -0.0007880229            0.0000050000      NO
          RMS gradient        0.0004806878            0.0001000000      NO
          MAX gradient        0.0027151042            0.0003000000      NO
          RMS step            0.0105394642            0.0020000000      NO
          MAX step            0.0456172823            0.0040000000      NO
          -------------------------------------------------------------------------
          ........................................................
          Max(Bonds)      0.0214      Max(Angles)    0.67
          Max(Dihed)        2.61      Max(Improp)    0.00
          ---------------------------------------------------------------------

    ---------------------------------------------------------------------------
                         Redundant Internal Coordinates
                            (Angstroem and degrees)

        Definition                    Value    dE/dq     Step     New-Value
    ----------------------------------------------------------------------------
     1. B(C   1,O   0)                1.4088  0.000937 -0.0024    1.4065   
     2. B(H   2,C   1)                1.1022 -0.000116  0.0006    1.1028   
     3. B(C   3,C   1)                1.5300 -0.000047  0.0016    1.5316   
     4. B(H   4,C   3)                1.0990 -0.000300  0.0009    1.0999   
     5. B(C   5,C   3)                1.5264 -0.001240  0.0034    1.5298   
     6. B(H   6,C   5)                1.1023  0.000050  0.0000    1.1023   
     7. B(C   7,C   5)                1.5242 -0.001018  0.0022    1.5265   
     8. B(O   8,C   7)                1.3961 -0.001425  0.0015    1.3976   
     9. B(Si  9,O   8)                1.6513  0.001968 -0.0035    1.6478   
    10. B(C  10,Si  9)                1.9136 -0.002715  0.0056    1.9192   
    11. B(C  11,C  10)                1.5257 -0.001617  0.0040    1.5297   
    12. B(C  12,C  10)                1.5270 -0.001759  0.0044    1.5314   
    13. B(C  13,C  10)                1.5335 -0.001069  0.0025    1.5360   
    14. B(C  14,Si  9)                1.9390 -0.000060 -0.0034    1.9356   
    15. B(C  15,C  14)                1.5359 -0.000823  0.0019    1.5378   
    16. B(C  16,C  14)                1.5292 -0.001254  0.0031    1.5323   
    17. B(C  17,C  14)                1.5318 -0.001069  0.0025    1.5344   
    18. B(O  18,Si  9)                1.6594  0.001343 -0.0026    1.6568   
    19. B(O  18,C   3)                1.3983 -0.000911  0.0010    1.3992   
    20. B(O  19,C   5)                1.4068 -0.000416  0.0000    1.4068   
    21. B(C  20,O  19)                1.4178 -0.001260  0.0019    1.4197   
    22. B(H  21,C  20)                1.1046  0.000327 -0.0006    1.1040   
    23. B(O  22,C  20)                1.3782 -0.001344  0.0005    1.3787   
    24. B(C  23,O  22)                1.4215 -0.000962  0.0022    1.4236   
    25. B(C  24,C  20)                1.5403 -0.001640  0.0040    1.5443   
    26. B(C  24,C   1)                1.5323 -0.000474  0.0021    1.5344   
    27. B(H  25,C  24)                1.1010 -0.000009  0.0003    1.1013   
    28. B(O  26,C  24)                1.4032  0.000441 -0.0018    1.4014   
    29. B(H  27,O   0)                0.9656 -0.000844  0.0009    0.9665   
    30. B(H  27,O  18)                2.4202 -0.000712  0.0214    2.4416   
    31. B(H  28,C   7)                1.0938  0.000122 -0.0005    1.0933   
    32. B(H  29,C   7)                1.0947 -0.000206  0.0005    1.0952   
    33. B(H  30,C  11)                1.0859 -0.000400  0.0008    1.0867   
    34. B(H  31,C  11)                1.0855 -0.000454  0.0008    1.0864   
    35. B(H  32,C  11)                1.0899  0.000015 -0.0003    1.0896   
    36. B(H  33,C  12)                1.0847 -0.000468  0.0009    1.0856   
    37. B(H  34,C  12)                1.0898  0.000032 -0.0004    1.0895   
    38. B(H  35,C  12)                1.0854 -0.000437  0.0008    1.0862   
    39. B(H  36,C  13)                1.0863 -0.000440  0.0008    1.0871   
    40. B(H  37,C  13)                1.0870 -0.000397  0.0007    1.0877   
    41. B(H  38,C  13)                1.0897  0.000014 -0.0003    1.0894   
    42. B(H  39,C  15)                1.0871 -0.000294  0.0004    1.0875   
    43. B(H  40,C  15)                1.0878 -0.000305  0.0005    1.0884   
    44. B(H  41,C  15)                1.0894 -0.000153  0.0001    1.0896   
    45. B(H  42,C  16)                1.0862 -0.000397  0.0007    1.0869   
    46. B(H  43,C  16)                1.0893 -0.000111 -0.0000    1.0893   
    47. B(H  44,C  16)                1.0857 -0.000378  0.0007    1.0864   
    48. B(H  45,C  17)                1.0859 -0.000394  0.0007    1.0866   
    49. B(H  46,C  17)                1.0851 -0.000469  0.0009    1.0861   
    50. B(H  47,C  17)                1.0892 -0.000117  0.0000    1.0893   
    51. B(H  48,C  23)                1.0879 -0.000087 -0.0000    1.0879   
    52. B(H  49,C  23)                1.0937  0.000166 -0.0005    1.0932   
    53. B(H  50,C  23)                1.0914 -0.000009 -0.0001    1.0913   
    54. B(H  51,O   0)                2.4049 -0.000373  0.0074    2.4123   
    55. B(H  51,O  26)                0.9676 -0.000705  0.0008    0.9685   
    56. A(C   1,O   0,H  27)          106.89 -0.001014    0.67    107.55   
    57. A(O   0,C   1,C   3)          111.48  0.000181    0.30    111.79   
    58. A(C   3,C   1,C  24)          110.25 -0.000273   -0.13    110.12   
    59. A(O   0,C   1,H   2)          109.58 -0.000325    0.46    110.04   
    60. A(H   2,C   1,C   3)          108.84  0.000361   -0.41    108.42   
    61. A(O   0,C   1,C  24)          107.76 -0.000139    0.01    107.78   
    62. A(H   2,C   1,C  24)          108.89  0.000189   -0.23    108.66   
    63. A(C   1,C   3,C   5)          109.23  0.000085   -0.07    109.17   
    64. A(C   1,C   3,H   4)          108.67 -0.000097   -0.00    108.66   
    65. A(C   5,C   3,O  18)          111.93  0.000075   -0.00    111.93   
    66. A(H   4,C   3,C   5)          108.87  0.000149   -0.25    108.62   
    67. A(C   1,C   3,O  18)          108.37 -0.000160    0.20    108.56   
    68. A(H   4,C   3,O  18)          109.72 -0.000058    0.12    109.84   
    69. A(C   7,C   5,O  19)          108.22 -0.000486    0.09    108.31   
    70. A(H   6,C   5,O  19)          110.48 -0.000071    0.12    110.59   
    71. A(C   3,C   5,C   7)          110.75  0.000891   -0.15    110.60   
    72. A(H   6,C   5,C   7)          108.87 -0.000099   -0.01    108.87   
    73. A(C   3,C   5,O  19)          110.41 -0.000331    0.26    110.67   
    74. A(C   3,C   5,H   6)          108.10  0.000106   -0.31    107.79   
    75. A(O   8,C   7,H  29)          110.58 -0.000502    0.16    110.74   
    76. A(O   8,C   7,H  28)          107.66 -0.000396    0.12    107.79   
    77. A(C   5,C   7,H  28)          109.77  0.000371   -0.19    109.59   
    78. A(H  28,C   7,H  29)          108.74  0.000161    0.08    108.82   
    79. A(C   5,C   7,O   8)          111.12 -0.000017    0.11    111.23   
    80. A(C   5,C   7,H  29)          108.92  0.000384   -0.29    108.63   
    81. A(C   7,O   8,Si  9)          121.62 -0.000485    0.49    122.11   
    82. A(O   8,Si  9,C  10)          105.33  0.000170   -0.22    105.11   
    83. A(O   8,Si  9,O  18)          107.17 -0.000318    0.27    107.44   
    84. A(O   8,Si  9,C  14)          110.50  0.000505   -0.37    110.13   
    85. A(C  10,Si  9,C  14)          118.76 -0.000759    0.60    119.36   
    86. A(C  10,Si  9,O  18)          105.81 -0.000540    0.18    105.99   
    87. A(C  14,Si  9,O  18)          108.65  0.000897   -0.45    108.20   
    88. A(C  11,C  10,C  12)          109.23  0.000184   -0.44    108.79   
    89. A(Si  9,C  10,C  12)          110.33 -0.000026    0.06    110.39   
    90. A(Si  9,C  10,C  11)          111.73  0.000096    0.03    111.76   
    91. A(C  12,C  10,C  13)          108.03  0.000192   -0.15    107.89   
    92. A(C  11,C  10,C  13)          108.41  0.000144   -0.14    108.27   
    93. A(Si  9,C  10,C  13)          109.02 -0.000585    0.63    109.65   
    94. A(H  30,C  11,H  31)          108.60 -0.000020   -0.04    108.56   
    95. A(C  10,C  11,H  31)          110.78  0.000056   -0.08    110.70   
    96. A(C  10,C  11,H  30)          110.99  0.000270   -0.15    110.83   
    97. A(H  31,C  11,H  32)          108.38 -0.000041    0.10    108.47   
    98. A(C  10,C  11,H  32)          110.15 -0.000223    0.09    110.24   
    99. A(H  30,C  11,H  32)          107.86 -0.000048    0.10    107.96   
   100. A(H  34,C  12,H  35)          108.64  0.000010    0.05    108.69   
   101. A(H  33,C  12,H  35)          108.17 -0.000116    0.07    108.24   
   102. A(C  10,C  12,H  35)          110.42 -0.000003   -0.06    110.36   
   103. A(H  33,C  12,H  34)          108.14 -0.000092    0.08    108.22   
   104. A(C  10,C  12,H  34)          110.18 -0.000139    0.02    110.20   
   105. A(C  10,C  12,H  33)          111.21  0.000333   -0.16    111.05   
   106. A(H  37,C  13,H  38)          108.20 -0.000073    0.04    108.24   
   107. A(C  10,C  13,H  37)          110.57  0.000037   -0.05    110.52   
   108. A(C  10,C  13,H  38)          110.25  0.000179   -0.10    110.15   
   109. A(H  36,C  13,H  38)          108.35 -0.000067    0.05    108.41   
   110. A(H  36,C  13,H  37)          108.68 -0.000068    0.10    108.78   
   111. A(C  10,C  13,H  36)          110.71 -0.000015   -0.03    110.68   
   112. A(C  16,C  14,C  17)          108.83  0.000421   -0.31    108.52   
   113. A(C  15,C  14,C  17)          108.02 -0.000172    0.08    108.10   
   114. A(C  15,C  14,C  16)          107.57 -0.000176    0.05    107.62   
   115. A(Si  9,C  14,C  17)          110.88 -0.000223    0.15    111.02   
   116. A(Si  9,C  14,C  15)          109.66 -0.000018    0.14    109.81   
   117. A(Si  9,C  14,C  16)          111.76  0.000161   -0.11    111.64   
   118. A(H  39,C  15,H  41)          108.12 -0.000169    0.12    108.24   
   119. A(C  14,C  15,H  41)          110.09  0.000038   -0.04    110.05   
   120. A(H  39,C  15,H  40)          108.75 -0.000084    0.04    108.79   
   121. A(C  14,C  15,H  40)          111.26  0.000216   -0.11    111.15   
   122. A(C  14,C  15,H  39)          110.69  0.000057   -0.07    110.62   
   123. A(H  40,C  15,H  41)          107.83 -0.000074    0.07    107.90   
   124. A(C  14,C  16,H  44)          110.97  0.000234   -0.14    110.83   
   125. A(H  42,C  16,H  44)          108.54  0.000038   -0.01    108.53   
   126. A(H  42,C  16,H  43)          108.39 -0.000023    0.09    108.48   
   127. A(C  14,C  16,H  43)          110.15 -0.000184    0.04    110.18   
   128. A(C  14,C  16,H  42)          110.72  0.000083   -0.06    110.66   
   129. A(H  43,C  16,H  44)          107.98 -0.000156    0.10    108.08   
   130. A(C  14,C  17,H  47)          110.11 -0.000020   -0.01    110.10   
   131. A(H  46,C  17,H  47)          108.31 -0.000072    0.09    108.40   
   132. A(H  45,C  17,H  47)          108.32 -0.000136    0.11    108.43   
   133. A(H  45,C  17,H  46)          108.25 -0.000108    0.04    108.29   
   134. A(C  14,C  17,H  46)          111.10  0.000314   -0.16    110.94   
   135. A(C  14,C  17,H  45)          110.66  0.000008   -0.06    110.61   
   136. A(C   3,O  18,Si  9)          119.75 -0.000572    0.58    120.33   
   137. A(C   5,O  19,C  20)          113.52  0.000278    0.00    113.52   
   138. A(O  22,C  20,C  24)          115.49  0.000400   -0.07    115.42   
   139. A(H  21,C  20,C  24)          108.15  0.000225   -0.18    107.98   
   140. A(O  19,C  20,C  24)          110.04  0.000225   -0.23    109.81   
   141. A(H  21,C  20,O  22)          104.22 -0.000453    0.29    104.51   
   142. A(O  19,C  20,O  22)          108.67 -0.000581    0.22    108.89   
   143. A(O  19,C  20,H  21)          110.06  0.000162   -0.01    110.05   
   144. A(C  20,O  22,C  23)          116.84  0.000618   -0.08    116.75   
   145. A(O  22,C  23,H  50)          110.91  0.000189   -0.12    110.79   
   146. A(H  49,C  23,H  50)          110.30 -0.000147   -0.03    110.27   
   147. A(H  48,C  23,H  50)          109.77 -0.000325    0.24    110.01   
   148. A(H  48,C  23,H  49)          109.18 -0.000464    0.27    109.45   
   149. A(O  22,C  23,H  49)          111.42  0.000745   -0.24    111.18   
   150. A(O  22,C  23,H  48)          105.13 -0.000018   -0.11    105.02   
   151. A(H  25,C  24,O  26)          110.28 -0.000307    0.44    110.72   
   152. A(C  20,C  24,O  26)          108.56 -0.000422   -0.05    108.51   
   153. A(C   1,C  24,O  26)          111.03  0.000452    0.32    111.35   
   154. A(C  20,C  24,H  25)          109.69  0.000391   -0.45    109.24   
   155. A(C   1,C  24,H  25)          108.02  0.000056   -0.23    107.79   
   156. A(C   1,C  24,C  20)          109.26 -0.000161   -0.04    109.21   
   157. A(C  24,O  26,H  51)          106.84 -0.001302    0.66    107.49   
   158. D(C  24,C   1,O   0,H  27)    171.25 -0.000092    0.56    171.81   
   159. D(C   3,C   1,O   0,H  27)     50.14  0.000225    0.53     50.67   
   160. D(H   2,C   1,O   0,H  27)    -70.41 -0.000127    0.55    -69.86   
   161. D(C   5,C   3,C   1,H   2)    -65.39 -0.000049    0.62    -64.77   
   162. D(H   4,C   3,C   1,C  24)    -64.67  0.000069    0.34    -64.33   
   163. D(C   5,C   3,C   1,O   0)    173.63  0.000002    0.13    173.76   
   164. D(C   5,C   3,C   1,C  24)     53.98  0.000241    0.00     53.98   
   165. D(H   4,C   3,C   1,H   2)    175.97 -0.000221    0.96    176.92   
   166. D(H   4,C   3,C   1,O   0)     54.98 -0.000170    0.47     55.45   
   167. D(C   7,C   5,C   3,H   4)    -58.49  0.000383   -0.14    -58.62   
   168. D(H   6,C   5,C   3,O  18)    -56.21 -0.000007    0.14    -56.07   
   169. D(C   7,C   5,C   3,C   1)   -177.01  0.000364    0.05   -176.96   
   170. D(H   6,C   5,C   3,H   4)   -177.68 -0.000084    0.16   -177.52   
   171. D(C   7,C   5,C   3,O  18)     62.98  0.000461   -0.15     62.83   
   172. D(H   6,C   5,C   3,C   1)     63.80 -0.000103    0.34     64.14   
   173. D(H  28,C   7,C   5,H   6)    -61.58  0.000412   -0.47    -62.04   
   174. D(H  28,C   7,C   5,O  19)     58.54 -0.000016   -0.28     58.26   
   175. D(H  28,C   7,C   5,C   3)    179.70 -0.000189    0.01    179.71   
   176. D(O   8,C   7,C   5,O  19)    177.52 -0.000280   -0.17    177.35   
   177. D(O   8,C   7,C   5,H   6)     57.41  0.000147   -0.36     57.04   
   178. D(O   8,C   7,C   5,C   3)    -61.32 -0.000453    0.11    -61.21   
   179. D(Si  9,O   8,C   7,H  28)    163.68  0.000496   -1.55    162.13   
   180. D(Si  9,O   8,C   7,H  29)    -77.65  0.000167   -1.29    -78.94   
   181. D(Si  9,O   8,C   7,C   5)     43.44  0.000302   -1.47     41.97   
   182. D(O  18,Si  9,O   8,C   7)    -23.92 -0.000862    2.61    -21.31   
   183. D(C  14,Si  9,O   8,C   7)     94.30  0.000306    2.02     96.32   
   184. D(C  10,Si  9,O   8,C   7)   -136.28 -0.000193    2.37   -133.91   
   185. D(C  12,C  10,Si  9,O   8)    -50.85 -0.000055   -0.68    -51.53   
   186. D(C  11,C  10,Si  9,O  18)     74.13  0.000174   -0.50     73.62   
   187. D(C  11,C  10,Si  9,C  14)    -48.19 -0.000052   -0.44    -48.63   
   188. D(C  11,C  10,Si  9,O   8)   -172.57 -0.000337   -0.18   -172.75   
   189. D(C  12,C  10,Si  9,O  18)   -164.15  0.000456   -1.00   -165.16   
   190. D(C  12,C  10,Si  9,C  14)     73.53  0.000230   -0.94     72.59   
   191. D(H  31,C  11,C  10,C  12)   -178.23  0.000071   -0.77   -179.00   
   192. D(H  31,C  11,C  10,Si  9)    -55.88  0.000229   -0.99    -56.86   
   193. D(H  30,C  11,C  10,C  13)   -174.99 -0.000151   -0.50   -175.49   
   194. D(H  30,C  11,C  10,C  12)    -57.50  0.000263   -0.99    -58.49   
   195. D(H  31,C  11,C  10,C  13)     64.28 -0.000343   -0.28     64.00   
   196. D(H  30,C  11,C  10,Si  9)     64.85  0.000422   -1.20     63.65   
   197. D(H  34,C  12,C  10,C  13)     56.35  0.000364   -0.83     55.52   
   198. D(H  34,C  12,C  10,C  11)    -61.38 -0.000018   -0.35    -61.73   
   199. D(H  34,C  12,C  10,Si  9)    175.43 -0.000245   -0.12    175.31   
   200. D(H  33,C  12,C  10,C  13)    176.25  0.000372   -0.82    175.43   
   201. D(H  33,C  12,C  10,C  11)     58.52 -0.000010   -0.34     58.19   
   202. D(H  33,C  12,C  10,Si  9)    -64.67 -0.000237   -0.11    -64.78   
   203. D(H  37,C  13,C  10,C  12)     60.89 -0.000147   -0.08     60.81   
   204. D(H  37,C  13,C  10,C  11)    179.14  0.000257   -0.75    178.38   
   205. D(H  37,C  13,C  10,Si  9)    -59.03  0.000108   -0.42    -59.45   
   206. D(H  36,C  13,C  10,C  12)   -178.61 -0.000217   -0.01   -178.61   
   207. D(H  36,C  13,C  10,C  11)    -60.36  0.000186   -0.68    -61.04   
   208. D(H  36,C  13,C  10,Si  9)     61.48  0.000037   -0.35     61.13   
   209. D(C  16,C  14,Si  9,O  18)   -163.60  0.000298   -0.45   -164.05   
   210. D(C  16,C  14,Si  9,C  10)    -42.72 -0.000224   -0.14    -42.86   
   211. D(C  16,C  14,Si  9,O   8)     79.09 -0.000139   -0.28     78.81   
   212. D(C  15,C  14,Si  9,O  18)     77.21  0.000428   -0.54     76.67   
   213. D(C  15,C  14,Si  9,C  10)   -161.91 -0.000095   -0.23   -162.14   
   214. D(C  15,C  14,Si  9,O   8)    -40.10 -0.000009   -0.37    -40.47   
   215. D(H  40,C  15,C  14,C  16)    178.69  0.000049   -0.15    178.53   
   216. D(H  40,C  15,C  14,Si  9)    -59.57  0.000125   -0.18    -59.75   
   217. D(H  39,C  15,C  14,C  17)   -177.59 -0.000184    0.05   -177.54   
   218. D(H  39,C  15,C  14,C  16)    -60.27  0.000127   -0.23    -60.50   
   219. D(H  40,C  15,C  14,C  17)     61.37 -0.000262    0.13     61.50   
   220. D(H  39,C  15,C  14,Si  9)     61.47  0.000204   -0.25     61.21   
   221. D(H  43,C  16,C  14,C  17)     62.15  0.000039   -0.58     61.57   
   222. D(H  43,C  16,C  14,C  15)    -54.64  0.000115   -0.54    -55.18   
   223. D(H  43,C  16,C  14,Si  9)   -175.07  0.000155   -0.68   -175.75   
   224. D(H  42,C  16,C  14,C  17)   -177.98 -0.000056   -0.48   -178.45   
   225. D(H  42,C  16,C  14,C  15)     65.23  0.000020   -0.44     64.79   
   226. D(H  42,C  16,C  14,Si  9)    -55.19  0.000060   -0.58    -55.77   
   227. D(H  46,C  17,C  14,C  16)     62.06  0.000081    0.19     62.24   
   228. D(H  46,C  17,C  14,C  15)    178.56  0.000004    0.13    178.69   
   229. D(H  46,C  17,C  14,Si  9)    -61.26 -0.000260    0.44    -60.82   
   230. D(H  45,C  17,C  14,C  16)   -177.66  0.000158    0.09   -177.58   
   231. D(H  45,C  17,C  14,C  15)    -61.16  0.000081    0.03    -61.13   
   232. D(H  45,C  17,C  14,Si  9)     59.02 -0.000183    0.34     59.36   
   233. D(C   3,O  18,Si  9,C  14)    -94.98 -0.000148   -1.97    -96.95   
   234. D(C   3,O  18,Si  9,C  10)    136.46  0.000575   -2.54    133.92   
   235. D(C   3,O  18,Si  9,O   8)     24.44  0.000761   -2.50     21.93   
   236. D(Si  9,O  18,C   3,C   5)    -45.17 -0.000290    1.43    -43.75   
   237. D(Si  9,O  18,C   3,H   4)     75.81 -0.000092    1.19     77.00   
   238. D(Si  9,O  18,C   3,C   1)   -165.69 -0.000336    1.38   -164.31   
   239. D(C  20,O  19,C   5,C   7)   -176.09  0.000432   -0.15   -176.24   
   240. D(C  20,O  19,C   5,H   6)    -56.98 -0.000027   -0.03    -57.02   
   241. D(C  20,O  19,C   5,C   3)     62.54 -0.000153   -0.18     62.36   
   242. D(C  24,C  20,O  19,C   5)    -61.76 -0.000209   -0.06    -61.83   
   243. D(O  22,C  20,O  19,C   5)    170.88 -0.000461    0.03    170.91   
   244. D(H  21,C  20,O  19,C   5)     57.33  0.000308   -0.43     56.91   
   245. D(C  23,O  22,C  20,C  24)    -59.18 -0.000172    1.14    -58.04   
   246. D(C  23,O  22,C  20,H  21)   -177.67 -0.000360    1.21   -176.46   
   247. D(C  23,O  22,C  20,O  19)     65.00 -0.000048    0.97     65.96   
   248. D(H  50,C  23,O  22,C  20)    -48.52 -0.000406    1.03    -47.49   
   249. D(H  49,C  23,O  22,C  20)     74.76  0.000073    0.74     75.50   
   250. D(H  48,C  23,O  22,C  20)   -167.10 -0.000106    0.87   -166.23   
   251. D(H  25,C  24,C  20,O  22)     61.12 -0.000255    1.13     62.25   
   252. D(H  25,C  24,C  20,H  21)    177.40 -0.000429    1.33    178.72   
   253. D(C   1,C  24,C  20,O  22)    179.35 -0.000053    0.55    179.90   
   254. D(C   1,C  24,C  20,H  21)    -64.37 -0.000227    0.75    -63.62   
   255. D(C   1,C  24,C  20,O  19)     55.89  0.000242    0.50     56.38   
   256. D(H  25,C  24,C   1,C   3)     65.78  0.000291   -1.21     64.57   
   257. D(H  25,C  24,C   1,H   2)   -174.88  0.000686   -1.93   -176.82   
   258. D(H  25,C  24,C   1,O   0)    -56.10  0.000323   -1.51    -57.60   
   259. D(H  25,C  24,C  20,O  19)    -62.35  0.000039    1.07    -61.27   
   260. D(C  20,C  24,C   1,C   3)    -53.49 -0.000120   -0.51    -54.00   
   261. D(C  20,C  24,C   1,H   2)     65.84  0.000275   -1.23     64.61   
   262. D(C  20,C  24,C   1,O   0)   -175.37 -0.000088   -0.80   -176.17   
   263. D(H  51,O  26,C  24,H  25)     69.44  0.000021   -0.03     69.41   
   264. D(H  51,O  26,C  24,C  20)   -170.37  0.000052   -0.34   -170.71   
   265. D(H  51,O  26,C  24,C   1)    -50.25 -0.000139   -0.24    -50.49   
    ----------------------------------------------------------------------------

Geometry step timings:
Preparation and reading OPT file:      0.001 s ( 4.448 %)
Internal coordinates            :      0.000 s ( 0.151 %)
B/P matrices and projection     :      0.006 s (24.887 %)
Hessian update/contruction      :      0.010 s (41.262 %)
Making the step                 :      0.004 s (15.777 %)
Converting the step to Cartesian:      0.001 s ( 2.138 %)
Storing new data                :      0.001 s ( 2.883 %)
Checking convergence            :      0.000 s ( 0.134 %)
Final printing                  :      0.002 s ( 8.319 %)
Total time                      :      0.024 s

Time for energy+gradient        :      0.082 s
Time for complete geometry iter :      0.119 s

         *************************************************************
         *                GEOMETRY OPTIMIZATION CYCLE   5            *
         *************************************************************
---------------------------------
CARTESIAN COORDINATES (ANGSTROEM)
---------------------------------
  O    -3.666446    2.011772   -0.255939
  C    -2.298211    1.743251   -0.071914
  H    -2.111929    1.425315    0.967450
  C    -1.804278    0.639320   -1.011591
  H    -2.038294    0.927510   -2.046904
  C    -0.286688    0.503880   -0.873394
  H    -0.070497    0.171611    0.155188
  C     0.250851   -0.537443   -1.851699
  O    -0.297389   -1.798205   -1.600221
  Si   -1.892824   -2.002366   -1.242538
  C    -1.920224   -3.191754    0.263365
  C    -3.343455   -3.628116    0.615558
  C    -1.079454   -4.438584   -0.026209
  C    -1.315226   -2.488725    1.487739
  C    -2.879338   -2.471916   -2.840362
  C    -2.370432   -1.640882   -4.029958
  C    -2.703453   -3.951259   -3.198888
  C    -4.376976   -2.187234   -2.666067
  O    -2.466355   -0.550243   -0.688356
  O     0.347667    1.730731   -1.140740
  C    -0.010843    2.763101   -0.234498
  H     0.211279    2.451727    0.801135
  O     0.807526    3.851295   -0.451031
  C     0.672886    4.515266   -1.703133
  C    -1.526328    3.043305   -0.333298
  H    -1.767658    3.378300   -1.354277
  O    -1.858394    4.030803    0.604019
  H    -4.136448    1.168062   -0.219492
  H     1.335830   -0.617166   -1.742888
  H     0.021131   -0.210889   -2.871481
  H    -3.783985   -4.201052   -0.195919
  H    -3.972856   -2.764342    0.810283
  H    -3.335537   -4.257099    1.505250
  H    -1.509985   -5.019874   -0.835686
  H    -1.028829   -5.072077    0.858680
  H    -0.069832   -4.156013   -0.310244
  H    -1.894387   -1.606627    1.748940
  H    -0.289671   -2.187376    1.286262
  H    -1.310611   -3.162961    2.343391
  H    -1.318889   -1.844937   -4.217810
  H    -2.493181   -0.575292   -3.845610
  H    -2.932440   -1.892220   -4.928919
  H    -1.650093   -4.197692   -3.304044
  H    -3.205431   -4.172117   -4.140023
  H    -3.132105   -4.588530   -2.430475
  H    -4.543880   -1.135015   -2.452322
  H    -4.790357   -2.770747   -1.848652
  H    -4.915282   -2.443005   -3.577815
  H     1.547220    5.158463   -1.776544
  H    -0.232587    5.127260   -1.730221
  H     0.668174    3.796491   -2.524248
  H    -2.824579    4.089555    0.634926

----------------------------
CARTESIAN COORDINATES (A.U.)
----------------------------
  NO LB    ZA    FRAG    MASS        X           Y           Z
   0 O   8.0000    1    15.999   -6.928578    3.801699   -0.483655
   1 C   6.0000    1    12.011   -4.342990    3.294267   -0.135898
   2 H   1.0000    1     1.008   -3.990967    2.693454    1.828216
   3 C   6.0000    1    12.011   -3.409592    1.208139   -1.911630
   4 H   1.0000    1     1.008   -3.851818    1.752741   -3.868087
   5 C   6.0000    1    12.011   -0.541762    0.952195   -1.650476
   6 H   1.0000    1     1.008   -0.133220    0.324298    0.293263
   7 C   6.0000    1    12.011    0.474040   -1.015620   -3.499204
   8 O   8.0000    1    15.999   -0.561984   -3.398115   -3.023980
   9 Si 14.0000    1    28.086   -3.576919   -3.783924   -2.348057
  10 C   6.0000    1    12.011   -3.628698   -6.031542    0.497687
  11 C   6.0000    1    12.011   -6.318214   -6.856146    1.163236
  12 C   6.0000    1    12.011   -2.039873   -8.387708   -0.049527
  13 C   6.0000    1    12.011   -2.485417   -4.703009    2.811419
  14 C   6.0000    1    12.011   -5.441160   -4.671244   -5.367507
  15 C   6.0000    1    12.011   -4.479466   -3.100817   -7.615518
  16 C   6.0000    1    12.011   -5.108785   -7.466798   -6.045021
  17 C   6.0000    1    12.011   -8.271285   -4.133274   -5.038136
  18 O   8.0000    1    15.999   -4.660736   -1.039808   -1.300804
  19 O   8.0000    1    15.999    0.656996    3.270608   -2.155686
  20 C   6.0000    1    12.011   -0.020490    5.221505   -0.443136
  21 H   1.0000    1     1.008    0.399260    4.633093    1.513926
  22 O   8.0000    1    15.999    1.526004    7.277893   -0.852326
  23 C   6.0000    1    12.011    1.271570    8.532617   -3.218454
  24 C   6.0000    1    12.011   -2.884342    5.751012   -0.629841
  25 H   1.0000    1     1.008   -3.340389    6.384061   -2.559212
  26 O   8.0000    1    15.999   -3.511855    7.617113    1.141430
  27 H   1.0000    1     1.008   -7.816754    2.207317   -0.414780
  28 H   1.0000    1     1.008    2.524352   -1.166275   -3.293581
  29 H   1.0000    1     1.008    0.039932   -0.398522   -5.426312
  30 H   1.0000    1     1.008   -7.150695   -7.938838   -0.370233
  31 H   1.0000    1     1.008   -7.507610   -5.223850    1.531213
  32 H   1.0000    1     1.008   -6.303251   -8.044752    2.844510
  33 H   1.0000    1     1.008   -2.853459   -9.486187   -1.579218
  34 H   1.0000    1     1.008   -1.944206   -9.584837    1.622670
  35 H   1.0000    1     1.008   -0.131964   -7.853726   -0.586276
  36 H   1.0000    1     1.008   -3.579873   -3.036086    3.305018
  37 H   1.0000    1     1.008   -0.547399   -4.133542    2.430683
  38 H   1.0000    1     1.008   -2.476695   -5.977129    4.428367
  39 H   1.0000    1     1.008   -2.492339   -3.486426   -7.970505
  40 H   1.0000    1     1.008   -4.711429   -1.087145   -7.267150
  41 H   1.0000    1     1.008   -5.541509   -3.575778   -9.314307
  42 H   1.0000    1     1.008   -3.118223   -7.932489   -6.243738
  43 H   1.0000    1     1.008   -6.057386   -7.884159   -7.823509
  44 H   1.0000    1     1.008   -5.918821   -8.671065   -4.592932
  45 H   1.0000    1     1.008   -8.586689   -2.144867   -4.634216
  46 H   1.0000    1     1.008   -9.052462   -5.235953   -3.493446
  47 H   1.0000    1     1.008   -9.288536   -4.616610   -6.761091
  48 H   1.0000    1     1.008    2.923822    9.748083   -3.357181
  49 H   1.0000    1     1.008   -0.439526    9.689117   -3.269643
  50 H   1.0000    1     1.008    1.262666    7.174328   -4.770138
  51 H   1.0000    1     1.008   -5.337680    7.728139    1.199836

      -----------------------------------------------------------      
     |                   =====================                   |     
     |                           x T B                           |     
     |                   =====================                   |     
     |                         S. Grimme                         |     
     |          Mulliken Center for Theoretical Chemistry        |     
     |                    University of Bonn                     |     
      -----------------------------------------------------------      

   * xtb version 6.7.1 (edcfbbe) compiled by 'albert@albert-system' on 2024-07-22

   xtb is free software: you can redistribute it and/or modify it under
   the terms of the GNU Lesser General Public License as published by
   the Free Software Foundation, either version 3 of the License, or
   (at your option) any later version.
   
   xtb is distributed in the hope that it will be useful,
   but WITHOUT ANY WARRANTY; without even the implied warranty of
   MERCHANTABILITY or FITNESS FOR A PARTICULAR PURPOSE.  See the
   GNU Lesser General Public License for more details.
   
   Cite this work as:
   * C. Bannwarth, E. Caldeweyher, S. Ehlert, A. Hansen, P. Pracht,
     J. Seibert, S. Spicher, S. Grimme, WIREs Comput. Mol. Sci., 2020, 11,
     e01493. DOI: 10.1002/wcms.1493
   
   for GFN2-xTB:
   * C. Bannwarth, S. Ehlert and S. Grimme., J. Chem. Theory Comput., 2019,
     15, 1652-1671. DOI: 10.1021/acs.jctc.8b01176
   for GFN1-xTB:
   * S. Grimme, C. Bannwarth, P. Shushkov, J. Chem. Theory Comput., 2017,
     13, 1989-2009. DOI: 10.1021/acs.jctc.7b00118
   for GFN0-xTB:
   * P. Pracht, E. Caldeweyher, S. Ehlert, S. Grimme, ChemRxiv, 2019, preprint.
     DOI: 10.26434/chemrxiv.8326202.v1
   for GFN-FF:
   * S. Spicher and S. Grimme, Angew. Chem. Int. Ed., 2020, 59, 15665-15673.
     DOI: 10.1002/anie.202004239
   
   for ALPB and GBSA implicit solvation:
   * S. Ehlert, M. Stahn, S. Spicher, S. Grimme, J. Chem. Theory Comput.,
     2021, 17, 4250-4261. DOI: 10.1021/acs.jctc.1c00471
   
   for ddCOSMO and CPCM-X implicit solvation:
   * M. Stahn, S. Ehlert, S. Grimme, J. Phys. Chem. A,
     2023, XX, XXXX-XXXX. DOI: 10.1021/acs.jpca.3c04382
   
   for DFT-D4:
   * E. Caldeweyher, C. Bannwarth and S. Grimme, J. Chem. Phys., 2017,
     147, 034112. DOI: 10.1063/1.4993215
   * E. Caldeweyher, S. Ehlert, A. Hansen, H. Neugebauer, S. Spicher,
     C. Bannwarth and S. Grimme, J. Chem. Phys., 2019, 150, 154122.
     DOI: 10.1063/1.5090222
   * E. Caldeweyher, J.-M. Mewes, S. Ehlert and S. Grimme, Phys. Chem. Chem. Phys.
     2020, 22, 8499-8512. DOI: 10.1039/D0CP00502A
   
   for sTDA-xTB:
   * S. Grimme and C. Bannwarth, J. Chem. Phys., 2016, 145, 054103.
     DOI: 10.1063/1.4959605
   
   in the mass-spec context:
   * V. Asgeirsson, C. Bauer and S. Grimme, Chem. Sci., 2017, 8, 4879.
     DOI: 10.1039/c7sc00601b
   * J. Koopman and S. Grimme, ACS Omega 2019, 4, 12, 15120-15133.
     DOI: 10.1021/acsomega.9b02011
   
   for metadynamics refer to:
   * S. Grimme, J. Chem. Theory Comput., 2019, 155, 2847-2862
     DOI: 10.1021/acs.jctc.9b00143
   
   for SPH calculations refer to:
   * S. Spicher and S. Grimme, J. Chem. Theory Comput., 2021, 17, 1701-1714
     DOI: 10.1021/acs.jctc.0c01306
   
   for ONIOM refer to:
   * C. Plett, A. Katbashev, S. Ehlert, S. Grimme, M. Bursch,
     Phys. Chem. Chem. Phys., 2023, 25, 17860-17868. DOI: 10.1039/D3CP02178E
   
   for DIPRO refer to:
   * J. Kohn, N. Gildemeister, S. Grimme, D. Fazzi, A. Hansen,
     J. Chem. Phys., 2023, just accepted.
   
   for PTB refer to:
   * S. Grimme, M. Mueller, A. Hansen, J. Chem. Phys., 2023, 158, 124111.
     DOI: 10.1063/5.0137838
   
   with help from (in alphabetical order)
   P. Atkinson, C. Bannwarth, F. Bohle, G. Brandenburg, E. Caldeweyher
   M. Checinski, S. Dohm, S. Ehlert, S. Ehrlich, I. Gerasimov, C. Hölzer
   A. Katbashev, J. Kohn, J. Koopman, C. Lavigne, S. Lehtola, F. März, M. Müller,
   F. Musil, H. Neugebauer, J. Pisarek, C. Plett, P. Pracht, F. Pultar,
   J. Seibert, P. Shushkov, S. Spicher, M. Stahn, M. Steiner, T. Strunk,
   J. Stückrath, T. Rose, and J. Unsleber
   
 * started run on 2025/09/10 at 11:31:43.959     
   ID    Z sym.   atoms
    1    8 O      1, 9, 19, 20, 23, 27
    2    6 C      2, 4, 6, 8, 11-18, 21, 24, 25
    3    1 H      3, 5, 7, 22, 26, 28-52
    4   14 Si     10

           -------------------------------------------------
          |                Calculation Setup                |
           -------------------------------------------------

          program call               : /home/kmoult/orca_6_1/otool_xtb goat_0_XTB.xyz --grad -c 0 -u 0 -P 4 --namespace goat_0 --input goat_0_XTB.input.tmp --alpb ACETONE --acc 0.200000
          hostname                   : node3306
          calculation namespace      : goat_0
          coordinate file            : goat_0_XTB.xyz
          omp threads                :                     4


           -------------------------------------------------
          |                 G F N 2 - x T B                 |
           -------------------------------------------------

        Reference                      10.1021/acs.jctc.8b01176
      * Hamiltonian:
        H0-scaling (s, p, d)           1.850000    2.230000    2.230000
        zeta-weighting                 0.500000
      * Dispersion:
        s8                             2.700000
        a1                             0.520000
        a2                             5.000000
        s9                             5.000000
      * Repulsion:
        kExp                           1.500000    1.000000
        rExp                           1.000000
      * Coulomb:
        alpha                          2.000000
        third order                    shell-resolved
        anisotropic                    true
        a3                             3.000000
        a5                             4.000000
        cn-shift                       1.200000
        cn-exp                         4.000000
        max-rad                        5.000000

      * Solvation model:               ALPB
        Solvent                        ACETONE
        Parameter file                 internal GFN2-xTB/ALPB
        Dielectric constant                2.0700E+01
        Reference state                gsolv [1 M gas/solution]
        Free energy shift                  5.9241E-03 Eh       3.7175E+00 kcal/mol
        Temperature                        2.9815E+02 K
        Density                            7.9000E-01 kg/L
        Solvent mass                       5.8080E+01 g/mol
        Interaction kernel             P16
        Born radius scaling (c1)           1.8274E+00
        Born radii integrator          GBOBC
        Born offset                        0.0000E+00 a0       0.0000E+00 AA
        H-bond correction              true
        Ion screening                  false
        Surface tension                    1.0000E-05 Eh       1.5569E+01 dyn/cm
        Grid points                               230 per atom
q/qsh data taken from xtbrestart
CAMM data taken from xtbrestart

          ...................................................
          :                      SETUP                      :
          :.................................................:
          :  # basis functions                 124          :
          :  # atomic orbitals                 123          :
          :  # shells                           75          :
          :  # electrons                       130          :
          :  max. iterations                   250          :
          :  Hamiltonian                  GFN2-xTB          :
          :  restarted?                       true          :
          :  GBSA solvation                   true          :
          :  PC potential                    false          :
          :  electronic temp.          300.0000000     K    :
          :  accuracy                    0.2000000          :
          :  -> integral cutoff          0.3198970E+02      :
          :  -> integral neglect         0.2000000E-08      :
          :  -> SCF convergence          0.2000000E-06 Eh   :
          :  -> wf. convergence          0.2000000E-04 e    :
          :  Broyden damping             0.4000000          :
          :  net charge                          0          :
          :  unpaired electrons                  0          :
          ...................................................

 iter      E             dE          RMSdq      gap      omega  full diag
   1    -74.4388116 -0.744388E+02  0.110E-01    5.53       0.0  T
   2    -74.4388167 -0.505362E-05  0.748E-02    5.54       1.0  T
   3    -74.4388128  0.389370E-05  0.207E-02    5.53       1.0  T
   4    -74.4388182 -0.538250E-05  0.147E-02    5.54       1.0  T
   5    -74.4388188 -0.599655E-06  0.611E-03    5.54       2.3  T
   6    -74.4388194 -0.671038E-06  0.120E-03    5.54      11.5  T
   7    -74.4388194 -0.917589E-08  0.664E-04    5.54      20.9  T
   8    -74.4388194 -0.157326E-08  0.263E-04    5.54      52.7  T
   9    -74.4388194 -0.241656E-09  0.151E-04    5.54      91.6  T
  10    -74.4388194 -0.172378E-09  0.677E-05    5.54     204.9  T

   *** convergence criteria satisfied after 10 iterations ***

         #    Occupation            Energy/Eh            Energy/eV
      -------------------------------------------------------------
         1        2.0000           -0.8175483             -22.2466
       ...           ...                  ...                  ...
        59        2.0000           -0.4253884             -11.5754
        60        2.0000           -0.4242096             -11.5433
        61        2.0000           -0.4229666             -11.5095
        62        2.0000           -0.4179810             -11.3738
        63        2.0000           -0.4140293             -11.2663
        64        2.0000           -0.4056873             -11.0393
        65        2.0000           -0.3729262             -10.1478 (HOMO)
        66                         -0.1692796              -4.6063 (LUMO)
        67                         -0.1440543              -3.9199
        68                         -0.0917533              -2.4967
        69                         -0.0489137              -1.3310
        70                         -0.0048651              -0.1324
       ...                                ...                  ...
       123                          0.7821905              21.2845
      -------------------------------------------------------------
                  HL-Gap            0.2036466 Eh            5.5415 eV
             Fermi-level           -0.2711029 Eh           -7.3771 eV

 SCC (total)                   0 d,  0 h,  0 min,  0.032 sec
 SCC setup                      ...        0 min,  0.001 sec (  1.985%)
 Dispersion                     ...        0 min,  0.000 sec (  1.141%)
 classical contributions        ...        0 min,  0.000 sec (  0.140%)
 integral evaluation            ...        0 min,  0.004 sec ( 13.801%)
 iterations                     ...        0 min,  0.018 sec ( 56.773%)
 molecular gradient             ...        0 min,  0.008 sec ( 25.652%)
 printout                       ...        0 min,  0.000 sec (  0.463%)

         :::::::::::::::::::::::::::::::::::::::::::::::::::::
         ::                     SUMMARY                     ::
         :::::::::::::::::::::::::::::::::::::::::::::::::::::
         :: total energy             -73.690370569868 Eh    ::
         :: total w/o Gsasa/hb       -73.661569338609 Eh    ::
         :: gradient norm              0.004575987113 Eh/a0 ::
         :: HOMO-LUMO gap              5.541507243565 eV    ::
         ::.................................................::
         :: SCC energy               -74.437448921406 Eh    ::
         :: -> isotropic ES            0.157461116230 Eh    ::
         :: -> anisotropic ES          0.003118773824 Eh    ::
         :: -> anisotropic XC          0.005271020470 Eh    ::
         :: -> dispersion             -0.053460825368 Eh    ::
         :: -> Gsolv                  -0.031786644680 Eh    ::
         ::    -> Gelec               -0.002985413422 Eh    ::
         ::    -> Gsasa               -0.028892761634 Eh    ::
         ::    -> Ghb                 -0.005832610889 Eh    ::
         ::    -> Gshift               0.005924141264 Eh    ::
         :: repulsion energy           0.747078351538 Eh    ::
         :: add. restraining           0.000000000000 Eh    ::
         :: total charge              -0.000000000000 e     ::
         :::::::::::::::::::::::::::::::::::::::::::::::::::::


Property printout bound to 'properties.out'

           -------------------------------------------------
          | TOTAL ENERGY              -73.690370569868 Eh   |
          | GRADIENT NORM               0.004575987113 Eh/α |
          | HOMO-LUMO GAP               5.541507243565 eV   |
           -------------------------------------------------

------------------------------------------------------------------------
 * finished run on 2025/09/10 at 11:31:44.016     
------------------------------------------------------------------------
 total:
 * wall-time:     0 d,  0 h,  0 min,  0.056 sec
 *  cpu-time:     0 d,  0 h,  0 min,  0.200 sec
 * ratio c/w:     3.579 speedup
 SCF:
 * wall-time:     0 d,  0 h,  0 min,  0.032 sec
 *  cpu-time:     0 d,  0 h,  0 min,  0.128 sec
 * ratio c/w:     3.980 speedup


-------------------------   --------------------
FINAL SINGLE POINT ENERGY       -73.690370569870
-------------------------   --------------------


-------------
DIPOLE MOMENT
-------------
                                X             Y             Z
Total Dipole Moment    :     -0.97600      -0.81800      -0.72900
                        -----------------------------------------
Magnitude (a.u.)       :      1.46736
Magnitude (Debye)      :      3.72973


------------------
CARTESIAN GRADIENT
------------------

   1   O   :   -0.000355140    0.000436573   -0.000055180
   2   C   :   -0.000232897   -0.000212432   -0.000335350
   3   H   :    0.000216321    0.000153759   -0.000018862
   4   C   :   -0.000090348   -0.000206497   -0.000308778
   5   H   :    0.000217294    0.000148596   -0.000152898
   6   C   :   -0.000144631   -0.000759241   -0.000234194
   7   H   :   -0.000040590    0.000024894    0.000098661
   8   C   :    0.000333516    0.000278263   -0.000756082
   9   O   :    0.000654214   -0.000211826    0.001369022
  10   Si  :   -0.000994688   -0.000794540   -0.002013738
  11   C   :   -0.000276632    0.001173285   -0.001320857
  12   C   :   -0.000141220    0.000048289    0.000183639
  13   C   :    0.000110084   -0.000263094    0.000310379
  14   C   :    0.000248419    0.000004883    0.000594671
  15   C   :    0.000512510    0.000213294    0.000871989
  16   C   :    0.000134571    0.000128134   -0.000205374
  17   C   :   -0.000134693   -0.000253786   -0.000095778
  18   C   :   -0.000200172    0.000058230    0.000072262
  19   O   :    0.000000043   -0.000007299    0.001760915
  20   O   :   -0.000096915    0.000412745    0.000158948
  21   C   :    0.000285885    0.000033209   -0.000327537
  22   H   :   -0.000010590    0.000239102    0.000325761
  23   O   :    0.000241423   -0.000002965   -0.000224787
  24   C   :   -0.000118586    0.000013143    0.000276339
  25   C   :    0.000061211   -0.000535217    0.000003180
  26   H   :   -0.000174607    0.000086979    0.000055423
  27   O   :    0.000318273    0.000535556    0.000374783
  28   H   :    0.000156148   -0.000371104   -0.000092524
  29   H   :   -0.000077053   -0.000150437   -0.000031764
  30   H   :   -0.000152203    0.000288535    0.000108903
  31   H   :   -0.000026856   -0.000208767    0.000027265
  32   H   :   -0.000032612    0.000073730    0.000019483
  33   H   :   -0.000017517   -0.000108979    0.000051374
  34   H   :   -0.000043145   -0.000146207   -0.000146723
  35   H   :   -0.000027988   -0.000096342    0.000022686
  36   H   :    0.000052927    0.000072336   -0.000041504
  37   H   :   -0.000063601   -0.000022257    0.000045162
  38   H   :    0.000078446    0.000034521   -0.000006160
  39   H   :    0.000059547    0.000002304    0.000083222
  40   H   :    0.000051155   -0.000076953   -0.000080274
  41   H   :   -0.000039766    0.000071659   -0.000126581
  42   H   :   -0.000034639   -0.000000028   -0.000093495
  43   H   :    0.000097779   -0.000007873   -0.000024482
  44   H   :   -0.000006239    0.000043656   -0.000061428
  45   H   :    0.000021541   -0.000125413    0.000078875
  46   H   :    0.000005745    0.000120371   -0.000001653
  47   H   :   -0.000091675   -0.000119154    0.000090629
  48   H   :   -0.000021631   -0.000022318   -0.000053888
  49   H   :    0.000065490    0.000080131    0.000178011
  50   H   :    0.000011359   -0.000000490   -0.000305488
  51   H   :   -0.000094660   -0.000016644    0.000017599
  52   H   :   -0.000192607   -0.000056311   -0.000063799

Difference to translation invariance:
           :   -0.0000000000    0.0000000000    0.0000000000

Difference to rotation invariance:
           :   -0.0006540031    0.0000362199   -0.0002311798

Norm of the Cartesian gradient     ...    0.0045759871
RMS gradient                       ...    0.0003663722
MAX gradient                       ...    0.0020137381
------------------------------------------------------------------------------
                         ORCA GEOMETRY RELAXATION STEP
------------------------------------------------------------------------------

Reading the OPT-File                    .... done
Getting information on internals        .... done
Copying old internal coords+grads       .... done
Making the new internal coordinates     .... (2022 redundants) done
Validating the new internal coordinates .... (2022 redundants) done
Calculating the B-matrix                .... done
Calculating the G,G- and P matrices     .... done
Transforming gradient to internals      .... done
Projecting the internal gradient        .... done
Number of atoms                         ....  52
Number of internal coordinates          .... 265
Current Energy                          ....   -73.690370570 Eh
Current gradient norm                   ....     0.004575987 Eh/bohr
Maximum allowed component of the step   ....  0.300
Current trust radius                    ....  0.450
Updating the Hessian (BFGS)             .... done
Forming the augmented Hessian           .... done
Diagonalizing the augmented Hessian     .... done
Last element of RFO vector              ....  0.996788409
Lowest eigenvalues of augmented Hessian:
 -0.000085714  0.008330333  0.010000021  0.010010830  0.010064567
Length of the computed step             ....  0.080338399
The final length of the internal step   ....  0.080338399
Converting the step to Cartesian space:
 Initial RMS(Int)=    0.0049351486
Transforming coordinates:
 Iter   0:  RMS(Cart)=    0.0222977445 RMS(Int)=    0.3857024200
done
Storing new coordinates                 .... done
The predicted energy change is          ....    -0.000043133
Previously predicted energy change      ....    -0.000297894
Actually observed energy change         ....    -0.000338912
Ratio of predicted to observed change   ....     1.137694325
New trust radius                        ....     0.675000000

                                .--------------------.
          ----------------------|Geometry convergence|-------------------------
          Item                value                   Tolerance       Converged
          ---------------------------------------------------------------------
          Energy change      -0.0003389119            0.0000050000      NO
          RMS gradient        0.0001739349            0.0001000000      NO
          MAX gradient        0.0007024199            0.0003000000      NO
          RMS step            0.0049351486            0.0020000000      NO
          MAX step            0.0253441191            0.0040000000      NO
          -------------------------------------------------------------------------
          ........................................................
          Max(Bonds)      0.0079      Max(Angles)    0.28
          Max(Dihed)        1.45      Max(Improp)    0.00
          ---------------------------------------------------------------------

    ---------------------------------------------------------------------------
                         Redundant Internal Coordinates
                            (Angstroem and degrees)

        Definition                    Value    dE/dq     Step     New-Value
    ----------------------------------------------------------------------------
     1. B(C   1,O   0)                1.4064  0.000317 -0.0008    1.4056   
     2. B(H   2,C   1)                1.1028 -0.000024  0.0002    1.1029   
     3. B(C   3,C   1)                1.5315  0.000206  0.0003    1.5318   
     4. B(H   4,C   3)                1.0999  0.000136 -0.0000    1.0998   
     5. B(C   5,C   3)                1.5299  0.000051  0.0007    1.5305   
     6. B(H   6,C   5)                1.1023  0.000077 -0.0001    1.1022   
     7. B(C   7,C   5)                1.5266 -0.000004  0.0003    1.5268   
     8. B(O   8,C   7)                1.3976  0.000393 -0.0002    1.3974   
     9. B(Si  9,O   8)                1.6477  0.000495 -0.0011    1.6467   
    10. B(C  10,Si  9)                1.9192 -0.000496  0.0020    1.9212   
    11. B(C  11,C  10)                1.5297  0.000320  0.0004    1.5302   
    12. B(C  12,C  10)                1.5314  0.000381  0.0004    1.5319   
    13. B(C  13,C  10)                1.5360  0.000702 -0.0005    1.5355   
    14. B(C  14,Si  9)                1.9356 -0.000457  0.0002    1.9359   
    15. B(C  15,C  14)                1.5378  0.000499 -0.0004    1.5374   
    16. B(C  16,C  14)                1.5323  0.000351  0.0002    1.5325   
    17. B(C  17,C  14)                1.5344  0.000319  0.0001    1.5345   
    18. B(O  18,Si  9)                1.6567  0.000428 -0.0008    1.6559   
    19. B(O  18,C   3)                1.3992  0.000330 -0.0001    1.3992   
    20. B(O  19,C   5)                1.4068  0.000558 -0.0006    1.4062   
    21. B(C  20,O  19)                1.4197  0.000058  0.0003    1.4200   
    22. B(H  21,C  20)                1.1040  0.000238 -0.0004    1.1036   
    23. B(O  22,C  20)                1.3787  0.000127 -0.0000    1.3787   
    24. B(C  23,O  22)                1.4236 -0.000105  0.0006    1.4243   
    25. B(C  24,C  20)                1.5443  0.000091  0.0006    1.5450   
    26. B(C  24,C   1)                1.5344  0.000097  0.0003    1.5347   
    27. B(H  25,C  24)                1.1013  0.000011  0.0001    1.1014   
    28. B(O  26,C  24)                1.4014  0.000447 -0.0009    1.4005   
    29. B(H  27,O   0)                0.9665  0.000206 -0.0001    0.9664   
    30. B(H  27,O  18)                2.4416 -0.000145  0.0079    2.4495   
    31. B(H  28,C   7)                1.0933 -0.000069  0.0000    1.0933   
    32. B(H  29,C   7)                1.0952  0.000017  0.0001    1.0952   
    33. B(H  30,C  11)                1.0867  0.000102 -0.0000    1.0867   
    34. B(H  31,C  11)                1.0864  0.000079  0.0001    1.0864   
    35. B(H  32,C  11)                1.0896  0.000104 -0.0002    1.0894   
    36. B(H  33,C  12)                1.0856  0.000206 -0.0002    1.0854   
    37. B(H  34,C  12)                1.0895  0.000072 -0.0001    1.0893   
    38. B(H  35,C  12)                1.0862  0.000080  0.0001    1.0863   
    39. B(H  36,C  13)                1.0871  0.000025  0.0001    1.0872   
    40. B(H  37,C  13)                1.0877  0.000085  0.0000    1.0878   
    41. B(H  38,C  13)                1.0894  0.000064 -0.0001    1.0893   
    42. B(H  39,C  15)                1.0875  0.000077 -0.0000    1.0875   
    43. B(H  40,C  15)                1.0884  0.000055  0.0000    1.0884   
    44. B(H  41,C  15)                1.0896  0.000095 -0.0001    1.0895   
    45. B(H  42,C  16)                1.0869  0.000099  0.0000    1.0869   
    46. B(H  43,C  16)                1.0893  0.000048 -0.0000    1.0892   
    47. B(H  44,C  16)                1.0864  0.000119 -0.0000    1.0864   
    48. B(H  45,C  17)                1.0866  0.000116 -0.0000    1.0866   
    49. B(H  46,C  17)                1.0861  0.000167 -0.0001    1.0860   
    50. B(H  47,C  17)                1.0893  0.000061 -0.0001    1.0892   
    51. B(H  48,C  23)                1.0879  0.000087 -0.0001    1.0878   
    52. B(H  49,C  23)                1.0932 -0.000001 -0.0001    1.0931   
    53. B(H  50,C  23)                1.0913 -0.000004 -0.0000    1.0913   
    54. B(H  51,O   0)                2.4124  0.000092 -0.0007    2.4117   
    55. B(H  51,O  26)                0.9685  0.000214 -0.0000    0.9684   
    56. A(C   1,O   0,H  27)          107.55 -0.000307    0.22    107.77   
    57. A(O   0,C   1,C   3)          111.78  0.000008    0.09    111.87   
    58. A(C   3,C   1,C  24)          110.12  0.000134   -0.08    110.04   
    59. A(O   0,C   1,H   2)          110.04  0.000122    0.06    110.10   
    60. A(H   2,C   1,C   3)          108.42 -0.000029   -0.07    108.35   
    61. A(O   0,C   1,C  24)          107.78 -0.000084   -0.02    107.75   
    62. A(H   2,C   1,C  24)          108.65 -0.000154    0.02    108.68   
    63. A(C   1,C   3,C   5)          109.17  0.000062   -0.04    109.12   
    64. A(C   1,C   3,H   4)          108.67 -0.000113    0.02    108.68   
    65. A(C   5,C   3,O  18)          111.92  0.000020    0.02    111.94   
    66. A(H   4,C   3,C   5)          108.62 -0.000063   -0.02    108.60   
    67. A(C   1,C   3,O  18)          108.57 -0.000065    0.05    108.62   
    68. A(H   4,C   3,O  18)          109.85  0.000155   -0.03    109.82   
    69. A(C   7,C   5,O  19)          108.32  0.000149   -0.00    108.32   
    70. A(H   6,C   5,O  19)          110.60 -0.000126    0.03    110.62   
    71. A(C   3,C   5,C   7)          110.60  0.000214   -0.04    110.55   
    72. A(H   6,C   5,C   7)          108.86  0.000017   -0.02    108.84   
    73. A(C   3,C   5,O  19)          110.67 -0.000143    0.09    110.75   
    74. A(C   3,C   5,H   6)          107.79 -0.000108   -0.05    107.74   
    75. A(O   8,C   7,H  29)          110.75  0.000305   -0.03    110.72   
    76. A(O   8,C   7,H  28)          107.79 -0.000052    0.04    107.83   
    77. A(C   5,C   7,H  28)          109.60  0.000077   -0.08    109.52   
    78. A(H  28,C   7,H  29)          108.82  0.000036   -0.03    108.79   
    79. A(C   5,C   7,O   8)          111.22 -0.000170    0.10    111.31   
    80. A(C   5,C   7,H  29)          108.63 -0.000189   -0.01    108.62   
    81. A(C   7,O   8,Si  9)          122.05 -0.000041    0.19    122.24   
    82. A(O   8,Si  9,C  10)          105.13 -0.000232    0.00    105.13   
    83. A(O   8,Si  9,O  18)          107.41 -0.000037    0.17    107.58   
    84. A(O   8,Si  9,C  14)          110.14  0.000314   -0.23    109.91   
    85. A(C  10,Si  9,C  14)          119.35  0.000052    0.11    119.46   
    86. A(C  10,Si  9,O  18)          106.01 -0.000535    0.20    106.20   
    87. A(C  14,Si  9,O  18)          108.20  0.000389   -0.22    107.97   
    88. A(C  11,C  10,C  12)          108.79 -0.000091   -0.03    108.76   
    89. A(Si  9,C  10,C  12)          110.39  0.000032   -0.01    110.37   
    90. A(Si  9,C  10,C  11)          111.76  0.000146   -0.07    111.69   
    91. A(C  12,C  10,C  13)          107.89 -0.000156    0.05    107.93   
    92. A(C  11,C  10,C  13)          108.27 -0.000066    0.01    108.28   
    93. A(Si  9,C  10,C  13)          109.64  0.000121    0.06    109.71   
    94. A(H  30,C  11,H  31)          108.55  0.000028   -0.03    108.52   
    95. A(C  10,C  11,H  31)          110.70 -0.000005   -0.02    110.68   
    96. A(C  10,C  11,H  30)          110.83  0.000071   -0.05    110.78   
    97. A(H  31,C  11,H  32)          108.47  0.000024    0.02    108.49   
    98. A(C  10,C  11,H  32)          110.24 -0.000001    0.03    110.26   
    99. A(H  30,C  11,H  32)          107.96 -0.000120    0.06    108.02   
   100. A(H  34,C  12,H  35)          108.69  0.000049    0.00    108.69   
   101. A(H  33,C  12,H  35)          108.24 -0.000022    0.02    108.25   
   102. A(C  10,C  12,H  35)          110.36 -0.000094    0.01    110.37   
   103. A(H  33,C  12,H  34)          108.22 -0.000067    0.03    108.25   
   104. A(C  10,C  12,H  34)          110.20  0.000069   -0.01    110.19   
   105. A(C  10,C  12,H  33)          111.05  0.000064   -0.04    111.01   
   106. A(H  37,C  13,H  38)          108.24 -0.000088    0.03    108.27   
   107. A(C  10,C  13,H  37)          110.52 -0.000011   -0.01    110.51   
   108. A(C  10,C  13,H  38)          110.15  0.000098   -0.04    110.11   
   109. A(H  36,C  13,H  38)          108.41 -0.000008    0.01    108.42   
   110. A(H  36,C  13,H  37)          108.78  0.000020    0.02    108.80   
   111. A(C  10,C  13,H  36)          110.68 -0.000013   -0.00    110.67   
   112. A(C  16,C  14,C  17)          108.53  0.000052   -0.05    108.48   
   113. A(C  15,C  14,C  17)          108.10  0.000021    0.01    108.10   
   114. A(C  15,C  14,C  16)          107.62 -0.000190    0.06    107.68   
   115. A(Si  9,C  14,C  17)          111.02 -0.000152    0.07    111.09   
   116. A(Si  9,C  14,C  15)          109.80  0.000221   -0.06    109.75   
   117. A(Si  9,C  14,C  16)          111.64  0.000045   -0.03    111.62   
   118. A(H  39,C  15,H  41)          108.24 -0.000066    0.05    108.29   
   119. A(C  14,C  15,H  41)          110.05 -0.000009    0.00    110.06   
   120. A(H  39,C  15,H  40)          108.79 -0.000018   -0.01    108.78   
   121. A(C  14,C  15,H  40)          111.15  0.000181   -0.07    111.08   
   122. A(C  14,C  15,H  39)          110.62 -0.000018   -0.02    110.61   
   123. A(H  40,C  15,H  41)          107.90 -0.000077    0.04    107.95   
   124. A(C  14,C  16,H  44)          110.83  0.000125   -0.06    110.77   
   125. A(H  42,C  16,H  44)          108.53 -0.000082    0.01    108.54   
   126. A(H  42,C  16,H  43)          108.49  0.000019    0.03    108.51   
   127. A(C  14,C  16,H  43)          110.18 -0.000061    0.02    110.20   
   128. A(C  14,C  16,H  42)          110.66 -0.000058    0.00    110.66   
   129. A(H  43,C  16,H  44)          108.08  0.000057   -0.00    108.08   
   130. A(C  14,C  17,H  47)          110.10 -0.000025    0.01    110.11   
   131. A(H  46,C  17,H  47)          108.40 -0.000008    0.03    108.43   
   132. A(H  45,C  17,H  47)          108.43  0.000003    0.03    108.45   
   133. A(H  45,C  17,H  46)          108.29  0.000023   -0.01    108.28   
   134. A(C  14,C  17,H  46)          110.94  0.000047   -0.04    110.89   
   135. A(C  14,C  17,H  45)          110.61 -0.000039   -0.01    110.60   
   136. A(C   3,O  18,Si  9)          120.27 -0.000226    0.28    120.55   
   137. A(C   5,O  19,C  20)          113.51  0.000370   -0.10    113.41   
   138. A(O  22,C  20,C  24)          115.42  0.000124   -0.01    115.41   
   139. A(H  21,C  20,C  24)          107.98 -0.000117    0.01    107.98   
   140. A(O  19,C  20,C  24)          109.81 -0.000176   -0.07    109.74   
   141. A(H  21,C  20,O  22)          104.51 -0.000134    0.11    104.62   
   142. A(O  19,C  20,O  22)          108.89  0.000135    0.03    108.93   
   143. A(O  19,C  20,H  21)          110.05  0.000181   -0.07    109.98   
   144. A(C  20,O  22,C  23)          116.75  0.000319   -0.06    116.69   
   145. A(O  22,C  23,H  50)          110.79 -0.000080   -0.01    110.78   
   146. A(H  49,C  23,H  50)          110.27 -0.000201    0.04    110.31   
   147. A(H  48,C  23,H  50)          110.01  0.000142    0.02    110.03   
   148. A(H  48,C  23,H  49)          109.45 -0.000045    0.07    109.52   
   149. A(O  22,C  23,H  49)          111.17  0.000458   -0.14    111.04   
   150. A(O  22,C  23,H  48)          105.02 -0.000272    0.02    105.04   
   151. A(H  25,C  24,O  26)          110.72 -0.000050    0.12    110.84   
   152. A(C  20,C  24,O  26)          108.52 -0.000162    0.04    108.56   
   153. A(C   1,C  24,O  26)          111.34  0.000163    0.04    111.38   
   154. A(C  20,C  24,H  25)          109.24  0.000109   -0.13    109.11   
   155. A(C   1,C  24,H  25)          107.78 -0.000158   -0.02    107.76   
   156. A(C   1,C  24,C  20)          109.21  0.000104   -0.06    109.15   
   157. A(C  24,O  26,H  51)          107.49 -0.000328    0.18    107.67   
   158. D(C  24,C   1,O   0,H  27)    171.81  0.000038    0.33    172.14   
   159. D(C   3,C   1,O   0,H  27)     50.67 -0.000078    0.39     51.06   
   160. D(H   2,C   1,O   0,H  27)    -69.86 -0.000129    0.38    -69.48   
   161. D(C   5,C   3,C   1,H   2)    -64.77  0.000053    0.10    -64.67   
   162. D(H   4,C   3,C   1,C  24)    -64.33  0.000033    0.08    -64.25   
   163. D(C   5,C   3,C   1,O   0)    173.76 -0.000084    0.01    173.77   
   164. D(C   5,C   3,C   1,C  24)     53.98 -0.000073    0.04     54.02   
   165. D(H   4,C   3,C   1,H   2)    176.92  0.000159    0.14    177.06   
   166. D(H   4,C   3,C   1,O   0)     55.45  0.000022    0.05     55.50   
   167. D(C   7,C   5,C   3,H   4)    -58.62  0.000016   -0.04    -58.66   
   168. D(H   6,C   5,C   3,O  18)    -56.07  0.000103    0.01    -56.06   
   169. D(C   7,C   5,C   3,C   1)   -176.96  0.000153   -0.02   -176.98   
   170. D(H   6,C   5,C   3,H   4)   -177.52 -0.000061    0.05   -177.48   
   171. D(C   7,C   5,C   3,O  18)     62.83  0.000181   -0.07     62.76   
   172. D(H   6,C   5,C   3,C   1)     64.14  0.000076    0.06     64.20   
   173. D(H  28,C   7,C   5,H   6)    -62.05  0.000089   -0.17    -62.22   
   174. D(H  28,C   7,C   5,O  19)     58.27  0.000034   -0.15     58.11   
   175. D(H  28,C   7,C   5,C   3)    179.71  0.000085   -0.07    179.63   
   176. D(O   8,C   7,C   5,O  19)    177.36 -0.000088   -0.10    177.26   
   177. D(O   8,C   7,C   5,H   6)     57.04 -0.000032   -0.12     56.93   
   178. D(O   8,C   7,C   5,C   3)    -61.21 -0.000037   -0.02    -61.22   
   179. D(Si  9,O   8,C   7,H  28)    162.12  0.000192   -0.80    161.32   
   180. D(Si  9,O   8,C   7,H  29)    -78.94  0.000380   -0.82    -79.76   
   181. D(Si  9,O   8,C   7,C   5)     41.96  0.000233   -0.79     41.17   
   182. D(O  18,Si  9,O   8,C   7)    -21.31 -0.000557    1.45    -19.86   
   183. D(C  14,Si  9,O   8,C   7)     96.31  0.000058    1.15     97.47   
   184. D(C  10,Si  9,O   8,C   7)   -133.90  0.000168    1.15   -132.76   
   185. D(C  12,C  10,Si  9,O   8)    -51.55 -0.000252    0.33    -51.23   
   186. D(C  11,C  10,Si  9,O  18)     73.65  0.000109    0.14     73.79   
   187. D(C  11,C  10,Si  9,C  14)    -48.63  0.000004    0.21    -48.43   
   188. D(C  11,C  10,Si  9,O   8)   -172.77 -0.000257    0.43   -172.34   
   189. D(C  12,C  10,Si  9,O  18)   -165.13  0.000114    0.04   -165.09   
   190. D(C  12,C  10,Si  9,C  14)     72.59  0.000009    0.10     72.69   
   191. D(H  31,C  11,C  10,C  12)   -179.00 -0.000119   -0.27   -179.27   
   192. D(H  31,C  11,C  10,Si  9)    -56.86 -0.000045   -0.36    -57.22   
   193. D(H  30,C  11,C  10,C  13)   -175.49  0.000231   -0.41   -175.90   
   194. D(H  30,C  11,C  10,C  12)    -58.49 -0.000041   -0.36    -58.85   
   195. D(H  31,C  11,C  10,C  13)     64.00  0.000152   -0.32     63.68   
   196. D(H  30,C  11,C  10,Si  9)     63.65  0.000033   -0.45     63.20   
   197. D(H  34,C  12,C  10,C  13)     55.52 -0.000085   -0.19     55.33   
   198. D(H  34,C  12,C  10,C  11)    -61.73  0.000128   -0.22    -61.94   
   199. D(H  34,C  12,C  10,Si  9)    175.30 -0.000014   -0.09    175.21   
   200. D(H  33,C  12,C  10,C  13)    175.43 -0.000083   -0.19    175.24   
   201. D(H  33,C  12,C  10,C  11)     58.19  0.000131   -0.21     57.97   
   202. D(H  33,C  12,C  10,Si  9)    -64.78 -0.000012   -0.09    -64.87   
   203. D(H  37,C  13,C  10,C  12)     60.81  0.000114   -0.30     60.51   
   204. D(H  37,C  13,C  10,C  11)    178.38 -0.000114   -0.30    178.08   
   205. D(H  37,C  13,C  10,Si  9)    -59.45  0.000098   -0.35    -59.80   
   206. D(H  36,C  13,C  10,C  12)   -178.61  0.000123   -0.29   -178.90   
   207. D(H  36,C  13,C  10,C  11)    -61.04 -0.000105   -0.29    -61.33   
   208. D(H  36,C  13,C  10,Si  9)     61.13  0.000107   -0.34     60.79   
   209. D(C  16,C  14,Si  9,O  18)   -164.05  0.000239   -0.33   -164.38   
   210. D(C  16,C  14,Si  9,C  10)    -42.86 -0.000115   -0.17    -43.03   
   211. D(C  16,C  14,Si  9,O   8)     78.81 -0.000117   -0.26     78.55   
   212. D(C  15,C  14,Si  9,O  18)     76.66  0.000303   -0.35     76.32   
   213. D(C  15,C  14,Si  9,C  10)   -162.14 -0.000052   -0.19   -162.33   
   214. D(C  15,C  14,Si  9,O   8)    -40.47 -0.000054   -0.28    -40.75   
   215. D(H  40,C  15,C  14,C  16)    178.53 -0.000072   -0.00    178.53   
   216. D(H  40,C  15,C  14,Si  9)    -59.75 -0.000003   -0.04    -59.79   
   217. D(H  39,C  15,C  14,C  17)   -177.54  0.000043   -0.05   -177.59   
   218. D(H  39,C  15,C  14,C  16)    -60.50  0.000014   -0.07    -60.58   
   219. D(H  40,C  15,C  14,C  17)     61.50 -0.000043    0.02     61.52   
   220. D(H  39,C  15,C  14,Si  9)     61.21  0.000083   -0.10     61.11   
   221. D(H  43,C  16,C  14,C  17)     61.57  0.000039   -0.04     61.53   
   222. D(H  43,C  16,C  14,C  15)    -55.18  0.000089   -0.06    -55.24   
   223. D(H  43,C  16,C  14,Si  9)   -175.75 -0.000088   -0.01   -175.76   
   224. D(H  42,C  16,C  14,C  17)   -178.45 -0.000014    0.01   -178.45   
   225. D(H  42,C  16,C  14,C  15)     64.79  0.000036   -0.01     64.78   
   226. D(H  42,C  16,C  14,Si  9)    -55.77 -0.000141    0.04    -55.73   
   227. D(H  46,C  17,C  14,C  16)     62.24  0.000035    0.08     62.32   
   228. D(H  46,C  17,C  14,C  15)    178.69 -0.000151    0.13    178.82   
   229. D(H  46,C  17,C  14,Si  9)    -60.82  0.000043    0.10    -60.71   
   230. D(H  45,C  17,C  14,C  16)   -177.58  0.000069    0.04   -177.54   
   231. D(H  45,C  17,C  14,C  15)    -61.13 -0.000117    0.09    -61.04   
   232. D(H  45,C  17,C  14,Si  9)     59.37  0.000076    0.06     59.43   
   233. D(C   3,O  18,Si  9,C  14)    -96.95 -0.000039   -1.14    -98.08   
   234. D(C   3,O  18,Si  9,C  10)    133.92 -0.000000   -1.26    132.66   
   235. D(C   3,O  18,Si  9,O   8)     21.93  0.000522   -1.44     20.49   
   236. D(Si  9,O  18,C   3,C   5)    -43.74 -0.000281    0.85    -42.88   
   237. D(Si  9,O  18,C   3,H   4)     77.00 -0.000242    0.82     77.83   
   238. D(Si  9,O  18,C   3,C   1)   -164.30 -0.000327    0.86   -163.44   
   239. D(C  20,O  19,C   5,C   7)   -176.24  0.000100    0.01   -176.23   
   240. D(C  20,O  19,C   5,H   6)    -57.02  0.000137    0.00    -57.02   
   241. D(C  20,O  19,C   5,C   3)     62.36 -0.000172    0.02     62.38   
   242. D(C  24,C  20,O  19,C   5)    -61.83  0.000116   -0.14    -61.96   
   243. D(O  22,C  20,O  19,C   5)    170.91 -0.000014   -0.10    170.81   
   244. D(H  21,C  20,O  19,C   5)     56.91 -0.000025   -0.21     56.69   
   245. D(C  23,O  22,C  20,C  24)    -58.04 -0.000078    0.39    -57.65   
   246. D(C  23,O  22,C  20,H  21)   -176.46  0.000090    0.31   -176.15   
   247. D(C  23,O  22,C  20,O  19)     65.96 -0.000113    0.32     66.28   
   248. D(H  50,C  23,O  22,C  20)    -47.49 -0.000088    0.45    -47.05   
   249. D(H  49,C  23,O  22,C  20)     75.50 -0.000079    0.39     75.89   
   250. D(H  48,C  23,O  22,C  20)   -166.23 -0.000057    0.41   -165.82   
   251. D(H  25,C  24,C  20,O  22)     62.25  0.000050    0.42     62.67   
   252. D(H  25,C  24,C  20,H  21)    178.72 -0.000126    0.56    179.28   
   253. D(C   1,C  24,C  20,O  22)    179.91 -0.000019    0.28    180.19   
   254. D(C   1,C  24,C  20,H  21)    -63.62 -0.000194    0.42    -63.20   
   255. D(C   1,C  24,C  20,O  19)     56.38 -0.000149    0.30     56.68   
   256. D(H  25,C  24,C   1,C   3)     64.57  0.000089   -0.44     64.13   
   257. D(H  25,C  24,C   1,H   2)   -176.82  0.000040   -0.55   -177.37   
   258. D(H  25,C  24,C   1,O   0)    -57.60  0.000052   -0.48    -58.08   
   259. D(H  25,C  24,C  20,O  19)    -61.27 -0.000080    0.44    -60.83   
   260. D(C  20,C  24,C   1,C   3)    -54.00 -0.000008   -0.23    -54.23   
   261. D(C  20,C  24,C   1,H   2)     64.61 -0.000057   -0.35     64.27   
   262. D(C  20,C  24,C   1,O   0)   -176.17 -0.000046   -0.27   -176.45   
   263. D(H  51,O  26,C  24,H  25)     69.41 -0.000025   -0.02     69.38   
   264. D(H  51,O  26,C  24,C  20)   -170.71 -0.000023   -0.08   -170.79   
   265. D(H  51,O  26,C  24,C   1)    -50.49  0.000101   -0.11    -50.59   
    ----------------------------------------------------------------------------

Geometry step timings:
Preparation and reading OPT file:      0.001 s ( 4.402 %)
Internal coordinates            :      0.000 s ( 0.130 %)
B/P matrices and projection     :      0.006 s (24.115 %)
Hessian update/contruction      :      0.010 s (42.462 %)
Making the step                 :      0.004 s (15.718 %)
Converting the step to Cartesian:      0.001 s ( 2.044 %)
Storing new data                :      0.001 s ( 3.516 %)
Checking convergence            :      0.000 s ( 0.142 %)
Final printing                  :      0.002 s ( 7.458 %)
Total time                      :      0.025 s

Time for energy+gradient        :      0.081 s
Time for complete geometry iter :      0.119 s

         *************************************************************
         *                GEOMETRY OPTIMIZATION CYCLE   6            *
         *************************************************************
---------------------------------
CARTESIAN COORDINATES (ANGSTROEM)
---------------------------------
  O    -3.666244    2.020176   -0.265525
  C    -2.300711    1.743759   -0.079540
  H    -2.117726    1.418373    0.958265
  C    -1.807484    0.643324   -1.024114
  H    -2.035405    0.938750   -2.058736
  C    -0.290319    0.501455   -0.879880
  H    -0.080994    0.161237    0.147425
  C     0.246699   -0.536836   -1.862259
  O    -0.306443   -1.797280   -1.621430
  Si   -1.898247   -2.000643   -1.252578
  C    -1.915347   -3.181087    0.263094
  C    -3.336208   -3.623453    0.619240
  C    -1.068502   -4.425666   -0.020692
  C    -1.313294   -2.467345    1.482034
  C    -2.888054   -2.481775   -2.845195
  C    -2.387496   -1.651599   -4.038439
  C    -2.704813   -3.961739   -3.198172
  C    -4.387140   -2.206083   -2.667908
  O    -2.475492   -0.545823   -0.712117
  O     0.351264    1.726189   -1.136471
  C    -0.007822    2.753332   -0.224005
  H     0.204538    2.430689    0.809747
  O     0.817058    3.839392   -0.425928
  C     0.687846    4.518185   -1.671335
  C    -1.521786    3.041661   -0.332229
  H    -1.752493    3.378153   -1.355235
  O    -1.855810    4.028127    0.604061
  H    -4.144456    1.181107   -0.230038
  H     1.331057   -0.619929   -1.749687
  H     0.022227   -0.203317   -2.881046
  H    -3.775947   -4.197640   -0.191776
  H    -3.968649   -2.761953    0.814608
  H    -3.323854   -4.251976    1.508984
  H    -1.499629   -5.014781   -0.823950
  H    -1.010742   -5.051991    0.868678
  H    -0.061590   -4.139676   -0.311072
  H    -1.894299   -1.583925    1.735171
  H    -0.287851   -2.166294    1.279325
  H    -1.309303   -3.134912    2.342761
  H    -1.334937   -1.849153   -4.227441
  H    -2.516748   -0.586426   -3.855971
  H    -2.950079   -1.909277   -4.935127
  H    -1.650373   -4.202721   -3.305320
  H    -3.208800   -4.189870   -4.136437
  H    -3.127627   -4.597292   -2.425161
  H    -4.560233   -1.153975   -2.458696
  H    -4.793408   -2.788151   -1.846014
  H    -4.926496   -2.470220   -3.576573
  H     1.569150    5.152111   -1.740035
  H    -0.211256    5.139698   -1.688084
  H     0.672833    3.807967   -2.499727
  H    -2.821656    4.094383    0.629328

----------------------------
CARTESIAN COORDINATES (A.U.)
----------------------------
  NO LB    ZA    FRAG    MASS        X           Y           Z
   0 O   8.0000    1    15.999   -6.928197    3.817579   -0.501769
   1 C   6.0000    1    12.011   -4.347713    3.295227   -0.150309
   2 H   1.0000    1     1.008   -4.001921    2.680336    1.810859
   3 C   6.0000    1    12.011   -3.415649    1.215706   -1.935296
   4 H   1.0000    1     1.008   -3.846359    1.773980   -3.890448
   5 C   6.0000    1    12.011   -0.548624    0.947613   -1.662733
   6 H   1.0000    1     1.008   -0.153056    0.304695    0.278594
   7 C   6.0000    1    12.011    0.466193   -1.014472   -3.519159
   8 O   8.0000    1    15.999   -0.579094   -3.396367   -3.064058
   9 Si 14.0000    1    28.086   -3.587168   -3.780668   -2.367030
  10 C   6.0000    1    12.011   -3.619480   -6.011384    0.497176
  11 C   6.0000    1    12.011   -6.304519   -6.847333    1.170194
  12 C   6.0000    1    12.011   -2.019176   -8.363296   -0.039102
  13 C   6.0000    1    12.011   -2.481765   -4.662606    2.800639
  14 C   6.0000    1    12.011   -5.457632   -4.689875   -5.376640
  15 C   6.0000    1    12.011   -4.511713   -3.121069   -7.631543
  16 C   6.0000    1    12.011   -5.111356   -7.486601   -6.043670
  17 C   6.0000    1    12.011   -8.290494   -4.168893   -5.041616
  18 O   8.0000    1    15.999   -4.678003   -1.031457   -1.345705
  19 O   8.0000    1    15.999    0.663792    3.262025   -2.147619
  20 C   6.0000    1    12.011   -0.014782    5.203044   -0.423308
  21 H   1.0000    1     1.008    0.386521    4.593336    1.530201
  22 O   8.0000    1    15.999    1.544015    7.255399   -0.804888
  23 C   6.0000    1    12.011    1.299841    8.538132   -3.158365
  24 C   6.0000    1    12.011   -2.875759    5.747906   -0.627821
  25 H   1.0000    1     1.008   -3.311733    6.383785   -2.561024
  26 O   8.0000    1    15.999   -3.506973    7.612057    1.141510
  27 H   1.0000    1     1.008   -7.831888    2.231969   -0.434708
  28 H   1.0000    1     1.008    2.515334   -1.171497   -3.306430
  29 H   1.0000    1     1.008    0.042003   -0.384213   -5.444388
  30 H   1.0000    1     1.008   -7.135506   -7.932389   -0.362404
  31 H   1.0000    1     1.008   -7.499659   -5.219335    1.539386
  32 H   1.0000    1     1.008   -6.281174   -8.035070    2.851567
  33 H   1.0000    1     1.008   -2.833888   -9.476563   -1.557040
  34 H   1.0000    1     1.008   -1.910025   -9.546880    1.641563
  35 H   1.0000    1     1.008   -0.116388   -7.822854   -0.587842
  36 H   1.0000    1     1.008   -3.579706   -2.993185    3.278998
  37 H   1.0000    1     1.008   -0.543960   -4.093702    2.417573
  38 H   1.0000    1     1.008   -2.474223   -5.924125    4.427177
  39 H   1.0000    1     1.008   -2.522666   -3.494393   -7.988706
  40 H   1.0000    1     1.008   -4.755965   -1.108184   -7.286729
  41 H   1.0000    1     1.008   -5.574841   -3.608011   -9.326039
  42 H   1.0000    1     1.008   -3.118753   -7.941992   -6.246150
  43 H   1.0000    1     1.008   -6.063753   -7.917707   -7.816733
  44 H   1.0000    1     1.008   -5.910358   -8.687622   -4.582891
  45 H   1.0000    1     1.008   -8.617591   -2.180698   -4.646262
  46 H   1.0000    1     1.008   -9.058229   -5.268842   -3.488460
  47 H   1.0000    1     1.008   -9.309728   -4.668040   -6.758743
  48 H   1.0000    1     1.008    2.965265    9.736078   -3.288189
  49 H   1.0000    1     1.008   -0.399217    9.712622   -3.190016
  50 H   1.0000    1     1.008    1.271470    7.196016   -4.723799
  51 H   1.0000    1     1.008   -5.332156    7.737262    1.189258

      -----------------------------------------------------------      
     |                   =====================                   |     
     |                           x T B                           |     
     |                   =====================                   |     
     |                         S. Grimme                         |     
     |          Mulliken Center for Theoretical Chemistry        |     
     |                    University of Bonn                     |     
      -----------------------------------------------------------      

   * xtb version 6.7.1 (edcfbbe) compiled by 'albert@albert-system' on 2024-07-22

   xtb is free software: you can redistribute it and/or modify it under
   the terms of the GNU Lesser General Public License as published by
   the Free Software Foundation, either version 3 of the License, or
   (at your option) any later version.
   
   xtb is distributed in the hope that it will be useful,
   but WITHOUT ANY WARRANTY; without even the implied warranty of
   MERCHANTABILITY or FITNESS FOR A PARTICULAR PURPOSE.  See the
   GNU Lesser General Public License for more details.
   
   Cite this work as:
   * C. Bannwarth, E. Caldeweyher, S. Ehlert, A. Hansen, P. Pracht,
     J. Seibert, S. Spicher, S. Grimme, WIREs Comput. Mol. Sci., 2020, 11,
     e01493. DOI: 10.1002/wcms.1493
   
   for GFN2-xTB:
   * C. Bannwarth, S. Ehlert and S. Grimme., J. Chem. Theory Comput., 2019,
     15, 1652-1671. DOI: 10.1021/acs.jctc.8b01176
   for GFN1-xTB:
   * S. Grimme, C. Bannwarth, P. Shushkov, J. Chem. Theory Comput., 2017,
     13, 1989-2009. DOI: 10.1021/acs.jctc.7b00118
   for GFN0-xTB:
   * P. Pracht, E. Caldeweyher, S. Ehlert, S. Grimme, ChemRxiv, 2019, preprint.
     DOI: 10.26434/chemrxiv.8326202.v1
   for GFN-FF:
   * S. Spicher and S. Grimme, Angew. Chem. Int. Ed., 2020, 59, 15665-15673.
     DOI: 10.1002/anie.202004239
   
   for ALPB and GBSA implicit solvation:
   * S. Ehlert, M. Stahn, S. Spicher, S. Grimme, J. Chem. Theory Comput.,
     2021, 17, 4250-4261. DOI: 10.1021/acs.jctc.1c00471
   
   for ddCOSMO and CPCM-X implicit solvation:
   * M. Stahn, S. Ehlert, S. Grimme, J. Phys. Chem. A,
     2023, XX, XXXX-XXXX. DOI: 10.1021/acs.jpca.3c04382
   
   for DFT-D4:
   * E. Caldeweyher, C. Bannwarth and S. Grimme, J. Chem. Phys., 2017,
     147, 034112. DOI: 10.1063/1.4993215
   * E. Caldeweyher, S. Ehlert, A. Hansen, H. Neugebauer, S. Spicher,
     C. Bannwarth and S. Grimme, J. Chem. Phys., 2019, 150, 154122.
     DOI: 10.1063/1.5090222
   * E. Caldeweyher, J.-M. Mewes, S. Ehlert and S. Grimme, Phys. Chem. Chem. Phys.
     2020, 22, 8499-8512. DOI: 10.1039/D0CP00502A
   
   for sTDA-xTB:
   * S. Grimme and C. Bannwarth, J. Chem. Phys., 2016, 145, 054103.
     DOI: 10.1063/1.4959605
   
   in the mass-spec context:
   * V. Asgeirsson, C. Bauer and S. Grimme, Chem. Sci., 2017, 8, 4879.
     DOI: 10.1039/c7sc00601b
   * J. Koopman and S. Grimme, ACS Omega 2019, 4, 12, 15120-15133.
     DOI: 10.1021/acsomega.9b02011
   
   for metadynamics refer to:
   * S. Grimme, J. Chem. Theory Comput., 2019, 155, 2847-2862
     DOI: 10.1021/acs.jctc.9b00143
   
   for SPH calculations refer to:
   * S. Spicher and S. Grimme, J. Chem. Theory Comput., 2021, 17, 1701-1714
     DOI: 10.1021/acs.jctc.0c01306
   
   for ONIOM refer to:
   * C. Plett, A. Katbashev, S. Ehlert, S. Grimme, M. Bursch,
     Phys. Chem. Chem. Phys., 2023, 25, 17860-17868. DOI: 10.1039/D3CP02178E
   
   for DIPRO refer to:
   * J. Kohn, N. Gildemeister, S. Grimme, D. Fazzi, A. Hansen,
     J. Chem. Phys., 2023, just accepted.
   
   for PTB refer to:
   * S. Grimme, M. Mueller, A. Hansen, J. Chem. Phys., 2023, 158, 124111.
     DOI: 10.1063/5.0137838
   
   with help from (in alphabetical order)
   P. Atkinson, C. Bannwarth, F. Bohle, G. Brandenburg, E. Caldeweyher
   M. Checinski, S. Dohm, S. Ehlert, S. Ehrlich, I. Gerasimov, C. Hölzer
   A. Katbashev, J. Kohn, J. Koopman, C. Lavigne, S. Lehtola, F. März, M. Müller,
   F. Musil, H. Neugebauer, J. Pisarek, C. Plett, P. Pracht, F. Pultar,
   J. Seibert, P. Shushkov, S. Spicher, M. Stahn, M. Steiner, T. Strunk,
   J. Stückrath, T. Rose, and J. Unsleber
   
 * started run on 2025/09/10 at 11:31:44.079     
   ID    Z sym.   atoms
    1    8 O      1, 9, 19, 20, 23, 27
    2    6 C      2, 4, 6, 8, 11-18, 21, 24, 25
    3    1 H      3, 5, 7, 22, 26, 28-52
    4   14 Si     10

           -------------------------------------------------
          |                Calculation Setup                |
           -------------------------------------------------

          program call               : /home/kmoult/orca_6_1/otool_xtb goat_0_XTB.xyz --grad -c 0 -u 0 -P 4 --namespace goat_0 --input goat_0_XTB.input.tmp --alpb ACETONE --acc 0.200000
          hostname                   : node3306
          calculation namespace      : goat_0
          coordinate file            : goat_0_XTB.xyz
          omp threads                :                     4


           -------------------------------------------------
          |                 G F N 2 - x T B                 |
           -------------------------------------------------

        Reference                      10.1021/acs.jctc.8b01176
      * Hamiltonian:
        H0-scaling (s, p, d)           1.850000    2.230000    2.230000
        zeta-weighting                 0.500000
      * Dispersion:
        s8                             2.700000
        a1                             0.520000
        a2                             5.000000
        s9                             5.000000
      * Repulsion:
        kExp                           1.500000    1.000000
        rExp                           1.000000
      * Coulomb:
        alpha                          2.000000
        third order                    shell-resolved
        anisotropic                    true
        a3                             3.000000
        a5                             4.000000
        cn-shift                       1.200000
        cn-exp                         4.000000
        max-rad                        5.000000

      * Solvation model:               ALPB
        Solvent                        ACETONE
        Parameter file                 internal GFN2-xTB/ALPB
        Dielectric constant                2.0700E+01
        Reference state                gsolv [1 M gas/solution]
        Free energy shift                  5.9241E-03 Eh       3.7175E+00 kcal/mol
        Temperature                        2.9815E+02 K
        Density                            7.9000E-01 kg/L
        Solvent mass                       5.8080E+01 g/mol
        Interaction kernel             P16
        Born radius scaling (c1)           1.8274E+00
        Born radii integrator          GBOBC
        Born offset                        0.0000E+00 a0       0.0000E+00 AA
        H-bond correction              true
        Ion screening                  false
        Surface tension                    1.0000E-05 Eh       1.5569E+01 dyn/cm
        Grid points                               230 per atom
q/qsh data taken from xtbrestart
CAMM data taken from xtbrestart

          ...................................................
          :                      SETUP                      :
          :.................................................:
          :  # basis functions                 124          :
          :  # atomic orbitals                 123          :
          :  # shells                           75          :
          :  # electrons                       130          :
          :  max. iterations                   250          :
          :  Hamiltonian                  GFN2-xTB          :
          :  restarted?                       true          :
          :  GBSA solvation                   true          :
          :  PC potential                    false          :
          :  electronic temp.          300.0000000     K    :
          :  accuracy                    0.2000000          :
          :  -> integral cutoff          0.3198970E+02      :
          :  -> integral neglect         0.2000000E-08      :
          :  -> SCF convergence          0.2000000E-06 Eh   :
          :  -> wf. convergence          0.2000000E-04 e    :
          :  Broyden damping             0.4000000          :
          :  net charge                          0          :
          :  unpaired electrons                  0          :
          ...................................................

 iter      E             dE          RMSdq      gap      omega  full diag
   1    -74.4389365 -0.744389E+02  0.430E-02    5.53       0.0  T
   2    -74.4389372 -0.626790E-06  0.290E-02    5.53       1.0  T
   3    -74.4389366  0.516619E-06  0.740E-03    5.53       1.9  T
   4    -74.4389372 -0.529557E-06  0.593E-03    5.53       2.3  T
   5    -74.4389375 -0.321747E-06  0.206E-03    5.53       6.7  T
   6    -74.4389375 -0.312258E-07  0.469E-04    5.53      29.6  T
   7    -74.4389375 -0.200741E-08  0.252E-04    5.53      55.0  T
   8    -74.4389375 -0.287201E-09  0.105E-04    5.53     132.4  T
   9    -74.4389375 -0.359250E-10  0.617E-05    5.53     224.7  T

   *** convergence criteria satisfied after 9 iterations ***

         #    Occupation            Energy/Eh            Energy/eV
      -------------------------------------------------------------
         1        2.0000           -0.8174233             -22.2432
       ...           ...                  ...                  ...
        59        2.0000           -0.4253904             -11.5755
        60        2.0000           -0.4241182             -11.5408
        61        2.0000           -0.4229912             -11.5102
        62        2.0000           -0.4179290             -11.3724
        63        2.0000           -0.4140542             -11.2670
        64        2.0000           -0.4057549             -11.0412
        65        2.0000           -0.3726695             -10.1409 (HOMO)
        66                         -0.1693958              -4.6095 (LUMO)
        67                         -0.1443439              -3.9278
        68                         -0.0912659              -2.4835
        69                         -0.0485350              -1.3207
        70                         -0.0047449              -0.1291
       ...                                ...                  ...
       123                          0.7840513              21.3351
      -------------------------------------------------------------
                  HL-Gap            0.2032737 Eh            5.5314 eV
             Fermi-level           -0.2710327 Eh           -7.3752 eV

 SCC (total)                   0 d,  0 h,  0 min,  0.030 sec
 SCC setup                      ...        0 min,  0.001 sec (  2.136%)
 Dispersion                     ...        0 min,  0.000 sec (  1.244%)
 classical contributions        ...        0 min,  0.000 sec (  0.136%)
 integral evaluation            ...        0 min,  0.004 sec ( 14.608%)
 iterations                     ...        0 min,  0.016 sec ( 54.376%)
 molecular gradient             ...        0 min,  0.008 sec ( 26.972%)
 printout                       ...        0 min,  0.000 sec (  0.474%)

         :::::::::::::::::::::::::::::::::::::::::::::::::::::
         ::                     SUMMARY                     ::
         :::::::::::::::::::::::::::::::::::::::::::::::::::::
         :: total energy             -73.690435768180 Eh    ::
         :: total w/o Gsasa/hb       -73.661596671395 Eh    ::
         :: gradient norm              0.003904558325 Eh/a0 ::
         :: HOMO-LUMO gap              5.531358828091 eV    ::
         ::.................................................::
         :: SCC energy               -74.437569430459 Eh    ::
         :: -> isotropic ES            0.157322364826 Eh    ::
         :: -> anisotropic ES          0.003141710886 Eh    ::
         :: -> anisotropic XC          0.005322323605 Eh    ::
         :: -> dispersion             -0.053463354440 Eh    ::
         :: -> Gsolv                  -0.031821612032 Eh    ::
         ::    -> Gelec               -0.002982515247 Eh    ::
         ::    -> Gsasa               -0.028894525849 Eh    ::
         ::    -> Ghb                 -0.005868712200 Eh    ::
         ::    -> Gshift               0.005924141264 Eh    ::
         :: repulsion energy           0.747133662278 Eh    ::
         :: add. restraining           0.000000000000 Eh    ::
         :: total charge              -0.000000000000 e     ::
         :::::::::::::::::::::::::::::::::::::::::::::::::::::


Property printout bound to 'properties.out'

           -------------------------------------------------
          | TOTAL ENERGY              -73.690435768180 Eh   |
          | GRADIENT NORM               0.003904558325 Eh/α |
          | HOMO-LUMO GAP               5.531358828091 eV   |
           -------------------------------------------------

------------------------------------------------------------------------
 * finished run on 2025/09/10 at 11:31:44.132     
------------------------------------------------------------------------
 total:
 * wall-time:     0 d,  0 h,  0 min,  0.053 sec
 *  cpu-time:     0 d,  0 h,  0 min,  0.191 sec
 * ratio c/w:     3.617 speedup
 SCF:
 * wall-time:     0 d,  0 h,  0 min,  0.030 sec
 *  cpu-time:     0 d,  0 h,  0 min,  0.121 sec
 * ratio c/w:     3.980 speedup


-------------------------   --------------------
FINAL SINGLE POINT ENERGY       -73.690435768180
-------------------------   --------------------


-------------
DIPOLE MOMENT
-------------
                                X             Y             Z
Total Dipole Moment    :     -0.97700      -0.79700      -0.71600
                        -----------------------------------------
Magnitude (a.u.)       :      1.44996
Magnitude (Debye)      :      3.68551


------------------
CARTESIAN GRADIENT
------------------

   1   O   :    0.000107134    0.000123500   -0.000003013
   2   C   :   -0.000573471    0.000062253   -0.000339087
   3   H   :    0.000304612    0.000042729   -0.000003999
   4   C   :   -0.000412619   -0.000228635   -0.000256627
   5   H   :    0.000268539    0.000163254   -0.000128722
   6   C   :    0.000249913   -0.000194646    0.000007387
   7   H   :   -0.000113286   -0.000032081    0.000036431
   8   C   :    0.000317488    0.000033540   -0.000751587
   9   O   :    0.000059866   -0.000364333    0.001225321
  10   Si  :   -0.000552025   -0.000328087   -0.001934577
  11   C   :    0.000091250    0.001169940   -0.000687457
  12   C   :   -0.000275202   -0.000155254    0.000363746
  13   C   :    0.000157730   -0.000570722    0.000250114
  14   C   :    0.000232215   -0.000083709    0.000585518
  15   C   :    0.000635590    0.000520735    0.000688410
  16   C   :    0.000053499    0.000030683   -0.000283112
  17   C   :   -0.000177621   -0.000406833   -0.000192836
  18   C   :   -0.000399621    0.000010067   -0.000042856
  19   O   :    0.000032100   -0.000295850    0.001353989
  20   O   :   -0.000004597    0.000158899    0.000054382
  21   C   :    0.000528544   -0.000134446   -0.000091194
  22   H   :   -0.000165457    0.000133853    0.000118542
  23   O   :    0.000279112    0.000132918   -0.000039475
  24   C   :   -0.000026310    0.000240898   -0.000087273
  25   C   :   -0.000200970   -0.000028056    0.000223738
  26   H   :   -0.000012711   -0.000072110   -0.000026666
  27   O   :    0.000185800    0.000078179    0.000061115
  28   H   :   -0.000083487   -0.000242403   -0.000070808
  29   H   :   -0.000104025   -0.000066175   -0.000008765
  30   H   :   -0.000096742    0.000315074    0.000126881
  31   H   :   -0.000023436   -0.000128952   -0.000058152
  32   H   :   -0.000045879    0.000104885   -0.000005061
  33   H   :   -0.000011695   -0.000064301   -0.000003917
  34   H   :   -0.000033980   -0.000072327   -0.000049476
  35   H   :   -0.000016668   -0.000035298   -0.000026897
  36   H   :    0.000089245    0.000089522   -0.000040038
  37   H   :   -0.000109420    0.000043626    0.000008372
  38   H   :    0.000079337    0.000052463   -0.000049309
  39   H   :   -0.000000893   -0.000018694   -0.000003363
  40   H   :    0.000060267   -0.000073151   -0.000012161
  41   H   :   -0.000046161    0.000066460   -0.000060748
  42   H   :   -0.000054958   -0.000019998   -0.000051638
  43   H   :    0.000129564   -0.000008241   -0.000022964
  44   H   :   -0.000031575    0.000029190   -0.000021603
  45   H   :   -0.000010245   -0.000045142    0.000067399
  46   H   :    0.000000392    0.000131834    0.000018898
  47   H   :    0.000004703   -0.000092981    0.000086766
  48   H   :   -0.000008778   -0.000029138   -0.000043000
  49   H   :    0.000050416    0.000033280    0.000174805
  50   H   :   -0.000005166   -0.000074797   -0.000167443
  51   H   :   -0.000142004   -0.000062927    0.000025564
  52   H   :   -0.000178309    0.000161502    0.000086442

Difference to translation invariance:
           :    0.0000000000    0.0000000000    0.0000000000

Difference to rotation invariance:
           :   -0.0008703309    0.0001687849   -0.0001990112

Norm of the Cartesian gradient     ...    0.0039045583
RMS gradient                       ...    0.0003126149
MAX gradient                       ...    0.0019345765
------------------------------------------------------------------------------
                         ORCA GEOMETRY RELAXATION STEP
------------------------------------------------------------------------------

Reading the OPT-File                    .... done
Getting information on internals        .... done
Copying old internal coords+grads       .... done
Making the new internal coordinates     .... (2022 redundants) done
Validating the new internal coordinates .... (2022 redundants) done
Calculating the B-matrix                .... done
Calculating the G,G- and P matrices     .... done
Transforming gradient to internals      .... done
Projecting the internal gradient        .... done
Number of atoms                         ....  52
Number of internal coordinates          .... 265
Current Energy                          ....   -73.690435768 Eh
Current gradient norm                   ....     0.003904558 Eh/bohr
Maximum allowed component of the step   ....  0.300
Current trust radius                    ....  0.675
Updating the Hessian (BFGS)             .... done
Forming the augmented Hessian           .... done
Diagonalizing the augmented Hessian     .... done
Last element of RFO vector              ....  0.993374541
Lowest eigenvalues of augmented Hessian:
 -0.000095395  0.004904165  0.009988994  0.010000802  0.010045561
Length of the computed step             ....  0.115688297
The final length of the internal step   ....  0.115688297
Converting the step to Cartesian space:
 Initial RMS(Int)=    0.0071066756
Transforming coordinates:
 Iter   0:  RMS(Cart)=    0.0298754895 RMS(Int)=    0.0071240144
done
Storing new coordinates                 .... done
The predicted energy change is          ....    -0.000048336
Previously predicted energy change      ....    -0.000043133
Actually observed energy change         ....    -0.000065198
Ratio of predicted to observed change   ....     1.511550286
New trust radius                        ....     0.450000000

                                .--------------------.
          ----------------------|Geometry convergence|-------------------------
          Item                value                   Tolerance       Converged
          ---------------------------------------------------------------------
          Energy change      -0.0000651983            0.0000050000      NO
          RMS gradient        0.0001465561            0.0001000000      NO
          MAX gradient        0.0005680588            0.0003000000      NO
          RMS step            0.0071066756            0.0020000000      NO
          MAX step            0.0378923117            0.0040000000      NO
          -------------------------------------------------------------------------
          ........................................................
          Max(Bonds)      0.0095      Max(Angles)    0.45
          Max(Dihed)        2.17      Max(Improp)    0.00
          ---------------------------------------------------------------------

    ---------------------------------------------------------------------------
                         Redundant Internal Coordinates
                            (Angstroem and degrees)

        Definition                    Value    dE/dq     Step     New-Value
    ----------------------------------------------------------------------------
     1. B(C   1,O   0)                1.4056 -0.000045 -0.0005    1.4051   
     2. B(H   2,C   1)                1.1029  0.000036  0.0000    1.1029   
     3. B(C   3,C   1)                1.5318  0.000106  0.0003    1.5321   
     4. B(H   4,C   3)                1.0998  0.000108 -0.0002    1.0997   
     5. B(C   5,C   3)                1.5306  0.000278  0.0002    1.5308   
     6. B(H   6,C   5)                1.1022  0.000023 -0.0001    1.1021   
     7. B(C   7,C   5)                1.5269  0.000132 -0.0000    1.5269   
     8. B(O   8,C   7)                1.3974  0.000440 -0.0007    1.3967   
     9. B(Si  9,O   8)                1.6466 -0.000010 -0.0010    1.6456   
    10. B(C  10,Si  9)                1.9212  0.000008  0.0024    1.9236   
    11. B(C  11,C  10)                1.5302  0.000468 -0.0003    1.5298   
    12. B(C  12,C  10)                1.5319  0.000568 -0.0005    1.5313   
    13. B(C  13,C  10)                1.5355  0.000498 -0.0011    1.5344   
    14. B(C  14,Si  9)                1.9359 -0.000206  0.0009    1.9368   
    15. B(C  15,C  14)                1.5374  0.000330 -0.0007    1.5367   
    16. B(C  16,C  14)                1.5325  0.000442 -0.0005    1.5319   
    17. B(C  17,C  14)                1.5345  0.000398 -0.0005    1.5340   
    18. B(O  18,Si  9)                1.6558  0.000155 -0.0009    1.6550   
    19. B(O  18,C   3)                1.3992  0.000314 -0.0002    1.3989   
    20. B(O  19,C   5)                1.4062  0.000363 -0.0008    1.4054   
    21. B(C  20,O  19)                1.4201  0.000134  0.0003    1.4204   
    22. B(H  21,C  20)                1.1036  0.000042 -0.0004    1.1032   
    23. B(O  22,C  20)                1.3787  0.000317 -0.0002    1.3784   
    24. B(C  23,O  22)                1.4243  0.000112  0.0004    1.4247   
    25. B(C  24,C  20)                1.5450  0.000349 -0.0001    1.5448   
    26. B(C  24,C   1)                1.5346  0.000086  0.0001    1.5348   
    27. B(H  25,C  24)                1.1014  0.000003  0.0001    1.1014   
    28. B(O  26,C  24)                1.4005  0.000158 -0.0010    1.3995   
    29. B(H  27,O   0)                0.9664  0.000242 -0.0003    0.9662   
    30. B(H  27,O  18)                2.4495 -0.000031  0.0095    2.4590   
    31. B(H  28,C   7)                1.0933 -0.000099  0.0003    1.0936   
    32. B(H  29,C   7)                1.0952 -0.000002  0.0002    1.0954   
    33. B(H  30,C  11)                1.0867  0.000123 -0.0002    1.0865   
    34. B(H  31,C  11)                1.0864  0.000107 -0.0000    1.0864   
    35. B(H  32,C  11)                1.0894  0.000033 -0.0001    1.0893   
    36. B(H  33,C  12)                1.0854  0.000092 -0.0002    1.0853   
    37. B(H  34,C  12)                1.0893 -0.000004  0.0000    1.0893   
    38. B(H  35,C  12)                1.0863  0.000118 -0.0001    1.0862   
    39. B(H  36,C  13)                1.0872  0.000094  0.0000    1.0872   
    40. B(H  37,C  13)                1.0878  0.000099 -0.0001    1.0877   
    41. B(H  38,C  13)                1.0893  0.000009  0.0000    1.0893   
    42. B(H  39,C  15)                1.0875  0.000074 -0.0001    1.0874   
    43. B(H  40,C  15)                1.0884  0.000062 -0.0000    1.0884   
    44. B(H  41,C  15)                1.0895  0.000076 -0.0002    1.0893   
    45. B(H  42,C  16)                1.0869  0.000130 -0.0002    1.0868   
    46. B(H  43,C  16)                1.0892  0.000029 -0.0000    1.0892   
    47. B(H  44,C  16)                1.0864  0.000075 -0.0001    1.0863   
    48. B(H  45,C  17)                1.0866  0.000132 -0.0002    1.0864   
    49. B(H  46,C  17)                1.0860  0.000112 -0.0002    1.0858   
    50. B(H  47,C  17)                1.0892  0.000048 -0.0001    1.0891   
    51. B(H  48,C  23)                1.0878  0.000049 -0.0001    1.0876   
    52. B(H  49,C  23)                1.0931 -0.000034 -0.0000    1.0931   
    53. B(H  50,C  23)                1.0913  0.000020 -0.0001    1.0912   
    54. B(H  51,O   0)                2.4117  0.000144 -0.0044    2.4073   
    55. B(H  51,O  26)                0.9684  0.000233 -0.0002    0.9683   
    56. A(C   1,O   0,H  27)          107.77 -0.000014    0.20    107.97   
    57. A(O   0,C   1,C   3)          111.87 -0.000010    0.09    111.96   
    58. A(C   3,C   1,C  24)          110.04  0.000112   -0.10    109.93   
    59. A(O   0,C   1,H   2)          110.10  0.000140   -0.02    110.08   
    60. A(H   2,C   1,C   3)          108.35 -0.000077   -0.00    108.35   
    61. A(O   0,C   1,C  24)          107.76 -0.000032   -0.07    107.69   
    62. A(H   2,C   1,C  24)          108.68 -0.000135    0.11    108.79   
    63. A(C   1,C   3,C   5)          109.13  0.000021   -0.06    109.07   
    64. A(C   1,C   3,H   4)          108.69 -0.000065    0.02    108.71   
    65. A(C   5,C   3,O  18)          111.93 -0.000013    0.06    111.98   
    66. A(H   4,C   3,C   5)          108.60 -0.000074    0.05    108.64   
    67. A(C   1,C   3,O  18)          108.62 -0.000055    0.06    108.68   
    68. A(H   4,C   3,O  18)          109.82  0.000184   -0.13    109.70   
    69. A(C   7,C   5,O  19)          108.32  0.000124   -0.00    108.32   
    70. A(H   6,C   5,O  19)          110.62 -0.000056   -0.01    110.62   
    71. A(C   3,C   5,C   7)          110.55  0.000033   -0.00    110.55   
    72. A(H   6,C   5,C   7)          108.84  0.000038   -0.05    108.79   
    73. A(C   3,C   5,O  19)          110.75 -0.000026    0.07    110.82   
    74. A(C   3,C   5,H   6)          107.74 -0.000113   -0.01    107.73   
    75. A(O   8,C   7,H  29)          110.72  0.000379   -0.12    110.60   
    76. A(O   8,C   7,H  28)          107.84  0.000002    0.05    107.89   
    77. A(C   5,C   7,H  28)          109.53 -0.000002   -0.09    109.44   
    78. A(H  28,C   7,H  29)          108.80 -0.000004   -0.08    108.72   
    79. A(C   5,C   7,O   8)          111.30 -0.000149    0.15    111.45   
    80. A(C   5,C   7,H  29)          108.62 -0.000223    0.08    108.70   
    81. A(C   7,O   8,Si  9)          122.19  0.000021    0.17    122.36   
    82. A(O   8,Si  9,C  10)          105.14 -0.000377    0.17    105.31   
    83. A(O   8,Si  9,O  18)          107.55  0.000067    0.23    107.78   
    84. A(O   8,Si  9,C  14)          109.92  0.000271   -0.41    109.51   
    85. A(C  10,Si  9,C  14)          119.46  0.000315   -0.04    119.42   
    86. A(C  10,Si  9,O  18)          106.21 -0.000525    0.45    106.66   
    87. A(C  14,Si  9,O  18)          107.98  0.000206   -0.33    107.65   
    88. A(C  11,C  10,C  12)          108.76 -0.000096    0.04    108.80   
    89. A(Si  9,C  10,C  12)          110.37  0.000074   -0.08    110.29   
    90. A(Si  9,C  10,C  11)          111.69  0.000081   -0.12    111.56   
    91. A(C  12,C  10,C  13)          107.94 -0.000106    0.11    108.04   
    92. A(C  11,C  10,C  13)          108.28 -0.000081    0.07    108.36   
    93. A(Si  9,C  10,C  13)          109.71  0.000118   -0.01    109.69   
    94. A(H  30,C  11,H  31)          108.52  0.000030   -0.04    108.48   
    95. A(C  10,C  11,H  31)          110.68 -0.000013   -0.01    110.67   
    96. A(C  10,C  11,H  30)          110.78 -0.000023   -0.03    110.75   
    97. A(H  31,C  11,H  32)          108.49  0.000058   -0.00    108.49   
    98. A(C  10,C  11,H  32)          110.26  0.000026    0.02    110.29   
    99. A(H  30,C  11,H  32)          108.02 -0.000078    0.07    108.09   
   100. A(H  34,C  12,H  35)          108.69  0.000049   -0.02    108.67   
   101. A(H  33,C  12,H  35)          108.25  0.000007    0.01    108.27   
   102. A(C  10,C  12,H  35)          110.37 -0.000094    0.04    110.41   
   103. A(H  33,C  12,H  34)          108.25 -0.000044    0.03    108.29   
   104. A(C  10,C  12,H  34)          110.19  0.000064   -0.02    110.17   
   105. A(C  10,C  12,H  33)          111.01  0.000019   -0.04    110.96   
   106. A(H  37,C  13,H  38)          108.26  0.000018    0.01    108.27   
   107. A(C  10,C  13,H  37)          110.51 -0.000012   -0.00    110.51   
   108. A(C  10,C  13,H  38)          110.11 -0.000010   -0.02    110.09   
   109. A(H  36,C  13,H  38)          108.42  0.000037   -0.01    108.41   
   110. A(H  36,C  13,H  37)          108.80  0.000042    0.00    108.80   
   111. A(C  10,C  13,H  36)          110.67 -0.000071    0.03    110.70   
   112. A(C  16,C  14,C  17)          108.48 -0.000038    0.03    108.50   
   113. A(C  15,C  14,C  17)          108.10  0.000019    0.02    108.13   
   114. A(C  15,C  14,C  16)          107.69 -0.000169    0.13    107.81   
   115. A(Si  9,C  14,C  17)          111.09 -0.000107    0.09    111.18   
   116. A(Si  9,C  14,C  15)          109.75  0.000224   -0.20    109.55   
   117. A(Si  9,C  14,C  16)          111.62  0.000065   -0.07    111.55   
   118. A(H  39,C  15,H  41)          108.29  0.000004    0.05    108.33   
   119. A(C  14,C  15,H  41)          110.06 -0.000039    0.03    110.09   
   120. A(H  39,C  15,H  40)          108.78  0.000021   -0.04    108.74   
   121. A(C  14,C  15,H  40)          111.08  0.000101   -0.09    110.99   
   122. A(C  14,C  15,H  39)          110.61 -0.000062    0.00    110.61   
   123. A(H  40,C  15,H  41)          107.95 -0.000027    0.05    108.00   
   124. A(C  14,C  16,H  44)          110.77  0.000017   -0.05    110.71   
   125. A(H  42,C  16,H  44)          108.54 -0.000011    0.01    108.55   
   126. A(H  42,C  16,H  43)          108.51  0.000029    0.02    108.53   
   127. A(C  14,C  16,H  43)          110.20 -0.000046    0.04    110.24   
   128. A(C  14,C  16,H  42)          110.66 -0.000031    0.01    110.67   
   129. A(H  43,C  16,H  44)          108.08  0.000044   -0.02    108.06   
   130. A(C  14,C  17,H  47)          110.11 -0.000012    0.01    110.12   
   131. A(H  46,C  17,H  47)          108.43  0.000013    0.01    108.44   
   132. A(H  45,C  17,H  47)          108.45  0.000041    0.01    108.46   
   133. A(H  45,C  17,H  46)          108.28  0.000046   -0.02    108.26   
   134. A(C  14,C  17,H  46)          110.89 -0.000083   -0.01    110.89   
   135. A(C  14,C  17,H  45)          110.60 -0.000001   -0.01    110.59   
   136. A(C   3,O  18,Si  9)          120.50 -0.000168    0.34    120.84   
   137. A(C   5,O  19,C  20)          113.41  0.000183   -0.18    113.23   
   138. A(O  22,C  20,C  24)          115.41  0.000024    0.00    115.41   
   139. A(H  21,C  20,C  24)          107.98 -0.000162    0.08    108.07   
   140. A(O  19,C  20,C  24)          109.74 -0.000121   -0.08    109.66   
   141. A(H  21,C  20,O  22)          104.62  0.000009    0.10    104.72   
   142. A(O  19,C  20,O  22)          108.93  0.000143    0.02    108.95   
   143. A(O  19,C  20,H  21)          109.99  0.000117   -0.13    109.86   
   144. A(C  20,O  22,C  23)          116.69  0.000132   -0.08    116.62   
   145. A(O  22,C  23,H  50)          110.78 -0.000098    0.02    110.81   
   146. A(H  49,C  23,H  50)          110.31 -0.000137    0.08    110.39   
   147. A(H  48,C  23,H  50)          110.03  0.000195   -0.05    109.98   
   148. A(H  48,C  23,H  49)          109.52  0.000049    0.04    109.55   
   149. A(O  22,C  23,H  49)          111.04  0.000212   -0.17    110.86   
   150. A(O  22,C  23,H  48)          105.04 -0.000216    0.08    105.12   
   151. A(H  25,C  24,O  26)          110.84  0.000033    0.09    110.93   
   152. A(C  20,C  24,O  26)          108.56 -0.000048    0.10    108.66   
   153. A(C   1,C  24,O  26)          111.38  0.000027   -0.01    111.37   
   154. A(C  20,C  24,H  25)          109.11  0.000009   -0.11    109.00   
   155. A(C   1,C  24,H  25)          107.76 -0.000114    0.01    107.77   
   156. A(C   1,C  24,C  20)          109.15  0.000096   -0.09    109.06   
   157. A(C  24,O  26,H  51)          107.67  0.000065    0.11    107.77   
   158. D(C  24,C   1,O   0,H  27)    172.14  0.000029    0.48    172.62   
   159. D(C   3,C   1,O   0,H  27)     51.06 -0.000083    0.60     51.67   
   160. D(H   2,C   1,O   0,H  27)    -69.48 -0.000074    0.56    -68.92   
   161. D(C   5,C   3,C   1,H   2)    -64.67  0.000057   -0.02    -64.69   
   162. D(H   4,C   3,C   1,C  24)    -64.25  0.000027    0.02    -64.23   
   163. D(C   5,C   3,C   1,O   0)    173.77 -0.000059   -0.04    173.73   
   164. D(C   5,C   3,C   1,C  24)     54.02 -0.000088    0.06     54.08   
   165. D(H   4,C   3,C   1,H   2)    177.06  0.000172   -0.05    177.00   
   166. D(H   4,C   3,C   1,O   0)     55.50  0.000056   -0.08     55.42   
   167. D(C   7,C   5,C   3,H   4)    -58.66 -0.000047   -0.09    -58.75   
   168. D(H   6,C   5,C   3,O  18)    -56.06  0.000129   -0.11    -56.18   
   169. D(C   7,C   5,C   3,C   1)   -176.98  0.000062   -0.11   -177.09   
   170. D(H   6,C   5,C   3,H   4)   -177.47 -0.000044   -0.02   -177.50   
   171. D(C   7,C   5,C   3,O  18)     62.76  0.000126   -0.18     62.57   
   172. D(H   6,C   5,C   3,C   1)     64.20  0.000065   -0.04     64.16   
   173. D(H  28,C   7,C   5,H   6)    -62.22  0.000015   -0.15    -62.37   
   174. D(H  28,C   7,C   5,O  19)     58.11  0.000043   -0.19     57.92   
   175. D(H  28,C   7,C   5,C   3)    179.63  0.000110   -0.11    179.52   
   176. D(O   8,C   7,C   5,O  19)    177.26 -0.000048   -0.09    177.17   
   177. D(O   8,C   7,C   5,H   6)     56.93 -0.000076   -0.05     56.87   
   178. D(O   8,C   7,C   5,C   3)    -61.22  0.000019   -0.01    -61.23   
   179. D(Si  9,O   8,C   7,H  28)    161.31  0.000114   -1.17    160.14   
   180. D(Si  9,O   8,C   7,H  29)    -79.77  0.000330   -1.30    -81.07   
   181. D(Si  9,O   8,C   7,C   5)     41.16  0.000204   -1.18     39.98   
   182. D(O  18,Si  9,O   8,C   7)    -19.86 -0.000430    2.14    -17.72   
   183. D(C  14,Si  9,O   8,C   7)     97.46  0.000002    1.65     99.11   
   184. D(C  10,Si  9,O   8,C   7)   -132.75  0.000309    1.45   -131.30   
   185. D(C  12,C  10,Si  9,O   8)    -51.24 -0.000214    0.50    -50.74   
   186. D(C  11,C  10,Si  9,O  18)     73.80  0.000114    0.05     73.85   
   187. D(C  11,C  10,Si  9,C  14)    -48.43  0.000064    0.15    -48.28   
   188. D(C  11,C  10,Si  9,O   8)   -172.36 -0.000198    0.58   -171.78   
   189. D(C  12,C  10,Si  9,O  18)   -165.08  0.000098   -0.04   -165.11   
   190. D(C  12,C  10,Si  9,C  14)     72.69  0.000047    0.06     72.75   
   191. D(H  31,C  11,C  10,C  12)   -179.27 -0.000095   -0.26   -179.54   
   192. D(H  31,C  11,C  10,Si  9)    -57.22 -0.000015   -0.41    -57.63   
   193. D(H  30,C  11,C  10,C  13)   -175.90  0.000143   -0.54   -176.44   
   194. D(H  30,C  11,C  10,C  12)    -58.85 -0.000081   -0.35    -59.20   
   195. D(H  31,C  11,C  10,C  13)     63.68  0.000129   -0.46     63.22   
   196. D(H  30,C  11,C  10,Si  9)     63.20 -0.000001   -0.50     62.70   
   197. D(H  34,C  12,C  10,C  13)     55.33 -0.000109   -0.11     55.22   
   198. D(H  34,C  12,C  10,C  11)    -61.94  0.000098   -0.28    -62.22   
   199. D(H  34,C  12,C  10,Si  9)    175.21  0.000013   -0.10    175.11   
   200. D(H  33,C  12,C  10,C  13)    175.24 -0.000109   -0.11    175.13   
   201. D(H  33,C  12,C  10,C  11)     57.97  0.000098   -0.28     57.69   
   202. D(H  33,C  12,C  10,Si  9)    -64.87  0.000013   -0.10    -64.97   
   203. D(H  37,C  13,C  10,C  12)     60.51  0.000133   -0.60     59.90   
   204. D(H  37,C  13,C  10,C  11)    178.08 -0.000082   -0.45    177.63   
   205. D(H  37,C  13,C  10,Si  9)    -59.80  0.000038   -0.57    -60.37   
   206. D(H  36,C  13,C  10,C  12)   -178.90  0.000130   -0.58   -179.49   
   207. D(H  36,C  13,C  10,C  11)    -61.33 -0.000085   -0.43    -61.76   
   208. D(H  36,C  13,C  10,Si  9)     60.79  0.000036   -0.55     60.24   
   209. D(C  16,C  14,Si  9,O  18)   -164.39  0.000257   -0.88   -165.27   
   210. D(C  16,C  14,Si  9,C  10)    -43.03 -0.000052   -0.58    -43.61   
   211. D(C  16,C  14,Si  9,O   8)     78.56 -0.000091   -0.73     77.82   
   212. D(C  15,C  14,Si  9,O  18)     76.31  0.000279   -0.87     75.44   
   213. D(C  15,C  14,Si  9,C  10)   -162.33 -0.000029   -0.57   -162.90   
   214. D(C  15,C  14,Si  9,O   8)    -40.75 -0.000069   -0.72    -41.46   
   215. D(H  40,C  15,C  14,C  16)    178.53 -0.000106    0.12    178.65   
   216. D(H  40,C  15,C  14,Si  9)    -59.79  0.000003   -0.00    -59.79   
   217. D(H  39,C  15,C  14,C  17)   -177.59  0.000071   -0.10   -177.69   
   218. D(H  39,C  15,C  14,C  16)    -60.58 -0.000053    0.02    -60.56   
   219. D(H  40,C  15,C  14,C  17)     61.52  0.000019    0.01     61.52   
   220. D(H  39,C  15,C  14,Si  9)     61.11  0.000055   -0.11     61.00   
   221. D(H  43,C  16,C  14,C  17)     61.53  0.000002    0.08     61.61   
   222. D(H  43,C  16,C  14,C  15)    -55.24  0.000090   -0.03    -55.28   
   223. D(H  43,C  16,C  14,Si  9)   -175.76 -0.000117    0.17   -175.59   
   224. D(H  42,C  16,C  14,C  17)   -178.45 -0.000012    0.13   -178.32   
   225. D(H  42,C  16,C  14,C  15)     64.78  0.000077    0.02     64.80   
   226. D(H  42,C  16,C  14,Si  9)    -55.73 -0.000130    0.22    -55.51   
   227. D(H  46,C  17,C  14,C  16)     62.32  0.000065    0.01     62.33   
   228. D(H  46,C  17,C  14,C  15)    178.82 -0.000145    0.19    179.02   
   229. D(H  46,C  17,C  14,Si  9)    -60.71  0.000079    0.02    -60.69   
   230. D(H  45,C  17,C  14,C  16)   -177.54  0.000068   -0.02   -177.56   
   231. D(H  45,C  17,C  14,C  15)    -61.03 -0.000142    0.16    -60.87   
   232. D(H  45,C  17,C  14,Si  9)     59.43  0.000082   -0.01     59.42   
   233. D(C   3,O  18,Si  9,C  14)    -98.08 -0.000034   -1.63    -99.72   
   234. D(C   3,O  18,Si  9,C  10)    132.66 -0.000208   -1.67    130.99   
   235. D(C   3,O  18,Si  9,O   8)     20.49  0.000433   -2.17     18.32   
   236. D(Si  9,O  18,C   3,C   5)    -42.88 -0.000269    1.37    -41.51   
   237. D(Si  9,O  18,C   3,H   4)     77.83 -0.000246    1.37     79.20   
   238. D(Si  9,O  18,C   3,C   1)   -163.43 -0.000250    1.37   -162.06   
   239. D(C  20,O  19,C   5,C   7)   -176.23  0.000007    0.15   -176.09   
   240. D(C  20,O  19,C   5,H   6)    -57.02  0.000097    0.08    -56.93   
   241. D(C  20,O  19,C   5,C   3)     62.37 -0.000097    0.11     62.48   
   242. D(C  24,C  20,O  19,C   5)    -61.96  0.000122   -0.25    -62.21   
   243. D(O  22,C  20,O  19,C   5)    170.81  0.000075   -0.21    170.60   
   244. D(H  21,C  20,O  19,C   5)     56.69 -0.000079   -0.27     56.42   
   245. D(C  23,O  22,C  20,C  24)    -57.65 -0.000037    0.34    -57.31   
   246. D(C  23,O  22,C  20,H  21)   -176.15  0.000143    0.17   -175.98   
   247. D(C  23,O  22,C  20,O  19)     66.28 -0.000066    0.25     66.53   
   248. D(H  50,C  23,O  22,C  20)    -47.05  0.000014    0.53    -46.52   
   249. D(H  49,C  23,O  22,C  20)     75.89 -0.000082    0.53     76.42   
   250. D(H  48,C  23,O  22,C  20)   -165.82 -0.000041    0.53   -165.28   
   251. D(H  25,C  24,C  20,O  22)     62.67  0.000058    0.46     63.13   
   252. D(H  25,C  24,C  20,H  21)    179.28 -0.000028    0.64    179.92   
   253. D(C   1,C  24,C  20,O  22)   -179.81 -0.000019    0.36   -179.45   
   254. D(C   1,C  24,C  20,H  21)    -63.20 -0.000105    0.54    -62.66   
   255. D(C   1,C  24,C  20,O  19)     56.68 -0.000131    0.39     57.07   
   256. D(H  25,C  24,C   1,C   3)     64.13  0.000022   -0.43     63.71   
   257. D(H  25,C  24,C   1,H   2)   -177.37 -0.000087   -0.42   -177.79   
   258. D(H  25,C  24,C   1,O   0)    -58.08 -0.000014   -0.42    -58.51   
   259. D(H  25,C  24,C  20,O  19)    -60.83 -0.000053    0.49    -60.34   
   260. D(C  20,C  24,C   1,C   3)    -54.23  0.000023   -0.25    -54.48   
   261. D(C  20,C  24,C   1,H   2)     64.26 -0.000086   -0.25     64.02   
   262. D(C  20,C  24,C   1,O   0)   -176.45 -0.000012   -0.25   -176.70   
   263. D(H  51,O  26,C  24,H  25)     69.38 -0.000030    0.05     69.43   
   264. D(H  51,O  26,C  24,C  20)   -170.79 -0.000030    0.03   -170.76   
   265. D(H  51,O  26,C  24,C   1)    -50.59  0.000074   -0.02    -50.61   
    ----------------------------------------------------------------------------

Geometry step timings:
Preparation and reading OPT file:      0.001 s ( 4.455 %)
Internal coordinates            :      0.000 s ( 0.138 %)
B/P matrices and projection     :      0.006 s (24.875 %)
Hessian update/contruction      :      0.010 s (40.786 %)
Making the step                 :      0.004 s (16.108 %)
Converting the step to Cartesian:      0.001 s ( 2.118 %)
Storing new data                :      0.001 s ( 2.907 %)
Checking convergence            :      0.000 s ( 0.143 %)
Final printing                  :      0.002 s ( 8.465 %)
Total time                      :      0.024 s

Time for energy+gradient        :      0.078 s
Time for complete geometry iter :      0.112 s

         *************************************************************
         *                GEOMETRY OPTIMIZATION CYCLE   7            *
         *************************************************************
---------------------------------
CARTESIAN COORDINATES (ANGSTROEM)
---------------------------------
  O    -3.665207    2.033961   -0.278447
  C    -2.303011    1.745866   -0.089479
  H    -2.127069    1.410401    0.946339
  C    -1.811822    0.650455   -1.041359
  H    -2.033542    0.955386   -2.074404
  C    -0.296005    0.499440   -0.890326
  H    -0.094057    0.150242    0.135347
  C     0.240335   -0.535382   -1.876815
  O    -0.318569   -1.795056   -1.649791
  Si   -1.905343   -1.996935   -1.263405
  C    -1.911821   -3.167615    0.262928
  C    -3.329938   -3.615154    0.622184
  C    -1.058489   -4.408274   -0.015648
  C    -1.312907   -2.441022    1.474397
  C    -2.898858   -2.496189   -2.849234
  C    -2.413439   -1.660895   -4.044240
  C    -2.696788   -3.974226   -3.197595
  C    -4.400173   -2.239955   -2.666219
  O    -2.488393   -0.537533   -0.744786
  O     0.354535    1.721106   -1.134230
  C    -0.003848    2.740506   -0.212353
  H     0.198243    2.401933    0.817939
  O     0.830055    3.822765   -0.395218
  C     0.709747    4.519441   -1.632083
  C    -1.514705    3.040466   -0.330406
  H    -1.733549    3.381683   -1.354510
  O    -1.850513    4.024013    0.606848
  H    -4.153602    1.201060   -0.243616
  H     1.324124   -0.622634   -1.759438
  H     0.023314   -0.195227   -2.895200
  H    -3.769083   -4.190002   -0.188427
  H    -3.965075   -2.755876    0.818366
  H    -3.313775   -4.243205    1.512065
  H    -1.490050   -5.005415   -0.812496
  H    -0.992670   -5.027421    0.878194
  H    -0.054691   -4.118590   -0.312704
  H    -1.893613   -1.554250    1.716298
  H    -0.286645   -2.143377    1.271118
  H    -1.312056   -3.099035    2.342461
  H    -1.358799   -1.843848   -4.235891
  H    -2.556111   -0.597695   -3.860432
  H    -2.975349   -1.926140   -4.938952
  H    -1.639679   -4.201724   -3.306307
  H    -3.200257   -4.213027   -4.133461
  H    -3.109401   -4.611929   -2.420924
  H    -4.586203   -1.189724   -2.459689
  H    -4.794760   -2.824176   -1.840383
  H    -4.940126   -2.514356   -3.571394
  H     1.599985    5.141109   -1.695216
  H    -0.180492    5.153763   -1.636653
  H     0.682886    3.820496   -2.469631
  H    -2.815827    4.097055    0.625658

----------------------------
CARTESIAN COORDINATES (A.U.)
----------------------------
  NO LB    ZA    FRAG    MASS        X           Y           Z
   0 O   8.0000    1    15.999   -6.926238    3.843629   -0.526189
   1 C   6.0000    1    12.011   -4.352061    3.299209   -0.169091
   2 H   1.0000    1     1.008   -4.019577    2.665271    1.788321
   3 C   6.0000    1    12.011   -3.423847    1.229182   -1.967883
   4 H   1.0000    1     1.008   -3.842838    1.805417   -3.920055
   5 C   6.0000    1    12.011   -0.559368    0.943805   -1.682472
   6 H   1.0000    1     1.008   -0.177742    0.283917    0.255769
   7 C   6.0000    1    12.011    0.454166   -1.011725   -3.546666
   8 O   8.0000    1    15.999   -0.602009   -3.392164   -3.117653
   9 Si 14.0000    1    28.086   -3.600576   -3.773660   -2.387489
  10 C   6.0000    1    12.011   -3.612819   -5.985925    0.496862
  11 C   6.0000    1    12.011   -6.292672   -6.831651    1.175757
  12 C   6.0000    1    12.011   -2.000255   -8.330430   -0.029571
  13 C   6.0000    1    12.011   -2.481036   -4.612863    2.786206
  14 C   6.0000    1    12.011   -5.478047   -4.717113   -5.384272
  15 C   6.0000    1    12.011   -4.560739   -3.138636   -7.642506
  16 C   6.0000    1    12.011   -5.096190   -7.510198   -6.042578
  17 C   6.0000    1    12.011   -8.315122   -4.232902   -5.038423
  18 O   8.0000    1    15.999   -4.702381   -1.015790   -1.407442
  19 O   8.0000    1    15.999    0.669973    3.252418   -2.143383
  20 C   6.0000    1    12.011   -0.007271    5.178805   -0.401289
  21 H   1.0000    1     1.008    0.374625    4.538996    1.545681
  22 O   8.0000    1    15.999    1.568577    7.223979   -0.746853
  23 C   6.0000    1    12.011    1.341227    8.540505   -3.084189
  24 C   6.0000    1    12.011   -2.862377    5.745647   -0.624377
  25 H   1.0000    1     1.008   -3.275933    6.390455   -2.559653
  26 O   8.0000    1    15.999   -3.496963    7.604282    1.146777
  27 H   1.0000    1     1.008   -7.849171    2.269674   -0.460367
  28 H   1.0000    1     1.008    2.502232   -1.176607   -3.324856
  29 H   1.0000    1     1.008    0.044056   -0.368925   -5.471135
  30 H   1.0000    1     1.008   -7.122535   -7.917956   -0.356075
  31 H   1.0000    1     1.008   -7.492905   -5.207851    1.546487
  32 H   1.0000    1     1.008   -6.262126   -8.018496    2.857388
  33 H   1.0000    1     1.008   -2.815786   -9.458863   -1.535395
  34 H   1.0000    1     1.008   -1.875875   -9.500449    1.659546
  35 H   1.0000    1     1.008   -0.103350   -7.783007   -0.590924
  36 H   1.0000    1     1.008   -3.578410   -2.937106    3.243334
  37 H   1.0000    1     1.008   -0.541681   -4.050396    2.402064
  38 H   1.0000    1     1.008   -2.479426   -5.856327    4.426609
  39 H   1.0000    1     1.008   -2.567757   -3.484367   -8.004674
  40 H   1.0000    1     1.008   -4.830350   -1.129480   -7.295159
  41 H   1.0000    1     1.008   -5.622594   -3.639877   -9.333266
  42 H   1.0000    1     1.008   -3.098545   -7.940107   -6.248015
  43 H   1.0000    1     1.008   -6.047609   -7.961467   -7.811110
  44 H   1.0000    1     1.008   -5.875916   -8.715282   -4.574883
  45 H   1.0000    1     1.008   -8.666668   -2.248253   -4.648139
  46 H   1.0000    1     1.008   -9.060783   -5.336918   -3.477819
  47 H   1.0000    1     1.008   -9.335486   -4.751445   -6.748957
  48 H   1.0000    1     1.008    3.023533    9.715288   -3.203494
  49 H   1.0000    1     1.008   -0.341081    9.739200   -3.092825
  50 H   1.0000    1     1.008    1.290467    7.219690   -4.666927
  51 H   1.0000    1     1.008   -5.321142    7.742312    1.182321

      -----------------------------------------------------------      
     |                   =====================                   |     
     |                           x T B                           |     
     |                   =====================                   |     
     |                         S. Grimme                         |     
     |          Mulliken Center for Theoretical Chemistry        |     
     |                    University of Bonn                     |     
      -----------------------------------------------------------      

   * xtb version 6.7.1 (edcfbbe) compiled by 'albert@albert-system' on 2024-07-22

   xtb is free software: you can redistribute it and/or modify it under
   the terms of the GNU Lesser General Public License as published by
   the Free Software Foundation, either version 3 of the License, or
   (at your option) any later version.
   
   xtb is distributed in the hope that it will be useful,
   but WITHOUT ANY WARRANTY; without even the implied warranty of
   MERCHANTABILITY or FITNESS FOR A PARTICULAR PURPOSE.  See the
   GNU Lesser General Public License for more details.
   
   Cite this work as:
   * C. Bannwarth, E. Caldeweyher, S. Ehlert, A. Hansen, P. Pracht,
     J. Seibert, S. Spicher, S. Grimme, WIREs Comput. Mol. Sci., 2020, 11,
     e01493. DOI: 10.1002/wcms.1493
   
   for GFN2-xTB:
   * C. Bannwarth, S. Ehlert and S. Grimme., J. Chem. Theory Comput., 2019,
     15, 1652-1671. DOI: 10.1021/acs.jctc.8b01176
   for GFN1-xTB:
   * S. Grimme, C. Bannwarth, P. Shushkov, J. Chem. Theory Comput., 2017,
     13, 1989-2009. DOI: 10.1021/acs.jctc.7b00118
   for GFN0-xTB:
   * P. Pracht, E. Caldeweyher, S. Ehlert, S. Grimme, ChemRxiv, 2019, preprint.
     DOI: 10.26434/chemrxiv.8326202.v1
   for GFN-FF:
   * S. Spicher and S. Grimme, Angew. Chem. Int. Ed., 2020, 59, 15665-15673.
     DOI: 10.1002/anie.202004239
   
   for ALPB and GBSA implicit solvation:
   * S. Ehlert, M. Stahn, S. Spicher, S. Grimme, J. Chem. Theory Comput.,
     2021, 17, 4250-4261. DOI: 10.1021/acs.jctc.1c00471
   
   for ddCOSMO and CPCM-X implicit solvation:
   * M. Stahn, S. Ehlert, S. Grimme, J. Phys. Chem. A,
     2023, XX, XXXX-XXXX. DOI: 10.1021/acs.jpca.3c04382
   
   for DFT-D4:
   * E. Caldeweyher, C. Bannwarth and S. Grimme, J. Chem. Phys., 2017,
     147, 034112. DOI: 10.1063/1.4993215
   * E. Caldeweyher, S. Ehlert, A. Hansen, H. Neugebauer, S. Spicher,
     C. Bannwarth and S. Grimme, J. Chem. Phys., 2019, 150, 154122.
     DOI: 10.1063/1.5090222
   * E. Caldeweyher, J.-M. Mewes, S. Ehlert and S. Grimme, Phys. Chem. Chem. Phys.
     2020, 22, 8499-8512. DOI: 10.1039/D0CP00502A
   
   for sTDA-xTB:
   * S. Grimme and C. Bannwarth, J. Chem. Phys., 2016, 145, 054103.
     DOI: 10.1063/1.4959605
   
   in the mass-spec context:
   * V. Asgeirsson, C. Bauer and S. Grimme, Chem. Sci., 2017, 8, 4879.
     DOI: 10.1039/c7sc00601b
   * J. Koopman and S. Grimme, ACS Omega 2019, 4, 12, 15120-15133.
     DOI: 10.1021/acsomega.9b02011
   
   for metadynamics refer to:
   * S. Grimme, J. Chem. Theory Comput., 2019, 155, 2847-2862
     DOI: 10.1021/acs.jctc.9b00143
   
   for SPH calculations refer to:
   * S. Spicher and S. Grimme, J. Chem. Theory Comput., 2021, 17, 1701-1714
     DOI: 10.1021/acs.jctc.0c01306
   
   for ONIOM refer to:
   * C. Plett, A. Katbashev, S. Ehlert, S. Grimme, M. Bursch,
     Phys. Chem. Chem. Phys., 2023, 25, 17860-17868. DOI: 10.1039/D3CP02178E
   
   for DIPRO refer to:
   * J. Kohn, N. Gildemeister, S. Grimme, D. Fazzi, A. Hansen,
     J. Chem. Phys., 2023, just accepted.
   
   for PTB refer to:
   * S. Grimme, M. Mueller, A. Hansen, J. Chem. Phys., 2023, 158, 124111.
     DOI: 10.1063/5.0137838
   
   with help from (in alphabetical order)
   P. Atkinson, C. Bannwarth, F. Bohle, G. Brandenburg, E. Caldeweyher
   M. Checinski, S. Dohm, S. Ehlert, S. Ehrlich, I. Gerasimov, C. Hölzer
   A. Katbashev, J. Kohn, J. Koopman, C. Lavigne, S. Lehtola, F. März, M. Müller,
   F. Musil, H. Neugebauer, J. Pisarek, C. Plett, P. Pracht, F. Pultar,
   J. Seibert, P. Shushkov, S. Spicher, M. Stahn, M. Steiner, T. Strunk,
   J. Stückrath, T. Rose, and J. Unsleber
   
 * started run on 2025/09/10 at 11:31:44.191     
   ID    Z sym.   atoms
    1    8 O      1, 9, 19, 20, 23, 27
    2    6 C      2, 4, 6, 8, 11-18, 21, 24, 25
    3    1 H      3, 5, 7, 22, 26, 28-52
    4   14 Si     10

           -------------------------------------------------
          |                Calculation Setup                |
           -------------------------------------------------

          program call               : /home/kmoult/orca_6_1/otool_xtb goat_0_XTB.xyz --grad -c 0 -u 0 -P 4 --namespace goat_0 --input goat_0_XTB.input.tmp --alpb ACETONE --acc 0.200000
          hostname                   : node3306
          calculation namespace      : goat_0
          coordinate file            : goat_0_XTB.xyz
          omp threads                :                     4


           -------------------------------------------------
          |                 G F N 2 - x T B                 |
           -------------------------------------------------

        Reference                      10.1021/acs.jctc.8b01176
      * Hamiltonian:
        H0-scaling (s, p, d)           1.850000    2.230000    2.230000
        zeta-weighting                 0.500000
      * Dispersion:
        s8                             2.700000
        a1                             0.520000
        a2                             5.000000
        s9                             5.000000
      * Repulsion:
        kExp                           1.500000    1.000000
        rExp                           1.000000
      * Coulomb:
        alpha                          2.000000
        third order                    shell-resolved
        anisotropic                    true
        a3                             3.000000
        a5                             4.000000
        cn-shift                       1.200000
        cn-exp                         4.000000
        max-rad                        5.000000

      * Solvation model:               ALPB
        Solvent                        ACETONE
        Parameter file                 internal GFN2-xTB/ALPB
        Dielectric constant                2.0700E+01
        Reference state                gsolv [1 M gas/solution]
        Free energy shift                  5.9241E-03 Eh       3.7175E+00 kcal/mol
        Temperature                        2.9815E+02 K
        Density                            7.9000E-01 kg/L
        Solvent mass                       5.8080E+01 g/mol
        Interaction kernel             P16
        Born radius scaling (c1)           1.8274E+00
        Born radii integrator          GBOBC
        Born offset                        0.0000E+00 a0       0.0000E+00 AA
        H-bond correction              true
        Ion screening                  false
        Surface tension                    1.0000E-05 Eh       1.5569E+01 dyn/cm
        Grid points                               230 per atom
q/qsh data taken from xtbrestart
CAMM data taken from xtbrestart

          ...................................................
          :                      SETUP                      :
          :.................................................:
          :  # basis functions                 124          :
          :  # atomic orbitals                 123          :
          :  # shells                           75          :
          :  # electrons                       130          :
          :  max. iterations                   250          :
          :  Hamiltonian                  GFN2-xTB          :
          :  restarted?                       true          :
          :  GBSA solvation                   true          :
          :  PC potential                    false          :
          :  electronic temp.          300.0000000     K    :
          :  accuracy                    0.2000000          :
          :  -> integral cutoff          0.3198970E+02      :
          :  -> integral neglect         0.2000000E-08      :
          :  -> SCF convergence          0.2000000E-06 Eh   :
          :  -> wf. convergence          0.2000000E-04 e    :
          :  Broyden damping             0.4000000          :
          :  net charge                          0          :
          :  unpaired electrons                  0          :
          ...................................................

 iter      E             dE          RMSdq      gap      omega  full diag
   1    -74.4397211 -0.744397E+02  0.549E-02    5.51       0.0  T
   2    -74.4397220 -0.909544E-06  0.367E-02    5.51       1.0  T
   3    -74.4397217  0.350422E-06  0.909E-03    5.51       1.5  T
   4    -74.4397219 -0.283459E-06  0.745E-03    5.52       1.9  T
   5    -74.4397225 -0.561305E-06  0.234E-03    5.51       5.9  T
   6    -74.4397225 -0.318617E-07  0.687E-04    5.51      20.2  T
   7    -74.4397225 -0.566564E-08  0.326E-04    5.51      42.5  T
   8    -74.4397225 -0.405706E-09  0.144E-04    5.51      96.2  T
   9    -74.4397225 -0.709974E-10  0.843E-05    5.51     164.6  T

   *** convergence criteria satisfied after 9 iterations ***

         #    Occupation            Energy/Eh            Energy/eV
      -------------------------------------------------------------
         1        2.0000           -0.8173841             -22.2422
       ...           ...                  ...                  ...
        59        2.0000           -0.4255458             -11.5797
        60        2.0000           -0.4240572             -11.5392
        61        2.0000           -0.4230097             -11.5107
        62        2.0000           -0.4179244             -11.3723
        63        2.0000           -0.4140681             -11.2674
        64        2.0000           -0.4058829             -11.0446
        65        2.0000           -0.3721322             -10.1262 (HOMO)
        66                         -0.1695161              -4.6128 (LUMO)
        67                         -0.1441947              -3.9237
        68                         -0.0909986              -2.4762
        69                         -0.0480736              -1.3081
        70                         -0.0046828              -0.1274
       ...                                ...                  ...
       123                          0.7857325              21.3809
      -------------------------------------------------------------
                  HL-Gap            0.2026160 Eh            5.5135 eV
             Fermi-level           -0.2708242 Eh           -7.3695 eV

 SCC (total)                   0 d,  0 h,  0 min,  0.040 sec
 SCC setup                      ...        0 min,  0.001 sec (  1.497%)
 Dispersion                     ...        0 min,  0.000 sec (  0.827%)
 classical contributions        ...        0 min,  0.000 sec (  0.101%)
 integral evaluation            ...        0 min,  0.017 sec ( 41.612%)
 iterations                     ...        0 min,  0.014 sec ( 35.308%)
 molecular gradient             ...        0 min,  0.008 sec ( 20.262%)
 printout                       ...        0 min,  0.000 sec (  0.363%)

         :::::::::::::::::::::::::::::::::::::::::::::::::::::
         ::                     SUMMARY                     ::
         :::::::::::::::::::::::::::::::::::::::::::::::::::::
         :: total energy             -73.690497925126 Eh    ::
         :: total w/o Gsasa/hb       -73.661627600203 Eh    ::
         :: gradient norm              0.002835570555 Eh/a0 ::
         :: HOMO-LUMO gap              5.513463090542 eV    ::
         ::.................................................::
         :: SCC energy               -74.438357099055 Eh    ::
         :: -> isotropic ES            0.157183476253 Eh    ::
         :: -> anisotropic ES          0.003129817909 Eh    ::
         :: -> anisotropic XC          0.005364077985 Eh    ::
         :: -> dispersion             -0.053481655609 Eh    ::
         :: -> Gsolv                  -0.031845035246 Eh    ::
         ::    -> Gelec               -0.002974710323 Eh    ::
         ::    -> Gsasa               -0.028888264282 Eh    ::
         ::    -> Ghb                 -0.005906201905 Eh    ::
         ::    -> Gshift               0.005924141264 Eh    ::
         :: repulsion energy           0.747859173929 Eh    ::
         :: add. restraining           0.000000000000 Eh    ::
         :: total charge              -0.000000000000 e     ::
         :::::::::::::::::::::::::::::::::::::::::::::::::::::


Property printout bound to 'properties.out'

           -------------------------------------------------
          | TOTAL ENERGY              -73.690497925126 Eh   |
          | GRADIENT NORM               0.002835570555 Eh/α |
          | HOMO-LUMO GAP               5.513463090542 eV   |
           -------------------------------------------------

------------------------------------------------------------------------
 * finished run on 2025/09/10 at 11:31:44.253     
------------------------------------------------------------------------
 total:
 * wall-time:     0 d,  0 h,  0 min,  0.061 sec
 *  cpu-time:     0 d,  0 h,  0 min,  0.214 sec
 * ratio c/w:     3.486 speedup
 SCF:
 * wall-time:     0 d,  0 h,  0 min,  0.040 sec
 *  cpu-time:     0 d,  0 h,  0 min,  0.148 sec
 * ratio c/w:     3.702 speedup


-------------------------   --------------------
FINAL SINGLE POINT ENERGY       -73.690497925130
-------------------------   --------------------


-------------
DIPOLE MOMENT
-------------
                                X             Y             Z
Total Dipole Moment    :     -0.97300      -0.77300      -0.69100
                        -----------------------------------------
Magnitude (a.u.)       :      1.42188
Magnitude (Debye)      :      3.61413


------------------
CARTESIAN GRADIENT
------------------

   1   O   :    0.000407303   -0.000267883    0.000058984
   2   C   :   -0.000498648    0.000285576   -0.000122786
   3   H   :    0.000170089   -0.000072826    0.000024483
   4   C   :   -0.000501950   -0.000166043   -0.000285329
   5   H   :    0.000213138    0.000063725   -0.000035106
   6   C   :    0.000460465    0.000460306    0.000335089
   7   H   :   -0.000111478   -0.000048328   -0.000055444
   8   C   :   -0.000021295   -0.000217272   -0.000426917
   9   O   :   -0.000330153   -0.000265176    0.000701449
  10   Si  :    0.000117232    0.000253889   -0.001367285
  11   C   :    0.000387576    0.000372896    0.000470934
  12   C   :   -0.000210523   -0.000221150    0.000246376
  13   C   :    0.000077387   -0.000395245    0.000033604
  14   C   :    0.000116609   -0.000062961    0.000186307
  15   C   :    0.000329966    0.000478610    0.000005194
  16   C   :   -0.000024578   -0.000120756   -0.000180869
  17   C   :   -0.000081416   -0.000292981   -0.000110204
  18   C   :   -0.000342280   -0.000020432   -0.000064542
  19   O   :    0.000038123   -0.000273137    0.000683359
  20   O   :    0.000081346   -0.000151166   -0.000044137
  21   C   :    0.000378993   -0.000279316    0.000139078
  22   H   :   -0.000197298   -0.000025232   -0.000122296
  23   O   :    0.000107909    0.000159582    0.000108055
  24   C   :    0.000099553    0.000271998   -0.000352389
  25   C   :   -0.000287268    0.000462402    0.000278236
  26   H   :    0.000132665   -0.000145421   -0.000085358
  27   O   :   -0.000073750   -0.000421355   -0.000279054
  28   H   :   -0.000195790    0.000025005   -0.000019828
  29   H   :   -0.000040535    0.000009541   -0.000010242
  30   H   :    0.000002600    0.000168358    0.000068750
  31   H   :   -0.000017201    0.000047623   -0.000088116
  32   H   :   -0.000006672    0.000053007   -0.000034933
  33   H   :    0.000003690    0.000016278   -0.000044827
  34   H   :   -0.000049060    0.000029742   -0.000000932
  35   H   :   -0.000006826    0.000036740   -0.000027012
  36   H   :    0.000028228    0.000066898   -0.000001890
  37   H   :   -0.000060645    0.000036281   -0.000050537
  38   H   :    0.000000807    0.000042320   -0.000060568
  39   H   :   -0.000068140   -0.000039667   -0.000075306
  40   H   :    0.000048037   -0.000006011    0.000068552
  41   H   :   -0.000009336    0.000024715    0.000029604
  42   H   :   -0.000038956   -0.000019072    0.000035022
  43   H   :    0.000046069    0.000000168   -0.000007674
  44   H   :   -0.000033490    0.000002369    0.000037208
  45   H   :   -0.000010535    0.000038192    0.000043132
  46   H   :   -0.000022082    0.000036510    0.000014047
  47   H   :    0.000103844   -0.000025102    0.000071676
  48   H   :    0.000029846   -0.000002109    0.000009101
  49   H   :   -0.000011956   -0.000029617    0.000063826
  50   H   :   -0.000026703   -0.000092122    0.000051051
  51   H   :   -0.000097891   -0.000062677    0.000020349
  52   H   :   -0.000005019    0.000280327    0.000170114

Difference to translation invariance:
           :   -0.0000000000   -0.0000000000   -0.0000000000

Difference to rotation invariance:
           :   -0.0011757692    0.0004000403   -0.0001817802

Norm of the Cartesian gradient     ...    0.0028355706
RMS gradient                       ...    0.0002270273
MAX gradient                       ...    0.0013672845
------------------------------------------------------------------------------
                         ORCA GEOMETRY RELAXATION STEP
------------------------------------------------------------------------------

Reading the OPT-File                    .... done
Getting information on internals        .... done
Copying old internal coords+grads       .... done
Making the new internal coordinates     .... (2022 redundants) done
Validating the new internal coordinates .... (2022 redundants) done
Calculating the B-matrix                .... done
Calculating the G,G- and P matrices     .... done
Transforming gradient to internals      .... done
Projecting the internal gradient        .... done
Number of atoms                         ....  52
Number of internal coordinates          .... 265
Current Energy                          ....   -73.690497925 Eh
Current gradient norm                   ....     0.002835571 Eh/bohr
Maximum allowed component of the step   ....  0.300
Current trust radius                    ....  0.450
Updating the Hessian (BFGS)             .... done
Forming the augmented Hessian           .... done
Diagonalizing the augmented Hessian     .... done
Last element of RFO vector              ....  0.997826975
Lowest eigenvalues of augmented Hessian:
 -0.000031712  0.003800284  0.009997284  0.010001862  0.010045613
Length of the computed step             ....  0.066032251
The final length of the internal step   ....  0.066032251
Converting the step to Cartesian space:
 Initial RMS(Int)=    0.0040563290
Transforming coordinates:
 Iter   0:  RMS(Cart)=    0.0179790770 RMS(Int)=    0.3857935683
done
Storing new coordinates                 .... done
The predicted energy change is          ....    -0.000015925
Previously predicted energy change      ....    -0.000048336
Actually observed energy change         ....    -0.000062157
Ratio of predicted to observed change   ....     1.285944632
New trust radius                        ....     0.450000000

                                .--------------------.
          ----------------------|Geometry convergence|-------------------------
          Item                value                   Tolerance       Converged
          ---------------------------------------------------------------------
          Energy change      -0.0000621570            0.0000050000      NO
          RMS gradient        0.0001038027            0.0001000000      NO
          MAX gradient        0.0004336713            0.0003000000      NO
          RMS step            0.0040563290            0.0020000000      NO
          MAX step            0.0223659572            0.0040000000      NO
          -------------------------------------------------------------------------
          ........................................................
          Max(Bonds)      0.0042      Max(Angles)    0.30
          Max(Dihed)        1.28      Max(Improp)    0.00
          ---------------------------------------------------------------------

    ---------------------------------------------------------------------------
                         Redundant Internal Coordinates
                            (Angstroem and degrees)

        Definition                    Value    dE/dq     Step     New-Value
    ----------------------------------------------------------------------------
     1. B(C   1,O   0)                1.4051 -0.000332  0.0002    1.4053   
     2. B(H   2,C   1)                1.1029  0.000074 -0.0001    1.1028   
     3. B(C   3,C   1)                1.5321 -0.000016  0.0001    1.5322   
     4. B(H   4,C   3)                1.0997  0.000007 -0.0001    1.0996   
     5. B(C   5,C   3)                1.5308  0.000287 -0.0005    1.5303   
     6. B(H   6,C   5)                1.1021 -0.000055  0.0001    1.1022   
     7. B(C   7,C   5)                1.5270  0.000181 -0.0004    1.5266   
     8. B(O   8,C   7)                1.3967  0.000153 -0.0004    1.3963   
     9. B(Si  9,O   8)                1.6456 -0.000431 -0.0000    1.6456   
    10. B(C  10,Si  9)                1.9236  0.000434  0.0003    1.9239   
    11. B(C  11,C  10)                1.5298  0.000262 -0.0005    1.5293   
    12. B(C  12,C  10)                1.5313  0.000245 -0.0005    1.5308   
    13. B(C  13,C  10)                1.5344 -0.000026 -0.0003    1.5340   
    14. B(C  14,Si  9)                1.9368  0.000031  0.0006    1.9374   
    15. B(C  15,C  14)                1.5367 -0.000025 -0.0002    1.5365   
    16. B(C  16,C  14)                1.5319  0.000238 -0.0006    1.5313   
    17. B(C  17,C  14)                1.5340  0.000224 -0.0005    1.5334   
    18. B(O  18,Si  9)                1.6549 -0.000026 -0.0003    1.6547   
    19. B(O  18,C   3)                1.3989  0.000083 -0.0001    1.3989   
    20. B(O  19,C   5)                1.4054 -0.000087 -0.0002    1.4052   
    21. B(C  20,O  19)                1.4204  0.000051  0.0001    1.4205   
    22. B(H  21,C  20)                1.1032 -0.000139  0.0001    1.1032   
    23. B(O  22,C  20)                1.3784  0.000249 -0.0002    1.3782   
    24. B(C  23,O  22)                1.4247  0.000216 -0.0001    1.4246   
    25. B(C  24,C  20)                1.5449  0.000309 -0.0006    1.5443   
    26. B(C  24,C   1)                1.5348 -0.000001 -0.0000    1.5347   
    27. B(H  25,C  24)                1.1014  0.000005 -0.0000    1.1014   
    28. B(O  26,C  24)                1.3995 -0.000242 -0.0001    1.3994   
    29. B(H  27,O   0)                0.9662  0.000094 -0.0002    0.9660   
    30. B(H  27,O  18)                2.4590  0.000059  0.0035    2.4625   
    31. B(H  28,C   7)                1.0936 -0.000042  0.0002    1.0938   
    32. B(H  29,C   7)                1.0954 -0.000013  0.0001    1.0955   
    33. B(H  30,C  11)                1.0865  0.000051 -0.0001    1.0863   
    34. B(H  31,C  11)                1.0864  0.000037 -0.0000    1.0864   
    35. B(H  32,C  11)                1.0893 -0.000048  0.0001    1.0894   
    36. B(H  33,C  12)                1.0853  0.000007 -0.0001    1.0852   
    37. B(H  34,C  12)                1.0893 -0.000046  0.0001    1.0894   
    38. B(H  35,C  12)                1.0862  0.000045 -0.0001    1.0861   
    39. B(H  36,C  13)                1.0872  0.000049 -0.0000    1.0872   
    40. B(H  37,C  13)                1.0877  0.000023 -0.0000    1.0877   
    41. B(H  38,C  13)                1.0893 -0.000036  0.0001    1.0894   
    42. B(H  39,C  15)                1.0874  0.000036 -0.0001    1.0873   
    43. B(H  40,C  15)                1.0884  0.000033 -0.0000    1.0883   
    44. B(H  41,C  15)                1.0893 -0.000004 -0.0000    1.0893   
    45. B(H  42,C  16)                1.0868  0.000047 -0.0001    1.0867   
    46. B(H  43,C  16)                1.0892 -0.000015  0.0000    1.0892   
    47. B(H  44,C  16)                1.0863  0.000008 -0.0000    1.0863   
    48. B(H  45,C  17)                1.0864  0.000042 -0.0001    1.0863   
    49. B(H  46,C  17)                1.0858  0.000028 -0.0001    1.0857   
    50. B(H  47,C  17)                1.0891 -0.000020  0.0000    1.0892   
    51. B(H  48,C  23)                1.0876 -0.000031  0.0000    1.0877   
    52. B(H  49,C  23)                1.0931 -0.000031  0.0000    1.0932   
    53. B(H  50,C  23)                1.0912  0.000022 -0.0001    1.0912   
    54. B(H  51,O   0)                2.4073  0.000120 -0.0042    2.4031   
    55. B(H  51,O  26)                0.9683  0.000065 -0.0001    0.9682   
    56. A(C   1,O   0,H  27)          107.97  0.000236    0.02    107.98   
    57. A(O   0,C   1,C   3)          111.95 -0.000002    0.02    111.97   
    58. A(C   3,C   1,C  24)          109.93 -0.000002   -0.01    109.92   
    59. A(O   0,C   1,H   2)          110.08  0.000049   -0.05    110.03   
    60. A(H   2,C   1,C   3)          108.35 -0.000060    0.04    108.39   
    61. A(O   0,C   1,C  24)          107.69  0.000031   -0.06    107.63   
    62. A(H   2,C   1,C  24)          108.79 -0.000015    0.06    108.85   
    63. A(C   1,C   3,C   5)          109.07 -0.000038   -0.02    109.05   
    64. A(C   1,C   3,H   4)          108.71  0.000024   -0.00    108.70   
    65. A(C   5,C   3,O  18)          111.98 -0.000003    0.04    112.01   
    66. A(H   4,C   3,C   5)          108.64 -0.000044    0.06    108.70   
    67. A(C   1,C   3,O  18)          108.69 -0.000042    0.02    108.71   
    68. A(H   4,C   3,O  18)          109.70  0.000103   -0.10    109.60   
    69. A(C   7,C   5,O  19)          108.32 -0.000002    0.01    108.33   
    70. A(H   6,C   5,O  19)          110.62  0.000054   -0.04    110.57   
    71. A(C   3,C   5,C   7)          110.54 -0.000143    0.04    110.59   
    72. A(H   6,C   5,C   7)          108.79  0.000047   -0.03    108.76   
    73. A(C   3,C   5,O  19)          110.82  0.000094    0.00    110.83   
    74. A(C   3,C   5,H   6)          107.73 -0.000051    0.02    107.75   
    75. A(O   8,C   7,H  29)          110.60  0.000235   -0.10    110.51   
    76. A(O   8,C   7,H  28)          107.89  0.000021    0.02    107.91   
    77. A(C   5,C   7,H  28)          109.44 -0.000071   -0.03    109.41   
    78. A(H  28,C   7,H  29)          108.72 -0.000058   -0.04    108.68   
    79. A(C   5,C   7,O   8)          111.45 -0.000010    0.06    111.51   
    80. A(C   5,C   7,H  29)          108.70 -0.000120    0.07    108.77   
    81. A(C   7,O   8,Si  9)          122.32  0.000008    0.08    122.40   
    82. A(O   8,Si  9,C  10)          105.32 -0.000293    0.15    105.47   
    83. A(O   8,Si  9,O  18)          107.77  0.000144    0.11    107.88   
    84. A(O   8,Si  9,C  14)          109.51  0.000160   -0.26    109.25   
    85. A(C  10,Si  9,C  14)          119.41  0.000247   -0.09    119.32   
    86. A(C  10,Si  9,O  18)          106.67 -0.000294    0.30    106.97   
    87. A(C  14,Si  9,O  18)          107.65  0.000027   -0.18    107.47   
    88. A(C  11,C  10,C  12)          108.80 -0.000028    0.05    108.85   
    89. A(Si  9,C  10,C  12)          110.29  0.000018   -0.03    110.26   
    90. A(Si  9,C  10,C  11)          111.56 -0.000051   -0.02    111.54   
    91. A(C  12,C  10,C  13)          108.05  0.000010    0.03    108.07   
    92. A(C  11,C  10,C  13)          108.36 -0.000006    0.02    108.38   
    93. A(Si  9,C  10,C  13)          109.69  0.000057   -0.05    109.65   
    94. A(H  30,C  11,H  31)          108.48  0.000006   -0.00    108.47   
    95. A(C  10,C  11,H  31)          110.67 -0.000034    0.01    110.68   
    96. A(C  10,C  11,H  30)          110.75 -0.000072    0.01    110.75   
    97. A(H  31,C  11,H  32)          108.49  0.000057   -0.03    108.47   
    98. A(C  10,C  11,H  32)          110.29  0.000032   -0.00    110.29   
    99. A(H  30,C  11,H  32)          108.09  0.000014    0.01    108.10   
   100. A(H  34,C  12,H  35)          108.67  0.000044   -0.02    108.65   
   101. A(H  33,C  12,H  35)          108.27  0.000051   -0.01    108.26   
   102. A(C  10,C  12,H  35)          110.41 -0.000067    0.04    110.44   
   103. A(H  33,C  12,H  34)          108.29  0.000033    0.00    108.29   
   104. A(C  10,C  12,H  34)          110.17  0.000016   -0.01    110.17   
   105. A(C  10,C  12,H  33)          110.96 -0.000072    0.00    110.96   
   106. A(H  37,C  13,H  38)          108.27  0.000126   -0.03    108.24   
   107. A(C  10,C  13,H  37)          110.51  0.000002    0.00    110.51   
   108. A(C  10,C  13,H  38)          110.09 -0.000117    0.02    110.10   
   109. A(H  36,C  13,H  38)          108.41  0.000057   -0.02    108.39   
   110. A(H  36,C  13,H  37)          108.80  0.000037   -0.00    108.80   
   111. A(C  10,C  13,H  36)          110.70 -0.000097    0.04    110.73   
   112. A(C  16,C  14,C  17)          108.51 -0.000095    0.07    108.57   
   113. A(C  15,C  14,C  17)          108.13  0.000085   -0.02    108.11   
   114. A(C  15,C  14,C  16)          107.81 -0.000040    0.05    107.87   
   115. A(Si  9,C  14,C  17)          111.18 -0.000060    0.07    111.25   
   116. A(Si  9,C  14,C  15)          109.55  0.000113   -0.15    109.40   
   117. A(Si  9,C  14,C  16)          111.55 -0.000001   -0.01    111.53   
   118. A(H  39,C  15,H  41)          108.33  0.000078   -0.01    108.33   
   119. A(C  14,C  15,H  41)          110.09 -0.000044    0.02    110.11   
   120. A(H  39,C  15,H  40)          108.74  0.000026   -0.02    108.72   
   121. A(C  14,C  15,H  40)          110.99 -0.000022   -0.03    110.97   
   122. A(C  14,C  15,H  39)          110.61 -0.000059    0.02    110.63   
   123. A(H  40,C  15,H  41)          108.00  0.000027    0.01    108.01   
   124. A(C  14,C  16,H  44)          110.71 -0.000081    0.00    110.71   
   125. A(H  42,C  16,H  44)          108.55  0.000017    0.00    108.55   
   126. A(H  42,C  16,H  43)          108.53  0.000019   -0.01    108.52   
   127. A(C  14,C  16,H  43)          110.24  0.000007    0.01    110.25   
   128. A(C  14,C  16,H  42)          110.67 -0.000003    0.01    110.68   
   129. A(H  43,C  16,H  44)          108.06  0.000042   -0.02    108.04   
   130. A(C  14,C  17,H  47)          110.12 -0.000003    0.00    110.12   
   131. A(H  46,C  17,H  47)          108.44  0.000046   -0.01    108.43   
   132. A(H  45,C  17,H  47)          108.46  0.000043   -0.01    108.45   
   133. A(H  45,C  17,H  46)          108.26  0.000039   -0.01    108.25   
   134. A(C  14,C  17,H  46)          110.89 -0.000193    0.05    110.93   
   135. A(C  14,C  17,H  45)          110.59  0.000073   -0.01    110.58   
   136. A(C   3,O  18,Si  9)          120.80 -0.000119    0.19    120.99   
   137. A(C   5,O  19,C  20)          113.23 -0.000111   -0.08    113.15   
   138. A(O  22,C  20,C  24)          115.41 -0.000124    0.04    115.45   
   139. A(H  21,C  20,C  24)          108.07 -0.000107    0.07    108.13   
   140. A(O  19,C  20,C  24)          109.66  0.000042   -0.04    109.62   
   141. A(H  21,C  20,O  22)          104.72  0.000157   -0.01    104.70   
   142. A(O  19,C  20,O  22)          108.95  0.000039    0.01    108.96   
   143. A(O  19,C  20,H  21)          109.86 -0.000003   -0.06    109.79   
   144. A(C  20,O  22,C  23)          116.62 -0.000150   -0.01    116.61   
   145. A(O  22,C  23,H  50)          110.81 -0.000057    0.03    110.83   
   146. A(H  49,C  23,H  50)          110.39  0.000002    0.05    110.44   
   147. A(H  48,C  23,H  50)          109.98  0.000127   -0.06    109.92   
   148. A(H  48,C  23,H  49)          109.55  0.000098   -0.01    109.54   
   149. A(O  22,C  23,H  49)          110.87 -0.000136   -0.04    110.82   
   150. A(O  22,C  23,H  48)          105.12 -0.000031    0.04    105.16   
   151. A(H  25,C  24,O  26)          110.93  0.000104   -0.01    110.92   
   152. A(C  20,C  24,O  26)          108.66  0.000066    0.05    108.71   
   153. A(C   1,C  24,O  26)          111.37 -0.000114   -0.03    111.34   
   154. A(C  20,C  24,H  25)          109.00 -0.000081   -0.00    109.00   
   155. A(C   1,C  24,H  25)          107.77  0.000006    0.01    107.79   
   156. A(C   1,C  24,C  20)          109.06  0.000017   -0.02    109.04   
   157. A(C  24,O  26,H  51)          107.77  0.000387   -0.06    107.71   
   158. D(C  24,C   1,O   0,H  27)    172.62 -0.000012    0.20    172.82   
   159. D(C   3,C   1,O   0,H  27)     51.67 -0.000029    0.25     51.91   
   160. D(H   2,C   1,O   0,H  27)    -68.92  0.000015    0.22    -68.70   
   161. D(C   5,C   3,C   1,H   2)    -64.69  0.000025   -0.12    -64.81   
   162. D(H   4,C   3,C   1,C  24)    -64.23  0.000031   -0.08    -64.31   
   163. D(C   5,C   3,C   1,O   0)    173.73  0.000006   -0.10    173.63   
   164. D(C   5,C   3,C   1,C  24)     54.08 -0.000031   -0.03     54.05   
   165. D(H   4,C   3,C   1,H   2)    177.00  0.000086   -0.18    176.83   
   166. D(H   4,C   3,C   1,O   0)     55.42  0.000067   -0.15     55.27   
   167. D(C   7,C   5,C   3,H   4)    -58.75 -0.000069   -0.05    -58.80   
   168. D(H   6,C   5,C   3,O  18)    -56.18  0.000084   -0.11    -56.29   
   169. D(C   7,C   5,C   3,C   1)   -177.09 -0.000050   -0.07   -177.16   
   170. D(H   6,C   5,C   3,H   4)   -177.50 -0.000013   -0.05   -177.54   
   171. D(C   7,C   5,C   3,O  18)     62.57  0.000029   -0.11     62.46   
   172. D(H   6,C   5,C   3,C   1)     64.16  0.000005   -0.07     64.09   
   173. D(H  28,C   7,C   5,H   6)    -62.37 -0.000044   -0.06    -62.43   
   174. D(H  28,C   7,C   5,O  19)     57.92  0.000047   -0.12     57.80   
   175. D(H  28,C   7,C   5,C   3)    179.53  0.000073   -0.08    179.44   
   176. D(O   8,C   7,C   5,O  19)    177.17  0.000021   -0.07    177.10   
   177. D(O   8,C   7,C   5,H   6)     56.88 -0.000071   -0.01     56.87   
   178. D(O   8,C   7,C   5,C   3)    -61.22  0.000046   -0.04    -61.26   
   179. D(Si  9,O   8,C   7,H  28)    160.14  0.000056   -0.63    159.51   
   180. D(Si  9,O   8,C   7,H  29)    -81.07  0.000134   -0.72    -81.79   
   181. D(Si  9,O   8,C   7,C   5)     39.97  0.000136   -0.65     39.32   
   182. D(O  18,Si  9,O   8,C   7)    -17.72 -0.000209    1.21    -16.51   
   183. D(C  14,Si  9,O   8,C   7)     99.11 -0.000010    0.92    100.03   
   184. D(C  10,Si  9,O   8,C   7)   -131.30  0.000199    0.75   -130.56   
   185. D(C  12,C  10,Si  9,O   8)    -50.75 -0.000124    0.48    -50.27   
   186. D(C  11,C  10,Si  9,O  18)     73.86  0.000031    0.12     73.98   
   187. D(C  11,C  10,Si  9,C  14)    -48.28  0.000070    0.17    -48.11   
   188. D(C  11,C  10,Si  9,O   8)   -171.79 -0.000068    0.45   -171.33   
   189. D(C  12,C  10,Si  9,O  18)   -165.10 -0.000026    0.15   -164.95   
   190. D(C  12,C  10,Si  9,C  14)     72.75  0.000013    0.20     72.95   
   191. D(H  31,C  11,C  10,C  12)   -179.54  0.000019   -0.02   -179.55   
   192. D(H  31,C  11,C  10,Si  9)    -57.63 -0.000009   -0.03    -57.67   
   193. D(H  30,C  11,C  10,C  13)   -176.44 -0.000036   -0.08   -176.52   
   194. D(H  30,C  11,C  10,C  12)    -59.20 -0.000043   -0.01    -59.21   
   195. D(H  31,C  11,C  10,C  13)     63.22  0.000026   -0.09     63.13   
   196. D(H  30,C  11,C  10,Si  9)     62.70 -0.000072   -0.03     62.68   
   197. D(H  34,C  12,C  10,C  13)     55.22 -0.000039   -0.02     55.20   
   198. D(H  34,C  12,C  10,C  11)    -62.22 -0.000023   -0.09    -62.31   
   199. D(H  34,C  12,C  10,Si  9)    175.11  0.000047   -0.07    175.03   
   200. D(H  33,C  12,C  10,C  13)    175.13 -0.000034   -0.02    175.11   
   201. D(H  33,C  12,C  10,C  11)     57.69 -0.000017   -0.09     57.60   
   202. D(H  33,C  12,C  10,Si  9)    -64.98  0.000052   -0.08    -65.05   
   203. D(H  37,C  13,C  10,C  12)     59.90  0.000044   -0.30     59.60   
   204. D(H  37,C  13,C  10,C  11)    177.63  0.000013   -0.22    177.41   
   205. D(H  37,C  13,C  10,Si  9)    -60.37 -0.000018   -0.26    -60.62   
   206. D(H  36,C  13,C  10,C  12)   -179.49  0.000027   -0.28   -179.77   
   207. D(H  36,C  13,C  10,C  11)    -61.76 -0.000004   -0.20    -61.96   
   208. D(H  36,C  13,C  10,Si  9)     60.24 -0.000035   -0.24     60.01   
   209. D(C  16,C  14,Si  9,O  18)   -165.27  0.000204   -0.66   -165.93   
   210. D(C  16,C  14,Si  9,C  10)    -43.61  0.000007   -0.47    -44.08   
   211. D(C  16,C  14,Si  9,O   8)     77.83 -0.000069   -0.55     77.28   
   212. D(C  15,C  14,Si  9,O  18)     75.44  0.000180   -0.62     74.82   
   213. D(C  15,C  14,Si  9,C  10)   -162.90 -0.000016   -0.43   -163.33   
   214. D(C  15,C  14,Si  9,O   8)    -41.46 -0.000092   -0.51    -41.97   
   215. D(H  40,C  15,C  14,C  16)    178.65 -0.000040    0.12    178.77   
   216. D(H  40,C  15,C  14,Si  9)    -59.79  0.000002    0.05    -59.74   
   217. D(H  39,C  15,C  14,C  17)   -177.69  0.000026    0.00   -177.69   
   218. D(H  39,C  15,C  14,C  16)    -60.56 -0.000063    0.09    -60.47   
   219. D(H  40,C  15,C  14,C  17)     61.52  0.000049    0.03     61.55   
   220. D(H  39,C  15,C  14,Si  9)     61.00 -0.000021    0.02     61.03   
   221. D(H  43,C  16,C  14,C  17)     61.61  0.000023    0.15     61.76   
   222. D(H  43,C  16,C  14,C  15)    -55.28 -0.000005    0.12    -55.16   
   223. D(H  43,C  16,C  14,Si  9)   -175.59 -0.000118    0.28   -175.31   
   224. D(H  42,C  16,C  14,C  17)   -178.32  0.000050    0.16   -178.16   
   225. D(H  42,C  16,C  14,C  15)     64.80  0.000022    0.12     64.92   
   226. D(H  42,C  16,C  14,Si  9)    -55.51 -0.000091    0.28    -55.23   
   227. D(H  46,C  17,C  14,C  16)     62.33  0.000010   -0.08     62.26   
   228. D(H  46,C  17,C  14,C  15)    179.02 -0.000043    0.01    179.02   
   229. D(H  46,C  17,C  14,Si  9)    -60.69  0.000115   -0.15    -60.84   
   230. D(H  45,C  17,C  14,C  16)   -177.56 -0.000019   -0.07   -177.63   
   231. D(H  45,C  17,C  14,C  15)    -60.88 -0.000071    0.01    -60.86   
   232. D(H  45,C  17,C  14,Si  9)     59.42  0.000086   -0.14     59.27   
   233. D(C   3,O  18,Si  9,C  14)    -99.72 -0.000035   -0.94   -100.66   
   234. D(C   3,O  18,Si  9,C  10)    130.99 -0.000164   -0.91    130.08   
   235. D(C   3,O  18,Si  9,O   8)     18.32  0.000244   -1.28     17.03   
   236. D(Si  9,O  18,C   3,C   5)    -41.50 -0.000196    0.85    -40.66   
   237. D(Si  9,O  18,C   3,H   4)     79.21 -0.000183    0.87     80.08   
   238. D(Si  9,O  18,C   3,C   1)   -162.06 -0.000119    0.82   -161.23   
   239. D(C  20,O  19,C   5,C   7)   -176.09 -0.000089    0.17   -175.92   
   240. D(C  20,O  19,C   5,H   6)    -56.93 -0.000001    0.10    -56.83   
   241. D(C  20,O  19,C   5,C   3)     62.48  0.000031    0.11     62.59   
   242. D(C  24,C  20,O  19,C   5)    -62.21  0.000045   -0.15    -62.36   
   243. D(O  22,C  20,O  19,C   5)    170.60  0.000146   -0.17    170.42   
   244. D(H  21,C  20,O  19,C   5)     56.42 -0.000061   -0.13     56.29   
   245. D(C  23,O  22,C  20,C  24)    -57.31  0.000011   -0.00    -57.32   
   246. D(C  23,O  22,C  20,H  21)   -175.98  0.000105   -0.10   -176.08   
   247. D(C  23,O  22,C  20,O  19)     66.53  0.000008   -0.02     66.51   
   248. D(H  50,C  23,O  22,C  20)    -46.51  0.000092    0.14    -46.37   
   249. D(H  49,C  23,O  22,C  20)     76.42 -0.000040    0.19     76.61   
   250. D(H  48,C  23,O  22,C  20)   -165.28 -0.000011    0.18   -165.11   
   251. D(H  25,C  24,C  20,O  22)     63.13  0.000006    0.13     63.26   
   252. D(H  25,C  24,C  20,H  21)    179.92  0.000055    0.19    180.11   
   253. D(C   1,C  24,C  20,O  22)   -179.45 -0.000023    0.14   -179.31   
   254. D(C   1,C  24,C  20,H  21)    -62.66  0.000026    0.19    -62.47   
   255. D(C   1,C  24,C  20,O  19)     57.07 -0.000017    0.13     57.20   
   256. D(H  25,C  24,C   1,C   3)     63.71 -0.000045   -0.04     63.67   
   257. D(H  25,C  24,C   1,H   2)   -177.79 -0.000129    0.04   -177.75   
   258. D(H  25,C  24,C   1,O   0)    -58.51 -0.000061   -0.02    -58.52   
   259. D(H  25,C  24,C  20,O  19)    -60.34  0.000012    0.12    -60.22   
   260. D(C  20,C  24,C   1,C   3)    -54.48  0.000039   -0.04    -54.52   
   261. D(C  20,C  24,C   1,H   2)     64.02 -0.000044    0.04     64.06   
   262. D(C  20,C  24,C   1,O   0)   -176.70  0.000023   -0.01   -176.71   
   263. D(H  51,O  26,C  24,H  25)     69.43 -0.000017    0.13     69.56   
   264. D(H  51,O  26,C  24,C  20)   -170.76 -0.000012    0.15   -170.61   
   265. D(H  51,O  26,C  24,C   1)    -50.61 -0.000018    0.13    -50.48   
    ----------------------------------------------------------------------------

Geometry step timings:
Preparation and reading OPT file:      0.001 s ( 4.674 %)
Internal coordinates            :      0.000 s ( 0.134 %)
B/P matrices and projection     :      0.006 s (24.818 %)
Hessian update/contruction      :      0.010 s (39.869 %)
Making the step                 :      0.004 s (15.959 %)
Converting the step to Cartesian:      0.001 s ( 2.105 %)
Storing new data                :      0.001 s ( 4.456 %)
Checking convergence            :      0.000 s ( 0.142 %)
Final printing                  :      0.002 s ( 7.837 %)
Total time                      :      0.024 s

Time for energy+gradient        :      0.087 s
Time for complete geometry iter :      0.124 s

         *************************************************************
         *                GEOMETRY OPTIMIZATION CYCLE   8            *
         *************************************************************
---------------------------------
CARTESIAN COORDINATES (ANGSTROEM)
---------------------------------
  O    -3.664343    2.042793   -0.286163
  C    -2.303816    1.747310   -0.094835
  H    -2.133321    1.405928    0.939804
  C    -1.814450    0.654888   -1.051215
  H    -2.034115    0.965211   -2.083022
  C    -0.299881    0.498341   -0.897829
  H    -0.100698    0.144593    0.126892
  C     0.235822   -0.534200   -1.886459
  O    -0.325710   -1.793428   -1.666009
  Si   -1.909821   -1.994582   -1.268625
  C    -1.911196   -3.159764    0.262253
  C    -3.326993   -3.612530    0.621980
  C    -1.051176   -4.396184   -0.011691
  C    -1.316758   -2.424738    1.470426
  C    -2.905412   -2.505086   -2.850293
  C    -2.430089   -1.664964   -4.045721
  C    -2.690178   -3.980823   -3.197968
  C    -4.407837   -2.261369   -2.663903
  O    -2.495990   -0.532213   -0.763002
  O     0.355083    1.718790   -1.134964
  C    -0.001313    2.733431   -0.206891
  H     0.197157    2.385817    0.821159
  O     0.837999    3.812922   -0.379325
  C     0.724950    4.518546   -1.611681
  C    -1.510062    3.040036   -0.327704
  H    -1.724605    3.386941   -1.350802
  O    -1.845739    4.020227    0.613016
  H    -4.157277    1.212656   -0.253482
  H     1.319441   -0.623521   -1.767382
  H     0.021827   -0.191469   -2.904727
  H    -3.763032   -4.191981   -0.186845
  H    -3.966310   -2.755716    0.815145
  H    -3.308463   -4.237352    1.514163
  H    -1.479679   -4.999023   -0.805779
  H    -0.981433   -5.011278    0.884773
  H    -0.049054   -4.102601   -0.310323
  H    -1.899466   -1.537646    1.706144
  H    -0.290560   -2.126426    1.267911
  H    -1.316275   -3.077363    2.342658
  H    -1.374503   -1.838648   -4.240375
  H    -2.581050   -0.603268   -3.860117
  H    -2.991972   -1.933801   -4.939349
  H    -1.631173   -4.199115   -3.306107
  H    -3.191043   -4.224619   -4.134001
  H    -3.097670   -4.621937   -2.421423
  H    -4.601758   -1.212842   -2.456537
  H    -4.796558   -2.848875   -1.837745
  H    -4.947565   -2.539429   -3.568149
  H     1.619524    5.134495   -1.669827
  H    -0.160786    5.159225   -1.612838
  H     0.695194    3.825786   -2.454187
  H    -2.810955    4.094113    0.629752

----------------------------
CARTESIAN COORDINATES (A.U.)
----------------------------
  NO LB    ZA    FRAG    MASS        X           Y           Z
   0 O   8.0000    1    15.999   -6.924605    3.860320   -0.540770
   1 C   6.0000    1    12.011   -4.353581    3.301936   -0.179213
   2 H   1.0000    1     1.008   -4.031392    2.656819    1.775972
   3 C   6.0000    1    12.011   -3.428814    1.237560   -1.986508
   4 H   1.0000    1     1.008   -3.843921    1.823985   -3.936342
   5 C   6.0000    1    12.011   -0.566693    0.941729   -1.696651
   6 H   1.0000    1     1.008   -0.190292    0.273242    0.239792
   7 C   6.0000    1    12.011    0.445639   -1.009492   -3.564892
   8 O   8.0000    1    15.999   -0.615503   -3.389088   -3.148301
   9 Si 14.0000    1    28.086   -3.609039   -3.769214   -2.397354
  10 C   6.0000    1    12.011   -3.611637   -5.971088    0.495586
  11 C   6.0000    1    12.011   -6.287106   -6.826693    1.175371
  12 C   6.0000    1    12.011   -1.986435   -8.307583   -0.022094
  13 C   6.0000    1    12.011   -2.488313   -4.582090    2.778703
  14 C   6.0000    1    12.011   -5.490434   -4.733926   -5.386274
  15 C   6.0000    1    12.011   -4.592204   -3.146326   -7.645305
  16 C   6.0000    1    12.011   -5.083699   -7.522666   -6.043283
  17 C   6.0000    1    12.011   -8.329605   -4.273369   -5.034047
  18 O   8.0000    1    15.999   -4.716737   -1.005738   -1.441865
  19 O   8.0000    1    15.999    0.671010    3.248042   -2.144771
  20 C   6.0000    1    12.011   -0.002481    5.165437   -0.390967
  21 H   1.0000    1     1.008    0.372572    4.508541    1.551766
  22 O   8.0000    1    15.999    1.583588    7.205378   -0.716821
  23 C   6.0000    1    12.011    1.369957    8.538815   -3.045636
  24 C   6.0000    1    12.011   -2.853604    5.744836   -0.619271
  25 H   1.0000    1     1.008   -3.259032    6.400390   -2.552645
  26 O   8.0000    1    15.999   -3.487941    7.597129    1.158432
  27 H   1.0000    1     1.008   -7.856115    2.291588   -0.479011
  28 H   1.0000    1     1.008    2.493381   -1.178283   -3.339869
  29 H   1.0000    1     1.008    0.041246   -0.361824   -5.489139
  30 H   1.0000    1     1.008   -7.111099   -7.921696   -0.353085
  31 H   1.0000    1     1.008   -7.495240   -5.207548    1.540401
  32 H   1.0000    1     1.008   -6.252089   -8.007435    2.861353
  33 H   1.0000    1     1.008   -2.796189   -9.446785   -1.522701
  34 H   1.0000    1     1.008   -1.854639   -9.469943    1.671978
  35 H   1.0000    1     1.008   -0.092698   -7.752792   -0.586425
  36 H   1.0000    1     1.008   -3.589470   -2.905730    3.224144
  37 H   1.0000    1     1.008   -0.549078   -4.018362    2.396004
  38 H   1.0000    1     1.008   -2.487399   -5.815373    4.426981
  39 H   1.0000    1     1.008   -2.597434   -3.474541   -8.013147
  40 H   1.0000    1     1.008   -4.877477   -1.140012   -7.294565
  41 H   1.0000    1     1.008   -5.654007   -3.654355   -9.334017
  42 H   1.0000    1     1.008   -3.082471   -7.935178   -6.247636
  43 H   1.0000    1     1.008   -6.030198   -7.983373   -7.812131
  44 H   1.0000    1     1.008   -5.853747   -8.734195   -4.575826
  45 H   1.0000    1     1.008   -8.696062   -2.291940   -4.642182
  46 H   1.0000    1     1.008   -9.064181   -5.383593   -3.472834
  47 H   1.0000    1     1.008   -9.349543   -4.798825   -6.742825
  48 H   1.0000    1     1.008    3.060456    9.702789   -3.155517
  49 H   1.0000    1     1.008   -0.303841    9.749523   -3.047823
  50 H   1.0000    1     1.008    1.313726    7.229688   -4.637742
  51 H   1.0000    1     1.008   -5.311936    7.736752    1.190060

      -----------------------------------------------------------      
     |                   =====================                   |     
     |                           x T B                           |     
     |                   =====================                   |     
     |                         S. Grimme                         |     
     |          Mulliken Center for Theoretical Chemistry        |     
     |                    University of Bonn                     |     
      -----------------------------------------------------------      

   * xtb version 6.7.1 (edcfbbe) compiled by 'albert@albert-system' on 2024-07-22

   xtb is free software: you can redistribute it and/or modify it under
   the terms of the GNU Lesser General Public License as published by
   the Free Software Foundation, either version 3 of the License, or
   (at your option) any later version.
   
   xtb is distributed in the hope that it will be useful,
   but WITHOUT ANY WARRANTY; without even the implied warranty of
   MERCHANTABILITY or FITNESS FOR A PARTICULAR PURPOSE.  See the
   GNU Lesser General Public License for more details.
   
   Cite this work as:
   * C. Bannwarth, E. Caldeweyher, S. Ehlert, A. Hansen, P. Pracht,
     J. Seibert, S. Spicher, S. Grimme, WIREs Comput. Mol. Sci., 2020, 11,
     e01493. DOI: 10.1002/wcms.1493
   
   for GFN2-xTB:
   * C. Bannwarth, S. Ehlert and S. Grimme., J. Chem. Theory Comput., 2019,
     15, 1652-1671. DOI: 10.1021/acs.jctc.8b01176
   for GFN1-xTB:
   * S. Grimme, C. Bannwarth, P. Shushkov, J. Chem. Theory Comput., 2017,
     13, 1989-2009. DOI: 10.1021/acs.jctc.7b00118
   for GFN0-xTB:
   * P. Pracht, E. Caldeweyher, S. Ehlert, S. Grimme, ChemRxiv, 2019, preprint.
     DOI: 10.26434/chemrxiv.8326202.v1
   for GFN-FF:
   * S. Spicher and S. Grimme, Angew. Chem. Int. Ed., 2020, 59, 15665-15673.
     DOI: 10.1002/anie.202004239
   
   for ALPB and GBSA implicit solvation:
   * S. Ehlert, M. Stahn, S. Spicher, S. Grimme, J. Chem. Theory Comput.,
     2021, 17, 4250-4261. DOI: 10.1021/acs.jctc.1c00471
   
   for ddCOSMO and CPCM-X implicit solvation:
   * M. Stahn, S. Ehlert, S. Grimme, J. Phys. Chem. A,
     2023, XX, XXXX-XXXX. DOI: 10.1021/acs.jpca.3c04382
   
   for DFT-D4:
   * E. Caldeweyher, C. Bannwarth and S. Grimme, J. Chem. Phys., 2017,
     147, 034112. DOI: 10.1063/1.4993215
   * E. Caldeweyher, S. Ehlert, A. Hansen, H. Neugebauer, S. Spicher,
     C. Bannwarth and S. Grimme, J. Chem. Phys., 2019, 150, 154122.
     DOI: 10.1063/1.5090222
   * E. Caldeweyher, J.-M. Mewes, S. Ehlert and S. Grimme, Phys. Chem. Chem. Phys.
     2020, 22, 8499-8512. DOI: 10.1039/D0CP00502A
   
   for sTDA-xTB:
   * S. Grimme and C. Bannwarth, J. Chem. Phys., 2016, 145, 054103.
     DOI: 10.1063/1.4959605
   
   in the mass-spec context:
   * V. Asgeirsson, C. Bauer and S. Grimme, Chem. Sci., 2017, 8, 4879.
     DOI: 10.1039/c7sc00601b
   * J. Koopman and S. Grimme, ACS Omega 2019, 4, 12, 15120-15133.
     DOI: 10.1021/acsomega.9b02011
   
   for metadynamics refer to:
   * S. Grimme, J. Chem. Theory Comput., 2019, 155, 2847-2862
     DOI: 10.1021/acs.jctc.9b00143
   
   for SPH calculations refer to:
   * S. Spicher and S. Grimme, J. Chem. Theory Comput., 2021, 17, 1701-1714
     DOI: 10.1021/acs.jctc.0c01306
   
   for ONIOM refer to:
   * C. Plett, A. Katbashev, S. Ehlert, S. Grimme, M. Bursch,
     Phys. Chem. Chem. Phys., 2023, 25, 17860-17868. DOI: 10.1039/D3CP02178E
   
   for DIPRO refer to:
   * J. Kohn, N. Gildemeister, S. Grimme, D. Fazzi, A. Hansen,
     J. Chem. Phys., 2023, just accepted.
   
   for PTB refer to:
   * S. Grimme, M. Mueller, A. Hansen, J. Chem. Phys., 2023, 158, 124111.
     DOI: 10.1063/5.0137838
   
   with help from (in alphabetical order)
   P. Atkinson, C. Bannwarth, F. Bohle, G. Brandenburg, E. Caldeweyher
   M. Checinski, S. Dohm, S. Ehlert, S. Ehrlich, I. Gerasimov, C. Hölzer
   A. Katbashev, J. Kohn, J. Koopman, C. Lavigne, S. Lehtola, F. März, M. Müller,
   F. Musil, H. Neugebauer, J. Pisarek, C. Plett, P. Pracht, F. Pultar,
   J. Seibert, P. Shushkov, S. Spicher, M. Stahn, M. Steiner, T. Strunk,
   J. Stückrath, T. Rose, and J. Unsleber
   
 * started run on 2025/09/10 at 11:31:44.316     
   ID    Z sym.   atoms
    1    8 O      1, 9, 19, 20, 23, 27
    2    6 C      2, 4, 6, 8, 11-18, 21, 24, 25
    3    1 H      3, 5, 7, 22, 26, 28-52
    4   14 Si     10

           -------------------------------------------------
          |                Calculation Setup                |
           -------------------------------------------------

          program call               : /home/kmoult/orca_6_1/otool_xtb goat_0_XTB.xyz --grad -c 0 -u 0 -P 4 --namespace goat_0 --input goat_0_XTB.input.tmp --alpb ACETONE --acc 0.200000
          hostname                   : node3306
          calculation namespace      : goat_0
          coordinate file            : goat_0_XTB.xyz
          omp threads                :                     4


           -------------------------------------------------
          |                 G F N 2 - x T B                 |
           -------------------------------------------------

        Reference                      10.1021/acs.jctc.8b01176
      * Hamiltonian:
        H0-scaling (s, p, d)           1.850000    2.230000    2.230000
        zeta-weighting                 0.500000
      * Dispersion:
        s8                             2.700000
        a1                             0.520000
        a2                             5.000000
        s9                             5.000000
      * Repulsion:
        kExp                           1.500000    1.000000
        rExp                           1.000000
      * Coulomb:
        alpha                          2.000000
        third order                    shell-resolved
        anisotropic                    true
        a3                             3.000000
        a5                             4.000000
        cn-shift                       1.200000
        cn-exp                         4.000000
        max-rad                        5.000000

      * Solvation model:               ALPB
        Solvent                        ACETONE
        Parameter file                 internal GFN2-xTB/ALPB
        Dielectric constant                2.0700E+01
        Reference state                gsolv [1 M gas/solution]
        Free energy shift                  5.9241E-03 Eh       3.7175E+00 kcal/mol
        Temperature                        2.9815E+02 K
        Density                            7.9000E-01 kg/L
        Solvent mass                       5.8080E+01 g/mol
        Interaction kernel             P16
        Born radius scaling (c1)           1.8274E+00
        Born radii integrator          GBOBC
        Born offset                        0.0000E+00 a0       0.0000E+00 AA
        H-bond correction              true
        Ion screening                  false
        Surface tension                    1.0000E-05 Eh       1.5569E+01 dyn/cm
        Grid points                               230 per atom
q/qsh data taken from xtbrestart
CAMM data taken from xtbrestart

          ...................................................
          :                      SETUP                      :
          :.................................................:
          :  # basis functions                 124          :
          :  # atomic orbitals                 123          :
          :  # shells                           75          :
          :  # electrons                       130          :
          :  max. iterations                   250          :
          :  Hamiltonian                  GFN2-xTB          :
          :  restarted?                       true          :
          :  GBSA solvation                   true          :
          :  PC potential                    false          :
          :  electronic temp.          300.0000000     K    :
          :  accuracy                    0.2000000          :
          :  -> integral cutoff          0.3198970E+02      :
          :  -> integral neglect         0.2000000E-08      :
          :  -> SCF convergence          0.2000000E-06 Eh   :
          :  -> wf. convergence          0.2000000E-04 e    :
          :  Broyden damping             0.4000000          :
          :  net charge                          0          :
          :  unpaired electrons                  0          :
          ...................................................

 iter      E             dE          RMSdq      gap      omega  full diag
   1    -74.4401865 -0.744402E+02  0.309E-02    5.50       0.0  T
   2    -74.4401868 -0.247570E-06  0.204E-02    5.50       1.0  T
   3    -74.4401868 -0.452496E-07  0.521E-03    5.50       2.7  T
   4    -74.4401869 -0.255001E-07  0.389E-03    5.50       3.6  T
   5    -74.4401869 -0.443980E-07  0.760E-04    5.50      18.2  T
   6    -74.4401869 -0.249375E-07  0.485E-04    5.50      28.6  T
   7    -74.4401869 -0.283164E-08  0.217E-04    5.50      64.0  T
   8    -74.4401869 -0.739675E-10  0.105E-04    5.50     132.7  T
   9    -74.4401869 -0.411973E-10  0.591E-05    5.50     234.8  T

   *** convergence criteria satisfied after 9 iterations ***

         #    Occupation            Energy/Eh            Energy/eV
      -------------------------------------------------------------
         1        2.0000           -0.8173942             -22.2424
       ...           ...                  ...                  ...
        59        2.0000           -0.4256970             -11.5838
        60        2.0000           -0.4240681             -11.5395
        61        2.0000           -0.4230334             -11.5113
        62        2.0000           -0.4179570             -11.3732
        63        2.0000           -0.4141402             -11.2693
        64        2.0000           -0.4059487             -11.0464
        65        2.0000           -0.3718580             -10.1188 (HOMO)
        66                         -0.1696602              -4.6167 (LUMO)
        67                         -0.1438824              -3.9152
        68                         -0.0909929              -2.4760
        69                         -0.0480623              -1.3078
        70                         -0.0047369              -0.1289
       ...                                ...                  ...
       123                          0.7857521              21.3814
      -------------------------------------------------------------
                  HL-Gap            0.2021978 Eh            5.5021 eV
             Fermi-level           -0.2707591 Eh           -7.3677 eV

 SCC (total)                   0 d,  0 h,  0 min,  0.040 sec
 SCC setup                      ...        0 min,  0.001 sec (  1.521%)
 Dispersion                     ...        0 min,  0.000 sec (  0.896%)
 classical contributions        ...        0 min,  0.000 sec (  0.101%)
 integral evaluation            ...        0 min,  0.017 sec ( 41.897%)
 iterations                     ...        0 min,  0.014 sec ( 34.980%)
 molecular gradient             ...        0 min,  0.008 sec ( 20.237%)
 printout                       ...        0 min,  0.000 sec (  0.339%)

         :::::::::::::::::::::::::::::::::::::::::::::::::::::
         ::                     SUMMARY                     ::
         :::::::::::::::::::::::::::::::::::::::::::::::::::::
         :: total energy             -73.690519894628 Eh    ::
         :: total w/o Gsasa/hb       -73.661644300694 Eh    ::
         :: gradient norm              0.002015127776 Eh/a0 ::
         :: HOMO-LUMO gap              5.502082437204 eV    ::
         ::.................................................::
         :: SCC energy               -74.438822784580 Eh    ::
         :: -> isotropic ES            0.157167372422 Eh    ::
         :: -> anisotropic ES          0.003114142392 Eh    ::
         :: -> anisotropic XC          0.005404555123 Eh    ::
         :: -> dispersion             -0.053490822847 Eh    ::
         :: -> Gsolv                  -0.031844944922 Eh    ::
         ::    -> Gelec               -0.002969350988 Eh    ::
         ::    -> Gsasa               -0.028883831650 Eh    ::
         ::    -> Ghb                 -0.005915903548 Eh    ::
         ::    -> Gshift               0.005924141264 Eh    ::
         :: repulsion energy           0.748302889952 Eh    ::
         :: add. restraining           0.000000000000 Eh    ::
         :: total charge              -0.000000000000 e     ::
         :::::::::::::::::::::::::::::::::::::::::::::::::::::


Property printout bound to 'properties.out'

           -------------------------------------------------
          | TOTAL ENERGY              -73.690519894628 Eh   |
          | GRADIENT NORM               0.002015127776 Eh/α |
          | HOMO-LUMO GAP               5.502082437204 eV   |
           -------------------------------------------------

------------------------------------------------------------------------
 * finished run on 2025/09/10 at 11:31:44.378     
------------------------------------------------------------------------
 total:
 * wall-time:     0 d,  0 h,  0 min,  0.062 sec
 *  cpu-time:     0 d,  0 h,  0 min,  0.214 sec
 * ratio c/w:     3.478 speedup
 SCF:
 * wall-time:     0 d,  0 h,  0 min,  0.040 sec
 *  cpu-time:     0 d,  0 h,  0 min,  0.147 sec
 * ratio c/w:     3.701 speedup


-------------------------   --------------------
FINAL SINGLE POINT ENERGY       -73.690519894630
-------------------------   --------------------


-------------
DIPOLE MOMENT
-------------
                                X             Y             Z
Total Dipole Moment    :     -0.96800      -0.76500      -0.67600
                        -----------------------------------------
Magnitude (a.u.)       :      1.40685
Magnitude (Debye)      :      3.57593


------------------
CARTESIAN GRADIENT
------------------

   1   O   :    0.000302313   -0.000303943    0.000045791
   2   C   :   -0.000209351    0.000224371    0.000053121
   3   H   :    0.000020336   -0.000084403    0.000010026
   4   C   :   -0.000298465   -0.000102307   -0.000271952
   5   H   :    0.000118387   -0.000015184    0.000015761
   6   C   :    0.000301495    0.000482990    0.000313175
   7   H   :   -0.000052846   -0.000022520   -0.000043131
   8   C   :   -0.000222803   -0.000213513   -0.000113711
   9   O   :   -0.000281859   -0.000093127    0.000306154
  10   Si  :    0.000370635    0.000393165   -0.000687487
  11   C   :    0.000321883   -0.000157598    0.000712010
  12   C   :   -0.000061446   -0.000127643    0.000034627
  13   C   :   -0.000015074   -0.000104522   -0.000106251
  14   C   :    0.000017340   -0.000003703   -0.000091550
  15   C   :    0.000007851    0.000185323   -0.000297385
  16   C   :   -0.000035993   -0.000156682   -0.000054552
  17   C   :    0.000000628   -0.000087364   -0.000004916
  18   C   :   -0.000133164   -0.000025295   -0.000019798
  19   O   :    0.000035307   -0.000117087    0.000331176
  20   O   :    0.000072537   -0.000211722   -0.000058812
  21   C   :    0.000098503   -0.000169329    0.000121902
  22   H   :   -0.000107621   -0.000098694   -0.000155957
  23   O   :   -0.000023743    0.000101102    0.000128956
  24   C   :    0.000101057    0.000130998   -0.000301269
  25   C   :   -0.000195715    0.000467029    0.000170714
  26   H   :    0.000131476   -0.000117381   -0.000070826
  27   O   :   -0.000112983   -0.000435774   -0.000295592
  28   H   :   -0.000141306    0.000125907    0.000015246
  29   H   :    0.000012831    0.000027237   -0.000015985
  30   H   :    0.000033803    0.000034713    0.000022322
  31   H   :   -0.000007679    0.000107642   -0.000048067
  32   H   :    0.000019802    0.000008961   -0.000022019
  33   H   :    0.000011931    0.000042930   -0.000019577
  34   H   :   -0.000017627    0.000064363    0.000049457
  35   H   :    0.000002595    0.000045695    0.000000370
  36   H   :   -0.000008013    0.000028924    0.000020384
  37   H   :   -0.000009638    0.000022039   -0.000048471
  38   H   :   -0.000040771    0.000000110   -0.000048989
  39   H   :   -0.000063489   -0.000035841   -0.000052244
  40   H   :    0.000011418    0.000030637    0.000068735
  41   H   :    0.000009615   -0.000003043    0.000046642
  42   H   :   -0.000015734   -0.000008790    0.000050603
  43   H   :   -0.000011176    0.000000476   -0.000007415
  44   H   :   -0.000025342   -0.000014112    0.000037053
  45   H   :   -0.000026409    0.000052360   -0.000002756
  46   H   :   -0.000026945   -0.000022340   -0.000000811
  47   H   :    0.000100311    0.000027729    0.000036946
  48   H   :    0.000031321    0.000022479    0.000012009
  49   H   :   -0.000026128   -0.000043573   -0.000024164
  50   H   :   -0.000019764   -0.000039776    0.000130347
  51   H   :   -0.000014656   -0.000017932    0.000007270
  52   H   :    0.000072366    0.000206015    0.000122894

Difference to translation invariance:
           :    0.0000000000   -0.0000000000   -0.0000000000

Difference to rotation invariance:
           :   -0.0011286431    0.0004900601   -0.0002136802

Norm of the Cartesian gradient     ...    0.0020151278
RMS gradient                       ...    0.0001613393
MAX gradient                       ...    0.0007120103
------------------------------------------------------------------------------
                         ORCA GEOMETRY RELAXATION STEP
------------------------------------------------------------------------------

Reading the OPT-File                    .... done
Getting information on internals        .... done
Copying old internal coords+grads       .... done
Making the new internal coordinates     .... (2022 redundants) done
Validating the new internal coordinates .... (2022 redundants) done
Calculating the B-matrix                .... done
Calculating the G,G- and P matrices     .... done
Transforming gradient to internals      .... done
Projecting the internal gradient        .... done
Number of atoms                         ....  52
Number of internal coordinates          .... 265
Current Energy                          ....   -73.690519895 Eh
Current gradient norm                   ....     0.002015128 Eh/bohr
Maximum allowed component of the step   ....  0.300
Current trust radius                    ....  0.450
Updating the Hessian (BFGS)             .... done
Forming the augmented Hessian           .... done
Diagonalizing the augmented Hessian     .... done
Last element of RFO vector              ....  0.998507602
Lowest eigenvalues of augmented Hessian:
 -0.000018881  0.003042590  0.009594538  0.010002266  0.010057531
Length of the computed step             ....  0.054694519
The final length of the internal step   ....  0.054694519
Converting the step to Cartesian space:
 Initial RMS(Int)=    0.0033598576
Transforming coordinates:
 Iter   0:  RMS(Cart)=    0.0153688376 RMS(Int)=    0.0033604280
done
Storing new coordinates                 .... done
The predicted energy change is          ....    -0.000009469
Previously predicted energy change      ....    -0.000015925
Actually observed energy change         ....    -0.000021969
Ratio of predicted to observed change   ....     1.379547952
New trust radius                        ....     0.450000000

                                .--------------------.
          ----------------------|Geometry convergence|-------------------------
          Item                value                   Tolerance       Converged
          ---------------------------------------------------------------------
          Energy change      -0.0000219695            0.0000050000      NO
          RMS gradient        0.0000796315            0.0001000000      YES
          MAX gradient        0.0004320631            0.0003000000      NO
          RMS step            0.0033598576            0.0020000000      NO
          MAX step            0.0176112945            0.0040000000      NO
          -------------------------------------------------------------------------
          ........................................................
          Max(Bonds)      0.0040      Max(Angles)    0.23
          Max(Dihed)        1.01      Max(Improp)    0.00
          ---------------------------------------------------------------------

    ---------------------------------------------------------------------------
                         Redundant Internal Coordinates
                            (Angstroem and degrees)

        Definition                    Value    dE/dq     Step     New-Value
    ----------------------------------------------------------------------------
     1. B(C   1,O   0)                1.4053 -0.000272  0.0004    1.4058   
     2. B(H   2,C   1)                1.1028  0.000041 -0.0002    1.1026   
     3. B(C   3,C   1)                1.5322 -0.000046 -0.0000    1.5321   
     4. B(H   4,C   3)                1.0996 -0.000044  0.0000    1.0997   
     5. B(C   5,C   3)                1.5303  0.000115 -0.0006    1.5298   
     6. B(H   6,C   5)                1.1022 -0.000041  0.0001    1.1023   
     7. B(C   7,C   5)                1.5266  0.000084 -0.0005    1.5261   
     8. B(O   8,C   7)                1.3963 -0.000077 -0.0001    1.3961   
     9. B(Si  9,O   8)                1.6455 -0.000432  0.0004    1.6459   
    10. B(C  10,Si  9)                1.9239  0.000354 -0.0006    1.9233   
    11. B(C  11,C  10)                1.5293  0.000012 -0.0003    1.5290   
    12. B(C  12,C  10)                1.5308 -0.000038 -0.0002    1.5306   
    13. B(C  13,C  10)                1.5340 -0.000246  0.0002    1.5343   
    14. B(C  14,Si  9)                1.9374  0.000179 -0.0000    1.9374   
    15. B(C  15,C  14)                1.5365 -0.000160  0.0001    1.5366   
    16. B(C  16,C  14)                1.5313  0.000031 -0.0004    1.5309   
    17. B(C  17,C  14)                1.5334  0.000026 -0.0004    1.5331   
    18. B(O  18,Si  9)                1.6546 -0.000032 -0.0001    1.6545   
    19. B(O  18,C   3)                1.3988 -0.000063  0.0000    1.3989   
    20. B(O  19,C   5)                1.4052 -0.000228  0.0002    1.4054   
    21. B(C  20,O  19)                1.4205 -0.000012  0.0001    1.4206   
    22. B(H  21,C  20)                1.1032 -0.000130  0.0002    1.1035   
    23. B(O  22,C  20)                1.3782  0.000118 -0.0003    1.3779   
    24. B(C  23,O  22)                1.4246  0.000156 -0.0003    1.4243   
    25. B(C  24,C  20)                1.5443  0.000119 -0.0005    1.5438   
    26. B(C  24,C   1)                1.5347 -0.000024 -0.0001    1.5347   
    27. B(H  25,C  24)                1.1014  0.000000 -0.0000    1.1014   
    28. B(O  26,C  24)                1.3994 -0.000319  0.0004    1.3998   
    29. B(H  27,O   0)                0.9660 -0.000015 -0.0000    0.9660   
    30. B(H  27,O  18)                2.4625  0.000073  0.0005    2.4631   
    31. B(H  28,C   7)                1.0938  0.000009  0.0001    1.0939   
    32. B(H  29,C   7)                1.0955 -0.000017  0.0001    1.0956   
    33. B(H  30,C  11)                1.0863 -0.000015 -0.0000    1.0863   
    34. B(H  31,C  11)                1.0864 -0.000010 -0.0000    1.0864   
    35. B(H  32,C  11)                1.0894 -0.000042  0.0001    1.0895   
    36. B(H  33,C  12)                1.0852 -0.000062  0.0001    1.0852   
    37. B(H  34,C  12)                1.0894 -0.000027  0.0001    1.0895   
    38. B(H  35,C  12)                1.0861 -0.000004 -0.0000    1.0861   
    39. B(H  36,C  13)                1.0872  0.000011 -0.0000    1.0872   
    40. B(H  37,C  13)                1.0877 -0.000031  0.0001    1.0877   
    41. B(H  38,C  13)                1.0894 -0.000020  0.0001    1.0894   
    42. B(H  39,C  15)                1.0873 -0.000005 -0.0000    1.0873   
    43. B(H  40,C  15)                1.0883  0.000006 -0.0000    1.0883   
    44. B(H  41,C  15)                1.0893 -0.000032  0.0000    1.0893   
    45. B(H  42,C  16)                1.0867 -0.000008 -0.0000    1.0866   
    46. B(H  43,C  16)                1.0892 -0.000015  0.0000    1.0893   
    47. B(H  44,C  16)                1.0863 -0.000027  0.0000    1.0864   
    48. B(H  45,C  17)                1.0863 -0.000017 -0.0000    1.0863   
    49. B(H  46,C  17)                1.0857 -0.000026 -0.0000    1.0857   
    50. B(H  47,C  17)                1.0892 -0.000030  0.0001    1.0892   
    51. B(H  48,C  23)                1.0877 -0.000045  0.0001    1.0878   
    52. B(H  49,C  23)                1.0932 -0.000006  0.0000    1.0932   
    53. B(H  50,C  23)                1.0912  0.000001 -0.0000    1.0911   
    54. B(H  51,O   0)                2.4031  0.000072 -0.0040    2.3991   
    55. B(H  51,O  26)                0.9682 -0.000032  0.0000    0.9682   
    56. A(C   1,O   0,H  27)          107.98  0.000212   -0.05    107.93   
    57. A(O   0,C   1,C   3)          111.97  0.000008   -0.00    111.97   
    58. A(C   3,C   1,C  24)          109.92 -0.000045    0.03    109.94   
    59. A(O   0,C   1,H   2)          110.03 -0.000017   -0.04    109.99   
    60. A(H   2,C   1,C   3)          108.39 -0.000027    0.04    108.43   
    61. A(O   0,C   1,C  24)          107.63  0.000036   -0.05    107.58   
    62. A(H   2,C   1,C  24)          108.85  0.000047    0.02    108.88   
    63. A(C   1,C   3,C   5)          109.05 -0.000054   -0.00    109.05   
    64. A(C   1,C   3,H   4)          108.70  0.000053   -0.02    108.68   
    65. A(C   5,C   3,O  18)          112.01  0.000007    0.04    112.05   
    66. A(H   4,C   3,C   5)          108.70 -0.000013    0.05    108.75   
    67. A(C   1,C   3,O  18)          108.71 -0.000028    0.01    108.73   
    68. A(H   4,C   3,O  18)          109.60  0.000036   -0.08    109.52   
    69. A(C   7,C   5,O  19)          108.34 -0.000065    0.02    108.36   
    70. A(H   6,C   5,O  19)          110.57  0.000064   -0.05    110.53   
    71. A(C   3,C   5,C   7)          110.58 -0.000144    0.06    110.64   
    72. A(H   6,C   5,C   7)          108.76  0.000039   -0.03    108.73   
    73. A(C   3,C   5,O  19)          110.83  0.000108   -0.03    110.80   
    74. A(C   3,C   5,H   6)          107.75 -0.000002    0.02    107.77   
    75. A(O   8,C   7,H  29)          110.51  0.000068   -0.07    110.44   
    76. A(O   8,C   7,H  28)          107.91  0.000003    0.01    107.93   
    77. A(C   5,C   7,H  28)          109.41 -0.000070   -0.00    109.41   
    78. A(H  28,C   7,H  29)          108.68 -0.000052   -0.01    108.67   
    79. A(C   5,C   7,O   8)          111.51  0.000077    0.01    111.51   
    80. A(C   5,C   7,H  29)          108.77 -0.000030    0.06    108.83   
    81. A(C   7,O   8,Si  9)          122.38 -0.000036    0.06    122.44   
    82. A(O   8,Si  9,C  10)          105.48 -0.000189    0.14    105.62   
    83. A(O   8,Si  9,O  18)          107.87  0.000128    0.06    107.93   
    84. A(O   8,Si  9,C  14)          109.25  0.000094   -0.21    109.05   
    85. A(C  10,Si  9,C  14)          119.32  0.000142   -0.10    119.22   
    86. A(C  10,Si  9,O  18)          106.97 -0.000122    0.23    107.20   
    87. A(C  14,Si  9,O  18)          107.48 -0.000049   -0.11    107.37   
    88. A(C  11,C  10,C  12)          108.85  0.000024    0.02    108.86   
    89. A(Si  9,C  10,C  12)          110.27  0.000004   -0.01    110.26   
    90. A(Si  9,C  10,C  11)          111.54 -0.000083    0.03    111.57   
    91. A(C  12,C  10,C  13)          108.07  0.000032   -0.01    108.06   
    92. A(C  11,C  10,C  13)          108.38  0.000046   -0.01    108.37   
    93. A(Si  9,C  10,C  13)          109.65 -0.000017   -0.02    109.63   
    94. A(H  30,C  11,H  31)          108.47 -0.000005    0.02    108.49   
    95. A(C  10,C  11,H  31)          110.68 -0.000042    0.02    110.70   
    96. A(C  10,C  11,H  30)          110.76 -0.000041    0.02    110.77   
    97. A(H  31,C  11,H  32)          108.47  0.000018   -0.03    108.44   
    98. A(C  10,C  11,H  32)          110.29  0.000012   -0.01    110.27   
    99. A(H  30,C  11,H  32)          108.10  0.000061   -0.02    108.08   
   100. A(H  34,C  12,H  35)          108.65  0.000015   -0.02    108.64   
   101. A(H  33,C  12,H  35)          108.26  0.000051   -0.02    108.24   
   102. A(C  10,C  12,H  35)          110.44 -0.000029    0.03    110.47   
   103. A(H  33,C  12,H  34)          108.29  0.000044   -0.01    108.27   
   104. A(C  10,C  12,H  34)          110.17 -0.000023    0.00    110.17   
   105. A(C  10,C  12,H  33)          110.97 -0.000054    0.01    110.98   
   106. A(H  37,C  13,H  38)          108.24  0.000115   -0.05    108.19   
   107. A(C  10,C  13,H  37)          110.51 -0.000026    0.01    110.52   
   108. A(C  10,C  13,H  38)          110.10 -0.000096    0.03    110.13   
   109. A(H  36,C  13,H  38)          108.39  0.000036   -0.02    108.37   
   110. A(H  36,C  13,H  37)          108.80  0.000027   -0.01    108.79   
   111. A(C  10,C  13,H  36)          110.73 -0.000050    0.03    110.77   
   112. A(C  16,C  14,C  17)          108.57 -0.000056    0.06    108.63   
   113. A(C  15,C  14,C  17)          108.11  0.000060   -0.03    108.07   
   114. A(C  15,C  14,C  16)          107.87  0.000008    0.02    107.88   
   115. A(Si  9,C  14,C  17)          111.25 -0.000037    0.06    111.31   
   116. A(Si  9,C  14,C  15)          109.40  0.000021   -0.11    109.29   
   117. A(Si  9,C  14,C  16)          111.53  0.000007   -0.00    111.53   
   118. A(H  39,C  15,H  41)          108.33  0.000069   -0.03    108.30   
   119. A(C  14,C  15,H  41)          110.11 -0.000024    0.01    110.12   
   120. A(H  39,C  15,H  40)          108.72  0.000009    0.00    108.73   
   121. A(C  14,C  15,H  40)          110.97 -0.000057   -0.00    110.96   
   122. A(C  14,C  15,H  39)          110.63 -0.000023    0.02    110.64   
   123. A(H  40,C  15,H  41)          108.01  0.000030   -0.01    108.00   
   124. A(C  14,C  16,H  44)          110.72 -0.000076    0.02    110.74   
   125. A(H  42,C  16,H  44)          108.55  0.000048   -0.01    108.54   
   126. A(H  42,C  16,H  43)          108.52  0.000002   -0.01    108.51   
   127. A(C  14,C  16,H  43)          110.25  0.000008    0.01    110.26   
   128. A(C  14,C  16,H  42)          110.68  0.000030   -0.00    110.68   
   129. A(H  43,C  16,H  44)          108.04 -0.000011   -0.00    108.04   
   130. A(C  14,C  17,H  47)          110.12 -0.000004    0.00    110.12   
   131. A(H  46,C  17,H  47)          108.43  0.000060   -0.03    108.40   
   132. A(H  45,C  17,H  47)          108.45  0.000005   -0.01    108.44   
   133. A(H  45,C  17,H  46)          108.25  0.000014   -0.00    108.25   
   134. A(C  14,C  17,H  46)          110.93 -0.000141    0.06    110.99   
   135. A(C  14,C  17,H  45)          110.58  0.000070   -0.02    110.56   
   136. A(C   3,O  18,Si  9)          120.96 -0.000100    0.14    121.10   
   137. A(C   5,O  19,C  20)          113.15 -0.000178   -0.01    113.14   
   138. A(O  22,C  20,C  24)          115.45 -0.000097    0.03    115.48   
   139. A(H  21,C  20,C  24)          108.13 -0.000035    0.05    108.18   
   140. A(O  19,C  20,C  24)          109.62  0.000090   -0.03    109.59   
   141. A(H  21,C  20,O  22)          104.70  0.000123   -0.05    104.66   
   142. A(O  19,C  20,O  22)          108.96 -0.000017   -0.00    108.96   
   143. A(O  19,C  20,H  21)          109.79 -0.000067   -0.01    109.78   
   144. A(C  20,O  22,C  23)          116.61 -0.000114    0.01    116.61   
   145. A(O  22,C  23,H  50)          110.83  0.000009    0.01    110.84   
   146. A(H  49,C  23,H  50)          110.44  0.000075    0.01    110.45   
   147. A(H  48,C  23,H  50)          109.92  0.000019   -0.04    109.87   
   148. A(H  48,C  23,H  49)          109.54  0.000065   -0.02    109.52   
   149. A(O  22,C  23,H  49)          110.83 -0.000226    0.03    110.85   
   150. A(O  22,C  23,H  48)          105.16  0.000058    0.01    105.17   
   151. A(H  25,C  24,O  26)          110.92  0.000091   -0.05    110.87   
   152. A(C  20,C  24,O  26)          108.71  0.000058    0.03    108.74   
   153. A(C   1,C  24,O  26)          111.34 -0.000105   -0.04    111.30   
   154. A(C  20,C  24,H  25)          109.00 -0.000078    0.03    109.03   
   155. A(C   1,C  24,H  25)          107.79  0.000057    0.00    107.79   
   156. A(C   1,C  24,C  20)          109.04 -0.000027    0.02    109.06   
   157. A(C  24,O  26,H  51)          107.71  0.000318   -0.12    107.59   
   158. D(C  24,C   1,O   0,H  27)    172.82 -0.000021    0.06    172.88   
   159. D(C   3,C   1,O   0,H  27)     51.91  0.000007    0.06     51.97   
   160. D(H   2,C   1,O   0,H  27)    -68.70  0.000048    0.04    -68.66   
   161. D(C   5,C   3,C   1,H   2)    -64.81 -0.000008   -0.11    -64.92   
   162. D(H   4,C   3,C   1,C  24)    -64.31  0.000023   -0.09    -64.40   
   163. D(C   5,C   3,C   1,O   0)    173.63  0.000027   -0.09    173.54   
   164. D(C   5,C   3,C   1,C  24)     54.05  0.000007   -0.04     54.01   
   165. D(H   4,C   3,C   1,H   2)    176.83  0.000008   -0.16    176.67   
   166. D(H   4,C   3,C   1,O   0)     55.27  0.000042   -0.14     55.13   
   167. D(C   7,C   5,C   3,H   4)    -58.80 -0.000041   -0.06    -58.86   
   168. D(H   6,C   5,C   3,O  18)    -56.29  0.000036   -0.11    -56.40   
   169. D(C   7,C   5,C   3,C   1)   -177.16 -0.000067   -0.06   -177.23   
   170. D(H   6,C   5,C   3,H   4)   -177.54 -0.000005   -0.07   -177.61   
   171. D(C   7,C   5,C   3,O  18)     62.46 -0.000000   -0.10     62.36   
   172. D(H   6,C   5,C   3,C   1)     64.09 -0.000031   -0.07     64.02   
   173. D(H  28,C   7,C   5,H   6)    -62.43 -0.000042   -0.03    -62.46   
   174. D(H  28,C   7,C   5,O  19)     57.80  0.000019   -0.09     57.71   
   175. D(H  28,C   7,C   5,C   3)    179.44  0.000021   -0.07    179.37   
   176. D(O   8,C   7,C   5,O  19)    177.11  0.000026   -0.07    177.03   
   177. D(O   8,C   7,C   5,H   6)     56.87 -0.000035   -0.01     56.86   
   178. D(O   8,C   7,C   5,C   3)    -61.26  0.000027   -0.05    -61.31   
   179. D(Si  9,O   8,C   7,H  28)    159.51  0.000031   -0.43    159.07   
   180. D(Si  9,O   8,C   7,H  29)    -81.79  0.000008   -0.47    -82.26   
   181. D(Si  9,O   8,C   7,C   5)     39.32  0.000069   -0.44     38.88   
   182. D(O  18,Si  9,O   8,C   7)    -16.51 -0.000083    0.88    -15.63   
   183. D(C  14,Si  9,O   8,C   7)    100.03 -0.000020    0.68    100.70   
   184. D(C  10,Si  9,O   8,C   7)   -130.56  0.000089    0.52   -130.04   
   185. D(C  12,C  10,Si  9,O   8)    -50.28 -0.000048    0.48    -49.80   
   186. D(C  11,C  10,Si  9,O  18)     73.99 -0.000028    0.20     74.19   
   187. D(C  11,C  10,Si  9,C  14)    -48.11  0.000041    0.22    -47.89   
   188. D(C  11,C  10,Si  9,O   8)   -171.34 -0.000024    0.44   -170.90   
   189. D(C  12,C  10,Si  9,O  18)   -164.94 -0.000051    0.24   -164.71   
   190. D(C  12,C  10,Si  9,C  14)     72.95  0.000017    0.26     73.21   
   191. D(H  31,C  11,C  10,C  12)   -179.55  0.000043    0.10   -179.45   
   192. D(H  31,C  11,C  10,Si  9)    -57.67  0.000010    0.12    -57.54   
   193. D(H  30,C  11,C  10,C  13)   -176.52 -0.000095    0.16   -176.36   
   194. D(H  30,C  11,C  10,C  12)    -59.21 -0.000018    0.15    -59.06   
   195. D(H  31,C  11,C  10,C  13)     63.13 -0.000034    0.11     63.25   
   196. D(H  30,C  11,C  10,Si  9)     62.68 -0.000051    0.17     62.85   
   197. D(H  34,C  12,C  10,C  13)     55.20  0.000021    0.01     55.21   
   198. D(H  34,C  12,C  10,C  11)    -62.31 -0.000064    0.02    -62.28   
   199. D(H  34,C  12,C  10,Si  9)    175.03  0.000021   -0.02    175.01   
   200. D(H  33,C  12,C  10,C  13)    175.11  0.000026    0.00    175.11   
   201. D(H  33,C  12,C  10,C  11)     57.60 -0.000059    0.02     57.62   
   202. D(H  33,C  12,C  10,Si  9)    -65.05  0.000026   -0.03    -65.08   
   203. D(H  37,C  13,C  10,C  12)     59.60 -0.000023   -0.07     59.53   
   204. D(H  37,C  13,C  10,C  11)    177.41  0.000048   -0.07    177.35   
   205. D(H  37,C  13,C  10,Si  9)    -60.62 -0.000037   -0.05    -60.67   
   206. D(H  36,C  13,C  10,C  12)   -179.77 -0.000039   -0.05   -179.82   
   207. D(H  36,C  13,C  10,C  11)    -61.96  0.000032   -0.04    -62.00   
   208. D(H  36,C  13,C  10,Si  9)     60.01 -0.000052   -0.02     59.98   
   209. D(C  16,C  14,Si  9,O  18)   -165.93  0.000139   -0.68   -166.62   
   210. D(C  16,C  14,Si  9,C  10)    -44.08  0.000035   -0.54    -44.62   
   211. D(C  16,C  14,Si  9,O   8)     77.28 -0.000035   -0.59     76.69   
   212. D(C  15,C  14,Si  9,O  18)     74.82  0.000111   -0.63     74.18   
   213. D(C  15,C  14,Si  9,C  10)   -163.33  0.000007   -0.48   -163.81   
   214. D(C  15,C  14,Si  9,O   8)    -41.97 -0.000063   -0.54    -42.51   
   215. D(H  40,C  15,C  14,C  16)    178.77 -0.000006    0.12    178.89   
   216. D(H  40,C  15,C  14,Si  9)    -59.74  0.000020    0.07    -59.68   
   217. D(H  39,C  15,C  14,C  17)   -177.69 -0.000017    0.07   -177.61   
   218. D(H  39,C  15,C  14,C  16)    -60.47 -0.000048    0.14    -60.33   
   219. D(H  40,C  15,C  14,C  17)     61.55  0.000024    0.06     61.61   
   220. D(H  39,C  15,C  14,Si  9)     61.03 -0.000022    0.08     61.11   
   221. D(H  43,C  16,C  14,C  17)     61.76  0.000020    0.13     61.89   
   222. D(H  43,C  16,C  14,C  15)    -55.16 -0.000025    0.12    -55.03   
   223. D(H  43,C  16,C  14,Si  9)   -175.31 -0.000060    0.25   -175.06   
   224. D(H  42,C  16,C  14,C  17)   -178.16  0.000047    0.12   -178.04   
   225. D(H  42,C  16,C  14,C  15)     64.92  0.000002    0.11     65.03   
   226. D(H  42,C  16,C  14,Si  9)    -55.23 -0.000033    0.23    -55.00   
   227. D(H  46,C  17,C  14,C  16)     62.26  0.000006   -0.13     62.12   
   228. D(H  46,C  17,C  14,C  15)    179.02  0.000017   -0.10    178.93   
   229. D(H  46,C  17,C  14,Si  9)    -60.84  0.000059   -0.21    -61.05   
   230. D(H  45,C  17,C  14,C  16)   -177.63 -0.000023   -0.11   -177.74   
   231. D(H  45,C  17,C  14,C  15)    -60.86 -0.000012   -0.07    -60.93   
   232. D(H  45,C  17,C  14,Si  9)     59.27  0.000030   -0.18     59.09   
   233. D(C   3,O  18,Si  9,C  14)   -100.66 -0.000018   -0.74   -101.40   
   234. D(C   3,O  18,Si  9,C  10)    130.08 -0.000082   -0.70    129.38   
   235. D(C   3,O  18,Si  9,O   8)     17.03  0.000134   -1.01     16.02   
   236. D(Si  9,O  18,C   3,C   5)    -40.65 -0.000136    0.71    -39.94   
   237. D(Si  9,O  18,C   3,H   4)     80.08 -0.000123    0.74     80.82   
   238. D(Si  9,O  18,C   3,C   1)   -161.23 -0.000054    0.68   -160.55   
   239. D(C  20,O  19,C   5,C   7)   -175.92 -0.000080    0.15   -175.77   
   240. D(C  20,O  19,C   5,H   6)    -56.83 -0.000035    0.10    -56.73   
   241. D(C  20,O  19,C   5,C   3)     62.59  0.000073    0.08     62.67   
   242. D(C  24,C  20,O  19,C   5)    -62.36 -0.000004   -0.05    -62.41   
   243. D(O  22,C  20,O  19,C   5)    170.42  0.000069   -0.07    170.35   
   244. D(H  21,C  20,O  19,C   5)     56.29 -0.000032   -0.01     56.28   
   245. D(C  23,O  22,C  20,C  24)    -57.32  0.000019   -0.13    -57.45   
   246. D(C  23,O  22,C  20,H  21)   -176.08  0.000032   -0.18   -176.26   
   247. D(C  23,O  22,C  20,O  19)     66.51  0.000054   -0.15     66.36   
   248. D(H  50,C  23,O  22,C  20)    -46.37  0.000074   -0.06    -46.43   
   249. D(H  49,C  23,O  22,C  20)     76.61  0.000018   -0.02     76.60   
   250. D(H  48,C  23,O  22,C  20)   -165.11  0.000013   -0.02   -165.13   
   251. D(H  25,C  24,C  20,O  22)     63.26  0.000002   -0.06     63.20   
   252. D(H  25,C  24,C  20,H  21)   -179.89  0.000075   -0.07   -179.96   
   253. D(C   1,C  24,C  20,O  22)   -179.31  0.000011   -0.03   -179.34   
   254. D(C   1,C  24,C  20,H  21)    -62.47  0.000084   -0.03    -62.50   
   255. D(C   1,C  24,C  20,O  19)     57.20  0.000034   -0.03     57.18   
   256. D(H  25,C  24,C   1,C   3)     63.67 -0.000048    0.11     63.78   
   257. D(H  25,C  24,C   1,H   2)   -177.75 -0.000079    0.19   -177.57   
   258. D(H  25,C  24,C   1,O   0)    -58.52 -0.000053    0.13    -58.39   
   259. D(H  25,C  24,C  20,O  19)    -60.22  0.000025   -0.06    -60.28   
   260. D(C  20,C  24,C   1,C   3)    -54.52  0.000028    0.06    -54.46   
   261. D(C  20,C  24,C   1,H   2)     64.06 -0.000004    0.13     64.19   
   262. D(C  20,C  24,C   1,O   0)   -176.71  0.000023    0.08   -176.63   
   263. D(H  51,O  26,C  24,H  25)     69.56  0.000004    0.16     69.72   
   264. D(H  51,O  26,C  24,C  20)   -170.61  0.000001    0.19   -170.42   
   265. D(H  51,O  26,C  24,C   1)    -50.48 -0.000059    0.22    -50.26   
    ----------------------------------------------------------------------------

Geometry step timings:
Preparation and reading OPT file:      0.001 s ( 4.655 %)
Internal coordinates            :      0.000 s ( 0.137 %)
B/P matrices and projection     :      0.006 s (24.627 %)
Hessian update/contruction      :      0.010 s (41.772 %)
Making the step                 :      0.004 s (15.612 %)
Converting the step to Cartesian:      0.001 s ( 2.075 %)
Storing new data                :      0.001 s ( 3.748 %)
Checking convergence            :      0.000 s ( 0.145 %)
Final printing                  :      0.002 s ( 7.222 %)
Total time                      :      0.024 s

Time for energy+gradient        :      0.090 s
Time for complete geometry iter :      0.124 s

         *************************************************************
         *                GEOMETRY OPTIMIZATION CYCLE   9            *
         *************************************************************
---------------------------------
CARTESIAN COORDINATES (ANGSTROEM)
---------------------------------
  O    -3.662682    2.050161   -0.291109
  C    -2.303303    1.748526   -0.098078
  H    -2.137049    1.402161    0.935434
  C    -1.816001    0.658758   -1.058483
  H    -2.034586    0.973971   -2.089073
  C    -0.302594    0.497305   -0.904151
  H    -0.105042    0.139945    0.119728
  C     0.232317   -0.533222   -1.894603
  O    -0.331423   -1.792028   -1.678182
  Si   -1.913879   -1.992413   -1.272475
  C    -1.912471   -3.152860    0.261236
  C    -3.326156   -3.611678    0.620299
  C    -1.045458   -4.385275   -0.007417
  C    -1.323756   -2.411045    1.468358
  C    -2.910343   -2.511875   -2.850657
  C    -2.445132   -1.665833   -4.046069
  C    -2.681763   -3.984825   -3.199843
  C    -4.414035   -2.281095   -2.661114
  O    -2.501941   -0.527471   -0.777041
  O     0.355646    1.717223   -1.135919
  C     0.002042    2.728550   -0.202993
  H     0.199748    2.375379    0.823563
  O     0.844987    3.805797   -0.369507
  C     0.737567    4.515880   -1.599502
  C    -1.505281    3.039895   -0.323415
  H    -1.718518    3.393426   -1.344506
  O    -1.839886    4.016075    0.622379
  H    -4.158174    1.221452   -0.262353
  H     1.315787   -0.624370   -1.774802
  H     0.019770   -0.188700   -2.912662
  H    -3.757260   -4.198200   -0.186009
  H    -3.970953   -2.757772    0.808052
  H    -3.305774   -4.231640    1.515941
  H    -1.469157   -4.993012   -0.800426
  H    -0.974061   -4.997379    0.891070
  H    -0.044255   -4.087761   -0.305128
  H    -1.910610   -1.525779    1.700476
  H    -0.298345   -2.108900    1.267268
  H    -1.321622   -3.060522    2.343017
  H    -1.388877   -1.830755   -4.244506
  H    -2.603955   -0.605738   -3.858126
  H    -3.007392   -1.937381   -4.938688
  H    -1.620836   -4.193331   -3.308028
  H    -3.180043   -4.232163   -4.136382
  H    -3.083485   -4.630789   -2.424271
  H    -4.615849   -1.234690   -2.450744
  H    -4.797576   -2.873788   -1.836272
  H    -4.953021   -2.560848   -3.565371
  H     1.634035    5.129642   -1.653140
  H    -0.146214    5.159298   -1.601439
  H     0.708992    3.826356   -2.444674
  H    -2.805228    4.088596    0.639114

----------------------------
CARTESIAN COORDINATES (A.U.)
----------------------------
  NO LB    ZA    FRAG    MASS        X           Y           Z
   0 O   8.0000    1    15.999   -6.921465    3.874243   -0.550116
   1 C   6.0000    1    12.011   -4.352613    3.304236   -0.185340
   2 H   1.0000    1     1.008   -4.038437    2.649700    1.767714
   3 C   6.0000    1    12.011   -3.431745    1.244873   -2.000243
   4 H   1.0000    1     1.008   -3.844810    1.840538   -3.947776
   5 C   6.0000    1    12.011   -0.571820    0.939770   -1.708598
   6 H   1.0000    1     1.008   -0.198500    0.264458    0.226254
   7 C   6.0000    1    12.011    0.439016   -1.007644   -3.580280
   8 O   8.0000    1    15.999   -0.626299   -3.386442   -3.171305
   9 Si 14.0000    1    28.086   -3.616706   -3.765115   -2.404630
  10 C   6.0000    1    12.011   -3.614046   -5.958041    0.493665
  11 C   6.0000    1    12.011   -6.285525   -6.825083    1.172195
  12 C   6.0000    1    12.011   -1.975629   -8.286968   -0.014016
  13 C   6.0000    1    12.011   -2.501536   -4.556214    2.774794
  14 C   6.0000    1    12.011   -5.499751   -4.746756   -5.386960
  15 C   6.0000    1    12.011   -4.620630   -3.147967   -7.645963
  16 C   6.0000    1    12.011   -5.067797   -7.530227   -6.046826
  17 C   6.0000    1    12.011   -8.341317   -4.310645   -5.028778
  18 O   8.0000    1    15.999   -4.727984   -0.996776   -1.468395
  19 O   8.0000    1    15.999    0.672074    3.245080   -2.146576
  20 C   6.0000    1    12.011    0.003860    5.156213   -0.383601
  21 H   1.0000    1     1.008    0.377469    4.488815    1.556308
  22 O   8.0000    1    15.999    1.596794    7.191914   -0.698267
  23 C   6.0000    1    12.011    1.393800    8.533777   -3.022621
  24 C   6.0000    1    12.011   -2.844568    5.744570   -0.611165
  25 H   1.0000    1     1.008   -3.247528    6.412646   -2.540747
  26 O   8.0000    1    15.999   -3.476880    7.589282    1.176126
  27 H   1.0000    1     1.008   -7.857810    2.308209   -0.495775
  28 H   1.0000    1     1.008    2.486477   -1.179888   -3.353890
  29 H   1.0000    1     1.008    0.037359   -0.356592   -5.504134
  30 H   1.0000    1     1.008   -7.100191   -7.933448   -0.351506
  31 H   1.0000    1     1.008   -7.504013   -5.211435    1.526997
  32 H   1.0000    1     1.008   -6.247007   -7.996641    2.864714
  33 H   1.0000    1     1.008   -2.776303   -9.435426   -1.512587
  34 H   1.0000    1     1.008   -1.840709   -9.443678    1.683878
  35 H   1.0000    1     1.008   -0.083630   -7.724749   -0.576608
  36 H   1.0000    1     1.008   -3.610530   -2.883304    3.213434
  37 H   1.0000    1     1.008   -0.563791   -3.985243    2.394790
  38 H   1.0000    1     1.008   -2.497503   -5.783548    4.427661
  39 H   1.0000    1     1.008   -2.624597   -3.459626   -8.020953
  40 H   1.0000    1     1.008   -4.920761   -1.144678   -7.290801
  41 H   1.0000    1     1.008   -5.683148   -3.661119   -9.332767
  42 H   1.0000    1     1.008   -3.062937   -7.924247   -6.251267
  43 H   1.0000    1     1.008   -6.009410   -7.997629   -7.816630
  44 H   1.0000    1     1.008   -5.826941   -8.750924   -4.581208
  45 H   1.0000    1     1.008   -8.722690   -2.333226   -4.631234
  46 H   1.0000    1     1.008   -9.066104   -5.430672   -3.470051
  47 H   1.0000    1     1.008   -9.359852   -4.839301   -6.737574
  48 H   1.0000    1     1.008    3.087878    9.693619   -3.123982
  49 H   1.0000    1     1.008   -0.276305    9.749660   -3.026281
  50 H   1.0000    1     1.008    1.339800    7.230766   -4.619764
  51 H   1.0000    1     1.008   -5.301113    7.726327    1.207750

      -----------------------------------------------------------      
     |                   =====================                   |     
     |                           x T B                           |     
     |                   =====================                   |     
     |                         S. Grimme                         |     
     |          Mulliken Center for Theoretical Chemistry        |     
     |                    University of Bonn                     |     
      -----------------------------------------------------------      

   * xtb version 6.7.1 (edcfbbe) compiled by 'albert@albert-system' on 2024-07-22

   xtb is free software: you can redistribute it and/or modify it under
   the terms of the GNU Lesser General Public License as published by
   the Free Software Foundation, either version 3 of the License, or
   (at your option) any later version.
   
   xtb is distributed in the hope that it will be useful,
   but WITHOUT ANY WARRANTY; without even the implied warranty of
   MERCHANTABILITY or FITNESS FOR A PARTICULAR PURPOSE.  See the
   GNU Lesser General Public License for more details.
   
   Cite this work as:
   * C. Bannwarth, E. Caldeweyher, S. Ehlert, A. Hansen, P. Pracht,
     J. Seibert, S. Spicher, S. Grimme, WIREs Comput. Mol. Sci., 2020, 11,
     e01493. DOI: 10.1002/wcms.1493
   
   for GFN2-xTB:
   * C. Bannwarth, S. Ehlert and S. Grimme., J. Chem. Theory Comput., 2019,
     15, 1652-1671. DOI: 10.1021/acs.jctc.8b01176
   for GFN1-xTB:
   * S. Grimme, C. Bannwarth, P. Shushkov, J. Chem. Theory Comput., 2017,
     13, 1989-2009. DOI: 10.1021/acs.jctc.7b00118
   for GFN0-xTB:
   * P. Pracht, E. Caldeweyher, S. Ehlert, S. Grimme, ChemRxiv, 2019, preprint.
     DOI: 10.26434/chemrxiv.8326202.v1
   for GFN-FF:
   * S. Spicher and S. Grimme, Angew. Chem. Int. Ed., 2020, 59, 15665-15673.
     DOI: 10.1002/anie.202004239
   
   for ALPB and GBSA implicit solvation:
   * S. Ehlert, M. Stahn, S. Spicher, S. Grimme, J. Chem. Theory Comput.,
     2021, 17, 4250-4261. DOI: 10.1021/acs.jctc.1c00471
   
   for ddCOSMO and CPCM-X implicit solvation:
   * M. Stahn, S. Ehlert, S. Grimme, J. Phys. Chem. A,
     2023, XX, XXXX-XXXX. DOI: 10.1021/acs.jpca.3c04382
   
   for DFT-D4:
   * E. Caldeweyher, C. Bannwarth and S. Grimme, J. Chem. Phys., 2017,
     147, 034112. DOI: 10.1063/1.4993215
   * E. Caldeweyher, S. Ehlert, A. Hansen, H. Neugebauer, S. Spicher,
     C. Bannwarth and S. Grimme, J. Chem. Phys., 2019, 150, 154122.
     DOI: 10.1063/1.5090222
   * E. Caldeweyher, J.-M. Mewes, S. Ehlert and S. Grimme, Phys. Chem. Chem. Phys.
     2020, 22, 8499-8512. DOI: 10.1039/D0CP00502A
   
   for sTDA-xTB:
   * S. Grimme and C. Bannwarth, J. Chem. Phys., 2016, 145, 054103.
     DOI: 10.1063/1.4959605
   
   in the mass-spec context:
   * V. Asgeirsson, C. Bauer and S. Grimme, Chem. Sci., 2017, 8, 4879.
     DOI: 10.1039/c7sc00601b
   * J. Koopman and S. Grimme, ACS Omega 2019, 4, 12, 15120-15133.
     DOI: 10.1021/acsomega.9b02011
   
   for metadynamics refer to:
   * S. Grimme, J. Chem. Theory Comput., 2019, 155, 2847-2862
     DOI: 10.1021/acs.jctc.9b00143
   
   for SPH calculations refer to:
   * S. Spicher and S. Grimme, J. Chem. Theory Comput., 2021, 17, 1701-1714
     DOI: 10.1021/acs.jctc.0c01306
   
   for ONIOM refer to:
   * C. Plett, A. Katbashev, S. Ehlert, S. Grimme, M. Bursch,
     Phys. Chem. Chem. Phys., 2023, 25, 17860-17868. DOI: 10.1039/D3CP02178E
   
   for DIPRO refer to:
   * J. Kohn, N. Gildemeister, S. Grimme, D. Fazzi, A. Hansen,
     J. Chem. Phys., 2023, just accepted.
   
   for PTB refer to:
   * S. Grimme, M. Mueller, A. Hansen, J. Chem. Phys., 2023, 158, 124111.
     DOI: 10.1063/5.0137838
   
   with help from (in alphabetical order)
   P. Atkinson, C. Bannwarth, F. Bohle, G. Brandenburg, E. Caldeweyher
   M. Checinski, S. Dohm, S. Ehlert, S. Ehrlich, I. Gerasimov, C. Hölzer
   A. Katbashev, J. Kohn, J. Koopman, C. Lavigne, S. Lehtola, F. März, M. Müller,
   F. Musil, H. Neugebauer, J. Pisarek, C. Plett, P. Pracht, F. Pultar,
   J. Seibert, P. Shushkov, S. Spicher, M. Stahn, M. Steiner, T. Strunk,
   J. Stückrath, T. Rose, and J. Unsleber
   
 * started run on 2025/09/10 at 11:31:44.439     
   ID    Z sym.   atoms
    1    8 O      1, 9, 19, 20, 23, 27
    2    6 C      2, 4, 6, 8, 11-18, 21, 24, 25
    3    1 H      3, 5, 7, 22, 26, 28-52
    4   14 Si     10

           -------------------------------------------------
          |                Calculation Setup                |
           -------------------------------------------------

          program call               : /home/kmoult/orca_6_1/otool_xtb goat_0_XTB.xyz --grad -c 0 -u 0 -P 4 --namespace goat_0 --input goat_0_XTB.input.tmp --alpb ACETONE --acc 0.200000
          hostname                   : node3306
          calculation namespace      : goat_0
          coordinate file            : goat_0_XTB.xyz
          omp threads                :                     4


           -------------------------------------------------
          |                 G F N 2 - x T B                 |
           -------------------------------------------------

        Reference                      10.1021/acs.jctc.8b01176
      * Hamiltonian:
        H0-scaling (s, p, d)           1.850000    2.230000    2.230000
        zeta-weighting                 0.500000
      * Dispersion:
        s8                             2.700000
        a1                             0.520000
        a2                             5.000000
        s9                             5.000000
      * Repulsion:
        kExp                           1.500000    1.000000
        rExp                           1.000000
      * Coulomb:
        alpha                          2.000000
        third order                    shell-resolved
        anisotropic                    true
        a3                             3.000000
        a5                             4.000000
        cn-shift                       1.200000
        cn-exp                         4.000000
        max-rad                        5.000000

      * Solvation model:               ALPB
        Solvent                        ACETONE
        Parameter file                 internal GFN2-xTB/ALPB
        Dielectric constant                2.0700E+01
        Reference state                gsolv [1 M gas/solution]
        Free energy shift                  5.9241E-03 Eh       3.7175E+00 kcal/mol
        Temperature                        2.9815E+02 K
        Density                            7.9000E-01 kg/L
        Solvent mass                       5.8080E+01 g/mol
        Interaction kernel             P16
        Born radius scaling (c1)           1.8274E+00
        Born radii integrator          GBOBC
        Born offset                        0.0000E+00 a0       0.0000E+00 AA
        H-bond correction              true
        Ion screening                  false
        Surface tension                    1.0000E-05 Eh       1.5569E+01 dyn/cm
        Grid points                               230 per atom
q/qsh data taken from xtbrestart
CAMM data taken from xtbrestart

          ...................................................
          :                      SETUP                      :
          :.................................................:
          :  # basis functions                 124          :
          :  # atomic orbitals                 123          :
          :  # shells                           75          :
          :  # electrons                       130          :
          :  max. iterations                   250          :
          :  Hamiltonian                  GFN2-xTB          :
          :  restarted?                       true          :
          :  GBSA solvation                   true          :
          :  PC potential                    false          :
          :  electronic temp.          300.0000000     K    :
          :  accuracy                    0.2000000          :
          :  -> integral cutoff          0.3198970E+02      :
          :  -> integral neglect         0.2000000E-08      :
          :  -> SCF convergence          0.2000000E-06 Eh   :
          :  -> wf. convergence          0.2000000E-04 e    :
          :  Broyden damping             0.4000000          :
          :  net charge                          0          :
          :  unpaired electrons                  0          :
          ...................................................

 iter      E             dE          RMSdq      gap      omega  full diag
   1    -74.4403293 -0.744403E+02  0.252E-02    5.50       0.0  T
   2    -74.4403295 -0.194916E-06  0.165E-02    5.49       1.0  T
   3    -74.4403295 -0.797070E-08  0.476E-03    5.50       2.9  T
   4    -74.4403296 -0.707869E-07  0.324E-03    5.49       4.3  T
   5    -74.4403296  0.930955E-08  0.922E-04    5.49      15.0  T
   6    -74.4403296 -0.239653E-07  0.275E-04    5.49      50.4  T
   7    -74.4403296 -0.442711E-09  0.221E-04    5.49      62.7  T
   8    -74.4403296 -0.339341E-09  0.114E-04    5.49     121.3  T
   9    -74.4403296 -0.689226E-11  0.608E-05    5.49     228.0  T

   *** convergence criteria satisfied after 9 iterations ***

         #    Occupation            Energy/Eh            Energy/eV
      -------------------------------------------------------------
         1        2.0000           -0.8173939             -22.2424
       ...           ...                  ...                  ...
        59        2.0000           -0.4258271             -11.5873
        60        2.0000           -0.4241028             -11.5404
        61        2.0000           -0.4230481             -11.5117
        62        2.0000           -0.4179893             -11.3741
        63        2.0000           -0.4142681             -11.2728
        64        2.0000           -0.4059770             -11.0472
        65        2.0000           -0.3717279             -10.1152 (HOMO)
        66                         -0.1698185              -4.6210 (LUMO)
        67                         -0.1435304              -3.9057
        68                         -0.0910057              -2.4764
        69                         -0.0482837              -1.3139
        70                         -0.0048423              -0.1318
       ...                                ...                  ...
       123                          0.7852191              21.3669
      -------------------------------------------------------------
                  HL-Gap            0.2019094 Eh            5.4942 eV
             Fermi-level           -0.2707732 Eh           -7.3681 eV

 SCC (total)                   0 d,  0 h,  0 min,  0.028 sec
 SCC setup                      ...        0 min,  0.001 sec (  2.160%)
 Dispersion                     ...        0 min,  0.000 sec (  1.187%)
 classical contributions        ...        0 min,  0.000 sec (  0.140%)
 integral evaluation            ...        0 min,  0.005 sec ( 17.830%)
 iterations                     ...        0 min,  0.014 sec ( 49.340%)
 molecular gradient             ...        0 min,  0.008 sec ( 28.774%)
 printout                       ...        0 min,  0.000 sec (  0.521%)

         :::::::::::::::::::::::::::::::::::::::::::::::::::::
         ::                     SUMMARY                     ::
         :::::::::::::::::::::::::::::::::::::::::::::::::::::
         :: total energy             -73.690533135589 Eh    ::
         :: total w/o Gsasa/hb       -73.661659210809 Eh    ::
         :: gradient norm              0.001210485583 Eh/a0 ::
         :: HOMO-LUMO gap              5.494234419406 eV    ::
         ::.................................................::
         :: SCC energy               -74.438966098374 Eh    ::
         :: -> isotropic ES            0.157199894232 Eh    ::
         :: -> anisotropic ES          0.003112080622 Eh    ::
         :: -> anisotropic XC          0.005456254942 Eh    ::
         :: -> dispersion             -0.053494310793 Eh    ::
         :: -> Gsolv                  -0.031838986010 Eh    ::
         ::    -> Gelec               -0.002965061230 Eh    ::
         ::    -> Gsasa               -0.028881964270 Eh    ::
         ::    -> Ghb                 -0.005916101774 Eh    ::
         ::    -> Gshift               0.005924141264 Eh    ::
         :: repulsion energy           0.748432962785 Eh    ::
         :: add. restraining           0.000000000000 Eh    ::
         :: total charge              -0.000000000000 e     ::
         :::::::::::::::::::::::::::::::::::::::::::::::::::::


Property printout bound to 'properties.out'

           -------------------------------------------------
          | TOTAL ENERGY              -73.690533135589 Eh   |
          | GRADIENT NORM               0.001210485583 Eh/α |
          | HOMO-LUMO GAP               5.494234419406 eV   |
           -------------------------------------------------

------------------------------------------------------------------------
 * finished run on 2025/09/10 at 11:31:44.489     
------------------------------------------------------------------------
 total:
 * wall-time:     0 d,  0 h,  0 min,  0.049 sec
 *  cpu-time:     0 d,  0 h,  0 min,  0.178 sec
 * ratio c/w:     3.590 speedup
 SCF:
 * wall-time:     0 d,  0 h,  0 min,  0.028 sec
 *  cpu-time:     0 d,  0 h,  0 min,  0.112 sec
 * ratio c/w:     3.984 speedup


-------------------------   --------------------
FINAL SINGLE POINT ENERGY       -73.690533135590
-------------------------   --------------------


-------------
DIPOLE MOMENT
-------------
                                X             Y             Z
Total Dipole Moment    :     -0.96400      -0.76400      -0.66600
                        -----------------------------------------
Magnitude (a.u.)       :      1.39877
Magnitude (Debye)      :      3.55538


------------------
CARTESIAN GRADIENT
------------------

   1   O   :    0.000089567   -0.000169329   -0.000011388
   2   C   :    0.000051015    0.000068870    0.000130899
   3   H   :   -0.000068555   -0.000051585   -0.000018801
   4   C   :   -0.000038037   -0.000027153   -0.000174041
   5   H   :    0.000018779   -0.000045996    0.000027057
   6   C   :    0.000057098    0.000223644    0.000135873
   7   H   :    0.000009890    0.000004308   -0.000001612
   8   C   :   -0.000243035   -0.000106165    0.000113345
   9   O   :   -0.000135113    0.000025253    0.000012831
  10   Si  :    0.000358770    0.000288392   -0.000060209
  11   C   :    0.000129863   -0.000367435    0.000417774
  12   C   :    0.000056359   -0.000025036   -0.000122655
  13   C   :   -0.000061306    0.000118295   -0.000142444
  14   C   :   -0.000054499    0.000068478   -0.000168909
  15   C   :   -0.000173417   -0.000085170   -0.000311623
  16   C   :    0.000002882   -0.000109546    0.000028876
  17   C   :    0.000034969    0.000077828    0.000066425
  18   C   :    0.000047466   -0.000029177    0.000033484
  19   O   :    0.000019671   -0.000009882    0.000101929
  20   O   :    0.000038752   -0.000142717   -0.000075618
  21   C   :   -0.000071322    0.000059432    0.000045357
  22   H   :    0.000015100   -0.000098072   -0.000066956
  23   O   :   -0.000126981   -0.000017459    0.000096281
  24   C   :    0.000026065   -0.000029302   -0.000142051
  25   C   :   -0.000068221    0.000284739    0.000029131
  26   H   :    0.000071856   -0.000064508   -0.000045697
  27   O   :   -0.000055768   -0.000230902   -0.000159552
  28   H   :   -0.000060341    0.000113196    0.000045742
  29   H   :    0.000039384    0.000029149   -0.000014893
  30   H   :    0.000032243   -0.000044471   -0.000020851
  31   H   :   -0.000009878    0.000092643   -0.000006337
  32   H   :    0.000027501   -0.000011383    0.000008623
  33   H   :    0.000007729    0.000041246    0.000014874
  34   H   :   -0.000005160    0.000030318    0.000045833
  35   H   :    0.000013337    0.000026372    0.000023181
  36   H   :   -0.000020151   -0.000004791    0.000029365
  37   H   :    0.000026218    0.000002990   -0.000013847
  38   H   :   -0.000032086   -0.000032396   -0.000021074
  39   H   :   -0.000022986   -0.000010876   -0.000003300
  40   H   :   -0.000010373    0.000041505    0.000028128
  41   H   :    0.000016268   -0.000009798    0.000025665
  42   H   :    0.000001515    0.000005730    0.000028361
  43   H   :   -0.000038648   -0.000000225   -0.000009629
  44   H   :   -0.000008943   -0.000016201    0.000015621
  45   H   :   -0.000029691    0.000022655   -0.000019425
  46   H   :   -0.000022082   -0.000022964   -0.000011960
  47   H   :    0.000043575    0.000044290    0.000024872
  48   H   :    0.000016979    0.000026754    0.000001648
  49   H   :   -0.000005419   -0.000031802   -0.000073879
  50   H   :   -0.000007870    0.000008014    0.000123252
  51   H   :    0.000049380    0.000014307    0.000002965
  52   H   :    0.000067652    0.000075931    0.000039358

Difference to translation invariance:
           :    0.0000000000   -0.0000000000    0.0000000000

Difference to rotation invariance:
           :   -0.0009835394    0.0005311158   -0.0002474927

Norm of the Cartesian gradient     ...    0.0012104856
RMS gradient                       ...    0.0000969164
MAX gradient                       ...    0.0004177743
------------------------------------------------------------------------------
                         ORCA GEOMETRY RELAXATION STEP
------------------------------------------------------------------------------

Reading the OPT-File                    .... done
Getting information on internals        .... done
Copying old internal coords+grads       .... done
Making the new internal coordinates     .... (2022 redundants) done
Validating the new internal coordinates .... (2022 redundants) done
Calculating the B-matrix                .... done
Calculating the G,G- and P matrices     .... done
Transforming gradient to internals      .... done
Projecting the internal gradient        .... done
Number of atoms                         ....  52
Number of internal coordinates          .... 265
Current Energy                          ....   -73.690533136 Eh
Current gradient norm                   ....     0.001210486 Eh/bohr
Maximum allowed component of the step   ....  0.300
Current trust radius                    ....  0.450
Updating the Hessian (BFGS)             .... done
Forming the augmented Hessian           .... done
Diagonalizing the augmented Hessian     .... done
Last element of RFO vector              ....  0.998431964
Lowest eigenvalues of augmented Hessian:
 -0.000011731  0.002170140  0.008387318  0.010006592  0.010057956
Length of the computed step             ....  0.056066599
The final length of the internal step   ....  0.056066599
Converting the step to Cartesian space:
 Initial RMS(Int)=    0.0034441438
Transforming coordinates:
 Iter   0:  RMS(Cart)=    0.0175126385 RMS(Int)=    0.3858154220
done
Storing new coordinates                 .... done
The predicted energy change is          ....    -0.000005884
Previously predicted energy change      ....    -0.000009469
Actually observed energy change         ....    -0.000013241
Ratio of predicted to observed change   ....     1.398354411
New trust radius                        ....     0.450000000

                                .--------------------.
          ----------------------|Geometry convergence|-------------------------
          Item                value                   Tolerance       Converged
          ---------------------------------------------------------------------
          Energy change      -0.0000132410            0.0000050000      NO
          RMS gradient        0.0000525640            0.0001000000      YES
          MAX gradient        0.0002550333            0.0003000000      YES
          RMS step            0.0034441438            0.0020000000      NO
          MAX step            0.0169534641            0.0040000000      NO
          -------------------------------------------------------------------------
          ........................................................
          Max(Bonds)      0.0033      Max(Angles)    0.17
          Max(Dihed)        0.97      Max(Improp)    0.00
          ---------------------------------------------------------------------

    ---------------------------------------------------------------------------
                         Redundant Internal Coordinates
                            (Angstroem and degrees)

        Definition                    Value    dE/dq     Step     New-Value
    ----------------------------------------------------------------------------
     1. B(C   1,O   0)                1.4058 -0.000089  0.0003    1.4060   
     2. B(H   2,C   1)                1.1026 -0.000010 -0.0001    1.1026   
     3. B(C   3,C   1)                1.5321 -0.000035 -0.0000    1.5321   
     4. B(H   4,C   3)                1.0997 -0.000043  0.0001    1.0998   
     5. B(C   5,C   3)                1.5298 -0.000052 -0.0004    1.5294   
     6. B(H   6,C   5)                1.1023  0.000000  0.0000    1.1023   
     7. B(C   7,C   5)                1.5261 -0.000029 -0.0004    1.5258   
     8. B(O   8,C   7)                1.3961 -0.000157  0.0000    1.3962   
     9. B(Si  9,O   8)                1.6459 -0.000255  0.0004    1.6463   
    10. B(C  10,Si  9)                1.9233  0.000080 -0.0005    1.9227   
    11. B(C  11,C  10)                1.5290 -0.000129  0.0000    1.5290   
    12. B(C  12,C  10)                1.5306 -0.000167  0.0001    1.5307   
    13. B(C  13,C  10)                1.5343 -0.000190  0.0004    1.5347   
    14. B(C  14,Si  9)                1.9374  0.000166 -0.0005    1.9369   
    15. B(C  15,C  14)                1.5366 -0.000112  0.0002    1.5368   
    16. B(C  16,C  14)                1.5309 -0.000100 -0.0001    1.5308   
    17. B(C  17,C  14)                1.5331 -0.000082 -0.0001    1.5329   
    18. B(O  18,Si  9)                1.6545 -0.000012 -0.0001    1.6544   
    19. B(O  18,C   3)                1.3989 -0.000106  0.0001    1.3990   
    20. B(O  19,C   5)                1.4054 -0.000174  0.0003    1.4057   
    21. B(C  20,O  19)                1.4206 -0.000004  0.0001    1.4207   
    22. B(H  21,C  20)                1.1035 -0.000025  0.0002    1.1036   
    23. B(O  22,C  20)                1.3779 -0.000087 -0.0001    1.3779   
    24. B(C  23,O  22)                1.4243  0.000037 -0.0002    1.4241   
    25. B(C  24,C  20)                1.5438 -0.000031 -0.0002    1.5436   
    26. B(C  24,C   1)                1.5347 -0.000008 -0.0001    1.5346   
    27. B(H  25,C  24)                1.1014  0.000005 -0.0000    1.1014   
    28. B(O  26,C  24)                1.3998 -0.000207  0.0004    1.4002   
    29. B(H  27,O   0)                0.9660 -0.000050  0.0000    0.9660   
    30. B(H  27,O  18)                2.4631  0.000052 -0.0008    2.4623   
    31. B(H  28,C   7)                1.0939  0.000036 -0.0000    1.0939   
    32. B(H  29,C   7)                1.0956 -0.000002  0.0001    1.0956   
    33. B(H  30,C  11)                1.0863 -0.000038  0.0000    1.0863   
    34. B(H  31,C  11)                1.0864 -0.000025  0.0000    1.0864   
    35. B(H  32,C  11)                1.0895 -0.000013  0.0001    1.0895   
    36. B(H  33,C  12)                1.0852 -0.000046  0.0001    1.0853   
    37. B(H  34,C  12)                1.0895  0.000004  0.0000    1.0895   
    38. B(H  35,C  12)                1.0861 -0.000027  0.0000    1.0861   
    39. B(H  36,C  13)                1.0872 -0.000016 -0.0000    1.0872   
    40. B(H  37,C  13)                1.0877 -0.000037  0.0001    1.0878   
    41. B(H  38,C  13)                1.0894  0.000004  0.0000    1.0894   
    42. B(H  39,C  15)                1.0873 -0.000019 -0.0000    1.0873   
    43. B(H  40,C  15)                1.0883 -0.000006 -0.0000    1.0882   
    44. B(H  41,C  15)                1.0893 -0.000026  0.0001    1.0894   
    45. B(H  42,C  16)                1.0866 -0.000035  0.0000    1.0866   
    46. B(H  43,C  16)                1.0893 -0.000004  0.0000    1.0893   
    47. B(H  44,C  16)                1.0864 -0.000020  0.0000    1.0864   
    48. B(H  45,C  17)                1.0863 -0.000021 -0.0000    1.0862   
    49. B(H  46,C  17)                1.0857 -0.000024 -0.0000    1.0857   
    50. B(H  47,C  17)                1.0892 -0.000015  0.0001    1.0893   
    51. B(H  48,C  23)                1.0878 -0.000019  0.0001    1.0878   
    52. B(H  49,C  23)                1.0932  0.000012 -0.0000    1.0932   
    53. B(H  50,C  23)                1.0911 -0.000017  0.0000    1.0912   
    54. B(H  51,O   0)                2.3991  0.000023 -0.0033    2.3959   
    55. B(H  51,O  26)                0.9682 -0.000052  0.0001    0.9683   
    56. A(C   1,O   0,H  27)          107.93  0.000100   -0.06    107.87   
    57. A(O   0,C   1,C   3)          111.97  0.000007   -0.00    111.97   
    58. A(C   3,C   1,C  24)          109.94 -0.000048    0.04    109.98   
    59. A(O   0,C   1,H   2)          109.99 -0.000043   -0.01    109.99   
    60. A(H   2,C   1,C   3)          108.43  0.000006    0.01    108.45   
    61. A(O   0,C   1,C  24)          107.59  0.000017   -0.04    107.55   
    62. A(H   2,C   1,C  24)          108.88  0.000062   -0.01    108.87   
    63. A(C   1,C   3,C   5)          109.05 -0.000024   -0.00    109.05   
    64. A(C   1,C   3,H   4)          108.68  0.000028   -0.02    108.67   
    65. A(C   5,C   3,O  18)          112.04  0.000012    0.04    112.08   
    66. A(H   4,C   3,C   5)          108.75  0.000011    0.03    108.78   
    67. A(C   1,C   3,O  18)          108.73 -0.000007    0.00    108.73   
    68. A(H   4,C   3,O  18)          109.52 -0.000020   -0.05    109.47   
    69. A(C   7,C   5,O  19)          108.36 -0.000070    0.03    108.39   
    70. A(H   6,C   5,O  19)          110.53  0.000042   -0.03    110.49   
    71. A(C   3,C   5,C   7)          110.64 -0.000074    0.04    110.69   
    72. A(H   6,C   5,C   7)          108.73  0.000022   -0.03    108.70   
    73. A(C   3,C   5,O  19)          110.80  0.000054   -0.02    110.78   
    74. A(C   3,C   5,H   6)          107.77  0.000026    0.01    107.78   
    75. A(O   8,C   7,H  29)          110.44 -0.000051   -0.03    110.41   
    76. A(O   8,C   7,H  28)          107.93 -0.000003    0.01    107.94   
    77. A(C   5,C   7,H  28)          109.41 -0.000046    0.01    109.42   
    78. A(H  28,C   7,H  29)          108.67 -0.000031    0.02    108.69   
    79. A(C   5,C   7,O   8)          111.51  0.000106   -0.03    111.48   
    80. A(C   5,C   7,H  29)          108.83  0.000021    0.03    108.86   
    81. A(C   7,O   8,Si  9)          122.43 -0.000066    0.06    122.49   
    82. A(O   8,Si  9,C  10)          105.62 -0.000057    0.10    105.73   
    83. A(O   8,Si  9,O  18)          107.92  0.000077    0.05    107.97   
    84. A(O   8,Si  9,C  14)          109.05  0.000039   -0.17    108.88   
    85. A(C  10,Si  9,C  14)          119.22  0.000011   -0.06    119.16   
    86. A(C  10,Si  9,O  18)          107.20  0.000019    0.17    107.37   
    87. A(C  14,Si  9,O  18)          107.37 -0.000079   -0.07    107.30   
    88. A(C  11,C  10,C  12)          108.86  0.000044   -0.02    108.84   
    89. A(Si  9,C  10,C  12)          110.26 -0.000002    0.01    110.26   
    90. A(Si  9,C  10,C  11)          111.57 -0.000070    0.06    111.63   
    91. A(C  12,C  10,C  13)          108.06  0.000027   -0.03    108.03   
    92. A(C  11,C  10,C  13)          108.37  0.000056   -0.04    108.33   
    93. A(Si  9,C  10,C  13)          109.63 -0.000050    0.03    109.66   
    94. A(H  30,C  11,H  31)          108.49 -0.000009    0.02    108.51   
    95. A(C  10,C  11,H  31)          110.70 -0.000040    0.03    110.73   
    96. A(C  10,C  11,H  30)          110.77  0.000012    0.01    110.78   
    97. A(H  31,C  11,H  32)          108.44 -0.000024   -0.01    108.43   
    98. A(C  10,C  11,H  32)          110.27 -0.000003   -0.01    110.26   
    99. A(H  30,C  11,H  32)          108.08  0.000066   -0.03    108.05   
   100. A(H  34,C  12,H  35)          108.64 -0.000016   -0.00    108.63   
   101. A(H  33,C  12,H  35)          108.24  0.000034   -0.02    108.22   
   102. A(C  10,C  12,H  35)          110.47  0.000004    0.02    110.49   
   103. A(H  33,C  12,H  34)          108.27  0.000024   -0.01    108.26   
   104. A(C  10,C  12,H  34)          110.17 -0.000035    0.01    110.17   
   105. A(C  10,C  12,H  33)          110.98 -0.000009    0.01    110.98   
   106. A(H  37,C  13,H  38)          108.19  0.000042   -0.04    108.15   
   107. A(C  10,C  13,H  37)          110.52 -0.000044    0.02    110.54   
   108. A(C  10,C  13,H  38)          110.13 -0.000024    0.02    110.15   
   109. A(H  36,C  13,H  38)          108.37  0.000001   -0.01    108.35   
   110. A(H  36,C  13,H  37)          108.79  0.000012   -0.01    108.79   
   111. A(C  10,C  13,H  36)          110.77  0.000016    0.02    110.78   
   112. A(C  16,C  14,C  17)          108.63  0.000003    0.03    108.66   
   113. A(C  15,C  14,C  17)          108.07  0.000029   -0.03    108.05   
   114. A(C  15,C  14,C  16)          107.88  0.000017    0.00    107.88   
   115. A(Si  9,C  14,C  17)          111.31 -0.000036    0.07    111.38   
   116. A(Si  9,C  14,C  15)          109.29 -0.000034   -0.06    109.23   
   117. A(Si  9,C  14,C  16)          111.53  0.000024   -0.02    111.51   
   118. A(H  39,C  15,H  41)          108.30  0.000026   -0.02    108.28   
   119. A(C  14,C  15,H  41)          110.12  0.000004    0.00    110.12   
   120. A(H  39,C  15,H  40)          108.73 -0.000015    0.01    108.74   
   121. A(C  14,C  15,H  40)          110.96 -0.000041    0.01    110.97   
   122. A(C  14,C  15,H  39)          110.64  0.000022    0.01    110.65   
   123. A(H  40,C  15,H  41)          108.00  0.000005   -0.01    107.99   
   124. A(C  14,C  16,H  44)          110.74 -0.000028    0.02    110.75   
   125. A(H  42,C  16,H  44)          108.54  0.000044   -0.02    108.53   
   126. A(H  42,C  16,H  43)          108.51 -0.000012   -0.00    108.50   
   127. A(C  14,C  16,H  43)          110.26 -0.000001    0.01    110.26   
   128. A(C  14,C  16,H  42)          110.68  0.000035   -0.01    110.67   
   129. A(H  43,C  16,H  44)          108.04 -0.000040    0.01    108.05   
   130. A(C  14,C  17,H  47)          110.12 -0.000008    0.00    110.12   
   131. A(H  46,C  17,H  47)          108.40  0.000046   -0.03    108.37   
   132. A(H  45,C  17,H  47)          108.44 -0.000022   -0.00    108.43   
   133. A(H  45,C  17,H  46)          108.25 -0.000010    0.01    108.25   
   134. A(C  14,C  17,H  46)          110.99 -0.000038    0.05    111.04   
   135. A(C  14,C  17,H  45)          110.56  0.000033   -0.02    110.54   
   136. A(C   3,O  18,Si  9)          121.08 -0.000067    0.13    121.22   
   137. A(C   5,O  19,C  20)          113.14 -0.000119    0.03    113.17   
   138. A(O  22,C  20,C  24)          115.48 -0.000035    0.02    115.50   
   139. A(H  21,C  20,C  24)          108.18  0.000036    0.02    108.20   
   140. A(O  19,C  20,C  24)          109.59  0.000057   -0.02    109.58   
   141. A(H  21,C  20,O  22)          104.66  0.000040   -0.04    104.61   
   142. A(O  19,C  20,O  22)          108.96 -0.000040    0.00    108.96   
   143. A(O  19,C  20,H  21)          109.78 -0.000063    0.02    109.80   
   144. A(C  20,O  22,C  23)          116.61 -0.000092    0.02    116.63   
   145. A(O  22,C  23,H  50)          110.84  0.000034    0.00    110.85   
   146. A(H  49,C  23,H  50)          110.45  0.000094   -0.01    110.44   
   147. A(H  48,C  23,H  50)          109.87 -0.000059   -0.01    109.86   
   148. A(H  48,C  23,H  49)          109.52  0.000025   -0.02    109.50   
   149. A(O  22,C  23,H  49)          110.85 -0.000182    0.05    110.90   
   150. A(O  22,C  23,H  48)          105.17  0.000086   -0.01    105.16   
   151. A(H  25,C  24,O  26)          110.87  0.000048   -0.05    110.82   
   152. A(C  20,C  24,O  26)          108.74  0.000022    0.02    108.76   
   153. A(C   1,C  24,O  26)          111.30 -0.000043   -0.03    111.27   
   154. A(C  20,C  24,H  25)          109.03 -0.000038    0.03    109.06   
   155. A(C   1,C  24,H  25)          107.79  0.000048   -0.01    107.78   
   156. A(C   1,C  24,C  20)          109.06 -0.000039    0.04    109.10   
   157. A(C  24,O  26,H  51)          107.59  0.000120   -0.10    107.49   
   158. D(C  24,C   1,O   0,H  27)    172.88 -0.000009   -0.06    172.82   
   159. D(C   3,C   1,O   0,H  27)     51.97  0.000035   -0.09     51.88   
   160. D(H   2,C   1,O   0,H  27)    -68.66  0.000052   -0.10    -68.76   
   161. D(C   5,C   3,C   1,H   2)    -64.92 -0.000021   -0.07    -64.99   
   162. D(H   4,C   3,C   1,C  24)    -64.40  0.000014   -0.07    -64.48   
   163. D(C   5,C   3,C   1,O   0)    173.54  0.000024   -0.07    173.47   
   164. D(C   5,C   3,C   1,C  24)     54.01  0.000030   -0.05     53.96   
   165. D(H   4,C   3,C   1,H   2)    176.67 -0.000037   -0.09    176.58   
   166. D(H   4,C   3,C   1,O   0)     55.13  0.000008   -0.09     55.04   
   167. D(C   7,C   5,C   3,H   4)    -58.85 -0.000005   -0.06    -58.92   
   168. D(H   6,C   5,C   3,O  18)    -56.40 -0.000014   -0.08    -56.48   
   169. D(C   7,C   5,C   3,C   1)   -177.23 -0.000031   -0.06   -177.28   
   170. D(H   6,C   5,C   3,H   4)   -177.61 -0.000004   -0.06   -177.67   
   171. D(C   7,C   5,C   3,O  18)     62.35 -0.000014   -0.09     62.27   
   172. D(H   6,C   5,C   3,C   1)     64.02 -0.000030   -0.06     63.96   
   173. D(H  28,C   7,C   5,H   6)    -62.46 -0.000021   -0.08    -62.54   
   174. D(H  28,C   7,C   5,O  19)     57.71  0.000002   -0.12     57.59   
   175. D(H  28,C   7,C   5,C   3)    179.37 -0.000023   -0.10    179.27   
   176. D(O   8,C   7,C   5,O  19)    177.03  0.000035   -0.12    176.91   
   177. D(O   8,C   7,C   5,H   6)     56.86  0.000012   -0.09     56.77   
   178. D(O   8,C   7,C   5,C   3)    -61.31  0.000010   -0.11    -61.42   
   179. D(Si  9,O   8,C   7,H  28)    159.07  0.000009   -0.35    158.72   
   180. D(Si  9,O   8,C   7,H  29)    -82.27 -0.000060   -0.34    -82.61   
   181. D(Si  9,O   8,C   7,C   5)     38.87  0.000004   -0.34     38.53   
   182. D(O  18,Si  9,O   8,C   7)    -15.63 -0.000002    0.79    -14.84   
   183. D(C  14,Si  9,O   8,C   7)    100.70 -0.000032    0.64    101.35   
   184. D(C  10,Si  9,O   8,C   7)   -130.04 -0.000032    0.53   -129.51   
   185. D(C  12,C  10,Si  9,O   8)    -49.80  0.000008    0.47    -49.33   
   186. D(C  11,C  10,Si  9,O  18)     74.19 -0.000069    0.28     74.48   
   187. D(C  11,C  10,Si  9,C  14)    -47.89  0.000013    0.27    -47.62   
   188. D(C  11,C  10,Si  9,O   8)   -170.90  0.000001    0.46   -170.45   
   189. D(C  12,C  10,Si  9,O  18)   -164.71 -0.000062    0.29   -164.41   
   190. D(C  12,C  10,Si  9,C  14)     73.20  0.000020    0.29     73.49   
   191. D(H  31,C  11,C  10,C  12)   -179.45  0.000031    0.15   -179.30   
   192. D(H  31,C  11,C  10,Si  9)    -57.54  0.000013    0.18    -57.36   
   193. D(H  30,C  11,C  10,C  13)   -176.36 -0.000086    0.27   -176.09   
   194. D(H  30,C  11,C  10,C  12)    -59.06  0.000001    0.20    -58.86   
   195. D(H  31,C  11,C  10,C  13)     63.25 -0.000056    0.23     63.47   
   196. D(H  30,C  11,C  10,Si  9)     62.85 -0.000017    0.23     63.08   
   197. D(H  34,C  12,C  10,C  13)     55.21  0.000042    0.03     55.24   
   198. D(H  34,C  12,C  10,C  11)    -62.29 -0.000063    0.11    -62.18   
   199. D(H  34,C  12,C  10,Si  9)    175.01 -0.000003    0.05    175.06   
   200. D(H  33,C  12,C  10,C  13)    175.11  0.000043    0.02    175.14   
   201. D(H  33,C  12,C  10,C  11)     57.62 -0.000062    0.10     57.72   
   202. D(H  33,C  12,C  10,Si  9)    -65.08 -0.000002    0.04    -65.04   
   203. D(H  37,C  13,C  10,C  12)     59.53 -0.000052    0.08     59.62   
   204. D(H  37,C  13,C  10,C  11)    177.35  0.000045    0.02    177.36   
   205. D(H  37,C  13,C  10,Si  9)    -60.67 -0.000037    0.08    -60.59   
   206. D(H  36,C  13,C  10,C  12)   -179.82 -0.000056    0.10   -179.72   
   207. D(H  36,C  13,C  10,C  11)    -62.00  0.000041    0.03    -61.97   
   208. D(H  36,C  13,C  10,Si  9)     59.98 -0.000040    0.10     60.08   
   209. D(C  16,C  14,Si  9,O  18)   -166.62  0.000071   -0.76   -167.38   
   210. D(C  16,C  14,Si  9,C  10)    -44.62  0.000038   -0.64    -45.26   
   211. D(C  16,C  14,Si  9,O   8)     76.69  0.000002   -0.69     76.00   
   212. D(C  15,C  14,Si  9,O  18)     74.18  0.000057   -0.72     73.47   
   213. D(C  15,C  14,Si  9,C  10)   -163.81  0.000025   -0.59   -164.41   
   214. D(C  15,C  14,Si  9,O   8)    -42.51 -0.000011   -0.64    -43.15   
   215. D(H  40,C  15,C  14,C  16)    178.89  0.000014    0.10    178.99   
   216. D(H  40,C  15,C  14,Si  9)    -59.68  0.000033    0.05    -59.63   
   217. D(H  39,C  15,C  14,C  17)   -177.61 -0.000044    0.11   -177.51   
   218. D(H  39,C  15,C  14,C  16)    -60.33 -0.000017    0.13    -60.20   
   219. D(H  40,C  15,C  14,C  17)     61.61 -0.000013    0.08     61.69   
   220. D(H  39,C  15,C  14,Si  9)     61.11  0.000002    0.07     61.18   
   221. D(H  43,C  16,C  14,C  17)     61.89  0.000022    0.06     61.95   
   222. D(H  43,C  16,C  14,C  15)    -55.03 -0.000022    0.08    -54.96   
   223. D(H  43,C  16,C  14,Si  9)   -175.06 -0.000005    0.16   -174.90   
   224. D(H  42,C  16,C  14,C  17)   -178.04  0.000030    0.05   -177.99   
   225. D(H  42,C  16,C  14,C  15)     65.03 -0.000015    0.07     65.10   
   226. D(H  42,C  16,C  14,Si  9)    -55.00  0.000002    0.15    -54.85   
   227. D(H  46,C  17,C  14,C  16)     62.12  0.000011   -0.18     61.94   
   228. D(H  46,C  17,C  14,C  15)    178.93  0.000047   -0.18    178.74   
   229. D(H  46,C  17,C  14,Si  9)    -61.05  0.000002   -0.23    -61.29   
   230. D(H  45,C  17,C  14,C  16)   -177.74 -0.000005   -0.16   -177.90   
   231. D(H  45,C  17,C  14,C  15)    -60.93  0.000032   -0.16    -61.09   
   232. D(H  45,C  17,C  14,Si  9)     59.09 -0.000013   -0.21     58.88   
   233. D(C   3,O  18,Si  9,C  14)   -101.40  0.000006   -0.76   -102.16   
   234. D(C   3,O  18,Si  9,C  10)    129.38  0.000031   -0.75    128.63   
   235. D(C   3,O  18,Si  9,O   8)     16.02  0.000050   -0.97     15.05   
   236. D(Si  9,O  18,C   3,C   5)    -39.94 -0.000065    0.70    -39.24   
   237. D(Si  9,O  18,C   3,H   4)     80.82 -0.000056    0.73     81.55   
   238. D(Si  9,O  18,C   3,C   1)   -160.55 -0.000039    0.68   -159.87   
   239. D(C  20,O  19,C   5,C   7)   -175.77 -0.000045    0.12   -175.66   
   240. D(C  20,O  19,C   5,H   6)    -56.73 -0.000036    0.08    -56.65   
   241. D(C  20,O  19,C   5,C   3)     62.67  0.000059    0.06     62.72   
   242. D(C  24,C  20,O  19,C   5)    -62.41 -0.000032    0.01    -62.40   
   243. D(O  22,C  20,O  19,C   5)    170.35  0.000001   -0.00    170.35   
   244. D(H  21,C  20,O  19,C   5)     56.28  0.000009    0.04     56.31   
   245. D(C  23,O  22,C  20,C  24)    -57.45  0.000023   -0.13    -57.58   
   246. D(C  23,O  22,C  20,H  21)   -176.26 -0.000029   -0.13   -176.39   
   247. D(C  23,O  22,C  20,O  19)     66.37  0.000042   -0.13     66.23   
   248. D(H  50,C  23,O  22,C  20)    -46.43  0.000029   -0.14    -46.57   
   249. D(H  49,C  23,O  22,C  20)     76.60  0.000046   -0.13     76.47   
   250. D(H  48,C  23,O  22,C  20)   -165.13  0.000031   -0.12   -165.25   
   251. D(H  25,C  24,C  20,O  22)     63.20 -0.000001   -0.13     63.07   
   252. D(H  25,C  24,C  20,H  21)   -179.96  0.000054   -0.16   -180.12   
   253. D(C   1,C  24,C  20,O  22)   -179.34  0.000013   -0.10   -179.44   
   254. D(C   1,C  24,C  20,H  21)    -62.50  0.000068   -0.12    -62.63   
   255. D(C   1,C  24,C  20,O  19)     57.18  0.000046   -0.10     57.07   
   256. D(H  25,C  24,C   1,C   3)     63.78 -0.000038    0.15     63.93   
   257. D(H  25,C  24,C   1,H   2)   -177.57 -0.000021    0.19   -177.38   
   258. D(H  25,C  24,C   1,O   0)    -58.39 -0.000029    0.15    -58.24   
   259. D(H  25,C  24,C  20,O  19)    -60.28  0.000032   -0.14    -60.42   
   260. D(C  20,C  24,C   1,C   3)    -54.46  0.000002    0.09    -54.37   
   261. D(C  20,C  24,C   1,H   2)     64.19  0.000018    0.13     64.32   
   262. D(C  20,C  24,C   1,O   0)   -176.63  0.000011    0.09   -176.54   
   263. D(H  51,O  26,C  24,H  25)     69.72  0.000013    0.16     69.88   
   264. D(H  51,O  26,C  24,C  20)   -170.42  0.000009    0.18   -170.24   
   265. D(H  51,O  26,C  24,C   1)    -50.26 -0.000052    0.22    -50.04   
    ----------------------------------------------------------------------------

Geometry step timings:
Preparation and reading OPT file:      0.001 s ( 4.407 %)
Internal coordinates            :      0.000 s ( 0.136 %)
B/P matrices and projection     :      0.006 s (24.391 %)
Hessian update/contruction      :      0.010 s (41.781 %)
Making the step                 :      0.004 s (15.800 %)
Converting the step to Cartesian:      0.001 s ( 2.068 %)
Storing new data                :      0.001 s ( 3.666 %)
Checking convergence            :      0.000 s ( 0.140 %)
Final printing                  :      0.002 s ( 7.607 %)
Total time                      :      0.024 s

Time for energy+gradient        :      0.075 s
Time for complete geometry iter :      0.109 s

         *************************************************************
         *                GEOMETRY OPTIMIZATION CYCLE  10            *
         *************************************************************
---------------------------------
CARTESIAN COORDINATES (ANGSTROEM)
---------------------------------
  O    -3.660199    2.057504   -0.295696
  C    -2.302172    1.749452   -0.101247
  H    -2.139626    1.397431    0.930878
  C    -1.817144    0.662691   -1.066106
  H    -2.033905    0.983560   -2.095430
  C    -0.304812    0.495717   -0.910558
  H    -0.109565    0.133882    0.112235
  C     0.228876   -0.532538   -1.903514
  O    -0.337493   -1.790794   -1.690432
  Si   -1.918643   -1.990050   -1.277622
  C    -1.914370   -3.144254    0.260104
  C    -3.325774   -3.610227    0.618942
  C    -1.039743   -4.372918   -0.001632
  C    -1.332224   -2.395051    1.466351
  C    -2.915518   -2.518800   -2.851893
  C    -2.462700   -1.666309   -4.047765
  C    -2.671773   -3.988667   -3.203264
  C    -4.420907   -2.303838   -2.658445
  O    -2.507973   -0.522524   -0.791873
  O     0.357278    1.715032   -1.135985
  C     0.006697    2.723179   -0.198369
  H     0.203493    2.365084    0.826821
  O     0.853143    3.798382   -0.359507
  C     0.750872    4.513050   -1.587058
  C    -1.499473    3.039365   -0.317791
  H    -1.711561    3.400570   -1.336417
  O    -1.832522    4.010696    0.634144
  H    -4.158048    1.229984   -0.273477
  H     1.312110   -0.625988   -1.783470
  H     0.017030   -0.185558   -2.920943
  H    -3.750702   -4.205896   -0.183960
  H    -3.977201   -2.759749    0.799370
  H    -3.303168   -4.223779    1.519005
  H    -1.457656   -4.985879   -0.793817
  H    -0.967684   -4.981614    0.899147
  H    -0.039221   -4.071307   -0.297539
  H    -1.925050   -1.512970    1.695386
  H    -0.308329   -2.086794    1.266381
  H    -1.326858   -3.041846    2.342997
  H    -1.405757   -1.821046   -4.250673
  H    -2.630947   -0.608093   -3.857627
  H    -3.025594   -1.941765   -4.938848
  H    -1.608788   -4.185486   -3.313271
  H    -3.168650   -4.240200   -4.139456
  H    -3.065059   -4.640106   -2.427900
  H    -4.632359   -1.260248   -2.443695
  H    -4.797687   -2.903487   -1.835522
  H    -4.958939   -2.585288   -3.562810
  H     1.648398    5.125846   -1.635211
  H    -0.131878    5.157862   -1.590547
  H     0.724672    3.826705   -2.434917
  H    -2.797989    4.082337    0.651303

----------------------------
CARTESIAN COORDINATES (A.U.)
----------------------------
  NO LB    ZA    FRAG    MASS        X           Y           Z
   0 O   8.0000    1    15.999   -6.916773    3.888120   -0.558785
   1 C   6.0000    1    12.011   -4.350474    3.305984   -0.191330
   2 H   1.0000    1     1.008   -4.043307    2.640762    1.759104
   3 C   6.0000    1    12.011   -3.433905    1.252305   -2.014649
   4 H   1.0000    1     1.008   -3.843524    1.858659   -3.959789
   5 C   6.0000    1    12.011   -0.576012    0.936770   -1.720706
   6 H   1.0000    1     1.008   -0.207048    0.253000    0.212094
   7 C   6.0000    1    12.011    0.432513   -1.006351   -3.597121
   8 O   8.0000    1    15.999   -0.637768   -3.384109   -3.194453
   9 Si 14.0000    1    28.086   -3.625709   -3.760649   -2.414355
  10 C   6.0000    1    12.011   -3.617636   -5.941779    0.491525
  11 C   6.0000    1    12.011   -6.284801   -6.822341    1.169631
  12 C   6.0000    1    12.011   -1.964830   -8.263618   -0.003084
  13 C   6.0000    1    12.011   -2.517539   -4.525990    2.771002
  14 C   6.0000    1    12.011   -5.509530   -4.759843   -5.389296
  15 C   6.0000    1    12.011   -4.653828   -3.148868   -7.649167
  16 C   6.0000    1    12.011   -5.048919   -7.537488   -6.053291
  17 C   6.0000    1    12.011   -8.354303   -4.353622   -5.023734
  18 O   8.0000    1    15.999   -4.739382   -0.987428   -1.496423
  19 O   8.0000    1    15.999    0.675157    3.240941   -2.146700
  20 C   6.0000    1    12.011    0.012656    5.146062   -0.374862
  21 H   1.0000    1     1.008    0.384547    4.469360    1.562465
  22 O   8.0000    1    15.999    1.612206    7.177902   -0.679369
  23 C   6.0000    1    12.011    1.418942    8.528429   -2.999106
  24 C   6.0000    1    12.011   -2.833594    5.743567   -0.600538
  25 H   1.0000    1     1.008   -3.234381    6.426146   -2.525462
  26 O   8.0000    1    15.999   -3.462965    7.579117    1.198359
  27 H   1.0000    1     1.008   -7.857572    2.324333   -0.516796
  28 H   1.0000    1     1.008    2.479529   -1.182945   -3.370271
  29 H   1.0000    1     1.008    0.032182   -0.350654   -5.519783
  30 H   1.0000    1     1.008   -7.087800   -7.947992   -0.347634
  31 H   1.0000    1     1.008   -7.515820   -5.215170    1.510589
  32 H   1.0000    1     1.008   -6.242082   -7.981786    2.870503
  33 H   1.0000    1     1.008   -2.754570   -9.421945   -1.500096
  34 H   1.0000    1     1.008   -1.828659   -9.413886    1.699142
  35 H   1.0000    1     1.008   -0.074117   -7.693655   -0.562267
  36 H   1.0000    1     1.008   -3.637818   -2.859099    3.203815
  37 H   1.0000    1     1.008   -0.582657   -3.943470    2.393114
  38 H   1.0000    1     1.008   -2.507399   -5.748256    4.427623
  39 H   1.0000    1     1.008   -2.656496   -3.441279   -8.032607
  40 H   1.0000    1     1.008   -4.971769   -1.149129   -7.289858
  41 H   1.0000    1     1.008   -5.717544   -3.669405   -9.333070
  42 H   1.0000    1     1.008   -3.040168   -7.909422   -6.261176
  43 H   1.0000    1     1.008   -5.987881   -8.012817   -7.822439
  44 H   1.0000    1     1.008   -5.792121   -8.768529   -4.588067
  45 H   1.0000    1     1.008   -8.753890   -2.381525   -4.617913
  46 H   1.0000    1     1.008   -9.066315   -5.486795   -3.468633
  47 H   1.0000    1     1.008   -9.371037   -4.885486   -6.732735
  48 H   1.0000    1     1.008    3.115021    9.686445   -3.090101
  49 H   1.0000    1     1.008   -0.249214    9.746947   -3.005697
  50 H   1.0000    1     1.008    1.369432    7.231425   -4.601325
  51 H   1.0000    1     1.008   -5.287433    7.714500    1.230784

      -----------------------------------------------------------      
     |                   =====================                   |     
     |                           x T B                           |     
     |                   =====================                   |     
     |                         S. Grimme                         |     
     |          Mulliken Center for Theoretical Chemistry        |     
     |                    University of Bonn                     |     
      -----------------------------------------------------------      

   * xtb version 6.7.1 (edcfbbe) compiled by 'albert@albert-system' on 2024-07-22

   xtb is free software: you can redistribute it and/or modify it under
   the terms of the GNU Lesser General Public License as published by
   the Free Software Foundation, either version 3 of the License, or
   (at your option) any later version.
   
   xtb is distributed in the hope that it will be useful,
   but WITHOUT ANY WARRANTY; without even the implied warranty of
   MERCHANTABILITY or FITNESS FOR A PARTICULAR PURPOSE.  See the
   GNU Lesser General Public License for more details.
   
   Cite this work as:
   * C. Bannwarth, E. Caldeweyher, S. Ehlert, A. Hansen, P. Pracht,
     J. Seibert, S. Spicher, S. Grimme, WIREs Comput. Mol. Sci., 2020, 11,
     e01493. DOI: 10.1002/wcms.1493
   
   for GFN2-xTB:
   * C. Bannwarth, S. Ehlert and S. Grimme., J. Chem. Theory Comput., 2019,
     15, 1652-1671. DOI: 10.1021/acs.jctc.8b01176
   for GFN1-xTB:
   * S. Grimme, C. Bannwarth, P. Shushkov, J. Chem. Theory Comput., 2017,
     13, 1989-2009. DOI: 10.1021/acs.jctc.7b00118
   for GFN0-xTB:
   * P. Pracht, E. Caldeweyher, S. Ehlert, S. Grimme, ChemRxiv, 2019, preprint.
     DOI: 10.26434/chemrxiv.8326202.v1
   for GFN-FF:
   * S. Spicher and S. Grimme, Angew. Chem. Int. Ed., 2020, 59, 15665-15673.
     DOI: 10.1002/anie.202004239
   
   for ALPB and GBSA implicit solvation:
   * S. Ehlert, M. Stahn, S. Spicher, S. Grimme, J. Chem. Theory Comput.,
     2021, 17, 4250-4261. DOI: 10.1021/acs.jctc.1c00471
   
   for ddCOSMO and CPCM-X implicit solvation:
   * M. Stahn, S. Ehlert, S. Grimme, J. Phys. Chem. A,
     2023, XX, XXXX-XXXX. DOI: 10.1021/acs.jpca.3c04382
   
   for DFT-D4:
   * E. Caldeweyher, C. Bannwarth and S. Grimme, J. Chem. Phys., 2017,
     147, 034112. DOI: 10.1063/1.4993215
   * E. Caldeweyher, S. Ehlert, A. Hansen, H. Neugebauer, S. Spicher,
     C. Bannwarth and S. Grimme, J. Chem. Phys., 2019, 150, 154122.
     DOI: 10.1063/1.5090222
   * E. Caldeweyher, J.-M. Mewes, S. Ehlert and S. Grimme, Phys. Chem. Chem. Phys.
     2020, 22, 8499-8512. DOI: 10.1039/D0CP00502A
   
   for sTDA-xTB:
   * S. Grimme and C. Bannwarth, J. Chem. Phys., 2016, 145, 054103.
     DOI: 10.1063/1.4959605
   
   in the mass-spec context:
   * V. Asgeirsson, C. Bauer and S. Grimme, Chem. Sci., 2017, 8, 4879.
     DOI: 10.1039/c7sc00601b
   * J. Koopman and S. Grimme, ACS Omega 2019, 4, 12, 15120-15133.
     DOI: 10.1021/acsomega.9b02011
   
   for metadynamics refer to:
   * S. Grimme, J. Chem. Theory Comput., 2019, 155, 2847-2862
     DOI: 10.1021/acs.jctc.9b00143
   
   for SPH calculations refer to:
   * S. Spicher and S. Grimme, J. Chem. Theory Comput., 2021, 17, 1701-1714
     DOI: 10.1021/acs.jctc.0c01306
   
   for ONIOM refer to:
   * C. Plett, A. Katbashev, S. Ehlert, S. Grimme, M. Bursch,
     Phys. Chem. Chem. Phys., 2023, 25, 17860-17868. DOI: 10.1039/D3CP02178E
   
   for DIPRO refer to:
   * J. Kohn, N. Gildemeister, S. Grimme, D. Fazzi, A. Hansen,
     J. Chem. Phys., 2023, just accepted.
   
   for PTB refer to:
   * S. Grimme, M. Mueller, A. Hansen, J. Chem. Phys., 2023, 158, 124111.
     DOI: 10.1063/5.0137838
   
   with help from (in alphabetical order)
   P. Atkinson, C. Bannwarth, F. Bohle, G. Brandenburg, E. Caldeweyher
   M. Checinski, S. Dohm, S. Ehlert, S. Ehrlich, I. Gerasimov, C. Hölzer
   A. Katbashev, J. Kohn, J. Koopman, C. Lavigne, S. Lehtola, F. März, M. Müller,
   F. Musil, H. Neugebauer, J. Pisarek, C. Plett, P. Pracht, F. Pultar,
   J. Seibert, P. Shushkov, S. Spicher, M. Stahn, M. Steiner, T. Strunk,
   J. Stückrath, T. Rose, and J. Unsleber
   
 * started run on 2025/09/10 at 11:31:44.549     
   ID    Z sym.   atoms
    1    8 O      1, 9, 19, 20, 23, 27
    2    6 C      2, 4, 6, 8, 11-18, 21, 24, 25
    3    1 H      3, 5, 7, 22, 26, 28-52
    4   14 Si     10

           -------------------------------------------------
          |                Calculation Setup                |
           -------------------------------------------------

          program call               : /home/kmoult/orca_6_1/otool_xtb goat_0_XTB.xyz --grad -c 0 -u 0 -P 4 --namespace goat_0 --input goat_0_XTB.input.tmp --alpb ACETONE --acc 0.200000
          hostname                   : node3306
          calculation namespace      : goat_0
          coordinate file            : goat_0_XTB.xyz
          omp threads                :                     4


           -------------------------------------------------
          |                 G F N 2 - x T B                 |
           -------------------------------------------------

        Reference                      10.1021/acs.jctc.8b01176
      * Hamiltonian:
        H0-scaling (s, p, d)           1.850000    2.230000    2.230000
        zeta-weighting                 0.500000
      * Dispersion:
        s8                             2.700000
        a1                             0.520000
        a2                             5.000000
        s9                             5.000000
      * Repulsion:
        kExp                           1.500000    1.000000
        rExp                           1.000000
      * Coulomb:
        alpha                          2.000000
        third order                    shell-resolved
        anisotropic                    true
        a3                             3.000000
        a5                             4.000000
        cn-shift                       1.200000
        cn-exp                         4.000000
        max-rad                        5.000000

      * Solvation model:               ALPB
        Solvent                        ACETONE
        Parameter file                 internal GFN2-xTB/ALPB
        Dielectric constant                2.0700E+01
        Reference state                gsolv [1 M gas/solution]
        Free energy shift                  5.9241E-03 Eh       3.7175E+00 kcal/mol
        Temperature                        2.9815E+02 K
        Density                            7.9000E-01 kg/L
        Solvent mass                       5.8080E+01 g/mol
        Interaction kernel             P16
        Born radius scaling (c1)           1.8274E+00
        Born radii integrator          GBOBC
        Born offset                        0.0000E+00 a0       0.0000E+00 AA
        H-bond correction              true
        Ion screening                  false
        Surface tension                    1.0000E-05 Eh       1.5569E+01 dyn/cm
        Grid points                               230 per atom
q/qsh data taken from xtbrestart
CAMM data taken from xtbrestart

          ...................................................
          :                      SETUP                      :
          :.................................................:
          :  # basis functions                 124          :
          :  # atomic orbitals                 123          :
          :  # shells                           75          :
          :  # electrons                       130          :
          :  max. iterations                   250          :
          :  Hamiltonian                  GFN2-xTB          :
          :  restarted?                       true          :
          :  GBSA solvation                   true          :
          :  PC potential                    false          :
          :  electronic temp.          300.0000000     K    :
          :  accuracy                    0.2000000          :
          :  -> integral cutoff          0.3198970E+02      :
          :  -> integral neglect         0.2000000E-08      :
          :  -> SCF convergence          0.2000000E-06 Eh   :
          :  -> wf. convergence          0.2000000E-04 e    :
          :  Broyden damping             0.4000000          :
          :  net charge                          0          :
          :  unpaired electrons                  0          :
          ...................................................

 iter      E             dE          RMSdq      gap      omega  full diag
   1    -74.4402620 -0.744403E+02  0.275E-02    5.49       0.0  T
   2    -74.4402622 -0.197160E-06  0.180E-02    5.49       1.0  T
   3    -74.4402622 -0.186901E-07  0.462E-03    5.49       3.0  T
   4    -74.4402622 -0.558834E-07  0.333E-03    5.49       4.2  T
   5    -74.4402622 -0.188164E-07  0.744E-04    5.49      18.6  T
   6    -74.4402623 -0.122817E-07  0.270E-04    5.49      51.4  T
   7    -74.4402623 -0.102236E-08  0.206E-04    5.49      67.3  T
   8    -74.4402623 -0.344571E-09  0.111E-04    5.49     124.8  T
   9    -74.4402623 -0.149640E-10  0.580E-05    5.49     239.2  T

   *** convergence criteria satisfied after 9 iterations ***

         #    Occupation            Energy/Eh            Energy/eV
      -------------------------------------------------------------
         1        2.0000           -0.8173616             -22.2415
       ...           ...                  ...                  ...
        59        2.0000           -0.4259132             -11.5897
        60        2.0000           -0.4241273             -11.5411
        61        2.0000           -0.4230576             -11.5120
        62        2.0000           -0.4180062             -11.3745
        63        2.0000           -0.4144297             -11.2772
        64        2.0000           -0.4059826             -11.0473
        65        2.0000           -0.3716911             -10.1142 (HOMO)
        66                         -0.1699921              -4.6257 (LUMO)
        67                         -0.1432988              -3.8994
        68                         -0.0909405              -2.4746
        69                         -0.0485668              -1.3216
        70                         -0.0049551              -0.1348
       ...                                ...                  ...
       123                          0.7846702              21.3520
      -------------------------------------------------------------
                  HL-Gap            0.2016990 Eh            5.4885 eV
             Fermi-level           -0.2708416 Eh           -7.3700 eV

 SCC (total)                   0 d,  0 h,  0 min,  0.046 sec
 SCC setup                      ...        0 min,  0.001 sec (  1.414%)
 Dispersion                     ...        0 min,  0.001 sec (  1.447%)
 classical contributions        ...        0 min,  0.000 sec (  0.087%)
 integral evaluation            ...        0 min,  0.017 sec ( 36.627%)
 iterations                     ...        0 min,  0.019 sec ( 41.798%)
 molecular gradient             ...        0 min,  0.008 sec ( 18.260%)
 printout                       ...        0 min,  0.000 sec (  0.328%)

         :::::::::::::::::::::::::::::::::::::::::::::::::::::
         ::                     SUMMARY                     ::
         :::::::::::::::::::::::::::::::::::::::::::::::::::::
         :: total energy             -73.690541193248 Eh    ::
         :: total w/o Gsasa/hb       -73.661664028701 Eh    ::
         :: gradient norm              0.000931421186 Eh/a0 ::
         :: HOMO-LUMO gap              5.488509071518 eV    ::
         ::.................................................::
         :: SCC energy               -74.438899391583 Eh    ::
         :: -> isotropic ES            0.157237389391 Eh    ::
         :: -> anisotropic ES          0.003123423987 Eh    ::
         :: -> anisotropic XC          0.005515649359 Eh    ::
         :: -> dispersion             -0.053493337764 Eh    ::
         :: -> Gsolv                  -0.031840017055 Eh    ::
         ::    -> Gelec               -0.002962852507 Eh    ::
         ::    -> Gsasa               -0.028884375879 Eh    ::
         ::    -> Ghb                 -0.005916929932 Eh    ::
         ::    -> Gshift               0.005924141264 Eh    ::
         :: repulsion energy           0.748358198335 Eh    ::
         :: add. restraining           0.000000000000 Eh    ::
         :: total charge               0.000000000000 e     ::
         :::::::::::::::::::::::::::::::::::::::::::::::::::::


Property printout bound to 'properties.out'

           -------------------------------------------------
          | TOTAL ENERGY              -73.690541193248 Eh   |
          | GRADIENT NORM               0.000931421186 Eh/α |
          | HOMO-LUMO GAP               5.488509071518 eV   |
           -------------------------------------------------

------------------------------------------------------------------------
 * finished run on 2025/09/10 at 11:31:44.618     
------------------------------------------------------------------------
 total:
 * wall-time:     0 d,  0 h,  0 min,  0.068 sec
 *  cpu-time:     0 d,  0 h,  0 min,  0.242 sec
 * ratio c/w:     3.532 speedup
 SCF:
 * wall-time:     0 d,  0 h,  0 min,  0.046 sec
 *  cpu-time:     0 d,  0 h,  0 min,  0.172 sec
 * ratio c/w:     3.727 speedup


-------------------------   --------------------
FINAL SINGLE POINT ENERGY       -73.690541193250
-------------------------   --------------------


-------------
DIPOLE MOMENT
-------------
                                X             Y             Z
Total Dipole Moment    :     -0.96100      -0.76300      -0.66000
                        -----------------------------------------
Magnitude (a.u.)       :      1.39330
Magnitude (Debye)      :      3.54149


------------------
CARTESIAN GRADIENT
------------------

   1   O   :   -0.000055463   -0.000007869   -0.000069315
   2   C   :    0.000146146   -0.000058762    0.000113308
   3   H   :   -0.000077612   -0.000014027   -0.000036671
   4   C   :    0.000123190    0.000031479   -0.000059020
   5   H   :   -0.000045411   -0.000025514    0.000011559
   6   C   :   -0.000123052   -0.000076826   -0.000037031
   7   H   :    0.000037718    0.000019518    0.000033334
   8   C   :   -0.000122091    0.000008729    0.000187283
   9   O   :   -0.000026433    0.000071057   -0.000142078
  10   Si  :    0.000224303    0.000141637    0.000355367
  11   C   :   -0.000030902   -0.000276707   -0.000039113
  12   C   :    0.000093032    0.000025463   -0.000158939
  13   C   :   -0.000059853    0.000184634   -0.000097019
  14   C   :   -0.000080813    0.000092274   -0.000106114
  15   C   :   -0.000167376   -0.000187276   -0.000160323
  16   C   :    0.000041444   -0.000041344    0.000055451
  17   C   :    0.000003763    0.000130609    0.000066188
  18   C   :    0.000112157   -0.000035068    0.000057679
  19   O   :    0.000012349   -0.000012665   -0.000020103
  20   O   :    0.000003124   -0.000060721   -0.000071904
  21   C   :   -0.000095423    0.000207420    0.000004377
  22   H   :    0.000084015   -0.000057926    0.000006631
  23   O   :   -0.000135490   -0.000066295    0.000057782
  24   C   :   -0.000043918   -0.000089663   -0.000005201
  25   C   :    0.000003635    0.000066917   -0.000054970
  26   H   :    0.000010939   -0.000025909   -0.000016216
  27   O   :    0.000021819   -0.000004637   -0.000007362
  28   H   :    0.000003205    0.000054433    0.000062278
  29   H   :    0.000030935    0.000020658   -0.000002256
  30   H   :    0.000009690   -0.000060002   -0.000040770
  31   H   :   -0.000013668    0.000045589    0.000017481
  32   H   :    0.000019492   -0.000010204    0.000034119
  33   H   :   -0.000002877    0.000023170    0.000034079
  34   H   :   -0.000001807   -0.000013845    0.000031957
  35   H   :    0.000021449    0.000003947    0.000027620
  36   H   :   -0.000009191   -0.000020416    0.000025034
  37   H   :    0.000038300   -0.000006368    0.000020602
  38   H   :   -0.000004065   -0.000047517   -0.000003765
  39   H   :    0.000016843    0.000013961    0.000029673
  40   H   :   -0.000018726    0.000026823   -0.000011887
  41   H   :    0.000009190   -0.000006946   -0.000005966
  42   H   :    0.000004239    0.000012408   -0.000000591
  43   H   :   -0.000033269   -0.000002563   -0.000011072
  44   H   :    0.000005286   -0.000013000   -0.000009517
  45   H   :   -0.000021530   -0.000012919   -0.000019666
  46   H   :   -0.000009515   -0.000005193   -0.000020684
  47   H   :   -0.000014361    0.000035954    0.000025278
  48   H   :   -0.000000808    0.000017347   -0.000007686
  49   H   :    0.000020420   -0.000017086   -0.000077700
  50   H   :    0.000009649    0.000031842    0.000066323
  51   H   :    0.000067484    0.000024838   -0.000000955
  52   H   :    0.000019839   -0.000033436   -0.000029509

Difference to translation invariance:
           :   -0.0000000000   -0.0000000000   -0.0000000000

Difference to rotation invariance:
           :   -0.0008006561    0.0005804198   -0.0002659969

Norm of the Cartesian gradient     ...    0.0009314212
RMS gradient                       ...    0.0000745734
MAX gradient                       ...    0.0003553669
------------------------------------------------------------------------------
                         ORCA GEOMETRY RELAXATION STEP
------------------------------------------------------------------------------

Reading the OPT-File                    .... done
Getting information on internals        .... done
Copying old internal coords+grads       .... done
Making the new internal coordinates     .... (2022 redundants) done
Validating the new internal coordinates .... (2022 redundants) done
Calculating the B-matrix                .... done
Calculating the G,G- and P matrices     .... done
Transforming gradient to internals      .... done
Projecting the internal gradient        .... done
Number of atoms                         ....  52
Number of internal coordinates          .... 265
Current Energy                          ....   -73.690541193 Eh
Current gradient norm                   ....     0.000931421 Eh/bohr
Maximum allowed component of the step   ....  0.300
Current trust radius                    ....  0.450
Updating the Hessian (BFGS)             .... done
Forming the augmented Hessian           .... done
Diagonalizing the augmented Hessian     .... done
Last element of RFO vector              ....  0.998884854
Lowest eigenvalues of augmented Hessian:
 -0.000006688  0.001595567  0.007152133  0.010010285  0.010058029
Length of the computed step             ....  0.047265507
The final length of the internal step   ....  0.047265507
Converting the step to Cartesian space:
 Initial RMS(Int)=    0.0029034970
Transforming coordinates:
 Iter   0:  RMS(Cart)=    0.0154829962 RMS(Int)=    0.0029038062
done
Storing new coordinates                 .... done
The predicted energy change is          ....    -0.000003352
Previously predicted energy change      ....    -0.000005884
Actually observed energy change         ....    -0.000008058
Ratio of predicted to observed change   ....     1.369391099
New trust radius                        ....     0.450000000

                                .--------------------.
          ----------------------|Geometry convergence|-------------------------
          Item                value                   Tolerance       Converged
          ---------------------------------------------------------------------
          Energy change      -0.0000080577            0.0000050000      NO
          RMS gradient        0.0000396053            0.0001000000      YES
          MAX gradient        0.0001656323            0.0003000000      YES
          RMS step            0.0029034970            0.0020000000      NO
          MAX step            0.0125646841            0.0040000000      NO
          -------------------------------------------------------------------------
          ........................................................
          Max(Bonds)      0.0016      Max(Angles)    0.11
          Max(Dihed)        0.72      Max(Improp)    0.00
          ---------------------------------------------------------------------

    ---------------------------------------------------------------------------
                         Redundant Internal Coordinates
                            (Angstroem and degrees)

        Definition                    Value    dE/dq     Step     New-Value
    ----------------------------------------------------------------------------
     1. B(C   1,O   0)                1.4060  0.000049  0.0001    1.4061   
     2. B(H   2,C   1)                1.1026 -0.000040  0.0000    1.1026   
     3. B(C   3,C   1)                1.5321 -0.000019 -0.0000    1.5320   
     4. B(H   4,C   3)                1.0998 -0.000010  0.0001    1.0998   
     5. B(C   5,C   3)                1.5295 -0.000126 -0.0001    1.5294   
     6. B(H   6,C   5)                1.1023  0.000033 -0.0000    1.1023   
     7. B(C   7,C   5)                1.5258 -0.000089 -0.0001    1.5257   
     8. B(O   8,C   7)                1.3962 -0.000124  0.0001    1.3963   
     9. B(Si  9,O   8)                1.6463 -0.000071  0.0003    1.6465   
    10. B(C  10,Si  9)                1.9227 -0.000166  0.0000    1.9227   
    11. B(C  11,C  10)                1.5290 -0.000130  0.0002    1.5292   
    12. B(C  12,C  10)                1.5307 -0.000148  0.0003    1.5310   
    13. B(C  13,C  10)                1.5347 -0.000040  0.0003    1.5349   
    14. B(C  14,Si  9)                1.9369  0.000109 -0.0006    1.9363   
    15. B(C  15,C  14)                1.5368 -0.000013  0.0001    1.5370   
    16. B(C  16,C  14)                1.5308 -0.000111  0.0001    1.5309   
    17. B(C  17,C  14)                1.5329 -0.000085  0.0000    1.5329   
    18. B(O  18,Si  9)                1.6544 -0.000031 -0.0001    1.6543   
    19. B(O  18,C   3)                1.3990 -0.000068  0.0001    1.3991   
    20. B(O  19,C   5)                1.4057 -0.000037  0.0001    1.4058   
    21. B(C  20,O  19)                1.4207  0.000050 -0.0000    1.4207   
    22. B(H  21,C  20)                1.1036  0.000043  0.0000    1.1036   
    23. B(O  22,C  20)                1.3779 -0.000148  0.0001    1.3779   
    24. B(C  23,O  22)                1.4241 -0.000029 -0.0001    1.4240   
    25. B(C  24,C  20)                1.5436 -0.000072 -0.0000    1.5436   
    26. B(C  24,C   1)                1.5346  0.000018 -0.0000    1.5346   
    27. B(H  25,C  24)                1.1014  0.000002 -0.0000    1.1014   
    28. B(O  26,C  24)                1.4002 -0.000047  0.0003    1.4005   
    29. B(H  27,O   0)                0.9660 -0.000039  0.0000    0.9660   
    30. B(H  27,O  18)                2.4623  0.000023 -0.0016    2.4607   
    31. B(H  28,C   7)                1.0939  0.000029 -0.0001    1.0938   
    32. B(H  29,C   7)                1.0956  0.000016  0.0000    1.0956   
    33. B(H  30,C  11)                1.0863 -0.000029  0.0000    1.0863   
    34. B(H  31,C  11)                1.0864 -0.000015  0.0000    1.0864   
    35. B(H  32,C  11)                1.0895  0.000013  0.0000    1.0895   
    36. B(H  33,C  12)                1.0853 -0.000013  0.0001    1.0854   
    37. B(H  34,C  12)                1.0895  0.000021 -0.0000    1.0895   
    38. B(H  35,C  12)                1.0861 -0.000021  0.0000    1.0861   
    39. B(H  36,C  13)                1.0872 -0.000022  0.0000    1.0872   
    40. B(H  37,C  13)                1.0878 -0.000018  0.0001    1.0879   
    41. B(H  38,C  13)                1.0894  0.000016 -0.0000    1.0894   
    42. B(H  39,C  15)                1.0873 -0.000017  0.0000    1.0873   
    43. B(H  40,C  15)                1.0882 -0.000008 -0.0000    1.0882   
    44. B(H  41,C  15)                1.0894 -0.000006  0.0000    1.0894   
    45. B(H  42,C  16)                1.0866 -0.000028  0.0000    1.0867   
    46. B(H  43,C  16)                1.0893  0.000010 -0.0000    1.0893   
    47. B(H  44,C  16)                1.0864 -0.000002  0.0000    1.0864   
    48. B(H  45,C  17)                1.0862 -0.000008 -0.0000    1.0862   
    49. B(H  46,C  17)                1.0857  0.000001 -0.0000    1.0857   
    50. B(H  47,C  17)                1.0893  0.000004  0.0000    1.0893   
    51. B(H  48,C  23)                1.0878  0.000010  0.0000    1.0879   
    52. B(H  49,C  23)                1.0932  0.000012 -0.0000    1.0932   
    53. B(H  50,C  23)                1.0912 -0.000021  0.0000    1.0912   
    54. B(H  51,O   0)                2.3959 -0.000016 -0.0016    2.3943   
    55. B(H  51,O  26)                0.9683 -0.000025  0.0000    0.9683   
    56. A(C   1,O   0,H  27)          107.87 -0.000009   -0.03    107.84   
    57. A(O   0,C   1,C   3)          111.97 -0.000005    0.01    111.97   
    58. A(C   3,C   1,C  24)          109.98 -0.000021    0.03    110.02   
    59. A(O   0,C   1,H   2)          109.99 -0.000029    0.01    110.00   
    60. A(H   2,C   1,C   3)          108.45  0.000022   -0.01    108.44   
    61. A(O   0,C   1,C  24)          107.55 -0.000004   -0.01    107.54   
    62. A(H   2,C   1,C  24)          108.87  0.000038   -0.03    108.84   
    63. A(C   1,C   3,C   5)          109.05  0.000015   -0.01    109.04   
    64. A(C   1,C   3,H   4)          108.67 -0.000016   -0.00    108.66   
    65. A(C   5,C   3,O  18)          112.08 -0.000009    0.04    112.11   
    66. A(H   4,C   3,C   5)          108.78  0.000022    0.00    108.78   
    67. A(C   1,C   3,O  18)          108.73  0.000010   -0.00    108.73   
    68. A(H   4,C   3,O  18)          109.47 -0.000023   -0.02    109.45   
    69. A(C   7,C   5,O  19)          108.39 -0.000043    0.03    108.42   
    70. A(H   6,C   5,O  19)          110.49  0.000009   -0.01    110.48   
    71. A(C   3,C   5,C   7)          110.69  0.000004    0.02    110.70   
    72. A(H   6,C   5,C   7)          108.70  0.000009   -0.02    108.68   
    73. A(C   3,C   5,O  19)          110.78 -0.000005   -0.01    110.77   
    74. A(C   3,C   5,H   6)          107.78  0.000026   -0.00    107.77   
    75. A(O   8,C   7,H  29)          110.41 -0.000088   -0.00    110.41   
    76. A(O   8,C   7,H  28)          107.94 -0.000000    0.00    107.94   
    77. A(C   5,C   7,H  28)          109.42 -0.000012    0.01    109.44   
    78. A(H  28,C   7,H  29)          108.69  0.000001    0.03    108.71   
    79. A(C   5,C   7,O   8)          111.48  0.000066   -0.05    111.43   
    80. A(C   5,C   7,H  29)          108.86  0.000032    0.01    108.87   
    81. A(C   7,O   8,Si  9)          122.48 -0.000055    0.04    122.52   
    82. A(O   8,Si  9,C  10)          105.73  0.000029    0.04    105.77   
    83. A(O   8,Si  9,O  18)          107.96  0.000027    0.02    107.98   
    84. A(O   8,Si  9,C  14)          108.88  0.000009   -0.11    108.77   
    85. A(C  10,Si  9,C  14)          119.16 -0.000067   -0.01    119.15   
    86. A(C  10,Si  9,O  18)          107.37  0.000083    0.08    107.45   
    87. A(C  14,Si  9,O  18)          107.31 -0.000070   -0.02    107.28   
    88. A(C  11,C  10,C  12)          108.84  0.000034   -0.04    108.80   
    89. A(Si  9,C  10,C  12)          110.27  0.000010    0.00    110.27   
    90. A(Si  9,C  10,C  11)          111.63 -0.000034    0.05    111.68   
    91. A(C  12,C  10,C  13)          108.03 -0.000008   -0.02    108.01   
    92. A(C  11,C  10,C  13)          108.33  0.000045   -0.04    108.29   
    93. A(Si  9,C  10,C  13)          109.66 -0.000045    0.05    109.71   
    94. A(H  30,C  11,H  31)          108.51 -0.000007    0.01    108.52   
    95. A(C  10,C  11,H  31)          110.73 -0.000029    0.02    110.75   
    96. A(C  10,C  11,H  30)          110.78  0.000044   -0.01    110.77   
    97. A(H  31,C  11,H  32)          108.43 -0.000045    0.00    108.43   
    98. A(C  10,C  11,H  32)          110.26 -0.000003   -0.01    110.26   
    99. A(H  30,C  11,H  32)          108.05  0.000040   -0.02    108.03   
   100. A(H  34,C  12,H  35)          108.63 -0.000035    0.01    108.64   
   101. A(H  33,C  12,H  35)          108.22  0.000015   -0.02    108.21   
   102. A(C  10,C  12,H  35)          110.49  0.000021    0.01    110.50   
   103. A(H  33,C  12,H  34)          108.26 -0.000005   -0.00    108.26   
   104. A(C  10,C  12,H  34)          110.17 -0.000025    0.01    110.18   
   105. A(C  10,C  12,H  33)          110.98  0.000028   -0.00    110.98   
   106. A(H  37,C  13,H  38)          108.15 -0.000027   -0.02    108.13   
   107. A(C  10,C  13,H  37)          110.54 -0.000060    0.02    110.57   
   108. A(C  10,C  13,H  38)          110.15  0.000038    0.00    110.16   
   109. A(H  36,C  13,H  38)          108.35 -0.000021   -0.00    108.35   
   110. A(H  36,C  13,H  37)          108.79  0.000004   -0.01    108.78   
   111. A(C  10,C  13,H  36)          110.78  0.000065   -0.01    110.78   
   112. A(C  16,C  14,C  17)          108.66  0.000027    0.00    108.67   
   113. A(C  15,C  14,C  17)          108.04  0.000010   -0.02    108.03   
   114. A(C  15,C  14,C  16)          107.88 -0.000008    0.00    107.89   
   115. A(Si  9,C  14,C  17)          111.38 -0.000039    0.06    111.44   
   116. A(Si  9,C  14,C  15)          109.23 -0.000042   -0.02    109.21   
   117. A(Si  9,C  14,C  16)          111.51  0.000052   -0.04    111.48   
   118. A(H  39,C  15,H  41)          108.28 -0.000010   -0.01    108.27   
   119. A(C  14,C  15,H  41)          110.12  0.000015   -0.00    110.12   
   120. A(H  39,C  15,H  40)          108.74 -0.000024    0.02    108.76   
   121. A(C  14,C  15,H  40)          110.97 -0.000004    0.00    110.97   
   122. A(C  14,C  15,H  39)          110.65  0.000041   -0.00    110.65   
   123. A(H  40,C  15,H  41)          107.99 -0.000020    0.00    108.00   
   124. A(C  14,C  16,H  44)          110.75  0.000021    0.00    110.75   
   125. A(H  42,C  16,H  44)          108.53  0.000023   -0.02    108.51   
   126. A(H  42,C  16,H  43)          108.50 -0.000018    0.01    108.51   
   127. A(C  14,C  16,H  43)          110.26 -0.000006    0.01    110.27   
   128. A(C  14,C  16,H  42)          110.67  0.000023   -0.01    110.65   
   129. A(H  43,C  16,H  44)          108.05 -0.000045    0.02    108.06   
   130. A(C  14,C  17,H  47)          110.12 -0.000008    0.00    110.13   
   131. A(H  46,C  17,H  47)          108.37  0.000021   -0.02    108.35   
   132. A(H  45,C  17,H  47)          108.43 -0.000029    0.01    108.44   
   133. A(H  45,C  17,H  46)          108.25 -0.000020    0.01    108.26   
   134. A(C  14,C  17,H  46)          111.04  0.000045    0.02    111.06   
   135. A(C  14,C  17,H  45)          110.54 -0.000010   -0.01    110.53   
   136. A(C   3,O  18,Si  9)          121.20 -0.000022    0.10    121.30   
   137. A(C   5,O  19,C  20)          113.17 -0.000014    0.02    113.19   
   138. A(O  22,C  20,C  24)          115.50  0.000030    0.00    115.50   
   139. A(H  21,C  20,C  24)          108.20  0.000066   -0.01    108.19   
   140. A(O  19,C  20,C  24)          109.58 -0.000015    0.00    109.58   
   141. A(H  21,C  20,O  22)          104.61 -0.000035   -0.02    104.59   
   142. A(O  19,C  20,O  22)          108.96 -0.000014   -0.00    108.96   
   143. A(O  19,C  20,H  21)          109.80 -0.000034    0.03    109.83   
   144. A(C  20,O  22,C  23)          116.63 -0.000016    0.02    116.65   
   145. A(O  22,C  23,H  50)          110.85  0.000029   -0.01    110.84   
   146. A(H  49,C  23,H  50)          110.44  0.000069   -0.03    110.41   
   147. A(H  48,C  23,H  50)          109.86 -0.000084    0.02    109.88   
   148. A(H  48,C  23,H  49)          109.50 -0.000005   -0.01    109.49   
   149. A(O  22,C  23,H  49)          110.90 -0.000074    0.04    110.94   
   150. A(O  22,C  23,H  48)          105.16  0.000062   -0.02    105.15   
   151. A(H  25,C  24,O  26)          110.82  0.000003   -0.03    110.79   
   152. A(C  20,C  24,O  26)          108.76 -0.000013    0.00    108.76   
   153. A(C   1,C  24,O  26)          111.27  0.000017   -0.02    111.24   
   154. A(C  20,C  24,H  25)          109.06 -0.000002    0.02    109.08   
   155. A(C   1,C  24,H  25)          107.78  0.000011   -0.00    107.78   
   156. A(C   1,C  24,C  20)          109.10 -0.000017    0.04    109.14   
   157. A(C  24,O  26,H  51)          107.49 -0.000052   -0.05    107.44   
   158. D(C  24,C   1,O   0,H  27)    172.82  0.000013   -0.15    172.66   
   159. D(C   3,C   1,O   0,H  27)     51.88  0.000045   -0.19     51.69   
   160. D(H   2,C   1,O   0,H  27)    -68.76  0.000041   -0.19    -68.96   
   161. D(C   5,C   3,C   1,H   2)    -64.99 -0.000019   -0.01    -65.00   
   162. D(H   4,C   3,C   1,C  24)    -64.48  0.000002   -0.02    -64.50   
   163. D(C   5,C   3,C   1,O   0)    173.47  0.000005   -0.02    173.46   
   164. D(C   5,C   3,C   1,C  24)     53.96  0.000028   -0.03     53.93   
   165. D(H   4,C   3,C   1,H   2)    176.58 -0.000045   -0.00    176.57   
   166. D(H   4,C   3,C   1,O   0)     55.04 -0.000021   -0.01     55.02   
   167. D(C   7,C   5,C   3,H   4)    -58.92  0.000019   -0.07    -58.99   
   168. D(H   6,C   5,C   3,O  18)    -56.48 -0.000030   -0.06    -56.54   
   169. D(C   7,C   5,C   3,C   1)   -177.29  0.000017   -0.06   -177.35   
   170. D(H   6,C   5,C   3,H   4)   -177.67 -0.000011   -0.05   -177.72   
   171. D(C   7,C   5,C   3,O  18)     62.27 -0.000000   -0.08     62.19   
   172. D(H   6,C   5,C   3,C   1)     63.96 -0.000013   -0.04     63.92   
   173. D(H  28,C   7,C   5,H   6)    -62.54 -0.000000   -0.10    -62.64   
   174. D(H  28,C   7,C   5,O  19)     57.59 -0.000009   -0.11     57.48   
   175. D(H  28,C   7,C   5,C   3)    179.27 -0.000040   -0.09    179.18   
   176. D(O   8,C   7,C   5,O  19)    176.91  0.000024   -0.13    176.78   
   177. D(O   8,C   7,C   5,H   6)     56.77  0.000033   -0.12     56.65   
   178. D(O   8,C   7,C   5,C   3)    -61.42 -0.000007   -0.11    -61.53   
   179. D(Si  9,O   8,C   7,H  28)    158.72 -0.000019   -0.19    158.53   
   180. D(Si  9,O   8,C   7,H  29)    -82.61 -0.000068   -0.16    -82.76   
   181. D(Si  9,O   8,C   7,C   5)     38.53 -0.000044   -0.18     38.35   
   182. D(O  18,Si  9,O   8,C   7)    -14.84  0.000042    0.53    -14.32   
   183. D(C  14,Si  9,O   8,C   7)    101.34 -0.000021    0.45    101.80   
   184. D(C  10,Si  9,O   8,C   7)   -129.51 -0.000079    0.40   -129.11   
   185. D(C  12,C  10,Si  9,O   8)    -49.34  0.000031    0.37    -48.97   
   186. D(C  11,C  10,Si  9,O  18)     74.48 -0.000078    0.30     74.78   
   187. D(C  11,C  10,Si  9,C  14)    -47.62 -0.000006    0.27    -47.35   
   188. D(C  11,C  10,Si  9,O   8)   -170.45  0.000004    0.38   -170.06   
   189. D(C  12,C  10,Si  9,O  18)   -164.41 -0.000051    0.28   -164.12   
   190. D(C  12,C  10,Si  9,C  14)     73.49  0.000021    0.25     73.74   
   191. D(H  31,C  11,C  10,C  12)   -179.30 -0.000005    0.17   -179.13   
   192. D(H  31,C  11,C  10,Si  9)    -57.36  0.000008    0.17    -57.19   
   193. D(H  30,C  11,C  10,C  13)   -176.09 -0.000038    0.26   -175.83   
   194. D(H  30,C  11,C  10,C  12)    -58.86 -0.000003    0.19    -58.67   
   195. D(H  31,C  11,C  10,C  13)     63.47 -0.000040    0.24     63.71   
   196. D(H  30,C  11,C  10,Si  9)     63.08  0.000010    0.20     63.27   
   197. D(H  34,C  12,C  10,C  13)     55.24  0.000032    0.07     55.31   
   198. D(H  34,C  12,C  10,C  11)    -62.18 -0.000036    0.15    -62.03   
   199. D(H  34,C  12,C  10,Si  9)    175.06 -0.000022    0.12    175.17   
   200. D(H  33,C  12,C  10,C  13)    175.14  0.000028    0.07    175.21   
   201. D(H  33,C  12,C  10,C  11)     57.72 -0.000040    0.15     57.87   
   202. D(H  33,C  12,C  10,Si  9)    -65.04 -0.000026    0.12    -64.92   
   203. D(H  37,C  13,C  10,C  12)     59.62 -0.000044    0.15     59.77   
   204. D(H  37,C  13,C  10,C  11)    177.36  0.000018    0.07    177.43   
   205. D(H  37,C  13,C  10,Si  9)    -60.59 -0.000024    0.14    -60.45   
   206. D(H  36,C  13,C  10,C  12)   -179.72 -0.000036    0.16   -179.56   
   207. D(H  36,C  13,C  10,C  11)    -61.97  0.000025    0.08    -61.89   
   208. D(H  36,C  13,C  10,Si  9)     60.08 -0.000017    0.14     60.22   
   209. D(C  16,C  14,Si  9,O  18)   -167.39  0.000023   -0.70   -168.08   
   210. D(C  16,C  14,Si  9,C  10)    -45.26  0.000027   -0.61    -45.87   
   211. D(C  16,C  14,Si  9,O   8)     76.00  0.000025   -0.65     75.35   
   212. D(C  15,C  14,Si  9,O  18)     73.46  0.000028   -0.67     72.80   
   213. D(C  15,C  14,Si  9,C  10)   -164.41  0.000032   -0.58   -164.99   
   214. D(C  15,C  14,Si  9,O   8)    -43.15  0.000030   -0.62    -43.77   
   215. D(H  40,C  15,C  14,C  16)    178.99  0.000003    0.06    179.05   
   216. D(H  40,C  15,C  14,Si  9)    -59.63  0.000037    0.01    -59.62   
   217. D(H  39,C  15,C  14,C  17)   -177.51 -0.000036    0.08   -177.43   
   218. D(H  39,C  15,C  14,C  16)    -60.20 -0.000003    0.08    -60.12   
   219. D(H  40,C  15,C  14,C  17)     61.69 -0.000029    0.06     61.75   
   220. D(H  39,C  15,C  14,Si  9)     61.18  0.000031    0.02     61.20   
   221. D(H  43,C  16,C  14,C  17)     61.95  0.000020   -0.02     61.93   
   222. D(H  43,C  16,C  14,C  15)    -54.96 -0.000002   -0.01    -54.96   
   223. D(H  43,C  16,C  14,Si  9)   -174.90  0.000024    0.04   -174.87   
   224. D(H  42,C  16,C  14,C  17)   -177.99  0.000008   -0.02   -178.01   
   225. D(H  42,C  16,C  14,C  15)     65.10 -0.000014   -0.00     65.10   
   226. D(H  42,C  16,C  14,Si  9)    -54.85  0.000012    0.04    -54.81   
   227. D(H  46,C  17,C  14,C  16)     61.94  0.000030   -0.22     61.72   
   228. D(H  46,C  17,C  14,C  15)    178.74  0.000040   -0.23    178.52   
   229. D(H  46,C  17,C  14,Si  9)    -61.29 -0.000029   -0.22    -61.51   
   230. D(H  45,C  17,C  14,C  16)   -177.90  0.000028   -0.21   -178.10   
   231. D(H  45,C  17,C  14,C  15)    -61.09  0.000038   -0.21    -61.30   
   232. D(H  45,C  17,C  14,Si  9)     58.88 -0.000031   -0.21     58.67   
   233. D(C   3,O  18,Si  9,C  14)   -102.16  0.000011   -0.59   -102.75   
   234. D(C   3,O  18,Si  9,C  10)    128.63  0.000085   -0.62    128.01   
   235. D(C   3,O  18,Si  9,O   8)     15.05 -0.000001   -0.72     14.33   
   236. D(Si  9,O  18,C   3,C   5)    -39.24 -0.000013    0.54    -38.69   
   237. D(Si  9,O  18,C   3,H   4)     81.55 -0.000006    0.56     82.11   
   238. D(Si  9,O  18,C   3,C   1)   -159.87 -0.000033    0.54   -159.33   
   239. D(C  20,O  19,C   5,C   7)   -175.66 -0.000005    0.07   -175.59   
   240. D(C  20,O  19,C   5,H   6)    -56.65 -0.000014    0.05    -56.59   
   241. D(C  20,O  19,C   5,C   3)     62.72  0.000021    0.04     62.76   
   242. D(C  24,C  20,O  19,C   5)    -62.40 -0.000023    0.05    -62.35   
   243. D(O  22,C  20,O  19,C   5)    170.35 -0.000040    0.04    170.39   
   244. D(H  21,C  20,O  19,C   5)     56.31  0.000028    0.05     56.36   
   245. D(C  23,O  22,C  20,C  24)    -57.58  0.000021   -0.07    -57.64   
   246. D(C  23,O  22,C  20,H  21)   -176.39 -0.000053   -0.04   -176.43   
   247. D(C  23,O  22,C  20,O  19)     66.23  0.000011   -0.06     66.17   
   248. D(H  50,C  23,O  22,C  20)    -46.57 -0.000006   -0.17    -46.74   
   249. D(H  49,C  23,O  22,C  20)     76.47  0.000051   -0.18     76.29   
   250. D(H  48,C  23,O  22,C  20)   -165.25  0.000043   -0.18   -165.43   
   251. D(H  25,C  24,C  20,O  22)     63.07  0.000009   -0.14     62.93   
   252. D(H  25,C  24,C  20,H  21)    179.88  0.000029   -0.17    179.71   
   253. D(C   1,C  24,C  20,O  22)   -179.44  0.000011   -0.11   -179.55   
   254. D(C   1,C  24,C  20,H  21)    -62.63  0.000031   -0.14    -62.77   
   255. D(C   1,C  24,C  20,O  19)     57.07  0.000020   -0.11     56.96   
   256. D(H  25,C  24,C   1,C   3)     63.93 -0.000025    0.13     64.06   
   257. D(H  25,C  24,C   1,H   2)   -177.38  0.000012    0.12   -177.26   
   258. D(H  25,C  24,C   1,O   0)    -58.24 -0.000003    0.11    -58.14   
   259. D(H  25,C  24,C  20,O  19)    -60.42  0.000018   -0.14    -60.56   
   260. D(C  20,C  24,C   1,C   3)    -54.37 -0.000019    0.08    -54.29   
   261. D(C  20,C  24,C   1,H   2)     64.32  0.000018    0.07     64.39   
   262. D(C  20,C  24,C   1,O   0)   -176.54  0.000002    0.06   -176.48   
   263. D(H  51,O  26,C  24,H  25)     69.88  0.000011    0.10     69.97   
   264. D(H  51,O  26,C  24,C  20)   -170.24  0.000003    0.10   -170.14   
   265. D(H  51,O  26,C  24,C   1)    -50.04 -0.000016    0.14    -49.90   
    ----------------------------------------------------------------------------

Geometry step timings:
Preparation and reading OPT file:      0.001 s ( 4.170 %)
Internal coordinates            :      0.000 s ( 0.129 %)
B/P matrices and projection     :      0.007 s (25.681 %)
Hessian update/contruction      :      0.011 s (41.929 %)
Making the step                 :      0.004 s (15.908 %)
Converting the step to Cartesian:      0.001 s ( 1.980 %)
Storing new data                :      0.001 s ( 3.573 %)
Checking convergence            :      0.000 s ( 0.141 %)
Final printing                  :      0.002 s ( 6.490 %)
Total time                      :      0.026 s

Time for energy+gradient        :      0.095 s
Time for complete geometry iter :      0.134 s

         *************************************************************
         *                GEOMETRY OPTIMIZATION CYCLE  11            *
         *************************************************************
---------------------------------
CARTESIAN COORDINATES (ANGSTROEM)
---------------------------------
  O    -3.657271    2.063108   -0.297990
  C    -2.300357    1.749991   -0.103367
  H    -2.139853    1.393114    0.927452
  C    -1.817539    0.665798   -1.072157
  H    -2.032378    0.991564   -2.100411
  C    -0.305892    0.494126   -0.915639
  H    -0.112769    0.128414    0.106140
  C     0.226218   -0.532587   -1.910871
  O    -0.342510   -1.790224   -1.699622
  Si   -1.922939   -1.988101   -1.282411
  C    -1.916596   -3.136612    0.259611
  C    -3.326207   -3.608991    0.617900
  C    -1.035501   -4.362356    0.004305
  C    -1.340736   -2.381116    1.465280
  C    -2.919635   -2.524032   -2.853597
  C    -2.478543   -1.665360   -4.049589
  C    -2.661903   -3.990979   -3.207516
  C    -4.426660   -2.324402   -2.656380
  O    -2.512629   -0.518438   -0.803865
  O     0.359603    1.712684   -1.135951
  C     0.011633    2.718409   -0.194825
  H     0.207698    2.356838    0.829312
  O     0.860680    3.792169   -0.352442
  C     0.761112    4.510676   -1.577873
  C    -1.493804    3.038636   -0.312757
  H    -1.705197    3.406322   -1.329200
  O    -1.824927    4.005727    0.644560
  H    -4.156917    1.236462   -0.282743
  H     1.309240   -0.628218   -1.791125
  H     0.014421   -0.183456   -2.927575
  H    -3.745066   -4.212926   -0.182078
  H    -3.983650   -2.761618    0.791120
  H    -3.302025   -4.216655    1.521910
  H    -1.447814   -4.979133   -0.787946
  H    -0.964126   -4.968523    0.906808
  H    -0.035212   -4.057262   -0.288896
  H    -1.939619   -1.502436    1.691727
  H    -0.318489   -2.066511    1.266412
  H    -1.332316   -3.026015    2.343262
  H    -1.420895   -1.810178   -4.256193
  H    -2.656063   -0.609073   -3.857238
  H    -3.041657   -1.944709   -4.939353
  H    -1.597182   -4.176650   -3.320488
  H    -3.158656   -4.246463   -4.142685
  H    -3.046103   -4.647358   -2.431747
  H    -4.647448   -1.283903   -2.436190
  H    -4.796528   -2.931684   -1.835949
  H    -4.963688   -2.606612   -3.561123
  H     1.658692    5.123744   -1.621683
  H    -0.121636    5.155451   -1.582140
  H     0.736952    3.826913   -2.427931
  H    -2.790403    4.077690    0.662529

----------------------------
CARTESIAN COORDINATES (A.U.)
----------------------------
  NO LB    ZA    FRAG    MASS        X           Y           Z
   0 O   8.0000    1    15.999   -6.911241    3.898710   -0.563120
   1 C   6.0000    1    12.011   -4.347045    3.307003   -0.195336
   2 H   1.0000    1     1.008   -4.043737    2.632603    1.752630
   3 C   6.0000    1    12.011   -3.434651    1.258176   -2.026084
   4 H   1.0000    1     1.008   -3.840638    1.873785   -3.969202
   5 C   6.0000    1    12.011   -0.578052    0.933764   -1.730307
   6 H   1.0000    1     1.008   -0.213103    0.242667    0.200576
   7 C   6.0000    1    12.011    0.427490   -1.006443   -3.611024
   8 O   8.0000    1    15.999   -0.647249   -3.383032   -3.211821
   9 Si 14.0000    1    28.086   -3.633828   -3.756966   -2.423406
  10 C   6.0000    1    12.011   -3.621842   -5.927338    0.490594
  11 C   6.0000    1    12.011   -6.285620   -6.820005    1.167663
  12 C   6.0000    1    12.011   -1.956813   -8.243658    0.008135
  13 C   6.0000    1    12.011   -2.533624   -4.499656    2.768978
  14 C   6.0000    1    12.011   -5.517311   -4.769728   -5.392517
  15 C   6.0000    1    12.011   -4.683767   -3.147073   -7.652615
  16 C   6.0000    1    12.011   -5.030267   -7.541857   -6.061326
  17 C   6.0000    1    12.011   -8.365175   -4.392484   -5.019831
  18 O   8.0000    1    15.999   -4.748182   -0.979706   -1.519085
  19 O   8.0000    1    15.999    0.679551    3.236504   -2.146637
  20 C   6.0000    1    12.011    0.021982    5.137048   -0.368165
  21 H   1.0000    1     1.008    0.392493    4.453779    1.567172
  22 O   8.0000    1    15.999    1.626450    7.166160   -0.666019
  23 C   6.0000    1    12.011    1.438293    8.523943   -2.981747
  24 C   6.0000    1    12.011   -2.822880    5.742190   -0.591026
  25 H   1.0000    1     1.008   -3.222356    6.437017   -2.511823
  26 O   8.0000    1    15.999   -3.448612    7.569727    1.218043
  27 H   1.0000    1     1.008   -7.855435    2.336574   -0.534307
  28 H   1.0000    1     1.008    2.474105   -1.187161   -3.384735
  29 H   1.0000    1     1.008    0.027252   -0.346682   -5.532315
  30 H   1.0000    1     1.008   -7.077149   -7.961276   -0.344077
  31 H   1.0000    1     1.008   -7.528007   -5.218702    1.495000
  32 H   1.0000    1     1.008   -6.239924   -7.968324    2.875992
  33 H   1.0000    1     1.008   -2.735973   -9.409198   -1.489003
  34 H   1.0000    1     1.008   -1.821935   -9.389147    1.713619
  35 H   1.0000    1     1.008   -0.066541   -7.667113   -0.545934
  36 H   1.0000    1     1.008   -3.665348   -2.839192    3.196900
  37 H   1.0000    1     1.008   -0.601857   -3.905139    2.393172
  38 H   1.0000    1     1.008   -2.517712   -5.718340    4.428124
  39 H   1.0000    1     1.008   -2.685103   -3.420740   -8.043038
  40 H   1.0000    1     1.008   -5.019231   -1.150982   -7.289123
  41 H   1.0000    1     1.008   -5.747899   -3.674968   -9.334025
  42 H   1.0000    1     1.008   -3.018236   -7.892725   -6.274814
  43 H   1.0000    1     1.008   -5.968994   -8.024652   -7.828541
  44 H   1.0000    1     1.008   -5.756301   -8.782233   -4.595335
  45 H   1.0000    1     1.008   -8.782404   -2.426224   -4.603733
  46 H   1.0000    1     1.008   -9.064123   -5.540080   -3.469442
  47 H   1.0000    1     1.008   -9.380011   -4.925783   -6.729548
  48 H   1.0000    1     1.008    3.134474    9.682473   -3.064537
  49 H   1.0000    1     1.008   -0.229860    9.742391   -2.989811
  50 H   1.0000    1     1.008    1.392637    7.231818   -4.588124
  51 H   1.0000    1     1.008   -5.273097    7.705718    1.251998

      -----------------------------------------------------------      
     |                   =====================                   |     
     |                           x T B                           |     
     |                   =====================                   |     
     |                         S. Grimme                         |     
     |          Mulliken Center for Theoretical Chemistry        |     
     |                    University of Bonn                     |     
      -----------------------------------------------------------      

   * xtb version 6.7.1 (edcfbbe) compiled by 'albert@albert-system' on 2024-07-22

   xtb is free software: you can redistribute it and/or modify it under
   the terms of the GNU Lesser General Public License as published by
   the Free Software Foundation, either version 3 of the License, or
   (at your option) any later version.
   
   xtb is distributed in the hope that it will be useful,
   but WITHOUT ANY WARRANTY; without even the implied warranty of
   MERCHANTABILITY or FITNESS FOR A PARTICULAR PURPOSE.  See the
   GNU Lesser General Public License for more details.
   
   Cite this work as:
   * C. Bannwarth, E. Caldeweyher, S. Ehlert, A. Hansen, P. Pracht,
     J. Seibert, S. Spicher, S. Grimme, WIREs Comput. Mol. Sci., 2020, 11,
     e01493. DOI: 10.1002/wcms.1493
   
   for GFN2-xTB:
   * C. Bannwarth, S. Ehlert and S. Grimme., J. Chem. Theory Comput., 2019,
     15, 1652-1671. DOI: 10.1021/acs.jctc.8b01176
   for GFN1-xTB:
   * S. Grimme, C. Bannwarth, P. Shushkov, J. Chem. Theory Comput., 2017,
     13, 1989-2009. DOI: 10.1021/acs.jctc.7b00118
   for GFN0-xTB:
   * P. Pracht, E. Caldeweyher, S. Ehlert, S. Grimme, ChemRxiv, 2019, preprint.
     DOI: 10.26434/chemrxiv.8326202.v1
   for GFN-FF:
   * S. Spicher and S. Grimme, Angew. Chem. Int. Ed., 2020, 59, 15665-15673.
     DOI: 10.1002/anie.202004239
   
   for ALPB and GBSA implicit solvation:
   * S. Ehlert, M. Stahn, S. Spicher, S. Grimme, J. Chem. Theory Comput.,
     2021, 17, 4250-4261. DOI: 10.1021/acs.jctc.1c00471
   
   for ddCOSMO and CPCM-X implicit solvation:
   * M. Stahn, S. Ehlert, S. Grimme, J. Phys. Chem. A,
     2023, XX, XXXX-XXXX. DOI: 10.1021/acs.jpca.3c04382
   
   for DFT-D4:
   * E. Caldeweyher, C. Bannwarth and S. Grimme, J. Chem. Phys., 2017,
     147, 034112. DOI: 10.1063/1.4993215
   * E. Caldeweyher, S. Ehlert, A. Hansen, H. Neugebauer, S. Spicher,
     C. Bannwarth and S. Grimme, J. Chem. Phys., 2019, 150, 154122.
     DOI: 10.1063/1.5090222
   * E. Caldeweyher, J.-M. Mewes, S. Ehlert and S. Grimme, Phys. Chem. Chem. Phys.
     2020, 22, 8499-8512. DOI: 10.1039/D0CP00502A
   
   for sTDA-xTB:
   * S. Grimme and C. Bannwarth, J. Chem. Phys., 2016, 145, 054103.
     DOI: 10.1063/1.4959605
   
   in the mass-spec context:
   * V. Asgeirsson, C. Bauer and S. Grimme, Chem. Sci., 2017, 8, 4879.
     DOI: 10.1039/c7sc00601b
   * J. Koopman and S. Grimme, ACS Omega 2019, 4, 12, 15120-15133.
     DOI: 10.1021/acsomega.9b02011
   
   for metadynamics refer to:
   * S. Grimme, J. Chem. Theory Comput., 2019, 155, 2847-2862
     DOI: 10.1021/acs.jctc.9b00143
   
   for SPH calculations refer to:
   * S. Spicher and S. Grimme, J. Chem. Theory Comput., 2021, 17, 1701-1714
     DOI: 10.1021/acs.jctc.0c01306
   
   for ONIOM refer to:
   * C. Plett, A. Katbashev, S. Ehlert, S. Grimme, M. Bursch,
     Phys. Chem. Chem. Phys., 2023, 25, 17860-17868. DOI: 10.1039/D3CP02178E
   
   for DIPRO refer to:
   * J. Kohn, N. Gildemeister, S. Grimme, D. Fazzi, A. Hansen,
     J. Chem. Phys., 2023, just accepted.
   
   for PTB refer to:
   * S. Grimme, M. Mueller, A. Hansen, J. Chem. Phys., 2023, 158, 124111.
     DOI: 10.1063/5.0137838
   
   with help from (in alphabetical order)
   P. Atkinson, C. Bannwarth, F. Bohle, G. Brandenburg, E. Caldeweyher
   M. Checinski, S. Dohm, S. Ehlert, S. Ehrlich, I. Gerasimov, C. Hölzer
   A. Katbashev, J. Kohn, J. Koopman, C. Lavigne, S. Lehtola, F. März, M. Müller,
   F. Musil, H. Neugebauer, J. Pisarek, C. Plett, P. Pracht, F. Pultar,
   J. Seibert, P. Shushkov, S. Spicher, M. Stahn, M. Steiner, T. Strunk,
   J. Stückrath, T. Rose, and J. Unsleber
   
 * started run on 2025/09/10 at 11:31:44.683     
   ID    Z sym.   atoms
    1    8 O      1, 9, 19, 20, 23, 27
    2    6 C      2, 4, 6, 8, 11-18, 21, 24, 25
    3    1 H      3, 5, 7, 22, 26, 28-52
    4   14 Si     10

           -------------------------------------------------
          |                Calculation Setup                |
           -------------------------------------------------

          program call               : /home/kmoult/orca_6_1/otool_xtb goat_0_XTB.xyz --grad -c 0 -u 0 -P 4 --namespace goat_0 --input goat_0_XTB.input.tmp --alpb ACETONE --acc 0.200000
          hostname                   : node3306
          calculation namespace      : goat_0
          coordinate file            : goat_0_XTB.xyz
          omp threads                :                     4


           -------------------------------------------------
          |                 G F N 2 - x T B                 |
           -------------------------------------------------

        Reference                      10.1021/acs.jctc.8b01176
      * Hamiltonian:
        H0-scaling (s, p, d)           1.850000    2.230000    2.230000
        zeta-weighting                 0.500000
      * Dispersion:
        s8                             2.700000
        a1                             0.520000
        a2                             5.000000
        s9                             5.000000
      * Repulsion:
        kExp                           1.500000    1.000000
        rExp                           1.000000
      * Coulomb:
        alpha                          2.000000
        third order                    shell-resolved
        anisotropic                    true
        a3                             3.000000
        a5                             4.000000
        cn-shift                       1.200000
        cn-exp                         4.000000
        max-rad                        5.000000

      * Solvation model:               ALPB
        Solvent                        ACETONE
        Parameter file                 internal GFN2-xTB/ALPB
        Dielectric constant                2.0700E+01
        Reference state                gsolv [1 M gas/solution]
        Free energy shift                  5.9241E-03 Eh       3.7175E+00 kcal/mol
        Temperature                        2.9815E+02 K
        Density                            7.9000E-01 kg/L
        Solvent mass                       5.8080E+01 g/mol
        Interaction kernel             P16
        Born radius scaling (c1)           1.8274E+00
        Born radii integrator          GBOBC
        Born offset                        0.0000E+00 a0       0.0000E+00 AA
        H-bond correction              true
        Ion screening                  false
        Surface tension                    1.0000E-05 Eh       1.5569E+01 dyn/cm
        Grid points                               230 per atom
q/qsh data taken from xtbrestart
CAMM data taken from xtbrestart

          ...................................................
          :                      SETUP                      :
          :.................................................:
          :  # basis functions                 124          :
          :  # atomic orbitals                 123          :
          :  # shells                           75          :
          :  # electrons                       130          :
          :  max. iterations                   250          :
          :  Hamiltonian                  GFN2-xTB          :
          :  restarted?                       true          :
          :  GBSA solvation                   true          :
          :  PC potential                    false          :
          :  electronic temp.          300.0000000     K    :
          :  accuracy                    0.2000000          :
          :  -> integral cutoff          0.3198970E+02      :
          :  -> integral neglect         0.2000000E-08      :
          :  -> SCF convergence          0.2000000E-06 Eh   :
          :  -> wf. convergence          0.2000000E-04 e    :
          :  Broyden damping             0.4000000          :
          :  net charge                          0          :
          :  unpaired electrons                  0          :
          ...................................................

 iter      E             dE          RMSdq      gap      omega  full diag
   1    -74.4401243 -0.744401E+02  0.240E-02    5.48       0.0  T
   2    -74.4401244 -0.128710E-06  0.159E-02    5.49       1.0  T
   3    -74.4401244 -0.316243E-07  0.364E-03    5.49       3.8  T
   4    -74.4401244 -0.424502E-08  0.294E-03    5.49       4.7  T
   5    -74.4401245 -0.415402E-07  0.483E-04    5.48      28.7  T
   6    -74.4401245 -0.166251E-08  0.335E-04    5.49      41.5  T
   7    -74.4401245 -0.105584E-08  0.126E-04    5.49     109.7  T
   8    -74.4401245  0.480327E-11  0.795E-05    5.49     174.5  T

   *** convergence criteria satisfied after 8 iterations ***

         #    Occupation            Energy/Eh            Energy/eV
      -------------------------------------------------------------
         1        2.0000           -0.8173069             -22.2401
       ...           ...                  ...                  ...
        59        2.0000           -0.4259486             -11.5907
        60        2.0000           -0.4241342             -11.5413
        61        2.0000           -0.4230663             -11.5122
        62        2.0000           -0.4180024             -11.3744
        63        2.0000           -0.4145567             -11.2807
        64        2.0000           -0.4059771             -11.0472
        65        2.0000           -0.3717051             -10.1146 (HOMO)
        66                         -0.1701306              -4.6295 (LUMO)
        67                         -0.1432435              -3.8979
        68                         -0.0908427              -2.4720
        69                         -0.0487562              -1.3267
        70                         -0.0050335              -0.1370
       ...                                ...                  ...
       123                          0.7842986              21.3418
      -------------------------------------------------------------
                  HL-Gap            0.2015744 Eh            5.4851 eV
             Fermi-level           -0.2709179 Eh           -7.3721 eV

 SCC (total)                   0 d,  0 h,  0 min,  0.040 sec
 SCC setup                      ...        0 min,  0.001 sec (  1.579%)
 Dispersion                     ...        0 min,  0.000 sec (  0.889%)
 classical contributions        ...        0 min,  0.000 sec (  0.102%)
 integral evaluation            ...        0 min,  0.016 sec ( 39.915%)
 iterations                     ...        0 min,  0.015 sec ( 36.731%)
 molecular gradient             ...        0 min,  0.008 sec ( 20.373%)
 printout                       ...        0 min,  0.000 sec (  0.359%)

         :::::::::::::::::::::::::::::::::::::::::::::::::::::
         ::                     SUMMARY                     ::
         :::::::::::::::::::::::::::::::::::::::::::::::::::::
         :: total energy             -73.690545595722 Eh    ::
         :: total w/o Gsasa/hb       -73.661660559011 Eh    ::
         :: gradient norm              0.000883767070 Eh/a0 ::
         :: HOMO-LUMO gap              5.485119406633 eV    ::
         ::.................................................::
         :: SCC energy               -74.438761996796 Eh    ::
         :: -> isotropic ES            0.157260409792 Eh    ::
         :: -> anisotropic ES          0.003137865969 Eh    ::
         :: -> anisotropic XC          0.005560929516 Eh    ::
         :: -> dispersion             -0.053490728258 Eh    ::
         :: -> Gsolv                  -0.031847543784 Eh    ::
         ::    -> Gelec               -0.002962507074 Eh    ::
         ::    -> Gsasa               -0.028889208587 Eh    ::
         ::    -> Ghb                 -0.005919969387 Eh    ::
         ::    -> Gshift               0.005924141264 Eh    ::
         :: repulsion energy           0.748216401075 Eh    ::
         :: add. restraining           0.000000000000 Eh    ::
         :: total charge              -0.000000000000 e     ::
         :::::::::::::::::::::::::::::::::::::::::::::::::::::


Property printout bound to 'properties.out'

           -------------------------------------------------
          | TOTAL ENERGY              -73.690545595722 Eh   |
          | GRADIENT NORM               0.000883767070 Eh/α |
          | HOMO-LUMO GAP               5.485119406633 eV   |
           -------------------------------------------------

------------------------------------------------------------------------
 * finished run on 2025/09/10 at 11:31:44.747     
------------------------------------------------------------------------
 total:
 * wall-time:     0 d,  0 h,  0 min,  0.063 sec
 *  cpu-time:     0 d,  0 h,  0 min,  0.220 sec
 * ratio c/w:     3.483 speedup
 SCF:
 * wall-time:     0 d,  0 h,  0 min,  0.041 sec
 *  cpu-time:     0 d,  0 h,  0 min,  0.150 sec
 * ratio c/w:     3.698 speedup


-------------------------   --------------------
FINAL SINGLE POINT ENERGY       -73.690545595720
-------------------------   --------------------


-------------
DIPOLE MOMENT
-------------
                                X             Y             Z
Total Dipole Moment    :     -0.96000      -0.76200      -0.66000
                        -----------------------------------------
Magnitude (a.u.)       :      1.39206
Magnitude (Debye)      :      3.53835


------------------
CARTESIAN GRADIENT
------------------

   1   O   :   -0.000097297    0.000092055   -0.000095261
   2   C   :    0.000111060   -0.000095628    0.000046220
   3   H   :   -0.000039684    0.000008468   -0.000029874
   4   C   :    0.000151897    0.000056910    0.000009813
   5   H   :   -0.000067073    0.000006058   -0.000001639
   6   C   :   -0.000165042   -0.000221135   -0.000105063
   7   H   :    0.000028668    0.000013812    0.000029072
   8   C   :    0.000024995    0.000078074    0.000131275
   9   O   :    0.000017915    0.000057907   -0.000170222
  10   Si  :    0.000060429    0.000048129    0.000423506
  11   C   :   -0.000099391   -0.000082611   -0.000307093
  12   C   :    0.000065829    0.000024540   -0.000095867
  13   C   :   -0.000031454    0.000120261   -0.000024559
  14   C   :   -0.000062830    0.000064555   -0.000002244
  15   C   :   -0.000050192   -0.000137085   -0.000003858
  16   C   :    0.000049968    0.000005266    0.000041643
  17   C   :   -0.000048209    0.000090960    0.000026908
  18   C   :    0.000077289   -0.000043123    0.000058818
  19   O   :    0.000002497   -0.000069728   -0.000050396
  20   O   :   -0.000008853    0.000000344   -0.000048547
  21   C   :   -0.000034194    0.000202110    0.000000829
  22   H   :    0.000085525   -0.000009313    0.000032121
  23   O   :   -0.000088277   -0.000063252    0.000021703
  24   C   :   -0.000064325   -0.000070590    0.000063986
  25   C   :    0.000034402   -0.000076347   -0.000070442
  26   H   :   -0.000021030    0.000003037    0.000001307
  27   O   :    0.000054539    0.000127152    0.000081032
  28   H   :    0.000029264    0.000014296    0.000061552
  29   H   :    0.000006652    0.000008087    0.000009986
  30   H   :   -0.000008563   -0.000038616   -0.000034178
  31   H   :   -0.000014873    0.000002295    0.000022100
  32   H   :    0.000007668   -0.000000295    0.000038603
  33   H   :   -0.000010568    0.000003375    0.000030838
  34   H   :   -0.000004857   -0.000037222    0.000017125
  35   H   :    0.000022417   -0.000009517    0.000016009
  36   H   :    0.000005519   -0.000017956    0.000013902
  37   H   :    0.000026976   -0.000006038    0.000033859
  38   H   :    0.000019939   -0.000032050    0.000004848
  39   H   :    0.000032550    0.000024806    0.000036083
  40   H   :   -0.000015336    0.000005908   -0.000025765
  41   H   :   -0.000002151    0.000002671   -0.000023675
  42   H   :   -0.000001722    0.000011277   -0.000015617
  43   H   :   -0.000011889   -0.000004160   -0.000006957
  44   H   :    0.000011491   -0.000007735   -0.000018674
  45   H   :   -0.000007190   -0.000030933   -0.000009412
  46   H   :    0.000006487   -0.000007263   -0.000018952
  47   H   :   -0.000035681    0.000024219    0.000021130
  48   H   :   -0.000010226    0.000005977   -0.000007270
  49   H   :    0.000027603   -0.000002034   -0.000051464
  50   H   :    0.000016286    0.000026189    0.000005162
  51   H   :    0.000043528    0.000017698   -0.000005584
  52   H   :   -0.000020488   -0.000083805   -0.000056816

Difference to translation invariance:
           :    0.0000000000    0.0000000000    0.0000000000

Difference to rotation invariance:
           :   -0.0007695031    0.0006653763   -0.0002609799

Norm of the Cartesian gradient     ...    0.0008837671
RMS gradient                       ...    0.0000707580
MAX gradient                       ...    0.0004235058
------------------------------------------------------------------------------
                         ORCA GEOMETRY RELAXATION STEP
------------------------------------------------------------------------------

Reading the OPT-File                    .... done
Getting information on internals        .... done
Copying old internal coords+grads       .... done
Making the new internal coordinates     .... (2022 redundants) done
Validating the new internal coordinates .... (2022 redundants) done
Calculating the B-matrix                .... done
Calculating the G,G- and P matrices     .... done
Transforming gradient to internals      .... done
Projecting the internal gradient        .... done
Number of atoms                         ....  52
Number of internal coordinates          .... 265
Current Energy                          ....   -73.690545596 Eh
Current gradient norm                   ....     0.000883767 Eh/bohr
Maximum allowed component of the step   ....  0.300
Current trust radius                    ....  0.450
Updating the Hessian (BFGS)             .... done
Forming the augmented Hessian           .... done
Diagonalizing the augmented Hessian     .... done
Last element of RFO vector              ....  0.999827822
Lowest eigenvalues of augmented Hessian:
 -0.000003154  0.001835017  0.005815272  0.009996643  0.010075906
Length of the computed step             ....  0.018559204
The final length of the internal step   ....  0.018559204
Converting the step to Cartesian space:
 Initial RMS(Int)=    0.0011400828
Transforming coordinates:
 Iter   0:  RMS(Cart)=    0.0047245369 RMS(Int)=    0.0011400729
done
Storing new coordinates                 .... done
The predicted energy change is          ....    -0.000001578
Previously predicted energy change      ....    -0.000003352
Actually observed energy change         ....    -0.000004402
Ratio of predicted to observed change   ....     1.313519112
New trust radius                        ....     0.450000000

                                .--------------------.
          ----------------------|Geometry convergence|-------------------------
          Item                value                   Tolerance       Converged
          ---------------------------------------------------------------------
          Energy change      -0.0000044025            0.0000050000      YES
          RMS gradient        0.0000348709            0.0001000000      YES
          MAX gradient        0.0002152750            0.0003000000      YES
          RMS step            0.0011400828            0.0020000000      YES
          MAX step            0.0042451229            0.0040000000      NO
          -------------------------------------------------------------------------
          ........................................................
          Max(Bonds)      0.0022      Max(Angles)    0.03
          Max(Dihed)        0.22      Max(Improp)    0.00
          ---------------------------------------------------------------------

    ---------------------------------------------------------------------------
                         Redundant Internal Coordinates
                            (Angstroem and degrees)

        Definition                    Value    dE/dq     Step     New-Value
    ----------------------------------------------------------------------------
     1. B(C   1,O   0)                1.4061  0.000094 -0.0001    1.4060   
     2. B(H   2,C   1)                1.1026 -0.000036  0.0001    1.1027   
     3. B(C   3,C   1)                1.5320 -0.000002 -0.0000    1.5320   
     4. B(H   4,C   3)                1.0998  0.000016 -0.0000    1.0998   
     5. B(C   5,C   3)                1.5294 -0.000093  0.0001    1.5295   
     6. B(H   6,C   5)                1.1023  0.000029 -0.0001    1.1022   
     7. B(C   7,C   5)                1.5257 -0.000084  0.0001    1.5258   
     8. B(O   8,C   7)                1.3963 -0.000045  0.0001    1.3964   
     9. B(Si  9,O   8)                1.6465  0.000048  0.0001    1.6466   
    10. B(C  10,Si  9)                1.9227 -0.000215  0.0004    1.9231   
    11. B(C  11,C  10)                1.5292 -0.000052  0.0002    1.5294   
    12. B(C  12,C  10)                1.5310 -0.000052  0.0002    1.5312   
    13. B(C  13,C  10)                1.5349  0.000081 -0.0000    1.5349   
    14. B(C  14,Si  9)                1.9363  0.000033 -0.0004    1.9359   
    15. B(C  15,C  14)                1.5370  0.000051 -0.0000    1.5370   
    16. B(C  16,C  14)                1.5309 -0.000053  0.0001    1.5310   
    17. B(C  17,C  14)                1.5329 -0.000042  0.0001    1.5330   
    18. B(O  18,Si  9)                1.6543 -0.000044  0.0001    1.6543   
    19. B(O  18,C   3)                1.3991  0.000018  0.0000    1.3992   
    20. B(O  19,C   5)                1.4058  0.000068 -0.0000    1.4058   
    21. B(C  20,O  19)                1.4207  0.000078 -0.0001    1.4205   
    22. B(H  21,C  20)                1.1036  0.000051 -0.0001    1.1036   
    23. B(O  22,C  20)                1.3779 -0.000118  0.0002    1.3781   
    24. B(C  23,O  22)                1.4240 -0.000042  0.0000    1.4240   
    25. B(C  24,C  20)                1.5436 -0.000048  0.0001    1.5438   
    26. B(C  24,C   1)                1.5346  0.000029 -0.0000    1.5346   
    27. B(H  25,C  24)                1.1014  0.000002 -0.0000    1.1014   
    28. B(O  26,C  24)                1.4005  0.000070  0.0000    1.4005   
    29. B(H  27,O   0)                0.9660 -0.000021  0.0000    0.9661   
    30. B(H  27,O  18)                2.4607  0.000014 -0.0022    2.4584   
    31. B(H  28,C   7)                1.0938  0.000008 -0.0000    1.0938   
    32. B(H  29,C   7)                1.0956  0.000019 -0.0000    1.0956   
    33. B(H  30,C  11)                1.0863 -0.000009  0.0000    1.0864   
    34. B(H  31,C  11)                1.0864  0.000000  0.0000    1.0864   
    35. B(H  32,C  11)                1.0895  0.000022 -0.0000    1.0895   
    36. B(H  33,C  12)                1.0854  0.000012  0.0000    1.0854   
    37. B(H  34,C  12)                1.0895  0.000019 -0.0000    1.0895   
    38. B(H  35,C  12)                1.0861 -0.000004  0.0000    1.0861   
    39. B(H  36,C  13)                1.0872 -0.000013  0.0000    1.0872   
    40. B(H  37,C  13)                1.0879  0.000006  0.0000    1.0879   
    41. B(H  38,C  13)                1.0894  0.000015 -0.0000    1.0894   
    42. B(H  39,C  15)                1.0873 -0.000008  0.0000    1.0873   
    43. B(H  40,C  15)                1.0882 -0.000001 -0.0000    1.0882   
    44. B(H  41,C  15)                1.0894  0.000010 -0.0000    1.0894   
    45. B(H  42,C  16)                1.0867 -0.000007  0.0000    1.0867   
    46. B(H  43,C  16)                1.0893  0.000013 -0.0000    1.0893   
    47. B(H  44,C  16)                1.0864  0.000011 -0.0000    1.0864   
    48. B(H  45,C  17)                1.0862 -0.000013  0.0000    1.0862   
    49. B(H  46,C  17)                1.0857  0.000011 -0.0000    1.0857   
    50. B(H  47,C  17)                1.0893  0.000011 -0.0000    1.0893   
    51. B(H  48,C  23)                1.0879  0.000023 -0.0000    1.0878   
    52. B(H  49,C  23)                1.0932  0.000003 -0.0000    1.0931   
    53. B(H  50,C  23)                1.0912 -0.000012  0.0000    1.0912   
    54. B(H  51,O   0)                2.3943 -0.000038  0.0008    2.3951   
    55. B(H  51,O  26)                0.9683  0.000005  0.0000    0.9683   
    56. A(C   1,O   0,H  27)          107.84 -0.000071   -0.00    107.84   
    57. A(O   0,C   1,C   3)          111.97 -0.000018    0.00    111.98   
    58. A(C   3,C   1,C  24)          110.02  0.000014    0.01    110.03   
    59. A(O   0,C   1,H   2)          110.00  0.000002    0.01    110.01   
    60. A(H   2,C   1,C   3)          108.44  0.000019   -0.02    108.42   
    61. A(O   0,C   1,C  24)          107.54 -0.000015    0.02    107.55   
    62. A(H   2,C   1,C  24)          108.84 -0.000001   -0.02    108.81   
    63. A(C   1,C   3,C   5)          109.04  0.000028   -0.02    109.02   
    64. A(C   1,C   3,H   4)          108.66 -0.000043    0.01    108.68   
    65. A(C   5,C   3,O  18)          112.11 -0.000031    0.03    112.14   
    66. A(H   4,C   3,C   5)          108.78  0.000021   -0.02    108.77   
    67. A(C   1,C   3,O  18)          108.73  0.000019   -0.01    108.73   
    68. A(H   4,C   3,O  18)          109.45  0.000004    0.01    109.45   
    69. A(C   7,C   5,O  19)          108.42 -0.000013    0.02    108.44   
    70. A(H   6,C   5,O  19)          110.48 -0.000016    0.01    110.49   
    71. A(C   3,C   5,C   7)          110.70  0.000051   -0.01    110.69   
    72. A(H   6,C   5,C   7)          108.68  0.000001   -0.00    108.68   
    73. A(C   3,C   5,O  19)          110.77 -0.000032   -0.01    110.76   
    74. A(C   3,C   5,H   6)          107.77  0.000010   -0.00    107.77   
    75. A(O   8,C   7,H  29)          110.41 -0.000061    0.02    110.43   
    76. A(O   8,C   7,H  28)          107.94  0.000004   -0.01    107.93   
    77. A(C   5,C   7,H  28)          109.44  0.000014    0.01    109.44   
    78. A(H  28,C   7,H  29)          108.71  0.000023    0.01    108.73   
    79. A(C   5,C   7,O   8)          111.43 -0.000003   -0.03    111.40   
    80. A(C   5,C   7,H  29)          108.87  0.000023   -0.01    108.86   
    81. A(C   7,O   8,Si  9)          122.52 -0.000008    0.00    122.52   
    82. A(O   8,Si  9,C  10)          105.77  0.000064   -0.02    105.75   
    83. A(O   8,Si  9,O  18)          107.98 -0.000008   -0.02    107.96   
    84. A(O   8,Si  9,C  14)          108.77 -0.000008    0.01    108.77   
    85. A(C  10,Si  9,C  14)          119.15 -0.000092    0.03    119.18   
    86. A(C  10,Si  9,O  18)          107.45  0.000073   -0.03    107.42   
    87. A(C  14,Si  9,O  18)          107.29 -0.000023    0.03    107.31   
    88. A(C  11,C  10,C  12)          108.80  0.000009   -0.03    108.77   
    89. A(Si  9,C  10,C  12)          110.27  0.000018   -0.00    110.26   
    90. A(Si  9,C  10,C  11)          111.68  0.000003    0.01    111.69   
    91. A(C  12,C  10,C  13)          108.01 -0.000023   -0.00    108.01   
    92. A(C  11,C  10,C  13)          108.29  0.000013   -0.01    108.28   
    93. A(Si  9,C  10,C  13)          109.71 -0.000021    0.03    109.74   
    94. A(H  30,C  11,H  31)          108.52 -0.000003    0.00    108.53   
    95. A(C  10,C  11,H  31)          110.75 -0.000016    0.01    110.75   
    96. A(C  10,C  11,H  30)          110.77  0.000047   -0.01    110.76   
    97. A(H  31,C  11,H  32)          108.43 -0.000039    0.01    108.44   
    98. A(C  10,C  11,H  32)          110.26  0.000004   -0.00    110.25   
    99. A(H  30,C  11,H  32)          108.03  0.000006   -0.01    108.02   
   100. A(H  34,C  12,H  35)          108.64 -0.000034    0.01    108.65   
   101. A(H  33,C  12,H  35)          108.21  0.000002   -0.01    108.20   
   102. A(C  10,C  12,H  35)          110.50  0.000020   -0.01    110.49   
   103. A(H  33,C  12,H  34)          108.26 -0.000022    0.01    108.27   
   104. A(C  10,C  12,H  34)          110.18 -0.000004    0.00    110.19   
   105. A(C  10,C  12,H  33)          110.98  0.000035   -0.01    110.97   
   106. A(H  37,C  13,H  38)          108.13 -0.000053    0.01    108.14   
   107. A(C  10,C  13,H  37)          110.57 -0.000045    0.01    110.58   
   108. A(C  10,C  13,H  38)          110.16  0.000058   -0.01    110.15   
   109. A(H  36,C  13,H  38)          108.35 -0.000026    0.01    108.36   
   110. A(H  36,C  13,H  37)          108.78 -0.000002   -0.00    108.78   
   111. A(C  10,C  13,H  36)          110.78  0.000065   -0.02    110.76   
   112. A(C  16,C  14,C  17)          108.67  0.000002   -0.01    108.66   
   113. A(C  15,C  14,C  17)          108.03  0.000022   -0.00    108.03   
   114. A(C  15,C  14,C  16)          107.89 -0.000026    0.00    107.89   
   115. A(Si  9,C  14,C  17)          111.44 -0.000037    0.02    111.47   
   116. A(Si  9,C  14,C  15)          109.21 -0.000026    0.02    109.23   
   117. A(Si  9,C  14,C  16)          111.48  0.000065   -0.03    111.45   
   118. A(H  39,C  15,H  41)          108.27 -0.000021    0.00    108.27   
   119. A(C  14,C  15,H  41)          110.12  0.000014   -0.00    110.11   
   120. A(H  39,C  15,H  40)          108.76 -0.000020    0.01    108.76   
   121. A(C  14,C  15,H  40)          110.97  0.000023   -0.00    110.97   
   122. A(C  14,C  15,H  39)          110.65  0.000031   -0.01    110.64   
   123. A(H  40,C  15,H  41)          108.00 -0.000029    0.01    108.00   
   124. A(C  14,C  16,H  44)          110.75  0.000044   -0.01    110.74   
   125. A(H  42,C  16,H  44)          108.51 -0.000002   -0.01    108.50   
   126. A(H  42,C  16,H  43)          108.51 -0.000016    0.01    108.52   
   127. A(C  14,C  16,H  43)          110.27 -0.000003    0.00    110.27   
   128. A(C  14,C  16,H  42)          110.65  0.000004   -0.00    110.65   
   129. A(H  43,C  16,H  44)          108.06 -0.000030    0.01    108.07   
   130. A(C  14,C  17,H  47)          110.13 -0.000003    0.00    110.13   
   131. A(H  46,C  17,H  47)          108.35  0.000003   -0.01    108.34   
   132. A(H  45,C  17,H  47)          108.44 -0.000020    0.01    108.45   
   133. A(H  45,C  17,H  46)          108.26 -0.000017    0.01    108.27   
   134. A(C  14,C  17,H  46)          111.06  0.000070   -0.01    111.05   
   135. A(C  14,C  17,H  45)          110.53 -0.000034    0.00    110.53   
   136. A(C   3,O  18,Si  9)          121.29  0.000006    0.01    121.31   
   137. A(C   5,O  19,C  20)          113.20  0.000052    0.01    113.21   
   138. A(O  22,C  20,C  24)          115.50  0.000037   -0.01    115.49   
   139. A(H  21,C  20,C  24)          108.19  0.000061   -0.03    108.16   
   140. A(O  19,C  20,C  24)          109.58 -0.000058    0.03    109.61   
   141. A(H  21,C  20,O  22)          104.59 -0.000060    0.01    104.60   
   142. A(O  19,C  20,O  22)          108.96  0.000025   -0.01    108.95   
   143. A(O  19,C  20,H  21)          109.83 -0.000006    0.02    109.85   
   144. A(C  20,O  22,C  23)          116.65  0.000024    0.01    116.66   
   145. A(O  22,C  23,H  50)          110.84  0.000012   -0.01    110.83   
   146. A(H  49,C  23,H  50)          110.41  0.000023   -0.02    110.38   
   147. A(H  48,C  23,H  50)          109.88 -0.000060    0.03    109.91   
   148. A(H  48,C  23,H  49)          109.49 -0.000016    0.00    109.50   
   149. A(O  22,C  23,H  49)          110.94  0.000012    0.02    110.96   
   150. A(O  22,C  23,H  48)          105.15  0.000027   -0.02    105.13   
   151. A(H  25,C  24,O  26)          110.79 -0.000025   -0.00    110.78   
   152. A(C  20,C  24,O  26)          108.76 -0.000020   -0.01    108.75   
   153. A(C   1,C  24,O  26)          111.24  0.000040   -0.00    111.24   
   154. A(C  20,C  24,H  25)          109.08  0.000013    0.01    109.09   
   155. A(C   1,C  24,H  25)          107.78 -0.000014    0.00    107.78   
   156. A(C   1,C  24,C  20)          109.14  0.000006    0.01    109.16   
   157. A(C  24,O  26,H  51)          107.44 -0.000122    0.02    107.46   
   158. D(C  24,C   1,O   0,H  27)    172.66  0.000032   -0.18    172.49   
   159. D(C   3,C   1,O   0,H  27)     51.69  0.000036   -0.20     51.49   
   160. D(H   2,C   1,O   0,H  27)    -68.96  0.000022   -0.19    -69.15   
   161. D(C   5,C   3,C   1,H   2)    -65.00 -0.000015    0.06    -64.93   
   162. D(H   4,C   3,C   1,C  24)    -64.50 -0.000013    0.05    -64.45   
   163. D(C   5,C   3,C   1,O   0)    173.46 -0.000019    0.06    173.51   
   164. D(C   5,C   3,C   1,C  24)     53.93  0.000003    0.03     53.96   
   165. D(H   4,C   3,C   1,H   2)    176.57 -0.000031    0.09    176.66   
   166. D(H   4,C   3,C   1,O   0)     55.02 -0.000036    0.08     55.11   
   167. D(C   7,C   5,C   3,H   4)    -58.99  0.000024   -0.06    -59.05   
   168. D(H   6,C   5,C   3,O  18)    -56.54 -0.000013   -0.03    -56.57   
   169. D(C   7,C   5,C   3,C   1)   -177.35  0.000047   -0.05   -177.40   
   170. D(H   6,C   5,C   3,H   4)   -177.72 -0.000012   -0.04   -177.77   
   171. D(C   7,C   5,C   3,O  18)     62.19  0.000024   -0.05     62.14   
   172. D(H   6,C   5,C   3,C   1)     63.92  0.000011   -0.04     63.88   
   173. D(H  28,C   7,C   5,H   6)    -62.64  0.000012   -0.03    -62.68   
   174. D(H  28,C   7,C   5,O  19)     57.49 -0.000014   -0.02     57.47   
   175. D(H  28,C   7,C   5,C   3)    179.18 -0.000031   -0.02    179.16   
   176. D(O   8,C   7,C   5,O  19)    176.78 -0.000001   -0.03    176.75   
   177. D(O   8,C   7,C   5,H   6)     56.66  0.000025   -0.05     56.60   
   178. D(O   8,C   7,C   5,C   3)    -61.53 -0.000018   -0.04    -61.56   
   179. D(Si  9,O   8,C   7,H  28)    158.53 -0.000037    0.09    158.62   
   180. D(Si  9,O   8,C   7,H  29)    -82.76 -0.000041    0.11    -82.65   
   181. D(Si  9,O   8,C   7,C   5)     38.35 -0.000056    0.10     38.45   
   182. D(O  18,Si  9,O   8,C   7)    -14.32  0.000049   -0.06    -14.37   
   183. D(C  14,Si  9,O   8,C   7)    101.80  0.000013   -0.03    101.77   
   184. D(C  10,Si  9,O   8,C   7)   -129.11 -0.000062   -0.00   -129.11   
   185. D(C  12,C  10,Si  9,O   8)    -48.97  0.000029    0.09    -48.89   
   186. D(C  11,C  10,Si  9,O  18)     74.78 -0.000052    0.16     74.94   
   187. D(C  11,C  10,Si  9,C  14)    -47.35 -0.000016    0.12    -47.23   
   188. D(C  11,C  10,Si  9,O   8)   -170.06  0.000004    0.11   -169.95   
   189. D(C  12,C  10,Si  9,O  18)   -164.12 -0.000026    0.13   -163.99   
   190. D(C  12,C  10,Si  9,C  14)     73.74  0.000010    0.10     73.83   
   191. D(H  31,C  11,C  10,C  12)   -179.13 -0.000029    0.11   -179.02   
   192. D(H  31,C  11,C  10,Si  9)    -57.19  0.000002    0.10    -57.09   
   193. D(H  30,C  11,C  10,C  13)   -175.83  0.000003    0.13   -175.69   
   194. D(H  30,C  11,C  10,C  12)    -58.67 -0.000013    0.11    -58.56   
   195. D(H  31,C  11,C  10,C  13)     63.71 -0.000014    0.13     63.84   
   196. D(H  30,C  11,C  10,Si  9)     63.27  0.000018    0.10     63.37   
   197. D(H  34,C  12,C  10,C  13)     55.31  0.000005    0.09     55.40   
   198. D(H  34,C  12,C  10,C  11)    -62.03 -0.000003    0.12    -61.91   
   199. D(H  34,C  12,C  10,Si  9)    175.17 -0.000024    0.12    175.30   
   200. D(H  33,C  12,C  10,C  13)    175.21 -0.000002    0.09    175.31   
   201. D(H  33,C  12,C  10,C  11)     57.87 -0.000009    0.12     58.00   
   202. D(H  33,C  12,C  10,Si  9)    -64.92 -0.000031    0.13    -64.80   
   203. D(H  37,C  13,C  10,C  12)     59.77 -0.000013    0.11     59.88   
   204. D(H  37,C  13,C  10,C  11)    177.43 -0.000008    0.08    177.51   
   205. D(H  37,C  13,C  10,Si  9)    -60.45 -0.000009    0.10    -60.35   
   206. D(H  36,C  13,C  10,C  12)   -179.56 -0.000003    0.11   -179.45   
   207. D(H  36,C  13,C  10,C  11)    -61.89  0.000003    0.07    -61.82   
   208. D(H  36,C  13,C  10,Si  9)     60.22  0.000001    0.10     60.32   
   209. D(C  16,C  14,Si  9,O  18)   -168.09 -0.000005   -0.22   -168.30   
   210. D(C  16,C  14,Si  9,C  10)    -45.87  0.000007   -0.21    -46.08   
   211. D(C  16,C  14,Si  9,O   8)     75.35  0.000021   -0.22     75.13   
   212. D(C  15,C  14,Si  9,O  18)     72.79  0.000004   -0.21     72.58   
   213. D(C  15,C  14,Si  9,C  10)   -164.99  0.000017   -0.21   -165.19   
   214. D(C  15,C  14,Si  9,O   8)    -43.77  0.000030   -0.21    -43.98   
   215. D(H  40,C  15,C  14,C  16)    179.05 -0.000019    0.00    179.05   
   216. D(H  40,C  15,C  14,Si  9)    -59.62  0.000028   -0.03    -59.65   
   217. D(H  39,C  15,C  14,C  17)   -177.43 -0.000008    0.01   -177.41   
   218. D(H  39,C  15,C  14,C  16)    -60.12 -0.000008    0.00    -60.12   
   219. D(H  40,C  15,C  14,C  17)     61.75 -0.000019    0.01     61.76   
   220. D(H  39,C  15,C  14,Si  9)     61.20  0.000039   -0.02     61.18   
   221. D(H  43,C  16,C  14,C  17)     61.93  0.000023   -0.07     61.86   
   222. D(H  43,C  16,C  14,C  15)    -54.96  0.000010   -0.06    -55.03   
   223. D(H  43,C  16,C  14,Si  9)   -174.87  0.000020   -0.07   -174.94   
   224. D(H  42,C  16,C  14,C  17)   -178.01  0.000003   -0.06   -178.07   
   225. D(H  42,C  16,C  14,C  15)     65.10 -0.000009   -0.05     65.04   
   226. D(H  42,C  16,C  14,Si  9)    -54.81  0.000001   -0.06    -54.87   
   227. D(H  46,C  17,C  14,C  16)     61.72  0.000035   -0.14     61.57   
   228. D(H  46,C  17,C  14,C  15)    178.52  0.000017   -0.15    178.37   
   229. D(H  46,C  17,C  14,Si  9)    -61.51 -0.000024   -0.11    -61.62   
   230. D(H  45,C  17,C  14,C  16)   -178.10  0.000037   -0.14   -178.24   
   231. D(H  45,C  17,C  14,C  15)    -61.30  0.000019   -0.14    -61.45   
   232. D(H  45,C  17,C  14,Si  9)     58.67 -0.000022   -0.11     58.57   
   233. D(C   3,O  18,Si  9,C  14)   -102.75 -0.000000   -0.06   -102.81   
   234. D(C   3,O  18,Si  9,C  10)    128.01  0.000081   -0.10    127.91   
   235. D(C   3,O  18,Si  9,O   8)     14.33 -0.000026   -0.05     14.29   
   236. D(Si  9,O  18,C   3,C   5)    -38.69  0.000016    0.09    -38.60   
   237. D(Si  9,O  18,C   3,H   4)     82.11  0.000024    0.08     82.19   
   238. D(Si  9,O  18,C   3,C   1)   -159.33 -0.000013    0.10   -159.23   
   239. D(C  20,O  19,C   5,C   7)   -175.59  0.000025   -0.00   -175.59   
   240. D(C  20,O  19,C   5,H   6)    -56.59  0.000008    0.01    -56.59   
   241. D(C  20,O  19,C   5,C   3)     62.76 -0.000010    0.00     62.76   
   242. D(C  24,C  20,O  19,C   5)    -62.35 -0.000009    0.06    -62.29   
   243. D(O  22,C  20,O  19,C   5)    170.39 -0.000033    0.06    170.45   
   244. D(H  21,C  20,O  19,C   5)     56.36  0.000027    0.05     56.41   
   245. D(C  23,O  22,C  20,C  24)    -57.64  0.000020   -0.02    -57.66   
   246. D(C  23,O  22,C  20,H  21)   -176.43 -0.000036    0.02   -176.41   
   247. D(C  23,O  22,C  20,O  19)     66.17 -0.000010    0.00     66.17   
   248. D(H  50,C  23,O  22,C  20)    -46.74 -0.000017   -0.11    -46.86   
   249. D(H  49,C  23,O  22,C  20)     76.29  0.000030   -0.14     76.16   
   250. D(H  48,C  23,O  22,C  20)   -165.43  0.000033   -0.13   -165.56   
   251. D(H  25,C  24,C  20,O  22)     62.93  0.000015   -0.09     62.84   
   252. D(H  25,C  24,C  20,H  21)    179.71  0.000005   -0.11    179.60   
   253. D(C   1,C  24,C  20,O  22)   -179.55  0.000009   -0.07   -179.62   
   254. D(C   1,C  24,C  20,H  21)    -62.77 -0.000000   -0.09    -62.86   
   255. D(C   1,C  24,C  20,O  19)     56.96 -0.000004   -0.07     56.89   
   256. D(H  25,C  24,C   1,C   3)     64.06 -0.000011    0.05     64.10   
   257. D(H  25,C  24,C   1,H   2)   -177.26  0.000020    0.02   -177.24   
   258. D(H  25,C  24,C   1,O   0)    -58.14  0.000013    0.03    -58.11   
   259. D(H  25,C  24,C  20,O  19)    -60.56  0.000002   -0.09    -60.65   
   260. D(C  20,C  24,C   1,C   3)    -54.29 -0.000022    0.03    -54.26   
   261. D(C  20,C  24,C   1,H   2)     64.39  0.000009   -0.00     64.39   
   262. D(C  20,C  24,C   1,O   0)   -176.48  0.000002    0.01   -176.47   
   263. D(H  51,O  26,C  24,H  25)     69.97  0.000007   -0.01     69.96   
   264. D(H  51,O  26,C  24,C  20)   -170.14 -0.000005   -0.02   -170.16   
   265. D(H  51,O  26,C  24,C   1)    -49.90  0.000015   -0.01    -49.91   
    ----------------------------------------------------------------------------

Geometry step timings:
Preparation and reading OPT file:      0.001 s ( 4.537 %)
Internal coordinates            :      0.000 s ( 0.128 %)
B/P matrices and projection     :      0.006 s (23.940 %)
Hessian update/contruction      :      0.011 s (43.431 %)
Making the step                 :      0.004 s (15.412 %)
Converting the step to Cartesian:      0.000 s ( 1.954 %)
Storing new data                :      0.001 s ( 3.602 %)
Checking convergence            :      0.000 s ( 0.144 %)
Final printing                  :      0.002 s ( 6.851 %)
Total time                      :      0.025 s

Time for energy+gradient        :      0.090 s
Time for complete geometry iter :      0.125 s

         *************************************************************
         *                GEOMETRY OPTIMIZATION CYCLE  12            *
         *************************************************************
---------------------------------
CARTESIAN COORDINATES (ANGSTROEM)
---------------------------------
  O    -3.655626    2.063092   -0.295181
  C    -2.298613    1.749704   -0.102336
  H    -2.136833    1.391763    0.928000
  C    -1.816903    0.666261   -1.072461
  H    -2.031395    0.993329   -2.100371
  C    -0.305186    0.493666   -0.916359
  H    -0.112124    0.127447    0.105190
  C     0.225847   -0.533310   -1.912067
  O    -0.343384   -1.790659   -1.699826
  Si   -1.924170   -1.987822   -1.283365
  C    -1.918169   -3.135017    0.260095
  C    -3.327524   -3.609617    0.617132
  C    -1.035081   -4.359999    0.006875
  C    -1.345108   -2.378146    1.466209
  C    -2.920114   -2.524223   -2.854414
  C    -2.482304   -1.663093   -4.049819
  C    -2.657997   -3.990181   -3.209850
  C    -4.427805   -2.329560   -2.656458
  O    -2.513098   -0.517619   -0.805319
  O     0.360798    1.711961   -1.136498
  C     0.013838    2.717659   -0.195158
  H     0.210737    2.356463    0.828888
  O     0.862823    3.791494   -0.353991
  C     0.761899    4.509895   -1.579388
  C    -1.491814    3.038297   -0.310969
  H    -1.704393    3.407573   -1.326583
  O    -1.821413    4.004169    0.648161
  H    -4.154938    1.236134   -0.283218
  H     1.308858   -0.629572   -1.793135
  H     0.013277   -0.183991   -2.928495
  H    -3.743462   -4.216500   -0.182189
  H    -3.987233   -2.763335    0.787051
  H    -3.303528   -4.215191    1.522504
  H    -1.444626   -4.976795   -0.786813
  H    -0.965637   -4.966404    0.909314
  H    -0.034340   -4.053732   -0.283593
  H    -1.946711   -1.501160    1.692114
  H    -0.323606   -2.060557    1.268236
  H    -1.335735   -3.023201    2.344020
  H    -1.424305   -1.804623   -4.257005
  H    -2.662980   -0.607545   -3.856375
  H    -3.045007   -1.943459   -4.939516
  H    -1.592783   -4.172157   -3.324443
  H    -3.155354   -4.246659   -4.144389
  H    -3.038689   -4.648248   -2.433802
  H    -4.651644   -1.290429   -2.432784
  H    -4.795694   -2.940757   -1.838069
  H    -4.964073   -2.610476   -3.562033
  H     1.658336    5.124597   -1.622865
  H    -0.122037    5.153020   -1.583946
  H     0.738749    3.826014   -2.429423
  H    -2.786816    4.076760    0.667495

----------------------------
CARTESIAN COORDINATES (A.U.)
----------------------------
  NO LB    ZA    FRAG    MASS        X           Y           Z
   0 O   8.0000    1    15.999   -6.908132    3.898679   -0.557811
   1 C   6.0000    1    12.011   -4.343748    3.306462   -0.193388
   2 H   1.0000    1     1.008   -4.038029    2.630050    1.753666
   3 C   6.0000    1    12.011   -3.433449    1.259050   -2.026657
   4 H   1.0000    1     1.008   -3.838780    1.877120   -3.969127
   5 C   6.0000    1    12.011   -0.576719    0.932893   -1.731667
   6 H   1.0000    1     1.008   -0.211884    0.240840    0.198781
   7 C   6.0000    1    12.011    0.426790   -1.007810   -3.613282
   8 O   8.0000    1    15.999   -0.648902   -3.383855   -3.212205
   9 Si 14.0000    1    28.086   -3.636154   -3.756439   -2.425208
  10 C   6.0000    1    12.011   -3.624814   -5.924324    0.491508
  11 C   6.0000    1    12.011   -6.288108   -6.821187    1.166210
  12 C   6.0000    1    12.011   -1.956020   -8.239205    0.012991
  13 C   6.0000    1    12.011   -2.541886   -4.494045    2.770733
  14 C   6.0000    1    12.011   -5.518217   -4.770091   -5.394060
  15 C   6.0000    1    12.011   -4.690874   -3.142791   -7.653049
  16 C   6.0000    1    12.011   -5.022887   -7.540349   -6.065737
  17 C   6.0000    1    12.011   -8.367338   -4.402230   -5.019979
  18 O   8.0000    1    15.999   -4.749067   -0.978159   -1.521832
  19 O   8.0000    1    15.999    0.681810    3.235137   -2.147669
  20 C   6.0000    1    12.011    0.026150    5.135631   -0.368795
  21 H   1.0000    1     1.008    0.398235    4.453070    1.566372
  22 O   8.0000    1    15.999    1.630499    7.164885   -0.668946
  23 C   6.0000    1    12.011    1.439781    8.522467   -2.984610
  24 C   6.0000    1    12.011   -2.819120    5.741549   -0.587646
  25 H   1.0000    1     1.008   -3.220836    6.439380   -2.506878
  26 O   8.0000    1    15.999   -3.441972    7.566784    1.224847
  27 H   1.0000    1     1.008   -7.851695    2.335955   -0.535205
  28 H   1.0000    1     1.008    2.473383   -1.189719   -3.388534
  29 H   1.0000    1     1.008    0.025089   -0.347692   -5.534054
  30 H   1.0000    1     1.008   -7.074117   -7.968030   -0.344287
  31 H   1.0000    1     1.008   -7.534779   -5.221946    1.487310
  32 H   1.0000    1     1.008   -6.242764   -7.965557    2.877116
  33 H   1.0000    1     1.008   -2.729947   -9.404780   -1.486861
  34 H   1.0000    1     1.008   -1.824789   -9.385143    1.718354
  35 H   1.0000    1     1.008   -0.064893   -7.660443   -0.535914
  36 H   1.0000    1     1.008   -3.678751   -2.836782    3.197633
  37 H   1.0000    1     1.008   -0.611526   -3.893889    2.396620
  38 H   1.0000    1     1.008   -2.524174   -5.713022    4.429556
  39 H   1.0000    1     1.008   -2.691546   -3.410243   -8.044573
  40 H   1.0000    1     1.008   -5.032303   -1.148094   -7.287493
  41 H   1.0000    1     1.008   -5.754229   -3.672606   -9.334332
  42 H   1.0000    1     1.008   -3.009923   -7.884234   -6.282287
  43 H   1.0000    1     1.008   -5.962755   -8.025023   -7.831760
  44 H   1.0000    1     1.008   -5.742290   -8.783916   -4.599220
  45 H   1.0000    1     1.008   -8.790332   -2.438557   -4.597296
  46 H   1.0000    1     1.008   -9.062548   -5.557225   -3.473447
  47 H   1.0000    1     1.008   -9.380738   -4.933086   -6.731267
  48 H   1.0000    1     1.008    3.133800    9.684085   -3.066770
  49 H   1.0000    1     1.008   -0.230617    9.737797   -2.993224
  50 H   1.0000    1     1.008    1.396034    7.230118   -4.590944
  51 H   1.0000    1     1.008   -5.266319    7.703961    1.261382

      -----------------------------------------------------------      
     |                   =====================                   |     
     |                           x T B                           |     
     |                   =====================                   |     
     |                         S. Grimme                         |     
     |          Mulliken Center for Theoretical Chemistry        |     
     |                    University of Bonn                     |     
      -----------------------------------------------------------      

   * xtb version 6.7.1 (edcfbbe) compiled by 'albert@albert-system' on 2024-07-22

   xtb is free software: you can redistribute it and/or modify it under
   the terms of the GNU Lesser General Public License as published by
   the Free Software Foundation, either version 3 of the License, or
   (at your option) any later version.
   
   xtb is distributed in the hope that it will be useful,
   but WITHOUT ANY WARRANTY; without even the implied warranty of
   MERCHANTABILITY or FITNESS FOR A PARTICULAR PURPOSE.  See the
   GNU Lesser General Public License for more details.
   
   Cite this work as:
   * C. Bannwarth, E. Caldeweyher, S. Ehlert, A. Hansen, P. Pracht,
     J. Seibert, S. Spicher, S. Grimme, WIREs Comput. Mol. Sci., 2020, 11,
     e01493. DOI: 10.1002/wcms.1493
   
   for GFN2-xTB:
   * C. Bannwarth, S. Ehlert and S. Grimme., J. Chem. Theory Comput., 2019,
     15, 1652-1671. DOI: 10.1021/acs.jctc.8b01176
   for GFN1-xTB:
   * S. Grimme, C. Bannwarth, P. Shushkov, J. Chem. Theory Comput., 2017,
     13, 1989-2009. DOI: 10.1021/acs.jctc.7b00118
   for GFN0-xTB:
   * P. Pracht, E. Caldeweyher, S. Ehlert, S. Grimme, ChemRxiv, 2019, preprint.
     DOI: 10.26434/chemrxiv.8326202.v1
   for GFN-FF:
   * S. Spicher and S. Grimme, Angew. Chem. Int. Ed., 2020, 59, 15665-15673.
     DOI: 10.1002/anie.202004239
   
   for ALPB and GBSA implicit solvation:
   * S. Ehlert, M. Stahn, S. Spicher, S. Grimme, J. Chem. Theory Comput.,
     2021, 17, 4250-4261. DOI: 10.1021/acs.jctc.1c00471
   
   for ddCOSMO and CPCM-X implicit solvation:
   * M. Stahn, S. Ehlert, S. Grimme, J. Phys. Chem. A,
     2023, XX, XXXX-XXXX. DOI: 10.1021/acs.jpca.3c04382
   
   for DFT-D4:
   * E. Caldeweyher, C. Bannwarth and S. Grimme, J. Chem. Phys., 2017,
     147, 034112. DOI: 10.1063/1.4993215
   * E. Caldeweyher, S. Ehlert, A. Hansen, H. Neugebauer, S. Spicher,
     C. Bannwarth and S. Grimme, J. Chem. Phys., 2019, 150, 154122.
     DOI: 10.1063/1.5090222
   * E. Caldeweyher, J.-M. Mewes, S. Ehlert and S. Grimme, Phys. Chem. Chem. Phys.
     2020, 22, 8499-8512. DOI: 10.1039/D0CP00502A
   
   for sTDA-xTB:
   * S. Grimme and C. Bannwarth, J. Chem. Phys., 2016, 145, 054103.
     DOI: 10.1063/1.4959605
   
   in the mass-spec context:
   * V. Asgeirsson, C. Bauer and S. Grimme, Chem. Sci., 2017, 8, 4879.
     DOI: 10.1039/c7sc00601b
   * J. Koopman and S. Grimme, ACS Omega 2019, 4, 12, 15120-15133.
     DOI: 10.1021/acsomega.9b02011
   
   for metadynamics refer to:
   * S. Grimme, J. Chem. Theory Comput., 2019, 155, 2847-2862
     DOI: 10.1021/acs.jctc.9b00143
   
   for SPH calculations refer to:
   * S. Spicher and S. Grimme, J. Chem. Theory Comput., 2021, 17, 1701-1714
     DOI: 10.1021/acs.jctc.0c01306
   
   for ONIOM refer to:
   * C. Plett, A. Katbashev, S. Ehlert, S. Grimme, M. Bursch,
     Phys. Chem. Chem. Phys., 2023, 25, 17860-17868. DOI: 10.1039/D3CP02178E
   
   for DIPRO refer to:
   * J. Kohn, N. Gildemeister, S. Grimme, D. Fazzi, A. Hansen,
     J. Chem. Phys., 2023, just accepted.
   
   for PTB refer to:
   * S. Grimme, M. Mueller, A. Hansen, J. Chem. Phys., 2023, 158, 124111.
     DOI: 10.1063/5.0137838
   
   with help from (in alphabetical order)
   P. Atkinson, C. Bannwarth, F. Bohle, G. Brandenburg, E. Caldeweyher
   M. Checinski, S. Dohm, S. Ehlert, S. Ehrlich, I. Gerasimov, C. Hölzer
   A. Katbashev, J. Kohn, J. Koopman, C. Lavigne, S. Lehtola, F. März, M. Müller,
   F. Musil, H. Neugebauer, J. Pisarek, C. Plett, P. Pracht, F. Pultar,
   J. Seibert, P. Shushkov, S. Spicher, M. Stahn, M. Steiner, T. Strunk,
   J. Stückrath, T. Rose, and J. Unsleber
   
 * started run on 2025/09/10 at 11:31:44.808     
   ID    Z sym.   atoms
    1    8 O      1, 9, 19, 20, 23, 27
    2    6 C      2, 4, 6, 8, 11-18, 21, 24, 25
    3    1 H      3, 5, 7, 22, 26, 28-52
    4   14 Si     10

           -------------------------------------------------
          |                Calculation Setup                |
           -------------------------------------------------

          program call               : /home/kmoult/orca_6_1/otool_xtb goat_0_XTB.xyz --grad -c 0 -u 0 -P 4 --namespace goat_0 --input goat_0_XTB.input.tmp --alpb ACETONE --acc 0.200000
          hostname                   : node3306
          calculation namespace      : goat_0
          coordinate file            : goat_0_XTB.xyz
          omp threads                :                     4


           -------------------------------------------------
          |                 G F N 2 - x T B                 |
           -------------------------------------------------

        Reference                      10.1021/acs.jctc.8b01176
      * Hamiltonian:
        H0-scaling (s, p, d)           1.850000    2.230000    2.230000
        zeta-weighting                 0.500000
      * Dispersion:
        s8                             2.700000
        a1                             0.520000
        a2                             5.000000
        s9                             5.000000
      * Repulsion:
        kExp                           1.500000    1.000000
        rExp                           1.000000
      * Coulomb:
        alpha                          2.000000
        third order                    shell-resolved
        anisotropic                    true
        a3                             3.000000
        a5                             4.000000
        cn-shift                       1.200000
        cn-exp                         4.000000
        max-rad                        5.000000

      * Solvation model:               ALPB
        Solvent                        ACETONE
        Parameter file                 internal GFN2-xTB/ALPB
        Dielectric constant                2.0700E+01
        Reference state                gsolv [1 M gas/solution]
        Free energy shift                  5.9241E-03 Eh       3.7175E+00 kcal/mol
        Temperature                        2.9815E+02 K
        Density                            7.9000E-01 kg/L
        Solvent mass                       5.8080E+01 g/mol
        Interaction kernel             P16
        Born radius scaling (c1)           1.8274E+00
        Born radii integrator          GBOBC
        Born offset                        0.0000E+00 a0       0.0000E+00 AA
        H-bond correction              true
        Ion screening                  false
        Surface tension                    1.0000E-05 Eh       1.5569E+01 dyn/cm
        Grid points                               230 per atom
q/qsh data taken from xtbrestart
CAMM data taken from xtbrestart

          ...................................................
          :                      SETUP                      :
          :.................................................:
          :  # basis functions                 124          :
          :  # atomic orbitals                 123          :
          :  # shells                           75          :
          :  # electrons                       130          :
          :  max. iterations                   250          :
          :  Hamiltonian                  GFN2-xTB          :
          :  restarted?                       true          :
          :  GBSA solvation                   true          :
          :  PC potential                    false          :
          :  electronic temp.          300.0000000     K    :
          :  accuracy                    0.2000000          :
          :  -> integral cutoff          0.3198970E+02      :
          :  -> integral neglect         0.2000000E-08      :
          :  -> SCF convergence          0.2000000E-06 Eh   :
          :  -> wf. convergence          0.2000000E-04 e    :
          :  Broyden damping             0.4000000          :
          :  net charge                          0          :
          :  unpaired electrons                  0          :
          ...................................................

 iter      E             dE          RMSdq      gap      omega  full diag
   1    -74.4400379 -0.744400E+02  0.760E-03    5.48       0.0  T
   2    -74.4400379 -0.225731E-07  0.489E-03    5.49       2.8  T
   3    -74.4400379  0.146344E-07  0.122E-03    5.48      11.4  T
   4    -74.4400379 -0.209366E-07  0.841E-04    5.49      16.5  T
   5    -74.4400379 -0.240333E-08  0.416E-04    5.49      33.3  T
   6    -74.4400380 -0.132968E-08  0.112E-04    5.49     123.7  T
   7    -74.4400380 -0.142549E-09  0.547E-05    5.49     253.6  T

   *** convergence criteria satisfied after 7 iterations ***

         #    Occupation            Energy/Eh            Energy/eV
      -------------------------------------------------------------
         1        2.0000           -0.8172732             -22.2391
       ...           ...                  ...                  ...
        59        2.0000           -0.4259308             -11.5902
        60        2.0000           -0.4241272             -11.5411
        61        2.0000           -0.4230767             -11.5125
        62        2.0000           -0.4179873             -11.3740
        63        2.0000           -0.4145807             -11.2813
        64        2.0000           -0.4059642             -11.0468
        65        2.0000           -0.3717537             -10.1159 (HOMO)
        66                         -0.1701725              -4.6306 (LUMO)
        67                         -0.1433475              -3.9007
        68                         -0.0907927              -2.4706
        69                         -0.0487713              -1.3271
        70                         -0.0050587              -0.1377
       ...                                ...                  ...
       123                          0.7841676              21.3383
      -------------------------------------------------------------
                  HL-Gap            0.2015811 Eh            5.4853 eV
             Fermi-level           -0.2709631 Eh           -7.3733 eV

 SCC (total)                   0 d,  0 h,  0 min,  0.037 sec
 SCC setup                      ...        0 min,  0.001 sec (  1.619%)
 Dispersion                     ...        0 min,  0.000 sec (  0.894%)
 classical contributions        ...        0 min,  0.000 sec (  0.111%)
 integral evaluation            ...        0 min,  0.017 sec ( 45.043%)
 iterations                     ...        0 min,  0.011 sec ( 30.262%)
 molecular gradient             ...        0 min,  0.008 sec ( 21.655%)
 printout                       ...        0 min,  0.000 sec (  0.383%)

         :::::::::::::::::::::::::::::::::::::::::::::::::::::
         ::                     SUMMARY                     ::
         :::::::::::::::::::::::::::::::::::::::::::::::::::::
         :: total energy             -73.690547837510 Eh    ::
         :: total w/o Gsasa/hb       -73.661660528038 Eh    ::
         :: gradient norm              0.000572433264 Eh/a0 ::
         :: HOMO-LUMO gap              5.485302022051 eV    ::
         ::.................................................::
         :: SCC energy               -74.438675382919 Eh    ::
         :: -> isotropic ES            0.157258603241 Eh    ::
         :: -> anisotropic ES          0.003142419391 Eh    ::
         :: -> anisotropic XC          0.005568194036 Eh    ::
         :: -> dispersion             -0.053487947085 Eh    ::
         :: -> Gsolv                  -0.031850625938 Eh    ::
         ::    -> Gelec               -0.002963316466 Eh    ::
         ::    -> Gsasa               -0.028891419810 Eh    ::
         ::    -> Ghb                 -0.005920030925 Eh    ::
         ::    -> Gshift               0.005924141264 Eh    ::
         :: repulsion energy           0.748127545410 Eh    ::
         :: add. restraining           0.000000000000 Eh    ::
         :: total charge               0.000000000000 e     ::
         :::::::::::::::::::::::::::::::::::::::::::::::::::::


Property printout bound to 'properties.out'

           -------------------------------------------------
          | TOTAL ENERGY              -73.690547837510 Eh   |
          | GRADIENT NORM               0.000572433264 Eh/α |
          | HOMO-LUMO GAP               5.485302022051 eV   |
           -------------------------------------------------

------------------------------------------------------------------------
 * finished run on 2025/09/10 at 11:31:44.867     
------------------------------------------------------------------------
 total:
 * wall-time:     0 d,  0 h,  0 min,  0.059 sec
 *  cpu-time:     0 d,  0 h,  0 min,  0.203 sec
 * ratio c/w:     3.446 speedup
 SCF:
 * wall-time:     0 d,  0 h,  0 min,  0.037 sec
 *  cpu-time:     0 d,  0 h,  0 min,  0.137 sec
 * ratio c/w:     3.676 speedup


-------------------------   --------------------
FINAL SINGLE POINT ENERGY       -73.690547837510
-------------------------   --------------------


-------------
DIPOLE MOMENT
-------------
                                X             Y             Z
Total Dipole Moment    :     -0.96200      -0.76300      -0.66300
                        -----------------------------------------
Magnitude (a.u.)       :      1.39541
Magnitude (Debye)      :      3.54686


------------------
CARTESIAN GRADIENT
------------------

   1   O   :   -0.000058388    0.000094918   -0.000073990
   2   C   :    0.000032019   -0.000057998   -0.000013896
   3   H   :    0.000003549    0.000008540   -0.000012756
   4   C   :    0.000093987    0.000047557    0.000017054
   5   H   :   -0.000045097    0.000015148    0.000001728
   6   C   :   -0.000093706   -0.000159332   -0.000069640
   7   H   :    0.000003006    0.000006878    0.000003986
   8   C   :    0.000089420    0.000076398    0.000029629
   9   O   :    0.000016463    0.000019177   -0.000105349
  10   Si  :   -0.000046806    0.000000432    0.000203952
  11   C   :   -0.000075908    0.000053115   -0.000265752
  12   C   :    0.000018600    0.000001121   -0.000007390
  13   C   :   -0.000003747    0.000020811    0.000021366
  14   C   :   -0.000022984    0.000010421    0.000052238
  15   C   :    0.000060226   -0.000033567    0.000063970
  16   C   :    0.000022038    0.000012453    0.000016663
  17   C   :   -0.000060213    0.000021384   -0.000007947
  18   C   :    0.000008604   -0.000040719    0.000037220
  19   O   :   -0.000004085   -0.000088983   -0.000003441
  20   O   :   -0.000002183    0.000022899   -0.000019096
  21   C   :    0.000019620    0.000095125    0.000008507
  22   H   :    0.000041298    0.000015610    0.000014416
  23   O   :   -0.000019183   -0.000027368   -0.000003047
  24   C   :   -0.000033750   -0.000016431    0.000056583
  25   C   :    0.000030914   -0.000102136   -0.000036850
  26   H   :   -0.000020173    0.000013297    0.000005365
  27   O   :    0.000033667    0.000122125    0.000077039
  28   H   :    0.000007882   -0.000009675    0.000044641
  29   H   :   -0.000009919   -0.000001253    0.000011184
  30   H   :   -0.000011788   -0.000014601   -0.000010039
  31   H   :   -0.000008520   -0.000016974    0.000017059
  32   H   :    0.000000534    0.000009111    0.000023495
  33   H   :   -0.000008599   -0.000005530    0.000013965
  34   H   :   -0.000007641   -0.000028941    0.000009022
  35   H   :    0.000014978   -0.000008443    0.000000355
  36   H   :    0.000010923   -0.000006586    0.000004801
  37   H   :    0.000006573   -0.000001066    0.000022211
  38   H   :    0.000021099   -0.000011009    0.000004446
  39   H   :    0.000022287    0.000018619    0.000019388
  40   H   :   -0.000006555   -0.000007976   -0.000012853
  41   H   :   -0.000006015    0.000005499   -0.000020604
  42   H   :   -0.000007756    0.000004604   -0.000012411
  43   H   :    0.000005079   -0.000005714   -0.000000390
  44   H   :    0.000007733   -0.000000552   -0.000009664
  45   H   :    0.000006407   -0.000021967   -0.000000897
  46   H   :    0.000004253    0.000010515   -0.000008109
  47   H   :   -0.000024652    0.000012921    0.000009328
  48   H   :   -0.000009596    0.000000777   -0.000000831
  49   H   :    0.000014900    0.000004950   -0.000019469
  50   H   :    0.000010521    0.000007000   -0.000026053
  51   H   :    0.000007967    0.000001726   -0.000008542
  52   H   :   -0.000027284   -0.000066310   -0.000040596

Difference to translation invariance:
           :    0.0000000000    0.0000000000    0.0000000000

Difference to rotation invariance:
           :   -0.0007792112    0.0007065424   -0.0002692498

Norm of the Cartesian gradient     ...    0.0005724333
RMS gradient                       ...    0.0000458313
MAX gradient                       ...    0.0002657518
------------------------------------------------------------------------------
                         ORCA GEOMETRY RELAXATION STEP
------------------------------------------------------------------------------

Reading the OPT-File                    .... done
Getting information on internals        .... done
Copying old internal coords+grads       .... done
Making the new internal coordinates     .... (2022 redundants) done
Validating the new internal coordinates .... (2022 redundants) done
Calculating the B-matrix                .... done
Calculating the G,G- and P matrices     .... done
Transforming gradient to internals      .... done
Projecting the internal gradient        .... done
Number of atoms                         ....  52
Number of internal coordinates          .... 265
Current Energy                          ....   -73.690547838 Eh
Current gradient norm                   ....     0.000572433 Eh/bohr
Maximum allowed component of the step   ....  0.300
Current trust radius                    ....  0.450
Updating the Hessian (BFGS)             .... done
Forming the augmented Hessian           .... done
Diagonalizing the augmented Hessian     .... done
Last element of RFO vector              ....  0.999881607
Lowest eigenvalues of augmented Hessian:
 -0.000001961  0.001928776  0.004465331  0.009860516  0.010034501
Length of the computed step             ....  0.015389221
The final length of the internal step   ....  0.015389221
Converting the step to Cartesian space:
 Initial RMS(Int)=    0.0009453524
Transforming coordinates:
 Iter   0:  RMS(Cart)=    0.0031380576 RMS(Int)=    0.0009453345
done
Storing new coordinates                 .... done
The predicted energy change is          ....    -0.000000981
Previously predicted energy change      ....    -0.000001578
Actually observed energy change         ....    -0.000002242
Ratio of predicted to observed change   ....     1.420848822
New trust radius                        ....     0.450000000

                                .--------------------.
          ----------------------|Geometry convergence|-------------------------
          Item                value                   Tolerance       Converged
          ---------------------------------------------------------------------
          Energy change      -0.0000022418            0.0000050000      YES
          RMS gradient        0.0000234970            0.0001000000      YES
          MAX gradient        0.0000981520            0.0003000000      YES
          RMS step            0.0009453524            0.0020000000      YES
          MAX step            0.0045329719            0.0040000000      NO
          -------------------------------------------------------------------------
          ........................................................
          Max(Bonds)      0.0024      Max(Angles)    0.05
          Max(Dihed)        0.20      Max(Improp)    0.00
          ---------------------------------------------------------------------

    ---------------------------------------------------------------------------
                         Redundant Internal Coordinates
                            (Angstroem and degrees)

        Definition                    Value    dE/dq     Step     New-Value
    ----------------------------------------------------------------------------
     1. B(C   1,O   0)                1.4060  0.000074 -0.0002    1.4059   
     2. B(H   2,C   1)                1.1027 -0.000014  0.0001    1.1027   
     3. B(C   3,C   1)                1.5320 -0.000003 -0.0000    1.5320   
     4. B(H   4,C   3)                1.0998  0.000011 -0.0000    1.0998   
     5. B(C   5,C   3)                1.5295 -0.000029  0.0001    1.5297   
     6. B(H   6,C   5)                1.1022  0.000004 -0.0000    1.1022   
     7. B(C   7,C   5)                1.5258 -0.000032  0.0001    1.5259   
     8. B(O   8,C   7)                1.3964  0.000026 -0.0000    1.3964   
     9. B(Si  9,O   8)                1.6466  0.000077 -0.0000    1.6465   
    10. B(C  10,Si  9)                1.9231 -0.000098  0.0004    1.9235   
    11. B(C  11,C  10)                1.5294  0.000016  0.0001    1.5294   
    12. B(C  12,C  10)                1.5312  0.000022  0.0001    1.5313   
    13. B(C  13,C  10)                1.5349  0.000088 -0.0002    1.5348   
    14. B(C  14,Si  9)                1.9359 -0.000026 -0.0001    1.9358   
    15. B(C  15,C  14)                1.5370  0.000042 -0.0001    1.5369   
    16. B(C  16,C  14)                1.5310  0.000005  0.0001    1.5311   
    17. B(C  17,C  14)                1.5330  0.000014  0.0001    1.5331   
    18. B(O  18,Si  9)                1.6543 -0.000035  0.0001    1.6544   
    19. B(O  18,C   3)                1.3992  0.000062 -0.0001    1.3991   
    20. B(O  19,C   5)                1.4058  0.000082 -0.0001    1.4057   
    21. B(C  20,O  19)                1.4205  0.000055 -0.0001    1.4204   
    22. B(H  21,C  20)                1.1036  0.000019 -0.0001    1.1035   
    23. B(O  22,C  20)                1.3781 -0.000038  0.0001    1.3782   
    24. B(C  23,O  22)                1.4240 -0.000020  0.0000    1.4241   
    25. B(C  24,C  20)                1.5438 -0.000002  0.0001    1.5439   
    26. B(C  24,C   1)                1.5346  0.000021  0.0000    1.5346   
    27. B(H  25,C  24)                1.1014  0.000002 -0.0000    1.1014   
    28. B(O  26,C  24)                1.4005  0.000090 -0.0001    1.4004   
    29. B(H  27,O   0)                0.9661  0.000009  0.0000    0.9661   
    30. B(H  27,O  18)                2.4584  0.000010 -0.0024    2.4560   
    31. B(H  28,C   7)                1.0938 -0.000008 -0.0000    1.0938   
    32. B(H  29,C   7)                1.0956  0.000005 -0.0000    1.0956   
    33. B(H  30,C  11)                1.0864  0.000004  0.0000    1.0864   
    34. B(H  31,C  11)                1.0864  0.000010 -0.0000    1.0864   
    35. B(H  32,C  11)                1.0895  0.000013 -0.0000    1.0895   
    36. B(H  33,C  12)                1.0854  0.000014 -0.0000    1.0854   
    37. B(H  34,C  12)                1.0895  0.000005 -0.0000    1.0894   
    38. B(H  35,C  12)                1.0861  0.000007 -0.0000    1.0861   
    39. B(H  36,C  13)                1.0872  0.000000  0.0000    1.0872   
    40. B(H  37,C  13)                1.0879  0.000013 -0.0000    1.0879   
    41. B(H  38,C  13)                1.0894  0.000005 -0.0000    1.0893   
    42. B(H  39,C  15)                1.0873  0.000000  0.0000    1.0874   
    43. B(H  40,C  15)                1.0882  0.000003 -0.0000    1.0882   
    44. B(H  41,C  15)                1.0894  0.000012 -0.0000    1.0894   
    45. B(H  42,C  16)                1.0867  0.000009  0.0000    1.0867   
    46. B(H  43,C  16)                1.0893  0.000006 -0.0000    1.0892   
    47. B(H  44,C  16)                1.0864  0.000007 -0.0000    1.0864   
    48. B(H  45,C  17)                1.0862  0.000007  0.0000    1.0862   
    49. B(H  46,C  17)                1.0857  0.000005 -0.0000    1.0857   
    50. B(H  47,C  17)                1.0893  0.000007 -0.0000    1.0893   
    51. B(H  48,C  23)                1.0878  0.000016 -0.0000    1.0878   
    52. B(H  49,C  23)                1.0931 -0.000003  0.0000    1.0932   
    53. B(H  50,C  23)                1.0912  0.000001  0.0000    1.0912   
    54. B(H  51,O   0)                2.3951 -0.000034  0.0017    2.3968   
    55. B(H  51,O  26)                0.9683  0.000014 -0.0000    0.9683   
    56. A(C   1,O   0,H  27)          107.84 -0.000048    0.01    107.85   
    57. A(O   0,C   1,C   3)          111.98 -0.000016    0.00    111.98   
    58. A(C   3,C   1,C  24)          110.03  0.000021   -0.01    110.02   
    59. A(O   0,C   1,H   2)          110.01  0.000018    0.00    110.01   
    60. A(H   2,C   1,C   3)          108.42  0.000007   -0.01    108.41   
    61. A(O   0,C   1,C  24)          107.55 -0.000009    0.03    107.58   
    62. A(H   2,C   1,C  24)          108.81 -0.000021   -0.01    108.80   
    63. A(C   1,C   3,C   5)          109.02  0.000022   -0.02    109.00   
    64. A(C   1,C   3,H   4)          108.68 -0.000037    0.02    108.69   
    65. A(C   5,C   3,O  18)          112.14 -0.000019    0.02    112.16   
    66. A(H   4,C   3,C   5)          108.77  0.000011   -0.02    108.74   
    67. A(C   1,C   3,O  18)          108.73  0.000010   -0.01    108.72   
    68. A(H   4,C   3,O  18)          109.45  0.000012    0.01    109.46   
    69. A(C   7,C   5,O  19)          108.44  0.000004    0.01    108.44   
    70. A(H   6,C   5,O  19)          110.49 -0.000015    0.02    110.51   
    71. A(C   3,C   5,C   7)          110.69  0.000042   -0.02    110.67   
    72. A(H   6,C   5,C   7)          108.68  0.000001    0.00    108.68   
    73. A(C   3,C   5,O  19)          110.76 -0.000023   -0.01    110.75   
    74. A(C   3,C   5,H   6)          107.77 -0.000008    0.00    107.77   
    75. A(O   8,C   7,H  29)          110.43 -0.000022    0.02    110.45   
    76. A(O   8,C   7,H  28)          107.93  0.000007   -0.01    107.92   
    77. A(C   5,C   7,H  28)          109.44  0.000018    0.00    109.45   
    78. A(H  28,C   7,H  29)          108.73  0.000021    0.00    108.73   
    79. A(C   5,C   7,O   8)          111.41 -0.000031   -0.01    111.40   
    80. A(C   5,C   7,H  29)          108.86  0.000009   -0.01    108.85   
    81. A(C   7,O   8,Si  9)          122.52  0.000017   -0.01    122.51   
    82. A(O   8,Si  9,C  10)          105.75  0.000055   -0.04    105.71   
    83. A(O   8,Si  9,O  18)          107.97 -0.000015   -0.02    107.95   
    84. A(O   8,Si  9,C  14)          108.77 -0.000018    0.03    108.81   
    85. A(C  10,Si  9,C  14)          119.19 -0.000050    0.04    119.22   
    86. A(C  10,Si  9,O  18)          107.42  0.000023   -0.05    107.37   
    87. A(C  14,Si  9,O  18)          107.31  0.000007    0.03    107.34   
    88. A(C  11,C  10,C  12)          108.77 -0.000009   -0.01    108.76   
    89. A(Si  9,C  10,C  12)          110.26  0.000015   -0.01    110.25   
    90. A(Si  9,C  10,C  11)          111.69  0.000023   -0.01    111.68   
    91. A(C  12,C  10,C  13)          108.01 -0.000020    0.01    108.02   
    92. A(C  11,C  10,C  13)          108.28 -0.000016    0.01    108.29   
    93. A(Si  9,C  10,C  13)          109.74  0.000005    0.01    109.75   
    94. A(H  30,C  11,H  31)          108.53  0.000001   -0.00    108.52   
    95. A(C  10,C  11,H  31)          110.75 -0.000008    0.00    110.76   
    96. A(C  10,C  11,H  30)          110.76  0.000028   -0.01    110.74   
    97. A(H  31,C  11,H  32)          108.44 -0.000016    0.01    108.46   
    98. A(C  10,C  11,H  32)          110.25  0.000007   -0.00    110.25   
    99. A(H  30,C  11,H  32)          108.02 -0.000013    0.00    108.02   
   100. A(H  34,C  12,H  35)          108.65 -0.000019    0.01    108.66   
   101. A(H  33,C  12,H  35)          108.20 -0.000000   -0.00    108.20   
   102. A(C  10,C  12,H  35)          110.49  0.000008   -0.01    110.48   
   103. A(H  33,C  12,H  34)          108.27 -0.000020    0.01    108.28   
   104. A(C  10,C  12,H  34)          110.19  0.000010   -0.00    110.19   
   105. A(C  10,C  12,H  33)          110.97  0.000018   -0.01    110.97   
   106. A(H  37,C  13,H  38)          108.14 -0.000034    0.02    108.16   
   107. A(C  10,C  13,H  37)          110.58 -0.000017    0.01    110.59   
   108. A(C  10,C  13,H  38)          110.15  0.000037   -0.01    110.13   
   109. A(H  36,C  13,H  38)          108.36 -0.000016    0.01    108.37   
   110. A(H  36,C  13,H  37)          108.78 -0.000001   -0.00    108.77   
   111. A(C  10,C  13,H  36)          110.76  0.000029   -0.02    110.74   
   112. A(C  16,C  14,C  17)          108.66 -0.000003   -0.01    108.65   
   113. A(C  15,C  14,C  17)          108.03  0.000013    0.00    108.03   
   114. A(C  15,C  14,C  16)          107.89 -0.000027    0.01    107.89   
   115. A(Si  9,C  14,C  17)          111.47 -0.000024    0.01    111.48   
   116. A(Si  9,C  14,C  15)          109.23 -0.000003    0.02    109.25   
   117. A(Si  9,C  14,C  16)          111.45  0.000043   -0.03    111.41   
   118. A(H  39,C  15,H  41)          108.27 -0.000011    0.01    108.27   
   119. A(C  14,C  15,H  41)          110.11  0.000005   -0.00    110.11   
   120. A(H  39,C  15,H  40)          108.76 -0.000007    0.00    108.77   
   121. A(C  14,C  15,H  40)          110.97  0.000027   -0.01    110.97   
   122. A(C  14,C  15,H  39)          110.64  0.000003   -0.01    110.63   
   123. A(H  40,C  15,H  41)          108.00 -0.000019    0.01    108.01   
   124. A(C  14,C  16,H  44)          110.74  0.000034   -0.01    110.73   
   125. A(H  42,C  16,H  44)          108.50 -0.000017   -0.00    108.50   
   126. A(H  42,C  16,H  43)          108.52 -0.000007    0.01    108.53   
   127. A(C  14,C  16,H  43)          110.27 -0.000001    0.00    110.27   
   128. A(C  14,C  16,H  42)          110.65 -0.000006   -0.00    110.65   
   129. A(H  43,C  16,H  44)          108.07 -0.000005    0.00    108.08   
   130. A(C  14,C  17,H  47)          110.13  0.000001   -0.00    110.12   
   131. A(H  46,C  17,H  47)          108.34 -0.000004   -0.00    108.34   
   132. A(H  45,C  17,H  47)          108.45 -0.000010    0.01    108.45   
   133. A(H  45,C  17,H  46)          108.27 -0.000007    0.00    108.28   
   134. A(C  14,C  17,H  46)          111.05  0.000046   -0.02    111.03   
   135. A(C  14,C  17,H  45)          110.53 -0.000027    0.01    110.54   
   136. A(C   3,O  18,Si  9)          121.31  0.000009    0.00    121.31   
   137. A(C   5,O  19,C  20)          113.21  0.000049   -0.00    113.21   
   138. A(O  22,C  20,C  24)          115.49  0.000020   -0.01    115.48   
   139. A(H  21,C  20,C  24)          108.16  0.000028   -0.03    108.13   
   140. A(O  19,C  20,C  24)          109.61 -0.000049    0.03    109.64   
   141. A(H  21,C  20,O  22)          104.60 -0.000036    0.01    104.61   
   142. A(O  19,C  20,O  22)          108.95  0.000031   -0.01    108.94   
   143. A(O  19,C  20,H  21)          109.85  0.000008    0.01    109.86   
   144. A(C  20,O  22,C  23)          116.66  0.000021    0.00    116.66   
   145. A(O  22,C  23,H  50)          110.83 -0.000005   -0.00    110.83   
   146. A(H  49,C  23,H  50)          110.38 -0.000010   -0.01    110.37   
   147. A(H  48,C  23,H  50)          109.91 -0.000018    0.02    109.93   
   148. A(H  48,C  23,H  49)          109.50 -0.000012    0.00    109.50   
   149. A(O  22,C  23,H  49)          110.96  0.000040   -0.00    110.96   
   150. A(O  22,C  23,H  48)          105.13  0.000005   -0.01    105.12   
   151. A(H  25,C  24,O  26)          110.78 -0.000027    0.01    110.79   
   152. A(C  20,C  24,O  26)          108.75 -0.000005   -0.02    108.73   
   153. A(C   1,C  24,O  26)          111.24  0.000024    0.01    111.25   
   154. A(C  20,C  24,H  25)          109.09  0.000009    0.00    109.09   
   155. A(C   1,C  24,H  25)          107.78 -0.000017    0.01    107.79   
   156. A(C   1,C  24,C  20)          109.16  0.000016   -0.01    109.15   
   157. A(C  24,O  26,H  51)          107.46 -0.000086    0.04    107.50   
   158. D(C  24,C   1,O   0,H  27)    172.49  0.000032   -0.19    172.29   
   159. D(C   3,C   1,O   0,H  27)     51.49  0.000021   -0.20     51.29   
   160. D(H   2,C   1,O   0,H  27)    -69.15  0.000011   -0.19    -69.33   
   161. D(C   5,C   3,C   1,H   2)    -64.93 -0.000005    0.08    -64.85   
   162. D(H   4,C   3,C   1,C  24)    -64.45 -0.000018    0.09    -64.36   
   163. D(C   5,C   3,C   1,O   0)    173.51 -0.000021    0.08    173.60   
   164. D(C   5,C   3,C   1,C  24)     53.96 -0.000013    0.06     54.01   
   165. D(H   4,C   3,C   1,H   2)    176.66 -0.000009    0.11    176.77   
   166. D(H   4,C   3,C   1,O   0)     55.11 -0.000026    0.11     55.22   
   167. D(C   7,C   5,C   3,H   4)    -59.05  0.000012   -0.06    -59.11   
   168. D(H   6,C   5,C   3,O  18)    -56.57  0.000003   -0.04    -56.61   
   169. D(C   7,C   5,C   3,C   1)   -177.40  0.000038   -0.05   -177.45   
   170. D(H   6,C   5,C   3,H   4)   -177.77 -0.000008   -0.05   -177.81   
   171. D(C   7,C   5,C   3,O  18)     62.14  0.000023   -0.05     62.10   
   172. D(H   6,C   5,C   3,C   1)     63.88  0.000018   -0.04     63.84   
   173. D(H  28,C   7,C   5,H   6)    -62.68  0.000008   -0.02    -62.69   
   174. D(H  28,C   7,C   5,O  19)     57.47 -0.000007    0.01     57.48   
   175. D(H  28,C   7,C   5,C   3)    179.16 -0.000006   -0.01    179.15   
   176. D(O   8,C   7,C   5,O  19)    176.75 -0.000007   -0.01    176.74   
   177. D(O   8,C   7,C   5,H   6)     56.60  0.000009   -0.03     56.57   
   178. D(O   8,C   7,C   5,C   3)    -61.56 -0.000006   -0.02    -61.59   
   179. D(Si  9,O   8,C   7,H  28)    158.62 -0.000029    0.15    158.78   
   180. D(Si  9,O   8,C   7,H  29)    -82.65 -0.000011    0.16    -82.49   
   181. D(Si  9,O   8,C   7,C   5)     38.45 -0.000036    0.16     38.60   
   182. D(O  18,Si  9,O   8,C   7)    -14.38  0.000026   -0.18    -14.55   
   183. D(C  14,Si  9,O   8,C   7)    101.77  0.000016   -0.13    101.64   
   184. D(C  10,Si  9,O   8,C   7)   -129.11 -0.000021   -0.09   -129.20   
   185. D(C  12,C  10,Si  9,O   8)    -48.89  0.000013    0.02    -48.86   
   186. D(C  11,C  10,Si  9,O  18)     74.94 -0.000021    0.11     75.05   
   187. D(C  11,C  10,Si  9,C  14)    -47.23 -0.000014    0.09    -47.15   
   188. D(C  11,C  10,Si  9,O   8)   -169.95 -0.000001    0.05   -169.90   
   189. D(C  12,C  10,Si  9,O  18)   -163.99 -0.000007    0.09   -163.91   
   190. D(C  12,C  10,Si  9,C  14)     73.83 -0.000000    0.06     73.89   
   191. D(H  31,C  11,C  10,C  12)   -179.02 -0.000029    0.08   -178.95   
   192. D(H  31,C  11,C  10,Si  9)    -57.09 -0.000002    0.05    -57.05   
   193. D(H  30,C  11,C  10,C  13)   -175.69  0.000023    0.05   -175.65   
   194. D(H  30,C  11,C  10,C  12)    -58.56 -0.000014    0.06    -58.49   
   195. D(H  31,C  11,C  10,C  13)     63.84  0.000008    0.06     63.90   
   196. D(H  30,C  11,C  10,Si  9)     63.37  0.000013    0.03     63.40   
   197. D(H  34,C  12,C  10,C  13)     55.40 -0.000016    0.11     55.50   
   198. D(H  34,C  12,C  10,C  11)    -61.91  0.000018    0.09    -61.82   
   199. D(H  34,C  12,C  10,Si  9)    175.30 -0.000014    0.12    175.42   
   200. D(H  33,C  12,C  10,C  13)    175.31 -0.000022    0.11    175.42   
   201. D(H  33,C  12,C  10,C  11)     58.00  0.000012    0.10     58.10   
   202. D(H  33,C  12,C  10,Si  9)    -64.80 -0.000020    0.13    -64.67   
   203. D(H  37,C  13,C  10,C  12)     59.88  0.000010    0.06     59.94   
   204. D(H  37,C  13,C  10,C  11)    177.51 -0.000020    0.06    177.57   
   205. D(H  37,C  13,C  10,Si  9)    -60.35  0.000001    0.06    -60.29   
   206. D(H  36,C  13,C  10,C  12)   -179.45  0.000017    0.05   -179.40   
   207. D(H  36,C  13,C  10,C  11)    -61.82 -0.000013    0.05    -61.77   
   208. D(H  36,C  13,C  10,Si  9)     60.32  0.000008    0.05     60.37   
   209. D(C  16,C  14,Si  9,O  18)   -168.30 -0.000007   -0.08   -168.39   
   210. D(C  16,C  14,Si  9,C  10)    -46.08 -0.000006   -0.09    -46.17   
   211. D(C  16,C  14,Si  9,O   8)     75.13  0.000016   -0.10     75.04   
   212. D(C  15,C  14,Si  9,O  18)     72.58  0.000001   -0.09     72.50   
   213. D(C  15,C  14,Si  9,C  10)   -165.19  0.000003   -0.09   -165.29   
   214. D(C  15,C  14,Si  9,O   8)    -43.98  0.000025   -0.10    -44.08   
   215. D(H  40,C  15,C  14,C  16)    179.05 -0.000019   -0.01    179.04   
   216. D(H  40,C  15,C  14,Si  9)    -59.65  0.000016   -0.04    -59.68   
   217. D(H  39,C  15,C  14,C  17)   -177.41  0.000004   -0.01   -177.43   
   218. D(H  39,C  15,C  14,C  16)    -60.12 -0.000008   -0.02    -60.14   
   219. D(H  40,C  15,C  14,C  17)     61.76 -0.000008   -0.01     61.75   
   220. D(H  39,C  15,C  14,Si  9)     61.18  0.000027   -0.04     61.14   
   221. D(H  43,C  16,C  14,C  17)     61.86  0.000011   -0.07     61.79   
   222. D(H  43,C  16,C  14,C  15)    -55.03  0.000012   -0.07    -55.10   
   223. D(H  43,C  16,C  14,Si  9)   -174.94  0.000007   -0.08   -175.02   
   224. D(H  42,C  16,C  14,C  17)   -178.07 -0.000002   -0.05   -178.13   
   225. D(H  42,C  16,C  14,C  15)     65.04 -0.000001   -0.06     64.99   
   226. D(H  42,C  16,C  14,Si  9)    -54.87 -0.000006   -0.07    -54.93   
   227. D(H  46,C  17,C  14,C  16)     61.57  0.000026   -0.11     61.46   
   228. D(H  46,C  17,C  14,C  15)    178.37 -0.000001   -0.11    178.26   
   229. D(H  46,C  17,C  14,Si  9)    -61.62 -0.000011   -0.08    -61.69   
   230. D(H  45,C  17,C  14,C  16)   -178.24  0.000029   -0.12   -178.36   
   231. D(H  45,C  17,C  14,C  15)    -61.45  0.000002   -0.11    -61.56   
   232. D(H  45,C  17,C  14,Si  9)     58.57 -0.000008   -0.08     58.49   
   233. D(C   3,O  18,Si  9,C  14)   -102.81  0.000007    0.05   -102.76   
   234. D(C   3,O  18,Si  9,C  10)    127.91  0.000050    0.02    127.93   
   235. D(C   3,O  18,Si  9,O   8)     14.28 -0.000018    0.10     14.38   
   236. D(Si  9,O  18,C   3,C   5)    -38.60  0.000012   -0.01    -38.62   
   237. D(Si  9,O  18,C   3,H   4)     82.19  0.000023   -0.02     82.17   
   238. D(Si  9,O  18,C   3,C   1)   -159.23 -0.000009   -0.00   -159.23   
   239. D(C  20,O  19,C   5,C   7)   -175.59  0.000021   -0.02   -175.61   
   240. D(C  20,O  19,C   5,H   6)    -56.59  0.000016   -0.00    -56.59   
   241. D(C  20,O  19,C   5,C   3)     62.76 -0.000019    0.00     62.76   
   242. D(C  24,C  20,O  19,C   5)    -62.29  0.000005    0.04    -62.26   
   243. D(O  22,C  20,O  19,C   5)    170.45 -0.000008    0.04    170.49   
   244. D(H  21,C  20,O  19,C   5)     56.41  0.000014    0.02     56.43   
   245. D(C  23,O  22,C  20,C  24)    -57.66  0.000012   -0.00    -57.66   
   246. D(C  23,O  22,C  20,H  21)   -176.41 -0.000010    0.03   -176.37   
   247. D(C  23,O  22,C  20,O  19)     66.17 -0.000014    0.02     66.20   
   248. D(H  50,C  23,O  22,C  20)    -46.86 -0.000009   -0.06    -46.92   
   249. D(H  49,C  23,O  22,C  20)     76.16  0.000003   -0.08     76.08   
   250. D(H  48,C  23,O  22,C  20)   -165.56  0.000012   -0.08   -165.64   
   251. D(H  25,C  24,C  20,O  22)     62.84  0.000009   -0.04     62.80   
   252. D(H  25,C  24,C  20,H  21)    179.60 -0.000005   -0.05    179.55   
   253. D(C   1,C  24,C  20,O  22)   -179.62  0.000003   -0.03   -179.65   
   254. D(C   1,C  24,C  20,H  21)    -62.86 -0.000010   -0.05    -62.91   
   255. D(C   1,C  24,C  20,O  19)     56.89 -0.000013   -0.04     56.85   
   256. D(H  25,C  24,C   1,C   3)     64.10 -0.000000   -0.00     64.10   
   257. D(H  25,C  24,C   1,H   2)   -177.24  0.000008   -0.03   -177.27   
   258. D(H  25,C  24,C   1,O   0)    -58.11  0.000012   -0.01    -58.13   
   259. D(H  25,C  24,C  20,O  19)    -60.65 -0.000007   -0.04    -60.70   
   260. D(C  20,C  24,C   1,C   3)    -54.26 -0.000010   -0.00    -54.26   
   261. D(C  20,C  24,C   1,H   2)     64.39 -0.000002   -0.03     64.36   
   262. D(C  20,C  24,C   1,O   0)   -176.47  0.000002   -0.02   -176.49   
   263. D(H  51,O  26,C  24,H  25)     69.96  0.000001   -0.06     69.90   
   264. D(H  51,O  26,C  24,C  20)   -170.16 -0.000007   -0.06   -170.21   
   265. D(H  51,O  26,C  24,C   1)    -49.91  0.000024   -0.07    -49.98   
    ----------------------------------------------------------------------------

Geometry step timings:
Preparation and reading OPT file:      0.001 s ( 4.735 %)
Internal coordinates            :      0.000 s ( 0.152 %)
B/P matrices and projection     :      0.006 s (25.197 %)
Hessian update/contruction      :      0.010 s (41.211 %)
Making the step                 :      0.004 s (15.909 %)
Converting the step to Cartesian:      0.000 s ( 2.084 %)
Storing new data                :      0.001 s ( 4.020 %)
Checking convergence            :      0.000 s ( 0.144 %)
Final printing                  :      0.002 s ( 6.549 %)
Total time                      :      0.024 s

Time for energy+gradient        :      0.086 s
Time for complete geometry iter :      0.122 s

         *************************************************************
         *                GEOMETRY OPTIMIZATION CYCLE  13            *
         *************************************************************
---------------------------------
CARTESIAN COORDINATES (ANGSTROEM)
---------------------------------
  O    -3.654468    2.061547   -0.291030
  C    -2.297051    1.749195   -0.100494
  H    -2.133240    1.391186    0.929571
  C    -1.816156    0.666052   -1.071346
  H    -2.030622    0.993516   -2.099122
  C    -0.304226    0.493464   -0.915918
  H    -0.110631    0.127656    0.105651
  C     0.225854   -0.534225   -1.911603
  O    -0.343289   -1.791359   -1.697855
  Si   -1.924589   -1.987959   -1.283269
  C    -1.919310   -3.134954    0.260797
  C    -3.328809   -3.610600    0.616160
  C    -1.035275   -4.359490    0.008296
  C    -1.348115   -2.377662    1.467331
  C    -2.919852   -2.523355   -2.854932
  C    -2.482971   -1.660817   -4.049580
  C    -2.655945   -3.988863   -3.211307
  C    -4.427865   -2.330764   -2.656993
  O    -2.512657   -0.517606   -0.804319
  O     0.361481    1.711563   -1.137231
  C     0.015023    2.717729   -0.196411
  H     0.212911    2.357505    0.827732
  O     0.863483    3.791863   -0.357187
  C     0.760555    4.509461   -1.582932
  C    -1.490964    3.038048   -0.310278
  H    -1.704964    3.407309   -1.325594
  O    -1.819111    4.003736    0.649400
  H    -4.152911    1.234017   -0.281361
  H     1.308943   -0.630623   -1.793614
  H     0.012392   -0.185243   -2.927926
  H    -3.742806   -4.218474   -0.183440
  H    -3.989636   -2.764847    0.784258
  H    -3.305550   -4.215527    1.521937
  H    -1.442798   -4.975331   -0.787153
  H    -0.967835   -4.966875    0.910192
  H    -0.034003   -4.052486   -0.279544
  H    -1.951255   -1.501603    1.692779
  H    -0.326987   -2.058441    1.270187
  H    -1.338672   -3.023028    2.344882
  H    -1.424691   -1.800762   -4.256480
  H    -2.665177   -0.605684   -3.855325
  H    -3.045046   -1.941417   -4.939572
  H    -1.590570   -4.169276   -3.326870
  H    -3.153899   -4.245660   -4.145414
  H    -3.034988   -4.647602   -2.435041
  H    -4.653023   -1.292495   -2.430649
  H    -4.795062   -2.944616   -1.840283
  H    -4.963526   -2.610076   -3.563397
  H     1.656042    5.125407   -1.627213
  H    -0.124344    5.151268   -1.587165
  H     0.737495    3.825022   -2.432537
  H    -2.784379    4.077438    0.669994

----------------------------
CARTESIAN COORDINATES (A.U.)
----------------------------
  NO LB    ZA    FRAG    MASS        X           Y           Z
   0 O   8.0000    1    15.999   -6.905944    3.895759   -0.549967
   1 C   6.0000    1    12.011   -4.340797    3.305499   -0.189906
   2 H   1.0000    1     1.008   -4.031240    2.628960    1.756635
   3 C   6.0000    1    12.011   -3.432038    1.258655   -2.024551
   4 H   1.0000    1     1.008   -3.837320    1.877474   -3.966766
   5 C   6.0000    1    12.011   -0.574903    0.932513   -1.730835
   6 H   1.0000    1     1.008   -0.209063    0.241235    0.199651
   7 C   6.0000    1    12.011    0.426803   -1.009539   -3.612406
   8 O   8.0000    1    15.999   -0.648722   -3.385178   -3.208480
   9 Si 14.0000    1    28.086   -3.636946   -3.756698   -2.425027
  10 C   6.0000    1    12.011   -3.626970   -5.924205    0.492835
  11 C   6.0000    1    12.011   -6.290537   -6.823045    1.164373
  12 C   6.0000    1    12.011   -1.956387   -8.238242    0.015677
  13 C   6.0000    1    12.011   -2.547568   -4.493130    2.772854
  14 C   6.0000    1    12.011   -5.517721   -4.768449   -5.395040
  15 C   6.0000    1    12.011   -4.692135   -3.138489   -7.652598
  16 C   6.0000    1    12.011   -5.019010   -7.537859   -6.068492
  17 C   6.0000    1    12.011   -8.367453   -4.404506   -5.020989
  18 O   8.0000    1    15.999   -4.748234   -0.978134   -1.519943
  19 O   8.0000    1    15.999    0.683100    3.234385   -2.149054
  20 C   6.0000    1    12.011    0.028389    5.135764   -0.371164
  21 H   1.0000    1     1.008    0.402343    4.455038    1.564187
  22 O   8.0000    1    15.999    1.631746    7.165582   -0.674986
  23 C   6.0000    1    12.011    1.437240    8.521647   -2.991308
  24 C   6.0000    1    12.011   -2.817514    5.741079   -0.586341
  25 H   1.0000    1     1.008   -3.221915    6.438882   -2.505010
  26 O   8.0000    1    15.999   -3.437622    7.565964    1.227189
  27 H   1.0000    1     1.008   -7.847865    2.331954   -0.531695
  28 H   1.0000    1     1.008    2.473543   -1.191704   -3.389438
  29 H   1.0000    1     1.008    0.023417   -0.350059   -5.532978
  30 H   1.0000    1     1.008   -7.072879   -7.971760   -0.346651
  31 H   1.0000    1     1.008   -7.539319   -5.224803    1.482033
  32 H   1.0000    1     1.008   -6.246584   -7.966192    2.876045
  33 H   1.0000    1     1.008   -2.726492   -9.402014   -1.487504
  34 H   1.0000    1     1.008   -1.828944   -9.386033    1.720014
  35 H   1.0000    1     1.008   -0.064257   -7.658089   -0.528262
  36 H   1.0000    1     1.008   -3.687338   -2.837619    3.198888
  37 H   1.0000    1     1.008   -0.617915   -3.889889    2.400305
  38 H   1.0000    1     1.008   -2.529724   -5.712696    4.431185
  39 H   1.0000    1     1.008   -2.692275   -3.402948   -8.043581
  40 H   1.0000    1     1.008   -5.036455   -1.144578   -7.285509
  41 H   1.0000    1     1.008   -5.754302   -3.668746   -9.334439
  42 H   1.0000    1     1.008   -3.005741   -7.878790   -6.286874
  43 H   1.0000    1     1.008   -5.960005   -8.023134   -7.833697
  44 H   1.0000    1     1.008   -5.735296   -8.782695   -4.601561
  45 H   1.0000    1     1.008   -8.792939   -2.442462   -4.593261
  46 H   1.0000    1     1.008   -9.061354   -5.564518   -3.477632
  47 H   1.0000    1     1.008   -9.379706   -4.932329   -6.733844
  48 H   1.0000    1     1.008    3.129467    9.685616   -3.074987
  49 H   1.0000    1     1.008   -0.234976    9.734485   -2.999307
  50 H   1.0000    1     1.008    1.393664    7.228244   -4.596828
  51 H   1.0000    1     1.008   -5.261713    7.705241    1.266105

      -----------------------------------------------------------      
     |                   =====================                   |     
     |                           x T B                           |     
     |                   =====================                   |     
     |                         S. Grimme                         |     
     |          Mulliken Center for Theoretical Chemistry        |     
     |                    University of Bonn                     |     
      -----------------------------------------------------------      

   * xtb version 6.7.1 (edcfbbe) compiled by 'albert@albert-system' on 2024-07-22

   xtb is free software: you can redistribute it and/or modify it under
   the terms of the GNU Lesser General Public License as published by
   the Free Software Foundation, either version 3 of the License, or
   (at your option) any later version.
   
   xtb is distributed in the hope that it will be useful,
   but WITHOUT ANY WARRANTY; without even the implied warranty of
   MERCHANTABILITY or FITNESS FOR A PARTICULAR PURPOSE.  See the
   GNU Lesser General Public License for more details.
   
   Cite this work as:
   * C. Bannwarth, E. Caldeweyher, S. Ehlert, A. Hansen, P. Pracht,
     J. Seibert, S. Spicher, S. Grimme, WIREs Comput. Mol. Sci., 2020, 11,
     e01493. DOI: 10.1002/wcms.1493
   
   for GFN2-xTB:
   * C. Bannwarth, S. Ehlert and S. Grimme., J. Chem. Theory Comput., 2019,
     15, 1652-1671. DOI: 10.1021/acs.jctc.8b01176
   for GFN1-xTB:
   * S. Grimme, C. Bannwarth, P. Shushkov, J. Chem. Theory Comput., 2017,
     13, 1989-2009. DOI: 10.1021/acs.jctc.7b00118
   for GFN0-xTB:
   * P. Pracht, E. Caldeweyher, S. Ehlert, S. Grimme, ChemRxiv, 2019, preprint.
     DOI: 10.26434/chemrxiv.8326202.v1
   for GFN-FF:
   * S. Spicher and S. Grimme, Angew. Chem. Int. Ed., 2020, 59, 15665-15673.
     DOI: 10.1002/anie.202004239
   
   for ALPB and GBSA implicit solvation:
   * S. Ehlert, M. Stahn, S. Spicher, S. Grimme, J. Chem. Theory Comput.,
     2021, 17, 4250-4261. DOI: 10.1021/acs.jctc.1c00471
   
   for ddCOSMO and CPCM-X implicit solvation:
   * M. Stahn, S. Ehlert, S. Grimme, J. Phys. Chem. A,
     2023, XX, XXXX-XXXX. DOI: 10.1021/acs.jpca.3c04382
   
   for DFT-D4:
   * E. Caldeweyher, C. Bannwarth and S. Grimme, J. Chem. Phys., 2017,
     147, 034112. DOI: 10.1063/1.4993215
   * E. Caldeweyher, S. Ehlert, A. Hansen, H. Neugebauer, S. Spicher,
     C. Bannwarth and S. Grimme, J. Chem. Phys., 2019, 150, 154122.
     DOI: 10.1063/1.5090222
   * E. Caldeweyher, J.-M. Mewes, S. Ehlert and S. Grimme, Phys. Chem. Chem. Phys.
     2020, 22, 8499-8512. DOI: 10.1039/D0CP00502A
   
   for sTDA-xTB:
   * S. Grimme and C. Bannwarth, J. Chem. Phys., 2016, 145, 054103.
     DOI: 10.1063/1.4959605
   
   in the mass-spec context:
   * V. Asgeirsson, C. Bauer and S. Grimme, Chem. Sci., 2017, 8, 4879.
     DOI: 10.1039/c7sc00601b
   * J. Koopman and S. Grimme, ACS Omega 2019, 4, 12, 15120-15133.
     DOI: 10.1021/acsomega.9b02011
   
   for metadynamics refer to:
   * S. Grimme, J. Chem. Theory Comput., 2019, 155, 2847-2862
     DOI: 10.1021/acs.jctc.9b00143
   
   for SPH calculations refer to:
   * S. Spicher and S. Grimme, J. Chem. Theory Comput., 2021, 17, 1701-1714
     DOI: 10.1021/acs.jctc.0c01306
   
   for ONIOM refer to:
   * C. Plett, A. Katbashev, S. Ehlert, S. Grimme, M. Bursch,
     Phys. Chem. Chem. Phys., 2023, 25, 17860-17868. DOI: 10.1039/D3CP02178E
   
   for DIPRO refer to:
   * J. Kohn, N. Gildemeister, S. Grimme, D. Fazzi, A. Hansen,
     J. Chem. Phys., 2023, just accepted.
   
   for PTB refer to:
   * S. Grimme, M. Mueller, A. Hansen, J. Chem. Phys., 2023, 158, 124111.
     DOI: 10.1063/5.0137838
   
   with help from (in alphabetical order)
   P. Atkinson, C. Bannwarth, F. Bohle, G. Brandenburg, E. Caldeweyher
   M. Checinski, S. Dohm, S. Ehlert, S. Ehrlich, I. Gerasimov, C. Hölzer
   A. Katbashev, J. Kohn, J. Koopman, C. Lavigne, S. Lehtola, F. März, M. Müller,
   F. Musil, H. Neugebauer, J. Pisarek, C. Plett, P. Pracht, F. Pultar,
   J. Seibert, P. Shushkov, S. Spicher, M. Stahn, M. Steiner, T. Strunk,
   J. Stückrath, T. Rose, and J. Unsleber
   
 * started run on 2025/09/10 at 11:31:44.930     
   ID    Z sym.   atoms
    1    8 O      1, 9, 19, 20, 23, 27
    2    6 C      2, 4, 6, 8, 11-18, 21, 24, 25
    3    1 H      3, 5, 7, 22, 26, 28-52
    4   14 Si     10

           -------------------------------------------------
          |                Calculation Setup                |
           -------------------------------------------------

          program call               : /home/kmoult/orca_6_1/otool_xtb goat_0_XTB.xyz --grad -c 0 -u 0 -P 4 --namespace goat_0 --input goat_0_XTB.input.tmp --alpb ACETONE --acc 0.200000
          hostname                   : node3306
          calculation namespace      : goat_0
          coordinate file            : goat_0_XTB.xyz
          omp threads                :                     4


           -------------------------------------------------
          |                 G F N 2 - x T B                 |
           -------------------------------------------------

        Reference                      10.1021/acs.jctc.8b01176
      * Hamiltonian:
        H0-scaling (s, p, d)           1.850000    2.230000    2.230000
        zeta-weighting                 0.500000
      * Dispersion:
        s8                             2.700000
        a1                             0.520000
        a2                             5.000000
        s9                             5.000000
      * Repulsion:
        kExp                           1.500000    1.000000
        rExp                           1.000000
      * Coulomb:
        alpha                          2.000000
        third order                    shell-resolved
        anisotropic                    true
        a3                             3.000000
        a5                             4.000000
        cn-shift                       1.200000
        cn-exp                         4.000000
        max-rad                        5.000000

      * Solvation model:               ALPB
        Solvent                        ACETONE
        Parameter file                 internal GFN2-xTB/ALPB
        Dielectric constant                2.0700E+01
        Reference state                gsolv [1 M gas/solution]
        Free energy shift                  5.9241E-03 Eh       3.7175E+00 kcal/mol
        Temperature                        2.9815E+02 K
        Density                            7.9000E-01 kg/L
        Solvent mass                       5.8080E+01 g/mol
        Interaction kernel             P16
        Born radius scaling (c1)           1.8274E+00
        Born radii integrator          GBOBC
        Born offset                        0.0000E+00 a0       0.0000E+00 AA
        H-bond correction              true
        Ion screening                  false
        Surface tension                    1.0000E-05 Eh       1.5569E+01 dyn/cm
        Grid points                               230 per atom
q/qsh data taken from xtbrestart
CAMM data taken from xtbrestart

          ...................................................
          :                      SETUP                      :
          :.................................................:
          :  # basis functions                 124          :
          :  # atomic orbitals                 123          :
          :  # shells                           75          :
          :  # electrons                       130          :
          :  max. iterations                   250          :
          :  Hamiltonian                  GFN2-xTB          :
          :  restarted?                       true          :
          :  GBSA solvation                   true          :
          :  PC potential                    false          :
          :  electronic temp.          300.0000000     K    :
          :  accuracy                    0.2000000          :
          :  -> integral cutoff          0.3198970E+02      :
          :  -> integral neglect         0.2000000E-08      :
          :  -> SCF convergence          0.2000000E-06 Eh   :
          :  -> wf. convergence          0.2000000E-04 e    :
          :  Broyden damping             0.4000000          :
          :  net charge                          0          :
          :  unpaired electrons                  0          :
          ...................................................

 iter      E             dE          RMSdq      gap      omega  full diag
   1    -74.4400371 -0.744400E+02  0.538E-03    5.49       0.0  T
   2    -74.4400371 -0.178065E-07  0.332E-03    5.49       4.2  T
   3    -74.4400371  0.760882E-08  0.101E-03    5.49      13.8  T
   4    -74.4400371 -0.138497E-07  0.546E-04    5.49      25.4  T
   5    -74.4400371  0.151330E-08  0.410E-04    5.49      33.9  T
   6    -74.4400371 -0.183603E-08  0.141E-04    5.49      98.6  T
   7    -74.4400371 -0.856915E-10  0.585E-05    5.49     237.2  T

   *** convergence criteria satisfied after 7 iterations ***

         #    Occupation            Energy/Eh            Energy/eV
      -------------------------------------------------------------
         1        2.0000           -0.8172680             -22.2390
       ...           ...                  ...                  ...
        59        2.0000           -0.4259094             -11.5896
        60        2.0000           -0.4241107             -11.5406
        61        2.0000           -0.4230903             -11.5129
        62        2.0000           -0.4179700             -11.3735
        63        2.0000           -0.4145629             -11.2808
        64        2.0000           -0.4059524             -11.0465
        65        2.0000           -0.3717837             -10.1167 (HOMO)
        66                         -0.1701725              -4.6306 (LUMO)
        67                         -0.1434702              -3.9040
        68                         -0.0907499              -2.4694
        69                         -0.0486898              -1.3249
        70                         -0.0050529              -0.1375
       ...                                ...                  ...
       123                          0.7842042              21.3393
      -------------------------------------------------------------
                  HL-Gap            0.2016112 Eh            5.4861 eV
             Fermi-level           -0.2709781 Eh           -7.3737 eV

 SCC (total)                   0 d,  0 h,  0 min,  0.027 sec
 SCC setup                      ...        0 min,  0.001 sec (  2.346%)
 Dispersion                     ...        0 min,  0.000 sec (  1.348%)
 classical contributions        ...        0 min,  0.000 sec (  0.152%)
 integral evaluation            ...        0 min,  0.004 sec ( 16.474%)
 iterations                     ...        0 min,  0.013 sec ( 48.497%)
 molecular gradient             ...        0 min,  0.008 sec ( 30.578%)
 printout                       ...        0 min,  0.000 sec (  0.552%)

         :::::::::::::::::::::::::::::::::::::::::::::::::::::
         ::                     SUMMARY                     ::
         :::::::::::::::::::::::::::::::::::::::::::::::::::::
         :: total energy             -73.690549021990 Eh    ::
         :: total w/o Gsasa/hb       -73.661661700326 Eh    ::
         :: gradient norm              0.000302185787 Eh/a0 ::
         :: HOMO-LUMO gap              5.486120211698 eV    ::
         ::.................................................::
         :: SCC energy               -74.438674317626 Eh    ::
         :: -> isotropic ES            0.157246658583 Eh    ::
         :: -> anisotropic ES          0.003138721247 Eh    ::
         :: -> anisotropic XC          0.005559262382 Eh    ::
         :: -> dispersion             -0.053488448133 Eh    ::
         :: -> Gsolv                  -0.031851211270 Eh    ::
         ::    -> Gelec               -0.002963889605 Eh    ::
         ::    -> Gsasa               -0.028891490826 Eh    ::
         ::    -> Ghb                 -0.005919972102 Eh    ::
         ::    -> Gshift               0.005924141264 Eh    ::
         :: repulsion energy           0.748125295636 Eh    ::
         :: add. restraining           0.000000000000 Eh    ::
         :: total charge              -0.000000000000 e     ::
         :::::::::::::::::::::::::::::::::::::::::::::::::::::


Property printout bound to 'properties.out'

           -------------------------------------------------
          | TOTAL ENERGY              -73.690549021990 Eh   |
          | GRADIENT NORM               0.000302185787 Eh/α |
          | HOMO-LUMO GAP               5.486120211698 eV   |
           -------------------------------------------------

------------------------------------------------------------------------
 * finished run on 2025/09/10 at 11:31:44.980     
------------------------------------------------------------------------
 total:
 * wall-time:     0 d,  0 h,  0 min,  0.050 sec
 *  cpu-time:     0 d,  0 h,  0 min,  0.178 sec
 * ratio c/w:     3.593 speedup
 SCF:
 * wall-time:     0 d,  0 h,  0 min,  0.027 sec
 *  cpu-time:     0 d,  0 h,  0 min,  0.108 sec
 * ratio c/w:     3.979 speedup


-------------------------   --------------------
FINAL SINGLE POINT ENERGY       -73.690549021990
-------------------------   --------------------


-------------
DIPOLE MOMENT
-------------
                                X             Y             Z
Total Dipole Moment    :     -0.96300      -0.76300      -0.66700
                        -----------------------------------------
Magnitude (a.u.)       :      1.39801
Magnitude (Debye)      :      3.55345


------------------
CARTESIAN GRADIENT
------------------

   1   O   :    0.000013371    0.000036772   -0.000032748
   2   C   :   -0.000037213   -0.000001288   -0.000034796
   3   H   :    0.000025565   -0.000000271    0.000000930
   4   C   :    0.000012098    0.000018462   -0.000002008
   5   H   :   -0.000014141    0.000008094    0.000004007
   6   C   :    0.000000600   -0.000019725   -0.000005957
   7   H   :   -0.000016100   -0.000001005   -0.000006341
   8   C   :    0.000077606    0.000034353   -0.000038381
   9   O   :   -0.000001604    0.000000828   -0.000032129
  10   Si  :   -0.000080514   -0.000026516   -0.000015139
  11   C   :   -0.000018832    0.000097243   -0.000077145
  12   C   :   -0.000020401   -0.000008296    0.000044852
  13   C   :    0.000011703   -0.000042347    0.000024118
  14   C   :    0.000016736   -0.000021393    0.000046613
  15   C   :    0.000098965    0.000038772    0.000057073
  16   C   :   -0.000010540    0.000005252   -0.000009311
  17   C   :   -0.000041346   -0.000027664   -0.000023615
  18   C   :   -0.000036441   -0.000019482    0.000008649
  19   O   :    0.000009105   -0.000064918    0.000042897
  20   O   :    0.000002227    0.000014035    0.000004426
  21   C   :    0.000031903   -0.000018347    0.000006225
  22   H   :   -0.000005362    0.000018120   -0.000007388
  23   O   :    0.000029404    0.000004685   -0.000021766
  24   C   :    0.000009365    0.000025044    0.000016729
  25   C   :    0.000014711   -0.000060211    0.000003845
  26   H   :   -0.000004848    0.000013846    0.000002952
  27   O   :   -0.000000881    0.000051353    0.000028082
  28   H   :   -0.000014178   -0.000004914    0.000024926
  29   H   :   -0.000014285   -0.000008194    0.000008179
  30   H   :   -0.000009482   -0.000000170    0.000006381
  31   H   :   -0.000002225   -0.000015128    0.000004211
  32   H   :   -0.000000751    0.000008889    0.000001583
  33   H   :    0.000001070   -0.000005062   -0.000003994
  34   H   :   -0.000007289   -0.000008314    0.000002122
  35   H   :    0.000003789   -0.000000351   -0.000007072
  36   H   :    0.000007029    0.000004650   -0.000000972
  37   H   :   -0.000005936    0.000004763    0.000002215
  38   H   :    0.000008473    0.000004151   -0.000001365
  39   H   :    0.000003196    0.000004874   -0.000002786
  40   H   :    0.000000495   -0.000011450    0.000005008
  41   H   :   -0.000004524    0.000003016   -0.000007710
  42   H   :   -0.000009830   -0.000001458   -0.000000404
  43   H   :    0.000009038   -0.000003695    0.000005648
  44   H   :   -0.000000534    0.000004823    0.000003769
  45   H   :    0.000008378   -0.000004571    0.000007704
  46   H   :    0.000001380    0.000012628    0.000000364
  47   H   :   -0.000002774    0.000000322    0.000006133
  48   H   :   -0.000004116   -0.000001187    0.000004736
  49   H   :   -0.000002470    0.000003771    0.000006468
  50   H   :    0.000000357   -0.000008165   -0.000030942
  51   H   :   -0.000017404   -0.000008674   -0.000008104
  52   H   :   -0.000012542   -0.000025951   -0.000010772

Difference to translation invariance:
           :    0.0000000000   -0.0000000000   -0.0000000000

Difference to rotation invariance:
           :   -0.0007848473    0.0007406886   -0.0002870433

Norm of the Cartesian gradient     ...    0.0003021858
RMS gradient                       ...    0.0000241942
MAX gradient                       ...    0.0000989648
------------------------------------------------------------------------------
                         ORCA GEOMETRY RELAXATION STEP
------------------------------------------------------------------------------

Reading the OPT-File                    .... done
Getting information on internals        .... done
Copying old internal coords+grads       .... done
Making the new internal coordinates     .... (2022 redundants) done
Validating the new internal coordinates .... (2022 redundants) done
Calculating the B-matrix                .... done
Calculating the G,G- and P matrices     .... done
Transforming gradient to internals      .... done
Projecting the internal gradient        .... done
Number of atoms                         ....  52
Number of internal coordinates          .... 265
Current Energy                          ....   -73.690549022 Eh
Current gradient norm                   ....     0.000302186 Eh/bohr
Maximum allowed component of the step   ....  0.300
Current trust radius                    ....  0.450
Updating the Hessian (BFGS)             .... done
Forming the augmented Hessian           .... done
Diagonalizing the augmented Hessian     .... done
Last element of RFO vector              ....  0.999973509
Lowest eigenvalues of augmented Hessian:
 -0.000000411  0.001882556  0.004139065  0.009582553  0.010019634
Length of the computed step             ....  0.007279039
The final length of the internal step   ....  0.007279039
Converting the step to Cartesian space:
 Initial RMS(Int)=    0.0004471478
Transforming coordinates:
 Iter   0:  RMS(Cart)=    0.0017643031 RMS(Int)=    0.0004471376
done
Storing new coordinates                 .... done
The predicted energy change is          ....    -0.000000206
Previously predicted energy change      ....    -0.000000981
Actually observed energy change         ....    -0.000001184
Ratio of predicted to observed change   ....     1.207976992
New trust radius                        ....     0.675000000

                                .--------------------.
          ----------------------|Geometry convergence|-------------------------
          Item                value                   Tolerance       Converged
          ---------------------------------------------------------------------
          Energy change      -0.0000011845            0.0000050000      YES
          RMS gradient        0.0000128000            0.0001000000      YES
          MAX gradient        0.0000499162            0.0003000000      YES
          RMS step            0.0004471478            0.0020000000      YES
          MAX step            0.0021121150            0.0040000000      YES
          -------------------------------------------------------------------------
          ........................................................
          Max(Bonds)      0.0011      Max(Angles)    0.01
          Max(Dihed)        0.10      Max(Improp)    0.00
          ---------------------------------------------------------------------

                    ***********************HURRAY********************
                    ***        THE OPTIMIZATION HAS CONVERGED     ***
                    *************************************************


    ---------------------------------------------------------------------------
                         Redundant Internal Coordinates

                          --- Optimized Parameters ---  
                            (Angstroem and degrees)

        Definition                    OldVal   dE/dq     Step     FinalVal
    ----------------------------------------------------------------------------
     1. B(C   1,O   0)                1.4059  0.000009 -0.0000    1.4058   
     2. B(H   2,C   1)                1.1027  0.000005  0.0000    1.1027   
     3. B(C   3,C   1)                1.5320 -0.000008  0.0000    1.5320   
     4. B(H   4,C   3)                1.0998  0.000001 -0.0000    1.0998   
     5. B(C   5,C   3)                1.5297  0.000017  0.0000    1.5297   
     6. B(H   6,C   5)                1.1022 -0.000007  0.0000    1.1022   
     7. B(C   7,C   5)                1.5259  0.000016  0.0000    1.5260   
     8. B(O   8,C   7)                1.3964  0.000041 -0.0001    1.3964   
     9. B(Si  9,O   8)                1.6465  0.000046 -0.0000    1.6465   
    10. B(C  10,Si  9)                1.9235  0.000003  0.0001    1.9236   
    11. B(C  11,C  10)                1.5294  0.000040 -0.0000    1.5294   
    12. B(C  12,C  10)                1.5313  0.000044 -0.0000    1.5312   
    13. B(C  13,C  10)                1.5348  0.000032 -0.0001    1.5347   
    14. B(C  14,Si  9)                1.9358 -0.000045  0.0001    1.9359   
    15. B(C  15,C  14)                1.5369  0.000011 -0.0000    1.5369   
    16. B(C  16,C  14)                1.5311  0.000029 -0.0000    1.5311   
    17. B(C  17,C  14)                1.5331  0.000033 -0.0000    1.5331   
    18. B(O  18,Si  9)                1.6544 -0.000021  0.0000    1.6545   
    19. B(O  18,C   3)                1.3991  0.000047 -0.0000    1.3991   
    20. B(O  19,C   5)                1.4057  0.000031 -0.0001    1.4056   
    21. B(C  20,O  19)                1.4204  0.000006 -0.0000    1.4204   
    22. B(H  21,C  20)                1.1035 -0.000011  0.0000    1.1035   
    23. B(O  22,C  20)                1.3782  0.000027  0.0000    1.3782   
    24. B(C  23,O  22)                1.4241  0.000004  0.0000    1.4241   
    25. B(C  24,C  20)                1.5439  0.000021  0.0000    1.5439   
    26. B(C  24,C   1)                1.5346  0.000005  0.0000    1.5346   
    27. B(H  25,C  24)                1.1014  0.000001 -0.0000    1.1014   
    28. B(O  26,C  24)                1.4004  0.000050 -0.0001    1.4004   
    29. B(H  27,O   0)                0.9661  0.000015 -0.0000    0.9661   
    30. B(H  27,O  18)                2.4560  0.000008 -0.0011    2.4549   
    31. B(H  28,C   7)                1.0938 -0.000012  0.0000    1.0938   
    32. B(H  29,C   7)                1.0956 -0.000006  0.0000    1.0956   
    33. B(H  30,C  11)                1.0864  0.000010 -0.0000    1.0864   
    34. B(H  31,C  11)                1.0864  0.000007 -0.0000    1.0864   
    35. B(H  32,C  11)                1.0895 -0.000003 -0.0000    1.0895   
    36. B(H  33,C  12)                1.0854  0.000007 -0.0000    1.0854   
    37. B(H  34,C  12)                1.0894 -0.000006  0.0000    1.0894   
    38. B(H  35,C  12)                1.0861  0.000008 -0.0000    1.0861   
    39. B(H  36,C  13)                1.0872  0.000008 -0.0000    1.0872   
    40. B(H  37,C  13)                1.0879  0.000007 -0.0000    1.0879   
    41. B(H  38,C  13)                1.0893 -0.000005  0.0000    1.0894   
    42. B(H  39,C  15)                1.0874  0.000005 -0.0000    1.0874   
    43. B(H  40,C  15)                1.0882  0.000003 -0.0000    1.0882   
    44. B(H  41,C  15)                1.0894  0.000005 -0.0000    1.0894   
    45. B(H  42,C  16)                1.0867  0.000012 -0.0000    1.0867   
    46. B(H  43,C  16)                1.0892 -0.000003  0.0000    1.0892   
    47. B(H  44,C  16)                1.0864  0.000002 -0.0000    1.0864   
    48. B(H  45,C  17)                1.0862  0.000011 -0.0000    1.0862   
    49. B(H  46,C  17)                1.0857  0.000002 -0.0000    1.0857   
    50. B(H  47,C  17)                1.0893  0.000000 -0.0000    1.0893   
    51. B(H  48,C  23)                1.0878 -0.000000 -0.0000    1.0878   
    52. B(H  49,C  23)                1.0932 -0.000004  0.0000    1.0932   
    53. B(H  50,C  23)                1.0912  0.000008 -0.0000    1.0912   
    54. B(H  51,O   0)                2.3968 -0.000020  0.0008    2.3975   
    55. B(H  51,O  26)                0.9683  0.000008 -0.0000    0.9683   
    56. A(C   1,O   0,H  27)          107.85 -0.000001    0.00    107.85   
    57. A(O   0,C   1,C   3)          111.98 -0.000006   -0.00    111.98   
    58. A(C   3,C   1,C  24)          110.02  0.000012   -0.01    110.01   
    59. A(O   0,C   1,H   2)          110.01  0.000017   -0.01    110.00   
    60. A(H   2,C   1,C   3)          108.41 -0.000004    0.00    108.41   
    61. A(O   0,C   1,C  24)          107.58 -0.000000    0.01    107.59   
    62. A(H   2,C   1,C  24)          108.80 -0.000019    0.00    108.81   
    63. A(C   1,C   3,C   5)          109.00  0.000003   -0.01    109.00   
    64. A(C   1,C   3,H   4)          108.69 -0.000014    0.01    108.70   
    65. A(C   5,C   3,O  18)          112.16 -0.000002    0.01    112.17   
    66. A(H   4,C   3,C   5)          108.74  0.000005   -0.01    108.73   
    67. A(C   1,C   3,O  18)          108.72  0.000000    0.00    108.72   
    68. A(H   4,C   3,O  18)          109.46  0.000008   -0.00    109.46   
    69. A(C   7,C   5,O  19)          108.44  0.000004    0.00    108.45   
    70. A(H   6,C   5,O  19)          110.51 -0.000003    0.00    110.51   
    71. A(C   3,C   5,C   7)          110.67  0.000011   -0.01    110.67   
    72. A(H   6,C   5,C   7)          108.68  0.000005   -0.00    108.67   
    73. A(C   3,C   5,O  19)          110.75  0.000001   -0.01    110.75   
    74. A(C   3,C   5,H   6)          107.77 -0.000018    0.01    107.78   
    75. A(O   8,C   7,H  29)          110.45  0.000003    0.00    110.45   
    76. A(O   8,C   7,H  28)          107.92  0.000004    0.00    107.92   
    77. A(C   5,C   7,H  28)          109.45  0.000010   -0.00    109.45   
    78. A(H  28,C   7,H  29)          108.73  0.000012   -0.00    108.72   
    79. A(C   5,C   7,O   8)          111.40 -0.000028   -0.00    111.40   
    80. A(C   5,C   7,H  29)          108.85 -0.000000    0.00    108.85   
    81. A(C   7,O   8,Si  9)          122.51  0.000023   -0.01    122.50   
    82. A(O   8,Si  9,C  10)          105.71  0.000029   -0.01    105.69   
    83. A(O   8,Si  9,O  18)          107.95 -0.000010   -0.00    107.95   
    84. A(O   8,Si  9,C  14)          108.81 -0.000019    0.00    108.81   
    85. A(C  10,Si  9,C  14)          119.22 -0.000004    0.01    119.23   
    86. A(C  10,Si  9,O  18)          107.37 -0.000025    0.00    107.38   
    87. A(C  14,Si  9,O  18)          107.34  0.000027   -0.00    107.34   
    88. A(C  11,C  10,C  12)          108.76 -0.000010    0.00    108.77   
    89. A(Si  9,C  10,C  12)          110.25  0.000004   -0.01    110.24   
    90. A(Si  9,C  10,C  11)          111.68  0.000014   -0.01    111.67   
    91. A(C  12,C  10,C  13)          108.02 -0.000010    0.01    108.03   
    92. A(C  11,C  10,C  13)          108.29 -0.000013    0.01    108.29   
    93. A(Si  9,C  10,C  13)          109.75  0.000014   -0.00    109.74   
    94. A(H  30,C  11,H  31)          108.52  0.000002   -0.00    108.52   
    95. A(C  10,C  11,H  31)          110.76 -0.000001    0.00    110.76   
    96. A(C  10,C  11,H  30)          110.74  0.000002   -0.00    110.74   
    97. A(H  31,C  11,H  32)          108.46  0.000009    0.00    108.46   
    98. A(C  10,C  11,H  32)          110.25  0.000002    0.00    110.25   
    99. A(H  30,C  11,H  32)          108.02 -0.000014    0.00    108.02   
   100. A(H  34,C  12,H  35)          108.66 -0.000001    0.00    108.66   
   101. A(H  33,C  12,H  35)          108.20  0.000002   -0.00    108.19   
   102. A(C  10,C  12,H  35)          110.48 -0.000004   -0.00    110.48   
   103. A(H  33,C  12,H  34)          108.28 -0.000006    0.00    108.28   
   104. A(C  10,C  12,H  34)          110.19  0.000010   -0.00    110.18   
   105. A(C  10,C  12,H  33)          110.97 -0.000001   -0.00    110.96   
   106. A(H  37,C  13,H  38)          108.16  0.000000    0.00    108.16   
   107. A(C  10,C  13,H  37)          110.59  0.000004    0.00    110.59   
   108. A(C  10,C  13,H  38)          110.13  0.000001   -0.00    110.13   
   109. A(H  36,C  13,H  38)          108.37 -0.000000    0.00    108.37   
   110. A(H  36,C  13,H  37)          108.77  0.000002   -0.00    108.77   
   111. A(C  10,C  13,H  36)          110.74 -0.000006   -0.00    110.74   
   112. A(C  16,C  14,C  17)          108.65 -0.000006    0.00    108.66   
   113. A(C  15,C  14,C  17)          108.03  0.000004    0.00    108.03   
   114. A(C  15,C  14,C  16)          107.89 -0.000013    0.01    107.90   
   115. A(Si  9,C  14,C  17)          111.48 -0.000009    0.01    111.49   
   116. A(Si  9,C  14,C  15)          109.25  0.000014   -0.01    109.25   
   117. A(Si  9,C  14,C  16)          111.41  0.000011   -0.01    111.40   
   118. A(H  39,C  15,H  41)          108.27  0.000004    0.00    108.27   
   119. A(C  14,C  15,H  41)          110.11 -0.000002    0.00    110.11   
   120. A(H  39,C  15,H  40)          108.77  0.000003   -0.00    108.77   
   121. A(C  14,C  15,H  40)          110.97  0.000017   -0.01    110.96   
   122. A(C  14,C  15,H  39)          110.63 -0.000017    0.00    110.63   
   123. A(H  40,C  15,H  41)          108.01 -0.000004    0.00    108.01   
   124. A(C  14,C  16,H  44)          110.73  0.000008   -0.01    110.72   
   125. A(H  42,C  16,H  44)          108.50 -0.000015    0.00    108.51   
   126. A(H  42,C  16,H  43)          108.53  0.000003    0.00    108.54   
   127. A(C  14,C  16,H  43)          110.27 -0.000001    0.00    110.27   
   128. A(C  14,C  16,H  42)          110.65 -0.000008    0.00    110.65   
   129. A(H  43,C  16,H  44)          108.08  0.000012   -0.00    108.08   
   130. A(C  14,C  17,H  47)          110.12  0.000002   -0.00    110.12   
   131. A(H  46,C  17,H  47)          108.34 -0.000001   -0.00    108.34   
   132. A(H  45,C  17,H  47)          108.45  0.000001    0.00    108.46   
   133. A(H  45,C  17,H  46)          108.28  0.000004    0.00    108.28   
   134. A(C  14,C  17,H  46)          111.03  0.000004   -0.00    111.02   
   135. A(C  14,C  17,H  45)          110.54 -0.000010    0.00    110.54   
   136. A(C   3,O  18,Si  9)          121.31  0.000006    0.01    121.32   
   137. A(C   5,O  19,C  20)          113.21  0.000014   -0.01    113.20   
   138. A(O  22,C  20,C  24)          115.48  0.000001   -0.00    115.48   
   139. A(H  21,C  20,C  24)          108.13 -0.000007   -0.01    108.12   
   140. A(O  19,C  20,C  24)          109.64 -0.000013    0.01    109.65   
   141. A(H  21,C  20,O  22)          104.61 -0.000001    0.00    104.61   
   142. A(O  19,C  20,O  22)          108.94  0.000013   -0.00    108.94   
   143. A(O  19,C  20,H  21)          109.86  0.000008   -0.00    109.86   
   144. A(C  20,O  22,C  23)          116.66  0.000013   -0.00    116.65   
   145. A(O  22,C  23,H  50)          110.83 -0.000011    0.00    110.83   
   146. A(H  49,C  23,H  50)          110.37 -0.000023    0.00    110.38   
   147. A(H  48,C  23,H  50)          109.93  0.000016    0.00    109.93   
   148. A(H  48,C  23,H  49)          109.50 -0.000002    0.00    109.50   
   149. A(O  22,C  23,H  49)          110.96  0.000031   -0.01    110.95   
   150. A(O  22,C  23,H  48)          105.12 -0.000011   -0.00    105.12   
   151. A(H  25,C  24,O  26)          110.79 -0.000013    0.01    110.80   
   152. A(C  20,C  24,O  26)          108.73  0.000009   -0.01    108.72   
   153. A(C   1,C  24,O  26)          111.25 -0.000001    0.01    111.25   
   154. A(C  20,C  24,H  25)          109.09  0.000001    0.00    109.09   
   155. A(C   1,C  24,H  25)          107.79 -0.000005    0.00    107.79   
   156. A(C   1,C  24,C  20)          109.15  0.000010   -0.01    109.14   
   157. A(C  24,O  26,H  51)          107.50 -0.000017    0.01    107.51   
   158. D(C  24,C   1,O   0,H  27)    172.29  0.000021   -0.10    172.19   
   159. D(C   3,C   1,O   0,H  27)     51.29  0.000009   -0.10     51.19   
   160. D(H   2,C   1,O   0,H  27)    -69.33  0.000007   -0.09    -69.43   
   161. D(C   5,C   3,C   1,H   2)    -64.85  0.000005    0.03    -64.83   
   162. D(H   4,C   3,C   1,C  24)    -64.36 -0.000013    0.04    -64.32   
   163. D(C   5,C   3,C   1,O   0)    173.60 -0.000010    0.03    173.63   
   164. D(C   5,C   3,C   1,C  24)     54.01 -0.000014    0.03     54.04   
   165. D(H   4,C   3,C   1,H   2)    176.77  0.000005    0.04    176.81   
   166. D(H   4,C   3,C   1,O   0)     55.22 -0.000009    0.05     55.27   
   167. D(C   7,C   5,C   3,H   4)    -59.10 -0.000001   -0.03    -59.13   
   168. D(H   6,C   5,C   3,O  18)    -56.61  0.000010   -0.03    -56.64   
   169. D(C   7,C   5,C   3,C   1)   -177.45  0.000012   -0.03   -177.48   
   170. D(H   6,C   5,C   3,H   4)   -177.81 -0.000002   -0.03   -177.84   
   171. D(C   7,C   5,C   3,O  18)     62.10  0.000011   -0.03     62.07   
   172. D(H   6,C   5,C   3,C   1)     63.84  0.000010   -0.02     63.81   
   173. D(H  28,C   7,C   5,H   6)    -62.69  0.000001   -0.01    -62.71   
   174. D(H  28,C   7,C   5,O  19)     57.48  0.000002   -0.01     57.47   
   175. D(H  28,C   7,C   5,C   3)    179.15  0.000013   -0.02    179.13   
   176. D(O   8,C   7,C   5,O  19)    176.74 -0.000004   -0.01    176.73   
   177. D(O   8,C   7,C   5,H   6)     56.57 -0.000005   -0.01     56.56   
   178. D(O   8,C   7,C   5,C   3)    -61.59  0.000007   -0.02    -61.60   
   179. D(Si  9,O   8,C   7,H  28)    158.78 -0.000011    0.04    158.81   
   180. D(Si  9,O   8,C   7,H  29)    -82.49  0.000008    0.04    -82.45   
   181. D(Si  9,O   8,C   7,C   5)     38.60 -0.000009    0.04     38.64   
   182. D(O  18,Si  9,O   8,C   7)    -14.55 -0.000001   -0.01    -14.56   
   183. D(C  14,Si  9,O   8,C   7)    101.64  0.000016   -0.01    101.62   
   184. D(C  10,Si  9,O   8,C   7)   -129.20  0.000018   -0.01   -129.21   
   185. D(C  12,C  10,Si  9,O   8)    -48.86 -0.000007    0.06    -48.80   
   186. D(C  11,C  10,Si  9,O  18)     75.05  0.000003    0.07     75.13   
   187. D(C  11,C  10,Si  9,C  14)    -47.15 -0.000009    0.07    -47.08   
   188. D(C  11,C  10,Si  9,O   8)   -169.90 -0.000006    0.07   -169.83   
   189. D(C  12,C  10,Si  9,O  18)   -163.91  0.000002    0.06   -163.84   
   190. D(C  12,C  10,Si  9,C  14)     73.89 -0.000010    0.06     73.95   
   191. D(H  31,C  11,C  10,C  12)   -178.95 -0.000010    0.02   -178.92   
   192. D(H  31,C  11,C  10,Si  9)    -57.05 -0.000004    0.01    -57.04   
   193. D(H  30,C  11,C  10,C  13)   -175.65  0.000018   -0.00   -175.65   
   194. D(H  30,C  11,C  10,C  12)    -58.49 -0.000007    0.02    -58.48   
   195. D(H  31,C  11,C  10,C  13)     63.90  0.000014    0.00     63.90   
   196. D(H  30,C  11,C  10,Si  9)     63.40 -0.000000    0.00     63.41   
   197. D(H  34,C  12,C  10,C  13)     55.50 -0.000014    0.05     55.55   
   198. D(H  34,C  12,C  10,C  11)    -61.82  0.000012    0.03    -61.79   
   199. D(H  34,C  12,C  10,Si  9)    175.42 -0.000000    0.04    175.46   
   200. D(H  33,C  12,C  10,C  13)    175.42 -0.000016    0.05    175.47   
   201. D(H  33,C  12,C  10,C  11)     58.10  0.000010    0.03     58.13   
   202. D(H  33,C  12,C  10,Si  9)    -64.67 -0.000002    0.05    -64.62   
   203. D(H  37,C  13,C  10,C  12)     59.94  0.000012   -0.00     59.94   
   204. D(H  37,C  13,C  10,C  11)    177.57 -0.000013    0.01    177.58   
   205. D(H  37,C  13,C  10,Si  9)    -60.29  0.000005    0.00    -60.28   
   206. D(H  36,C  13,C  10,C  12)   -179.40  0.000013   -0.00   -179.41   
   207. D(H  36,C  13,C  10,C  11)    -61.77 -0.000012    0.01    -61.76   
   208. D(H  36,C  13,C  10,Si  9)     60.37  0.000005    0.00     60.37   
   209. D(C  16,C  14,Si  9,O  18)   -168.39  0.000003   -0.08   -168.47   
   210. D(C  16,C  14,Si  9,C  10)    -46.17 -0.000010   -0.07    -46.24   
   211. D(C  16,C  14,Si  9,O   8)     75.04  0.000011   -0.08     74.96   
   212. D(C  15,C  14,Si  9,O  18)     72.50  0.000005   -0.07     72.42   
   213. D(C  15,C  14,Si  9,C  10)   -165.29 -0.000009   -0.06   -165.35   
   214. D(C  15,C  14,Si  9,O   8)    -44.08  0.000012   -0.07    -44.15   
   215. D(H  40,C  15,C  14,C  16)    179.04 -0.000009    0.00    179.05   
   216. D(H  40,C  15,C  14,Si  9)    -59.68  0.000004   -0.01    -59.70   
   217. D(H  39,C  15,C  14,C  17)   -177.43  0.000006   -0.01   -177.44   
   218. D(H  39,C  15,C  14,C  16)    -60.14 -0.000006   -0.00    -60.14   
   219. D(H  40,C  15,C  14,C  17)     61.75  0.000003   -0.01     61.75   
   220. D(H  39,C  15,C  14,Si  9)     61.14  0.000007   -0.02     61.12   
   221. D(H  43,C  16,C  14,C  17)     61.79  0.000001   -0.01     61.78   
   222. D(H  43,C  16,C  14,C  15)    -55.10  0.000007   -0.02    -55.12   
   223. D(H  43,C  16,C  14,Si  9)   -175.02 -0.000007   -0.01   -175.03   
   224. D(H  42,C  16,C  14,C  17)   -178.13 -0.000001   -0.01   -178.13   
   225. D(H  42,C  16,C  14,C  15)     64.99  0.000006   -0.02     64.97   
   226. D(H  42,C  16,C  14,Si  9)    -54.93 -0.000009   -0.00    -54.94   
   227. D(H  46,C  17,C  14,C  16)     61.46  0.000009   -0.06     61.40   
   228. D(H  46,C  17,C  14,C  15)    178.26 -0.000009   -0.05    178.21   
   229. D(H  46,C  17,C  14,Si  9)    -61.69  0.000005   -0.05    -61.74   
   230. D(H  45,C  17,C  14,C  16)   -178.36  0.000010   -0.06   -178.41   
   231. D(H  45,C  17,C  14,C  15)    -61.56 -0.000008   -0.05    -61.60   
   232. D(H  45,C  17,C  14,Si  9)     58.49  0.000006   -0.05     58.44   
   233. D(C   3,O  18,Si  9,C  14)   -102.76  0.000013   -0.04   -102.79   
   234. D(C   3,O  18,Si  9,C  10)    127.93  0.000017   -0.05    127.88   
   235. D(C   3,O  18,Si  9,O   8)     14.38 -0.000000   -0.04     14.35   
   236. D(Si  9,O  18,C   3,C   5)    -38.62 -0.000003    0.05    -38.57   
   237. D(Si  9,O  18,C   3,H   4)     82.17  0.000007    0.05     82.22   
   238. D(Si  9,O  18,C   3,C   1)   -159.23 -0.000005    0.05   -159.18   
   239. D(C  20,O  19,C   5,C   7)   -175.61  0.000006    0.00   -175.61   
   240. D(C  20,O  19,C   5,H   6)    -56.59  0.000012    0.00    -56.59   
   241. D(C  20,O  19,C   5,C   3)     62.76 -0.000011    0.01     62.77   
   242. D(C  24,C  20,O  19,C   5)    -62.26  0.000011    0.00    -62.26   
   243. D(O  22,C  20,O  19,C   5)    170.49  0.000009   -0.00    170.48   
   244. D(H  21,C  20,O  19,C   5)     56.43 -0.000001   -0.00     56.43   
   245. D(C  23,O  22,C  20,C  24)    -57.66 -0.000000   -0.00    -57.67   
   246. D(C  23,O  22,C  20,H  21)   -176.37  0.000009    0.00   -176.37   
   247. D(C  23,O  22,C  20,O  19)     66.20 -0.000006    0.01     66.20   
   248. D(H  50,C  23,O  22,C  20)    -46.92  0.000001    0.00    -46.92   
   249. D(H  49,C  23,O  22,C  20)     76.08 -0.000015    0.00     76.08   
   250. D(H  48,C  23,O  22,C  20)   -165.64 -0.000007   -0.00   -165.64   
   251. D(H  25,C  24,C  20,O  22)     62.80 -0.000002    0.00     62.80   
   252. D(H  25,C  24,C  20,H  21)    179.55 -0.000007    0.00    179.55   
   253. D(C   1,C  24,C  20,O  22)   -179.65 -0.000002    0.00   -179.65   
   254. D(C   1,C  24,C  20,H  21)    -62.91 -0.000008    0.00    -62.90   
   255. D(C   1,C  24,C  20,O  19)     56.85 -0.000009    0.00     56.85   
   256. D(H  25,C  24,C   1,C   3)     64.10  0.000005   -0.01     64.09   
   257. D(H  25,C  24,C   1,H   2)   -177.27 -0.000004   -0.01   -177.29   
   258. D(H  25,C  24,C   1,O   0)    -58.12  0.000005   -0.01    -58.14   
   259. D(H  25,C  24,C  20,O  19)    -60.70 -0.000009    0.00    -60.69   
   260. D(C  20,C  24,C   1,C   3)    -54.26  0.000002   -0.01    -54.27   
   261. D(C  20,C  24,C   1,H   2)     64.36 -0.000007   -0.01     64.35   
   262. D(C  20,C  24,C   1,O   0)   -176.49  0.000002   -0.01   -176.50   
   263. D(H  51,O  26,C  24,H  25)     69.90 -0.000001   -0.03     69.87   
   264. D(H  51,O  26,C  24,C  20)   -170.21 -0.000003   -0.03   -170.24   
   265. D(H  51,O  26,C  24,C   1)    -49.98  0.000015   -0.04    -50.03   
    ----------------------------------------------------------------------------

Geometry step timings:
Preparation and reading OPT file:      0.001 s ( 5.050 %)
Internal coordinates            :      0.000 s ( 0.132 %)
B/P matrices and projection     :      0.006 s (23.814 %)
Hessian update/contruction      :      0.010 s (41.717 %)
Making the step                 :      0.004 s (15.314 %)
Converting the step to Cartesian:      0.000 s ( 1.923 %)
Storing new data                :      0.001 s ( 3.802 %)
Checking convergence            :      0.000 s ( 0.144 %)
Final printing                  :      0.002 s ( 8.106 %)
Total time                      :      0.025 s
                 *******************************************************
                 *** FINAL ENERGY EVALUATION AT THE STATIONARY POINT ***
                 ***               (AFTER   13 CYCLES)               ***
                 *******************************************************
---------------------------------
CARTESIAN COORDINATES (ANGSTROEM)
---------------------------------
  O    -3.653929    2.061299   -0.289590
  C    -2.296403    1.749062   -0.099933
  H    -2.132058    1.390752    0.929951
  C    -1.815989    0.666201   -1.071360
  H    -2.030293    0.994161   -2.099011
  C    -0.304065    0.493251   -0.916144
  H    -0.110275    0.127402    0.105377
  C     0.225484   -0.534616   -1.911934
  O    -0.343669   -1.791624   -1.697803
  Si   -1.925025   -1.987868   -1.283426
  C    -1.919716   -3.134543    0.261047
  C    -3.329067   -3.611271    0.615397
  C    -1.034490   -4.358308    0.009205
  C    -1.350018   -2.376382    1.467646
  C    -2.920236   -2.523477   -2.855128
  C    -2.484328   -1.659986   -4.049411
  C    -2.654816   -3.988587   -3.211945
  C    -4.428377   -2.332451   -2.656926
  O    -2.512934   -0.517274   -0.804920
  O     0.361742    1.711193   -1.137660
  C     0.015631    2.717289   -0.196682
  H     0.213729    2.356887    0.827365
  O     0.864231    3.791308   -0.357606
  C     0.760976    4.509053   -1.583243
  C    -1.490343    3.037915   -0.309932
  H    -1.704681    3.407300   -1.325127
  O    -1.817762    4.003494    0.650017
  H    -4.152116    1.233609   -0.281357
  H     1.308632   -0.631100   -1.794403
  H     0.011697   -0.185691   -2.928215
  H    -3.741817   -4.219731   -0.184389
  H    -3.990793   -2.766060    0.782623
  H    -3.306035   -4.215880    1.521392
  H    -1.440625   -4.974166   -0.786927
  H    -0.967643   -4.965897    0.911016
  H    -0.033138   -4.050457   -0.277414
  H    -1.954163   -1.500848    1.692416
  H    -0.329095   -2.056188    1.271068
  H    -1.340539   -3.021514    2.345374
  H    -1.425903   -1.798669   -4.256417
  H    -2.667666   -0.605156   -3.854597
  H    -3.046130   -1.940800   -4.939496
  H    -1.589294   -4.167822   -3.327842
  H    -3.152799   -4.245734   -4.145943
  H    -3.032962   -4.647858   -2.435696
  H    -4.654500   -1.294689   -2.429288
  H    -4.794946   -2.947662   -1.840960
  H    -4.963816   -2.611177   -3.563639
  H     1.656542    5.124855   -1.627765
  H    -0.123824    5.151010   -1.586973
  H     0.737474    3.824737   -2.432924
  H    -2.782949    4.077971    0.670915

----------------------------
CARTESIAN COORDINATES (A.U.)
----------------------------
  NO LB    ZA    FRAG    MASS        X           Y           Z
   0 O   8.0000    1    15.999   -6.904926    3.895291   -0.547246
   1 C   6.0000    1    12.011   -4.339572    3.305248   -0.188846
   2 H   1.0000    1     1.008   -4.029005    2.628140    1.757352
   3 C   6.0000    1    12.011   -3.431722    1.258937   -2.024578
   4 H   1.0000    1     1.008   -3.836698    1.878691   -3.966557
   5 C   6.0000    1    12.011   -0.574599    0.932109   -1.731261
   6 H   1.0000    1     1.008   -0.208390    0.240755    0.199134
   7 C   6.0000    1    12.011    0.426104   -1.010278   -3.613032
   8 O   8.0000    1    15.999   -0.649440   -3.385678   -3.208383
   9 Si 14.0000    1    28.086   -3.637770   -3.756526   -2.425323
  10 C   6.0000    1    12.011   -3.627738   -5.923427    0.493307
  11 C   6.0000    1    12.011   -6.291025   -6.824312    1.162932
  12 C   6.0000    1    12.011   -1.954903   -8.236009    0.017395
  13 C   6.0000    1    12.011   -2.551164   -4.490711    2.773448
  14 C   6.0000    1    12.011   -5.518446   -4.768681   -5.395411
  15 C   6.0000    1    12.011   -4.694699   -3.136920   -7.652277
  16 C   6.0000    1    12.011   -5.016876   -7.537338   -6.069696
  17 C   6.0000    1    12.011   -8.368419   -4.407694   -5.020862
  18 O   8.0000    1    15.999   -4.748758   -0.977505   -1.521079
  19 O   8.0000    1    15.999    0.683593    3.233686   -2.149866
  20 C   6.0000    1    12.011    0.029537    5.134932   -0.371674
  21 H   1.0000    1     1.008    0.403888    4.453870    1.563492
  22 O   8.0000    1    15.999    1.633159    7.164535   -0.675777
  23 C   6.0000    1    12.011    1.438036    8.520876   -2.991896
  24 C   6.0000    1    12.011   -2.816339    5.740827   -0.585686
  25 H   1.0000    1     1.008   -3.221381    6.438864   -2.504127
  26 O   8.0000    1    15.999   -3.435073    7.565507    1.228354
  27 H   1.0000    1     1.008   -7.846362    2.331183   -0.531687
  28 H   1.0000    1     1.008    2.472956   -1.192606   -3.390931
  29 H   1.0000    1     1.008    0.022104   -0.350905   -5.533524
  30 H   1.0000    1     1.008   -7.071010   -7.974136   -0.348444
  31 H   1.0000    1     1.008   -7.541507   -5.227096    1.478944
  32 H   1.0000    1     1.008   -6.247501   -7.966858    2.875014
  33 H   1.0000    1     1.008   -2.722386   -9.399812   -1.487077
  34 H   1.0000    1     1.008   -1.828581   -9.384185    1.721571
  35 H   1.0000    1     1.008   -0.062622   -7.654255   -0.524237
  36 H   1.0000    1     1.008   -3.692833   -2.836192    3.198203
  37 H   1.0000    1     1.008   -0.621899   -3.885632    2.401970
  38 H   1.0000    1     1.008   -2.533251   -5.709835    4.432114
  39 H   1.0000    1     1.008   -2.694566   -3.398991   -8.043462
  40 H   1.0000    1     1.008   -5.041159   -1.143579   -7.284134
  41 H   1.0000    1     1.008   -5.756351   -3.667581   -9.334294
  42 H   1.0000    1     1.008   -3.003330   -7.876043   -6.288710
  43 H   1.0000    1     1.008   -5.957928   -8.023274   -7.834696
  44 H   1.0000    1     1.008   -5.731468   -8.783178   -4.602799
  45 H   1.0000    1     1.008   -8.795730   -2.446608   -4.590689
  46 H   1.0000    1     1.008   -9.061134   -5.570275   -3.478911
  47 H   1.0000    1     1.008   -9.380254   -4.934409   -6.734301
  48 H   1.0000    1     1.008    3.130411    9.684573   -3.076031
  49 H   1.0000    1     1.008   -0.233993    9.733997   -2.998944
  50 H   1.0000    1     1.008    1.393624    7.227705   -4.597561
  51 H   1.0000    1     1.008   -5.259011    7.706249    1.267846

      -----------------------------------------------------------      
     |                   =====================                   |     
     |                           x T B                           |     
     |                   =====================                   |     
     |                         S. Grimme                         |     
     |          Mulliken Center for Theoretical Chemistry        |     
     |                    University of Bonn                     |     
      -----------------------------------------------------------      

   * xtb version 6.7.1 (edcfbbe) compiled by 'albert@albert-system' on 2024-07-22

   xtb is free software: you can redistribute it and/or modify it under
   the terms of the GNU Lesser General Public License as published by
   the Free Software Foundation, either version 3 of the License, or
   (at your option) any later version.
   
   xtb is distributed in the hope that it will be useful,
   but WITHOUT ANY WARRANTY; without even the implied warranty of
   MERCHANTABILITY or FITNESS FOR A PARTICULAR PURPOSE.  See the
   GNU Lesser General Public License for more details.
   
   Cite this work as:
   * C. Bannwarth, E. Caldeweyher, S. Ehlert, A. Hansen, P. Pracht,
     J. Seibert, S. Spicher, S. Grimme, WIREs Comput. Mol. Sci., 2020, 11,
     e01493. DOI: 10.1002/wcms.1493
   
   for GFN2-xTB:
   * C. Bannwarth, S. Ehlert and S. Grimme., J. Chem. Theory Comput., 2019,
     15, 1652-1671. DOI: 10.1021/acs.jctc.8b01176
   for GFN1-xTB:
   * S. Grimme, C. Bannwarth, P. Shushkov, J. Chem. Theory Comput., 2017,
     13, 1989-2009. DOI: 10.1021/acs.jctc.7b00118
   for GFN0-xTB:
   * P. Pracht, E. Caldeweyher, S. Ehlert, S. Grimme, ChemRxiv, 2019, preprint.
     DOI: 10.26434/chemrxiv.8326202.v1
   for GFN-FF:
   * S. Spicher and S. Grimme, Angew. Chem. Int. Ed., 2020, 59, 15665-15673.
     DOI: 10.1002/anie.202004239
   
   for ALPB and GBSA implicit solvation:
   * S. Ehlert, M. Stahn, S. Spicher, S. Grimme, J. Chem. Theory Comput.,
     2021, 17, 4250-4261. DOI: 10.1021/acs.jctc.1c00471
   
   for ddCOSMO and CPCM-X implicit solvation:
   * M. Stahn, S. Ehlert, S. Grimme, J. Phys. Chem. A,
     2023, XX, XXXX-XXXX. DOI: 10.1021/acs.jpca.3c04382
   
   for DFT-D4:
   * E. Caldeweyher, C. Bannwarth and S. Grimme, J. Chem. Phys., 2017,
     147, 034112. DOI: 10.1063/1.4993215
   * E. Caldeweyher, S. Ehlert, A. Hansen, H. Neugebauer, S. Spicher,
     C. Bannwarth and S. Grimme, J. Chem. Phys., 2019, 150, 154122.
     DOI: 10.1063/1.5090222
   * E. Caldeweyher, J.-M. Mewes, S. Ehlert and S. Grimme, Phys. Chem. Chem. Phys.
     2020, 22, 8499-8512. DOI: 10.1039/D0CP00502A
   
   for sTDA-xTB:
   * S. Grimme and C. Bannwarth, J. Chem. Phys., 2016, 145, 054103.
     DOI: 10.1063/1.4959605
   
   in the mass-spec context:
   * V. Asgeirsson, C. Bauer and S. Grimme, Chem. Sci., 2017, 8, 4879.
     DOI: 10.1039/c7sc00601b
   * J. Koopman and S. Grimme, ACS Omega 2019, 4, 12, 15120-15133.
     DOI: 10.1021/acsomega.9b02011
   
   for metadynamics refer to:
   * S. Grimme, J. Chem. Theory Comput., 2019, 155, 2847-2862
     DOI: 10.1021/acs.jctc.9b00143
   
   for SPH calculations refer to:
   * S. Spicher and S. Grimme, J. Chem. Theory Comput., 2021, 17, 1701-1714
     DOI: 10.1021/acs.jctc.0c01306
   
   for ONIOM refer to:
   * C. Plett, A. Katbashev, S. Ehlert, S. Grimme, M. Bursch,
     Phys. Chem. Chem. Phys., 2023, 25, 17860-17868. DOI: 10.1039/D3CP02178E
   
   for DIPRO refer to:
   * J. Kohn, N. Gildemeister, S. Grimme, D. Fazzi, A. Hansen,
     J. Chem. Phys., 2023, just accepted.
   
   for PTB refer to:
   * S. Grimme, M. Mueller, A. Hansen, J. Chem. Phys., 2023, 158, 124111.
     DOI: 10.1063/5.0137838
   
   with help from (in alphabetical order)
   P. Atkinson, C. Bannwarth, F. Bohle, G. Brandenburg, E. Caldeweyher
   M. Checinski, S. Dohm, S. Ehlert, S. Ehrlich, I. Gerasimov, C. Hölzer
   A. Katbashev, J. Kohn, J. Koopman, C. Lavigne, S. Lehtola, F. März, M. Müller,
   F. Musil, H. Neugebauer, J. Pisarek, C. Plett, P. Pracht, F. Pultar,
   J. Seibert, P. Shushkov, S. Spicher, M. Stahn, M. Steiner, T. Strunk,
   J. Stückrath, T. Rose, and J. Unsleber
   
 * started run on 2025/09/10 at 11:31:45.048     
   ID    Z sym.   atoms
    1    8 O      1, 9, 19, 20, 23, 27
    2    6 C      2, 4, 6, 8, 11-18, 21, 24, 25
    3    1 H      3, 5, 7, 22, 26, 28-52
    4   14 Si     10

           -------------------------------------------------
          |                Calculation Setup                |
           -------------------------------------------------

          program call               : /home/kmoult/orca_6_1/otool_xtb goat_0_XTB.xyz --grad -c 0 -u 0 -P 4 --namespace goat_0 --input goat_0_XTB.input.tmp --alpb ACETONE --acc 0.200000
          hostname                   : node3306
          calculation namespace      : goat_0
          coordinate file            : goat_0_XTB.xyz
          omp threads                :                     4


           -------------------------------------------------
          |                 G F N 2 - x T B                 |
           -------------------------------------------------

        Reference                      10.1021/acs.jctc.8b01176
      * Hamiltonian:
        H0-scaling (s, p, d)           1.850000    2.230000    2.230000
        zeta-weighting                 0.500000
      * Dispersion:
        s8                             2.700000
        a1                             0.520000
        a2                             5.000000
        s9                             5.000000
      * Repulsion:
        kExp                           1.500000    1.000000
        rExp                           1.000000
      * Coulomb:
        alpha                          2.000000
        third order                    shell-resolved
        anisotropic                    true
        a3                             3.000000
        a5                             4.000000
        cn-shift                       1.200000
        cn-exp                         4.000000
        max-rad                        5.000000

      * Solvation model:               ALPB
        Solvent                        ACETONE
        Parameter file                 internal GFN2-xTB/ALPB
        Dielectric constant                2.0700E+01
        Reference state                gsolv [1 M gas/solution]
        Free energy shift                  5.9241E-03 Eh       3.7175E+00 kcal/mol
        Temperature                        2.9815E+02 K
        Density                            7.9000E-01 kg/L
        Solvent mass                       5.8080E+01 g/mol
        Interaction kernel             P16
        Born radius scaling (c1)           1.8274E+00
        Born radii integrator          GBOBC
        Born offset                        0.0000E+00 a0       0.0000E+00 AA
        H-bond correction              true
        Ion screening                  false
        Surface tension                    1.0000E-05 Eh       1.5569E+01 dyn/cm
        Grid points                               230 per atom
q/qsh data taken from xtbrestart
CAMM data taken from xtbrestart

          ...................................................
          :                      SETUP                      :
          :.................................................:
          :  # basis functions                 124          :
          :  # atomic orbitals                 123          :
          :  # shells                           75          :
          :  # electrons                       130          :
          :  max. iterations                   250          :
          :  Hamiltonian                  GFN2-xTB          :
          :  restarted?                       true          :
          :  GBSA solvation                   true          :
          :  PC potential                    false          :
          :  electronic temp.          300.0000000     K    :
          :  accuracy                    0.2000000          :
          :  -> integral cutoff          0.3198970E+02      :
          :  -> integral neglect         0.2000000E-08      :
          :  -> SCF convergence          0.2000000E-06 Eh   :
          :  -> wf. convergence          0.2000000E-04 e    :
          :  Broyden damping             0.4000000          :
          :  net charge                          0          :
          :  unpaired electrons                  0          :
          ...................................................

 iter      E             dE          RMSdq      gap      omega  full diag
   1    -74.4400685 -0.744401E+02  0.267E-03    5.49       0.0  T
   2    -74.4400685 -0.339936E-08  0.177E-03    5.49       7.8  T
   3    -74.4400685  0.151790E-08  0.527E-04    5.49      26.3  T
   4    -74.4400685 -0.169649E-08  0.325E-04    5.49      42.6  T
   5    -74.4400685 -0.116670E-08  0.139E-04    5.49      99.4  T
   6    -74.4400685 -0.113033E-09  0.456E-05    5.49     304.2  T

   *** convergence criteria satisfied after 6 iterations ***

         #    Occupation            Energy/Eh            Energy/eV
      -------------------------------------------------------------
         1        2.0000           -0.8172750             -22.2392
       ...           ...                  ...                  ...
        59        2.0000           -0.4259137             -11.5897
        60        2.0000           -0.4241011             -11.5404
        61        2.0000           -0.4230980             -11.5131
        62        2.0000           -0.4179671             -11.3735
        63        2.0000           -0.4145558             -11.2806
        64        2.0000           -0.4059541             -11.0466
        65        2.0000           -0.3717746             -10.1165 (HOMO)
        66                         -0.1701765              -4.6307 (LUMO)
        67                         -0.1434983              -3.9048
        68                         -0.0907407              -2.4692
        69                         -0.0486490              -1.3238
        70                         -0.0050512              -0.1375
       ...                                ...                  ...
       123                          0.7842327              21.3401
      -------------------------------------------------------------
                  HL-Gap            0.2015982 Eh            5.4858 eV
             Fermi-level           -0.2709755 Eh           -7.3736 eV

 SCC (total)                   0 d,  0 h,  0 min,  0.025 sec
 SCC setup                      ...        0 min,  0.001 sec (  2.587%)
 Dispersion                     ...        0 min,  0.000 sec (  1.522%)
 classical contributions        ...        0 min,  0.000 sec (  0.163%)
 integral evaluation            ...        0 min,  0.004 sec ( 17.542%)
 iterations                     ...        0 min,  0.011 sec ( 45.114%)
 molecular gradient             ...        0 min,  0.008 sec ( 32.383%)
 printout                       ...        0 min,  0.000 sec (  0.624%)

         :::::::::::::::::::::::::::::::::::::::::::::::::::::
         ::                     SUMMARY                     ::
         :::::::::::::::::::::::::::::::::::::::::::::::::::::
         :: total energy             -73.690549309008 Eh    ::
         :: total w/o Gsasa/hb       -73.661661974590 Eh    ::
         :: gradient norm              0.000198372618 Eh/a0 ::
         :: HOMO-LUMO gap              5.485766026229 eV    ::
         ::.................................................::
         :: SCC energy               -74.438705658297 Eh    ::
         :: -> isotropic ES            0.157241559020 Eh    ::
         :: -> anisotropic ES          0.003134893616 Eh    ::
         :: -> anisotropic XC          0.005555670256 Eh    ::
         :: -> dispersion             -0.053490156974 Eh    ::
         :: -> Gsolv                  -0.031850908199 Eh    ::
         ::    -> Gelec               -0.002963573781 Eh    ::
         ::    -> Gsasa               -0.028891124769 Eh    ::
         ::    -> Ghb                 -0.005920350913 Eh    ::
         ::    -> Gshift               0.005924141264 Eh    ::
         :: repulsion energy           0.748156349289 Eh    ::
         :: add. restraining           0.000000000000 Eh    ::
         :: total charge              -0.000000000000 e     ::
         :::::::::::::::::::::::::::::::::::::::::::::::::::::


Property printout bound to 'properties.out'

           -------------------------------------------------
          | TOTAL ENERGY              -73.690549309008 Eh   |
          | GRADIENT NORM               0.000198372618 Eh/α |
          | HOMO-LUMO GAP               5.485766026229 eV   |
           -------------------------------------------------

------------------------------------------------------------------------
 * finished run on 2025/09/10 at 11:31:45.097     
------------------------------------------------------------------------
 total:
 * wall-time:     0 d,  0 h,  0 min,  0.048 sec
 *  cpu-time:     0 d,  0 h,  0 min,  0.173 sec
 * ratio c/w:     3.570 speedup
 SCF:
 * wall-time:     0 d,  0 h,  0 min,  0.025 sec
 *  cpu-time:     0 d,  0 h,  0 min,  0.101 sec
 * ratio c/w:     3.978 speedup


-------------------------   --------------------
FINAL SINGLE POINT ENERGY       -73.690549309010
-------------------------   --------------------


-------------
DIPOLE MOMENT
-------------
                                X             Y             Z
Total Dipole Moment    :     -0.96300      -0.76300      -0.66800
                        -----------------------------------------
Magnitude (a.u.)       :      1.39849
Magnitude (Debye)      :      3.55467

                                *** OPTIMIZATION RUN DONE ***

		     ------------------------------
			                   _   
			                  | |  
			  __ _  ___   __ _| |_ 
			 / _` |/ _ \ / _` | __|
			| (_| | (_) | (_| | |_ 
			 \__, |\___/ \__,_|\__|
			 __/ |                
			|___/                 

		      A Global Optimizer Algorithm
		     ------------------------------

Global parameters
-----------------
  GOAT version                               ... default
  Minimum global steps                       ... 3
  Number of base workers                     ... 4
  Split workers by                           ... 2
  Final number of workers                    ... 8
  Number of available CPUs                   ... 4
  Parameter list (worker : temperature)      ...  0 : 2903.97,  1 : 1451.98, 
                                                  2 :  725.99,  3 :  363.00, 
                                                  4 : 2903.97,  5 : 1451.98, 
                                                  6 :  725.99,  7 :  363.00 
  GradComp (mean : sigma)                    ... 1.00 : 0.50
  Number of fragments                        ... 1
  Number of atoms                            ... 52
  Flexibility parameter                      ... 0.72
  Optimizations per global step              ... 1072
  Optimizations per worker                   ... 134

Filtering criteria
------------------
  RMSD                                       ... 0.125 Angs (atom. pos.)
  EnDiff                                     ... 0.100 kcal/mol
  RotConst                                   ... 1.00-2.50 %
  Maximum Conf. Energy                       ... 6.000 kcal/mol

Thermodynamics
--------------
  Ensemble temperature                       ... 298.15 K
  Degeneracy of conformers                   ... 1
  *No rotamers will be included in Gconf

------------------------------------------------------------------------------
   Iter  MinTemp     MaxEn       GradComp    NOpt   NProcs    Output
------------------------------------------------------------------------------
List of participating nodes    ...  goat_0.goat.0.hostnames

   1     1451.98    156.00    1.00 : 0.50     134        1    goat_0.goat.0.1.out
   0     2903.97    156.00    1.00 : 0.50     134        1    goat_0.goat.0.0.out
   3      363.00    156.00    1.00 : 0.50     134        1    goat_0.goat.0.3.out
   2      725.99    156.00    1.00 : 0.50     134        1    goat_0.goat.0.2.out
   4     2903.97    156.00    1.00 : 0.50     134        1    goat_0.goat.0.4.out
   5     1451.98    156.00    1.00 : 0.50     134        1    goat_0.goat.0.5.out
   6      725.99    156.00    1.00 : 0.50     134        1    goat_0.goat.0.6.out
   7      363.00    156.00    1.00 : 0.50     134        1    goat_0.goat.0.7.out

			     GOAT Global Iter 1
		Iter    Min En       Sconf       Gconf   
		        Hartree      cal/(molK)  kcal/mol
		=========================================

		   1    -73.693584   4.232       -0.470

List of participating nodes    ...  goat_0.goat.1.hostnames

   3      363.00    156.00    1.00 : 0.50     134        1    goat_0.goat.1.3.out
   2      725.99    156.00    1.00 : 0.50     134        1    goat_0.goat.1.2.out
   1     1451.98    156.00    1.00 : 0.50     134        1    goat_0.goat.1.1.out
   0     2903.97    156.00    1.00 : 0.50     134        1    goat_0.goat.1.0.out
   4     2903.97    156.00    1.00 : 0.50     134        1    goat_0.goat.1.4.out
   5     1451.98    156.00    1.00 : 0.50     134        1    goat_0.goat.1.5.out
   6      725.99    156.00    1.00 : 0.50     134        1    goat_0.goat.1.6.out
   7      363.00    156.00    1.00 : 0.50     134        1    goat_0.goat.1.7.out

			     GOAT Global Iter 2
		Iter    Min En       Sconf       Gconf   
		        Hartree      cal/(molK)  kcal/mol
		=========================================

		   1    -73.693584   4.232       -0.470
		   2    -73.693630   4.327       -0.473

List of participating nodes    ...  goat_0.goat.2.hostnames

   0     2903.97    156.00    1.00 : 0.50     134        1    goat_0.goat.2.0.out
   2      725.99    156.00    1.00 : 0.50     134        1    goat_0.goat.2.2.out
   3      363.00    156.00    1.00 : 0.50     134        1    goat_0.goat.2.3.out
   1     1451.98    156.00    1.00 : 0.50     134        1    goat_0.goat.2.1.out
   4     2903.97    156.00    1.00 : 0.50     134        1    goat_0.goat.2.4.out
   5     1451.98    156.00    1.00 : 0.50     134        1    goat_0.goat.2.5.out
   6      725.99    156.00    1.00 : 0.50     134        1    goat_0.goat.2.6.out
   7      363.00    156.00    1.00 : 0.50     134        1    goat_0.goat.2.7.out

			     GOAT Global Iter 3
		Iter    Min En       Sconf       Gconf   
		        Hartree      cal/(molK)  kcal/mol
		=========================================

		   1    -73.693584   4.232       -0.470
		   2    -73.693630   4.327       -0.473
		   3    -73.693630   4.496       -0.499

		Global minimum found!
		Writing structure to goat_0.globalminimum.xyz

		# Final ensemble info #
		Conformer     Energy     Degen.   % total   % cumul.  
		              (kcal/mol)
		------------------------------------------------------
		        0     0.000	     1      43.11      43.11
		        1     1.043	     1       7.42      50.53
		        2     1.102	     1       6.71      57.24
		        3     1.127	     1       6.44      63.68
		        4     1.145	     1       6.25      69.93
		        5     1.252	     1       5.21      75.13
		        6     1.347	     1       4.44      79.57
		        7     1.452	     1       3.72      83.29
		        8     1.698	     1       2.45      85.75
		        9     1.808	     1       2.04      87.78
		       10     1.914	     1       1.70      89.49
		       11     1.972	     1       1.54      91.03
		       12     1.988	     1       1.50      92.54
		       13     2.077	     1       1.29      93.83
		       14     2.145	     1       1.16      94.99
		       15     2.365	     1       0.80      95.78
		       16     2.501	     1       0.63      96.42
		       17     2.530	     1       0.60      97.02
		       18     2.642	     1       0.50      97.52
		       19     2.771	     1       0.40      97.92
		       20     2.871	     1       0.34      98.26
		       21     2.914	     1       0.32      98.57
		       22     2.991	     1       0.28      98.85
		       23     3.403	     1       0.14      98.99
		       24     3.460	     1       0.13      99.11
		       25     3.547	     1       0.11      99.22
		       26     3.561	     1       0.11      99.33
		       27     3.587	     1       0.10      99.43
		       28     3.622	     1       0.10      99.52
		       29     3.678	     1       0.09      99.61
		       30     3.756	     1       0.08      99.69
		       31     3.778	     1       0.07      99.76
		       32     4.068	     1       0.04      99.81
		       33     4.088	     1       0.04      99.85
		       34     4.101	     1       0.04      99.89
		       35     4.413	     1       0.03      99.92
		       36     4.595	     1       0.02      99.93
		       37     4.626	     1       0.02      99.95
		       38     4.732	     1       0.01      99.97
		       39     4.818	     1       0.01      99.98
		       40     5.206	     1       0.01      99.99
		       41     5.381	     1       0.00      99.99
		       42     5.573	     1       0.00      99.99
		       43     5.702	     1       0.00     100.00
		       44     5.755	     1       0.00     100.00

		Conformers below 3 kcal/mol: 23
		Lowest energy conformer    : -73.693630 Eh
		Sconf at 298.15 K          :  4.50 cal/(molK)
		Gconf at 298.15 K          : -0.50 kcal/mol

		Writing final ensemble to goat_0.finalensemble.xyz

--------------------------------
SUGGESTED CITATIONS FOR THIS RUN
--------------------------------

Below you find a list of papers that are relevant to this ORCA run
We neither can nor want to force you to cite these papers, but we appreciate if you do
You receive ORCA, which is the product of decades of hard work by many enthusiastic individuals, for free
The only thing we kindly ask in return is that you cite our papers,
We deeply appreciate it, if you show your appreciation for ORCA by not just citing the generic ORCA reference.

Please note that relegating all ORCA citations to the supporting information does *not* help us.
SI sections are not indexed - citations you put there will not count into any citation statistics
But we need these citations in order to attract the funding resources that allow us to do what we are doing

Therefore, if you are a happy ORCA user, please consider citing a few of the papers listed below in the main body of your paper

In addition to the list printed below, the program has created the file goat_0.bibtex that contains the list in bibtex format
You can import this file easily into all common literature databanks and citation aid programs


List of essential papers. We consider these as the minimum necessary citations

  1. Bannwarth, C.; Ehlert, S.; Grimme, S.
     GFN2-xTB—An Accurate and Broadly Parametrized Self-Consistent Tight-Binding Quantum Chemical Method with Multipole Electrostatics and Density-Dependent Dispersion Contributions
     J. Chem. Theory Comput. 2019 15(3), 1652-1671
     doi.org/10.1021/acs.jctc.8b01176
  2. Neese, F.
     Software update: the ORCA program system, version 6.0
     WIRES Comput. Molec. Sci. 2025 15(1), e70019
     doi.org/10.1002/wcms.7019
  3. de Souza, B.
     GOAT: A Global Optimization Algorithm for Molecules and Atomic Clusters
     Angewandte Chemie 2025 64(18), e202500393
     doi.org/10.1002/anie.202500393

List of papers to cite with high priority. The work reported in these papers was absolutely
necessary for this run to complete.
Our perspective: the developers of density functionals and basis sets usually get cited in chemistry papers
Good! But without the algorithms to do something with them, the functionals or basis sets would not do anything.
Hence, in our opinion, the algorithm design and method developments papers are equally worthy of getting cited

  1. Bannwarth, C.; Caldeweyher, E.; Ehlert, S.; Hansen, A.; Pracht, P.; Seibert, J.; Spicher, S.; Grimme, S.
     Extended tight-binding quantum chemistry methods
     WIRES Comput. Molec. Sci. 2020 11(2), e1493
     doi.org/10.1002/wcms.1493

List of suggested additional citations. These are papers that are important in the 'surrounding' of 
of this run, or papers that preceded the highly important papers. If you like your results we are grateful for a citation.

  1. Neese, F.
     The ORCA program system
     WIRES Comput. Molec. Sci. 2012 2(1), 73-78
     doi.org/10.1002/wcms.81
  2. Neese, F.
     Software update: the ORCA program system, version 4.0
     WIRES Comput. Molec. Sci. 2018 8(1), 1-6
     doi.org/10.1002/wcms.1327
  3. Neese, F.; Wennmohs, F.; Becker, U.; Riplinger, C.
     The ORCA quantum chemistry program package
     J. Chem. Phys. 2020 152(22), 224108
     doi.org/10.1063/5.0004608
  4. Neese, F.
     Software update: The ORCA program system—Version 5.0
     WIRES Comput. Molec. Sci. 2022 12(1), e1606
     doi.org/10.1002/wcms.1606

List of optional additional citations

  1. Neese, F.
     Approximate second-order SCF convergence for spin unrestricted wavefunctions
     Chem. Phys. Lett. 2000 325(1-3), 93-98
     doi.org/10.1016/s0009-2614(00)00662-x

Timings for individual modules:

Sum of individual times          ...     9128.101 sec (= 152.135 min)
Geometry relaxation              ...        0.369 sec (=   0.006 min)   0.0 %
GOAT                             ...     9126.597 sec (= 152.110 min) 100.0 %
XTB module                       ...        1.135 sec (=   0.019 min)   0.0 %
                             ****ORCA TERMINATED NORMALLY****
TOTAL RUN TIME: 0 days 2 hours 32 minutes 9 seconds 224 msec
