68
Coordinates from ORCA-job goat_0_73
  O          -2.76962717000000      3.46577138000000     -8.14040784000000
  C          -2.78009791000000      3.73652427000000     -6.74688500000000
  H          -3.15577256000000      4.75389728000000     -6.56901215000000
  C          -3.64853986000000      2.75814566000000     -5.98220873000000
  H          -3.27852160000000      1.74278588000000     -6.16427439000000
  O          -4.98778324000000      2.90436557000000     -6.42070010000000
  Si         -5.99151852000000      1.64917596000000     -6.84919073000000
  C          -5.82786472000000      1.21386459000000     -8.66107624000000
  C          -6.98330745000000      0.31116956000000     -9.11215321000000
  C          -4.48791450000000      0.53531262000000     -8.96417541000000
  C          -7.71492635000000      2.23642136000000     -6.43029446000000
  C          -8.13218590000000      3.40053994000000     -7.33812798000000
  C          -7.84668472000000      2.64304535000000     -4.96099811000000
  O          -5.55689065000000      0.32511152000000     -5.99231063000000
  Si         -4.84119942000000     -0.37036999000000     -4.68076708000000
  C          -3.57812720000000     -1.62874269000000     -5.24586171000000
  C          -3.06968325000000     -2.48724144000000     -4.08093500000000
  C          -2.40162487000000     -0.92621306000000     -5.93706525000000
  C          -6.25429604000000     -1.02805962000000     -3.64036591000000
  C          -5.90992474000000     -1.27366594000000     -2.17008919000000
  C          -6.89122052000000     -2.26358898000000     -4.28765690000000
  O          -3.95264073000000      0.75386712000000     -3.86126734000000
  C          -4.29982886000000      2.09767339000000     -3.60302782000000
  C          -3.52449544000000      3.05647804000000     -4.48824463000000
  H          -3.91714275000000      4.07115885000000     -4.30764411000000
  O          -2.16214720000000      2.98565678000000     -4.11053876000000
  C          -1.33511226000000      3.93992596000000     -4.76028867000000
  H          -1.72338321000000      4.95168158000000     -4.58833225000000
  O          -0.09046120000000      3.91467846000000     -4.16670379000000
  C           0.63598458000000      2.70398643000000     -4.32712837000000
  C          -1.34641078000000      3.65532246000000     -6.26099487000000
  H          -0.98671732000000      2.63223603000000     -6.43325752000000
  O          -0.52772310000000      4.60223655000000     -6.91016732000000
  H          -3.67440545000000      3.55574906000000     -8.46197283000000
  H          -5.88820593000000      2.15455248000000     -9.22491911000000
  H          -7.96124962000000      0.77586685000000     -8.97528386000000
  H          -6.97994397000000     -0.62709068000000     -8.55162338000000
  H          -6.88030547000000      0.05731517000000    -10.16962027000000
  H          -4.40009847000000      0.31715972000000    -10.03122871000000
  H          -4.41973589000000     -0.41399939000000     -8.42825673000000
  H          -3.63016186000000      1.14602467000000     -8.67615748000000
  H          -8.38890906000000      1.39154094000000     -6.61884625000000
  H          -8.10126530000000      3.14099225000000     -8.39825667000000
  H          -7.47505520000000      4.26002312000000     -7.18772511000000
  H          -9.14981617000000      3.72190091000000     -7.10398395000000
  H          -7.18750558000000      3.48523491000000     -4.73750573000000
  H          -7.59245762000000      1.82643217000000     -4.28215934000000
  H          -8.86938692000000      2.95542402000000     -4.73625766000000
  H          -4.07208077000000     -2.28602002000000     -5.97269159000000
  H          -3.86323112000000     -3.08185026000000     -3.62548861000000
  H          -2.62971197000000     -1.86154549000000     -3.30111085000000
  H          -2.29403936000000     -3.17837386000000     -4.42045568000000
  H          -1.91659720000000     -0.23255101000000     -5.24585947000000
  H          -2.71865739000000     -0.35961802000000     -6.81513603000000
  H          -1.65281621000000     -1.65299155000000     -6.26358030000000
  H          -7.00243785000000     -0.22494309000000     -3.67388709000000
  H          -5.47913789000000     -0.38616338000000     -1.70432129000000
  H          -5.19286441000000     -2.08762653000000     -2.05075548000000
  H          -6.80754618000000     -1.54576194000000     -1.60936579000000
  H          -6.20526487000000     -3.11455976000000     -4.28882622000000
  H          -7.18603865000000     -2.07353209000000     -5.32175539000000
  H          -7.78483142000000     -2.56816240000000     -3.73798605000000
  H          -4.04873257000000      2.32938260000000     -2.56527367000000
  H          -5.37082045000000      2.27577212000000     -3.74521053000000
  H           0.02124839000000      1.83786077000000     -4.07676480000000
  H           1.47054707000000      2.75799859000000     -3.63354246000000
  H           1.02450929000000      2.60915542000000     -5.34390947000000
  H          -0.72726439000000      4.54403276000000     -7.85235066000000
