68
Coordinates from ORCA-job goat_0_88
  O          -2.85271227000000      3.40136355000000     -8.39100274000000
  C          -2.69911585000000      3.73578799000000     -7.02202100000000
  H          -2.98488536000000      4.78209487000000     -6.84985155000000
  C          -3.53399476000000      2.85069554000000     -6.12296884000000
  H          -3.14441412000000      1.82705288000000     -6.16794667000000
  O          -4.88713927000000      2.89750508000000     -6.54279799000000
  Si         -5.84500356000000      1.54515078000000     -6.69177624000000
  C          -5.58687473000000      0.78156564000000     -8.38422961000000
  C          -6.24369223000000      1.57700622000000     -9.51856378000000
  C          -6.00280525000000     -0.69250429000000     -8.43957924000000
  C          -7.56034705000000      2.14377605000000     -6.25151365000000
  C          -8.63207358000000      1.06239241000000     -6.41835498000000
  C          -7.95707467000000      3.44901312000000     -6.95053980000000
  O          -5.36878805000000      0.43369968000000     -5.59063409000000
  Si         -4.43139433000000     -0.11939572000000     -4.35974702000000
  C          -3.20596773000000     -1.37331932000000     -4.98861111000000
  C          -2.33756108000000     -1.90863130000000     -3.84420678000000
  C          -2.33678975000000     -0.81227143000000     -6.11774040000000
  C          -5.60090078000000     -0.83474508000000     -3.08930011000000
  C          -6.33574393000000     -2.05498232000000     -3.65627405000000
  C          -6.60651298000000      0.21031514000000     -2.59762686000000
  O          -3.55029802000000      1.14172160000000     -3.74926209000000
  C          -4.02176386000000      2.47198071000000     -3.64818949000000
  C          -3.44144295000000      3.40236747000000     -4.70446299000000
  H          -4.05877148000000      4.30850792000000     -4.68918011000000
  O          -2.11938396000000      3.83283937000000     -4.37190982000000
  C          -1.03840784000000      3.38392080000000     -5.15603793000000
  H          -0.20299082000000      4.01416362000000     -4.83620673000000
  O          -0.74641030000000      2.03311684000000     -4.93116496000000
  C          -0.34865567000000      1.76264658000000     -3.59741087000000
  C          -1.23714338000000      3.55591668000000     -6.66710070000000
  H          -0.89383526000000      2.63190375000000     -7.14277933000000
  O          -0.45031755000000      4.65799275000000     -7.08935967000000
  H          -3.79827972000000      3.42004855000000     -8.58294335000000
  H          -4.49752373000000      0.82784360000000     -8.53062894000000
  H          -5.94520242000000      1.17853674000000    -10.49110800000000
  H          -5.97773403000000      2.63740875000000     -9.50125402000000
  H          -7.33355024000000      1.51358517000000     -9.46317905000000
  H          -5.74010440000000     -1.12999098000000     -9.40592712000000
  H          -7.08233834000000     -0.80656359000000     -8.31265947000000
  H          -5.51364211000000     -1.27800221000000     -7.65989812000000
  H          -7.47254043000000      2.36196748000000     -5.17702052000000
  H          -9.58857288000000      1.40170510000000     -6.01318905000000
  H          -8.36302611000000      0.13774019000000     -5.90230840000000
  H          -8.79418973000000      0.82141782000000     -7.47203819000000
  H          -8.90426479000000      3.82177381000000     -6.55262075000000
  H          -8.09003117000000      3.30734762000000     -8.02535937000000
  H          -7.20355972000000      4.22419626000000     -6.80542163000000
  H          -3.80114616000000     -2.20407874000000     -5.38892311000000
  H          -1.61434216000000     -2.63731039000000     -4.21783281000000
  H          -2.92926994000000     -2.39558528000000     -3.06585931000000
  H          -1.77767571000000     -1.09766738000000     -3.37375087000000
  H          -2.93839630000000     -0.46875566000000     -6.96384949000000
  H          -1.65082177000000     -1.57797179000000     -6.48916511000000
  H          -1.73744556000000      0.03011039000000     -5.76673415000000
  H          -4.99069430000000     -1.15872044000000     -2.23771796000000
  H          -6.92488107000000     -1.77943964000000     -4.53480746000000
  H          -7.02585788000000     -2.46705503000000     -2.91650873000000
  H          -5.65372990000000     -2.85349345000000     -3.95446139000000
  H          -6.11824396000000      1.06118999000000     -2.11917179000000
  H          -7.29553568000000     -0.22845307000000     -1.87228356000000
  H          -7.20758976000000      0.58921291000000     -3.42896655000000
  H          -3.74563405000000      2.86779044000000     -2.66783936000000
  H          -5.11490652000000      2.51455555000000     -3.73085790000000
  H          -1.15993413000000      1.95005386000000     -2.89313516000000
  H           0.52030610000000      2.37247957000000     -3.32724908000000
  H          -0.07505246000000      0.71074656000000     -3.55892450000000
  H          -0.56343650000000      4.74550971000000     -8.04227466000000
