68
Coordinates from ORCA-job goat_0_77
  O          -4.15762363000000      4.71076751000000     -7.37697181000000
  C          -3.44506636000000      4.28267615000000     -6.23085691000000
  H          -3.93836228000000      4.64305911000000     -5.31663420000000
  C          -3.46118940000000      2.76530897000000     -6.20052994000000
  H          -3.11134938000000      2.40239863000000     -7.17796730000000
  O          -4.77637644000000      2.34702204000000     -5.93368515000000
  Si         -5.66760613000000      1.08895687000000     -6.52912321000000
  C          -5.15773207000000      0.69116495000000     -8.28291370000000
  C          -5.41543361000000      1.82926484000000     -9.27254650000000
  C          -5.75111087000000     -0.62645016000000     -8.79165097000000
  C          -7.42703830000000      1.59838740000000     -6.18150319000000
  C          -8.45983524000000      0.52850389000000     -6.54205299000000
  C          -7.79796797000000      2.96080900000000     -6.77232624000000
  O          -5.34950486000000     -0.26342751000000     -5.64923799000000
  Si         -4.52892775000000     -0.80100676000000     -4.33357352000000
  C          -4.13341194000000     -2.59698653000000     -4.68038110000000
  C          -3.07192494000000     -2.70060192000000     -5.78211256000000
  C          -5.36785709000000     -3.41073595000000     -5.08212823000000
  C          -5.48816393000000     -0.45948320000000     -2.76409972000000
  C          -6.95459806000000     -0.89380289000000     -2.85345410000000
  C          -5.40346293000000      1.03037864000000     -2.41112082000000
  O          -3.13094321000000      0.06682403000000     -4.16070893000000
  C          -2.37103366000000      0.70075651000000     -5.16380958000000
  C          -2.52460561000000      2.22297008000000     -5.11632667000000
  H          -2.93098229000000      2.49250401000000     -4.13104211000000
  O          -1.22421947000000      2.77659523000000     -5.28126541000000
  C          -1.22333167000000      4.17900650000000     -5.12720672000000
  H          -1.65281666000000      4.43733840000000     -4.14266291000000
  O           0.07399354000000      4.65190154000000     -5.22539524000000
  C           0.90808185000000      4.25614163000000     -4.14510316000000
  C          -2.02495115000000      4.80855436000000     -6.24869259000000
  H          -1.54208543000000      4.52169769000000     -7.19092045000000
  O          -2.09825881000000      6.21717809000000     -6.11990503000000
  H          -4.06863857000000      5.66976038000000     -7.42584084000000
  H          -4.06987859000000      0.54746497000000     -8.20986187000000
  H          -5.02963624000000      2.78584728000000     -8.91652124000000
  H          -6.48578741000000      1.94813649000000     -9.45400826000000
  H          -4.95180927000000      1.60957379000000    -10.23764392000000
  H          -5.32468049000000     -0.88646648000000     -9.76396050000000
  H          -6.83233283000000     -0.54871599000000     -8.92710601000000
  H          -5.55701485000000     -1.45219125000000     -8.10537291000000
  H          -7.42751362000000      1.70425620000000     -5.08743832000000
  H          -9.44693821000000      0.80049501000000     -6.15906813000000
  H          -8.19835681000000     -0.44782600000000     -6.12943649000000
  H          -8.55626003000000      0.41873225000000     -7.62477391000000
  H          -7.05409083000000      3.71887039000000     -6.52614558000000
  H          -8.76743148000000      3.29499119000000     -6.39309479000000
  H          -7.87718970000000      2.91511202000000     -7.86029108000000
  H          -3.71542217000000     -3.01955017000000     -3.75856391000000
  H          -3.43788113000000     -2.26543756000000     -6.71743293000000
  H          -2.83316855000000     -3.74711217000000     -5.98992577000000
  H          -2.14483095000000     -2.19495519000000     -5.50839183000000
  H          -5.08345218000000     -4.43372621000000     -5.34400765000000
  H          -5.85226299000000     -2.97222018000000     -5.95848285000000
  H          -6.10851215000000     -3.46928348000000     -4.28434794000000
  H          -5.00450301000000     -1.03021641000000     -1.96166478000000
  H          -7.06664644000000     -1.96688417000000     -3.00976446000000
  H          -7.46332659000000     -0.38187031000000     -3.67436646000000
  H          -7.48484201000000     -0.63673938000000     -1.93256162000000
  H          -5.79674505000000      1.65167761000000     -3.22150930000000
  H          -4.37514984000000      1.33911928000000     -2.22676639000000
  H          -5.99410395000000      1.24963440000000     -1.51774572000000
  H          -2.63578227000000      0.32806830000000     -6.16016611000000
  H          -1.31637590000000      0.47371364000000     -4.99876663000000
  H           1.88126649000000      4.70970444000000     -4.31682395000000
  H           1.00924928000000      3.17068836000000     -4.11080757000000
  H           0.49951547000000      4.61453589000000     -3.19466403000000
  H          -1.19583135000000      6.55592185000000     -6.09898739000000
