68
Coordinates from ORCA-job goat_0_31
  O          -2.47092009000000      2.60884967000000     -8.37911091000000
  C          -2.42616708000000      3.25046436000000     -7.11859757000000
  H          -2.74375171000000      4.29691927000000     -7.21730865000000
  C          -3.39736573000000      2.54534235000000     -6.19355513000000
  H          -3.15859994000000      1.47489689000000     -6.21398353000000
  O          -4.71747954000000      2.79766096000000     -6.61966668000000
  Si         -5.90045418000000      1.66452135000000     -6.87289687000000
  C          -5.66228491000000      0.79430714000000     -8.51103959000000
  C          -5.54451643000000      1.77036847000000     -9.68490862000000
  C          -6.74411233000000     -0.25703301000000     -8.78489229000000
  C          -7.51664906000000      2.59960099000000     -6.68963968000000
  C          -7.40914893000000      3.78949837000000     -5.72855908000000
  C          -8.65338562000000      1.67314881000000     -6.24097762000000
  O          -5.79342622000000      0.52336595000000     -5.69526261000000
  Si         -4.87250098000000     -0.22506329000000     -4.56023636000000
  C          -3.68200144000000     -1.42234950000000     -5.36928076000000
  C          -4.34979676000000     -2.68466377000000     -5.92097158000000
  C          -2.48676699000000     -1.77868719000000     -4.47707275000000
  C          -6.09121741000000     -0.90400991000000     -3.31525154000000
  C          -5.42879395000000     -1.69555867000000     -2.18468542000000
  C          -7.23503581000000     -1.70417982000000     -3.94834024000000
  O          -3.88556142000000      0.89433137000000     -3.84188573000000
  C          -4.10567930000000      2.28456623000000     -3.76789728000000
  C          -3.24015686000000      3.05024335000000     -4.75470011000000
  H          -3.55716715000000      4.10612773000000     -4.72982821000000
  O          -1.88773047000000      2.94085546000000     -4.33139543000000
  C          -1.02246732000000      3.72885805000000     -5.11883385000000
  H          -1.35139386000000      4.78418680000000     -5.07834675000000
  O           0.27425887000000      3.60578692000000     -4.64848682000000
  C           0.47307904000000      4.15767921000000     -3.35587423000000
  C          -1.02425800000000      3.22020038000000     -6.54760832000000
  H          -0.66822583000000      2.18327429000000     -6.52224213000000
  O          -0.21199563000000      4.01599736000000     -7.39267367000000
  H          -1.78070770000000      2.99963504000000     -8.92753057000000
  H          -4.69929519000000      0.27622947000000     -8.39966239000000
  H          -5.35880954000000      1.22779394000000    -10.61619267000000
  H          -4.72804158000000      2.47554734000000     -9.53521392000000
  H          -6.47100361000000      2.33611118000000     -9.81916007000000
  H          -6.86389823000000     -0.95974401000000     -7.95765276000000
  H          -6.50189826000000     -0.83204990000000     -9.68262381000000
  H          -7.71273282000000      0.21834124000000     -8.96110058000000
  H          -7.75826441000000      2.99168356000000     -7.68553585000000
  H          -7.20730040000000      3.44672653000000     -4.70932317000000
  H          -8.35140062000000      4.34407552000000     -5.70299234000000
  H          -6.61279027000000      4.47692021000000     -6.01169137000000
  H          -9.59235439000000      2.22821495000000     -6.16917973000000
  H          -8.43467602000000      1.25628148000000     -5.25477022000000
  H          -8.81016092000000      0.83688554000000     -6.92373259000000
  H          -3.29733582000000     -0.84516612000000     -6.22317060000000
  H          -3.63233468000000     -3.27838531000000     -6.49376598000000
  H          -5.19376924000000     -2.45678322000000     -6.57585200000000
  H          -4.71806780000000     -3.31789538000000     -5.10995962000000
  H          -1.98398239000000     -0.88678295000000     -4.10258069000000
  H          -1.76041676000000     -2.37630774000000     -5.03536196000000
  H          -2.80008748000000     -2.37075424000000     -3.61356135000000
  H          -6.52270047000000      0.01156904000000     -2.88481218000000
  H          -5.00847984000000     -2.63263657000000     -2.55917520000000
  H          -6.16272992000000     -1.95347844000000     -1.41687109000000
  H          -4.62197989000000     -1.13568755000000     -1.70805941000000
  H          -6.87587668000000     -2.64761049000000     -4.36495674000000
  H          -7.72566178000000     -1.15310906000000     -4.75208003000000
  H          -7.98905389000000     -1.94948717000000     -3.19572488000000
  H          -3.84422351000000      2.62182095000000     -2.76270549000000
  H          -5.15306387000000      2.54171541000000     -3.96042057000000
  H          -0.12672576000000      3.63318813000000     -2.61242450000000
  H           0.21840627000000      5.22201776000000     -3.34449812000000
  H           1.52744940000000      4.03790664000000     -3.12380744000000
  H           0.67358116000000      4.03448767000000     -7.01206003000000
