68
Coordinates from ORCA-job goat_0_47
  O          -2.73014832000000      3.47932442000000     -8.38122313000000
  C          -2.61902418000000      3.77301848000000     -6.99873606000000
  H          -2.89278638000000      4.81922685000000     -6.80700182000000
  C          -3.50215230000000      2.88128983000000     -6.15234620000000
  H          -3.13049532000000      1.85164738000000     -6.20650372000000
  O          -4.83686026000000      2.96490109000000     -6.62343696000000
  Si         -5.81846766000000      1.63999377000000     -6.84252998000000
  C          -5.44085885000000      0.84827334000000     -8.49887112000000
  C          -6.08686868000000      1.61288142000000     -9.66028676000000
  C          -5.79774489000000     -0.63971555000000     -8.56001539000000
  C          -7.55576432000000      2.30783826000000     -6.67293413000000
  C          -7.68468055000000      3.20274439000000     -5.43501283000000
  C          -8.59830570000000      1.18412675000000     -6.64960981000000
  O          -5.50801423000000      0.54653873000000     -5.66417415000000
  Si         -4.56377479000000     -0.09600873000000     -4.47920308000000
  C          -3.36814197000000     -1.35751647000000     -5.15876462000000
  C          -2.55490178000000     -1.98777182000000     -4.02032276000000
  C          -2.43781053000000     -0.77597175000000     -6.22696231000000
  C          -5.73061405000000     -0.84946772000000     -3.22772676000000
  C          -6.48955118000000     -2.03320815000000     -3.83891231000000
  C          -6.71342154000000      0.18430208000000     -2.67288502000000
  O          -3.64863137000000      1.11789561000000     -3.82379288000000
  C          -4.08480934000000      2.45939861000000     -3.70110171000000
  C          -3.44908307000000      3.39774054000000     -4.71791004000000
  H          -4.04531566000000      4.31797290000000     -4.70290062000000
  O          -2.12935058000000      3.78935092000000     -4.32948132000000
  C          -1.03273087000000      3.33519751000000     -5.08800310000000
  H          -0.19353220000000      3.93160170000000     -4.71725318000000
  O          -0.78533436000000      1.96997023000000     -4.89866285000000
  C          -0.44032992000000      1.64339588000000     -3.56266118000000
  C          -1.17277944000000      3.56125321000000     -6.59834920000000
  H          -0.82191498000000      2.65012097000000     -7.09313564000000
  O          -0.35908363000000      4.66837006000000     -6.95140426000000
  H          -3.66747638000000      3.52317132000000     -8.60672239000000
  H          -4.35072540000000      0.93781938000000     -8.60656456000000
  H          -5.75290949000000      1.20918603000000    -10.61853719000000
  H          -5.84471518000000      2.67895851000000     -9.64835268000000
  H          -7.17645355000000      1.52711761000000     -9.63200205000000
  H          -5.47531706000000     -1.07116886000000     -9.51061357000000
  H          -6.87622549000000     -0.79700352000000     -8.48074427000000
  H          -5.32295089000000     -1.20221628000000     -7.75508369000000
  H          -7.73798749000000      2.92645407000000     -7.56102754000000
  H          -6.96774918000000      4.02435371000000     -5.45727651000000
  H          -7.51124850000000      2.63019856000000     -4.51976648000000
  H          -8.68957493000000      3.62678230000000     -5.36544961000000
  H          -9.60640968000000      1.59196367000000     -6.54050454000000
  H          -8.42508704000000      0.50961251000000     -5.80727374000000
  H          -8.58228653000000      0.58425272000000     -7.56201884000000
  H          -3.97985113000000     -2.14355380000000     -5.62062314000000
  H          -1.84380176000000     -2.71858302000000     -4.41311118000000
  H          -3.18722069000000     -2.49780228000000     -3.29037295000000
  H          -1.98258998000000     -1.22480512000000     -3.48776879000000
  H          -2.99301086000000     -0.36547287000000     -7.07484208000000
  H          -1.76957354000000     -1.54958963000000     -6.61487222000000
  H          -1.81781157000000      0.02109675000000     -5.81170603000000
  H          -5.11639856000000     -1.22134467000000     -2.39879055000000
  H          -7.17621036000000     -2.46754772000000     -3.10873939000000
  H          -5.82167816000000     -2.82703863000000     -4.17932842000000
  H          -7.08498026000000     -1.71111784000000     -4.69717226000000
  H          -6.20557364000000      1.02094233000000     -2.18891706000000
  H          -7.37892619000000     -0.27229677000000     -1.93686904000000
  H          -7.34016222000000      0.58622285000000     -3.47262315000000
  H          -3.82281003000000      2.82506252000000     -2.70527187000000
  H          -5.17325470000000      2.53450904000000     -3.81051193000000
  H           0.43521632000000      2.21898537000000     -3.24300080000000
  H          -0.19618944000000      0.58352071000000     -3.55248520000000
  H          -1.26993784000000      1.82845886000000     -2.87946868000000
  H          -0.43689569000000      4.79293738000000     -7.90369256000000
