68
Coordinates from ORCA-job goat_0_49
  O          -2.11782300000000      2.86702984000000     -8.08490067000000
  C          -2.66396683000000      3.66033378000000     -7.04470998000000
  H          -3.32582529000000      4.38601160000000     -7.51987554000000
  C          -3.50681273000000      2.81034122000000     -6.09061445000000
  H          -3.10793903000000      1.79070867000000     -6.11277960000000
  O          -4.86028509000000      2.83924693000000     -6.49833838000000
  Si         -5.79413780000000      1.51973661000000     -6.85515704000000
  C          -5.27950061000000      0.78470911000000     -8.49429280000000
  C          -5.73467482000000      1.64142983000000     -9.67936775000000
  C          -5.70506519000000     -0.67366095000000     -8.68232786000000
  C          -7.54224629000000      2.17088765000000     -6.79184727000000
  C          -7.75265201000000      3.10867506000000     -5.59961290000000
  C          -8.57335225000000      1.03923791000000     -6.77906938000000
  O          -5.56828309000000      0.37335540000000     -5.69855669000000
  Si         -4.70484599000000     -0.17561064000000     -4.41527525000000
  C          -3.45794122000000     -1.46396461000000     -4.93552589000000
  C          -2.64252862000000     -1.95323805000000     -3.73325157000000
  C          -2.52325942000000     -0.95444792000000     -6.03459126000000
  C          -5.94782950000000     -0.85819006000000     -3.19670277000000
  C          -6.70722764000000     -2.04836902000000     -3.79645492000000
  C          -6.94138606000000      0.20688398000000     -2.72586886000000
  O          -3.80569726000000      1.06232388000000     -3.78630916000000
  C          -4.20021914000000      2.41911946000000     -3.68898815000000
  C          -3.43497792000000      3.30798132000000     -4.65090905000000
  H          -3.87905909000000      4.30788781000000     -4.60943056000000
  O          -2.08542610000000      3.38002033000000     -4.17534873000000
  C          -1.08498481000000      3.62968071000000     -5.11420992000000
  H          -0.29053547000000      4.14717023000000     -4.55950058000000
  O          -0.56166264000000      2.44136444000000     -5.66532447000000
  C           0.07915454000000      1.61954871000000     -4.69955293000000
  C          -1.57887094000000      4.44351869000000     -6.30145489000000
  H          -0.74566284000000      4.60711336000000     -6.98963191000000
  O          -2.15106109000000      5.67021823000000     -5.87910173000000
  H          -1.45977329000000      2.28693667000000     -7.67839849000000
  H          -4.18217659000000      0.82340767000000     -8.46732719000000
  H          -6.82456309000000      1.64653014000000     -9.77058601000000
  H          -5.33614501000000      1.24273790000000    -10.61559359000000
  H          -5.39762462000000      2.67557006000000     -9.58914590000000
  H          -6.79124357000000     -0.76561888000000     -8.76536305000000
  H          -5.38256851000000     -1.30327443000000     -7.85147632000000
  H          -5.27882104000000     -1.08121174000000     -9.60312761000000
  H          -7.67684221000000      2.75511533000000     -7.71017418000000
  H          -7.62813765000000      2.57450669000000     -4.65365560000000
  H          -8.76593485000000      3.51870058000000     -5.60316713000000
  H          -7.04676107000000      3.93877636000000     -5.61348502000000
  H          -8.43429962000000      0.39722910000000     -5.90539042000000
  H          -8.50707856000000      0.40835497000000     -7.66724614000000
  H          -9.58844796000000      1.44141171000000     -6.73034633000000
  H          -4.03235066000000     -2.30887142000000     -5.33558473000000
  H          -3.27059410000000     -2.40196796000000     -2.96138678000000
  H          -2.09365200000000     -1.12553256000000     -3.27716969000000
  H          -1.91001417000000     -2.70329196000000     -4.04270122000000
  H          -1.82429368000000     -1.73770953000000     -6.34143697000000
  H          -1.92913421000000     -0.11019088000000     -5.67501396000000
  H          -3.07059013000000     -0.63171841000000     -6.92279589000000
  H          -5.37990749000000     -1.20923598000000     -2.32699541000000
  H          -7.44516635000000     -2.43172455000000     -3.08622425000000
  H          -6.04456501000000     -2.87404078000000     -4.06287510000000
  H          -7.24974907000000     -1.75053430000000     -4.69820168000000
  H          -7.64919501000000     -0.21385251000000     -2.00643401000000
  H          -7.52827167000000      0.58598425000000     -3.56643881000000
  H          -6.44572468000000      1.05357523000000     -2.24719943000000
  H          -3.99920140000000      2.76109361000000     -2.67187656000000
  H          -5.26978534000000      2.54181820000000     -3.88118841000000
  H           0.91634294000000      2.15569603000000     -4.24012701000000
  H           0.45979387000000      0.74665037000000     -5.22454009000000
  H          -0.62461382000000      1.30970706000000     -3.92488452000000
  H          -1.48438519000000      6.18870049000000     -5.41777958000000
