68
Coordinates from ORCA-job goat_0_81
  O          -2.59032520000000      2.88379020000000     -8.27083401000000
  C          -2.60962167000000      3.52140891000000     -7.00650624000000
  H          -3.04128283000000      4.52650623000000     -7.09869948000000
  C          -3.49116994000000      2.70782318000000     -6.08146354000000
  H          -3.13218312000000      1.67131524000000     -6.10941123000000
  O          -4.83482032000000      2.81077270000000     -6.49464705000000
  Si         -5.84089085000000      1.53001776000000     -6.80532741000000
  C          -5.49022403000000      0.83652308000000     -8.50563965000000
  C          -5.62875847000000      1.89921428000000     -9.60159296000000
  C          -6.31046203000000     -0.40943635000000     -8.85660887000000
  C          -7.57007768000000      2.20292643000000     -6.55898412000000
  C          -7.65337420000000      3.18214961000000     -5.38325571000000
  C          -8.60097721000000      1.08239806000000     -6.37797514000000
  O          -5.53537309000000      0.35643030000000     -5.69657587000000
  Si         -4.61795123000000     -0.24174828000000     -4.47399112000000
  C          -3.27515666000000     -1.37110597000000     -5.12786008000000
  C          -3.71348271000000     -2.28595581000000     -6.27377337000000
  C          -2.61105886000000     -2.17330565000000     -4.00205423000000
  C          -5.79774626000000     -1.03363577000000     -3.25628679000000
  C          -6.66189804000000     -2.12136712000000     -3.90378429000000
  C          -6.69238577000000      0.01536893000000     -2.58852028000000
  O          -3.77659169000000      0.98834382000000     -3.75116500000000
  C          -4.15111011000000      2.34517162000000     -3.65670953000000
  C          -3.39460972000000      3.22037343000000     -4.64155171000000
  H          -3.84633296000000      4.22492441000000     -4.61301984000000
  O          -2.04189010000000      3.29888219000000     -4.21397331000000
  C          -1.28703835000000      4.18114536000000     -5.00726954000000
  H          -1.75034384000000      5.17727121000000     -5.01782110000000
  O          -0.02683413000000      4.37359123000000     -4.44374384000000
  C           0.67318618000000      3.18773860000000     -4.07608960000000
  C          -1.21216025000000      3.64992658000000     -6.43330583000000
  H          -0.74672273000000      2.65634850000000     -6.42516836000000
  O          -0.49035164000000      4.53637070000000     -7.27176048000000
  H          -1.96617145000000      3.36116767000000     -8.82970589000000
  H          -4.43063559000000      0.55034367000000     -8.44903364000000
  H          -5.34925830000000      1.48033111000000    -10.57252639000000
  H          -4.98852459000000      2.75951565000000     -9.40710500000000
  H          -6.66299124000000      2.24646019000000     -9.68471839000000
  H          -7.35885723000000     -0.15130153000000     -9.02371429000000
  H          -6.27462561000000     -1.17048522000000     -8.07472658000000
  H          -5.94215095000000     -0.85869121000000     -9.78270000000000
  H          -7.80744303000000      2.75546386000000     -7.47733549000000
  H          -7.45127724000000      2.67159993000000     -4.43703794000000
  H          -8.65805659000000      3.60698554000000     -5.31104431000000
  H          -6.94084724000000      4.00054744000000     -5.48245706000000
  H          -8.36385880000000      0.48134782000000     -5.49595372000000
  H          -8.64314634000000      0.40857662000000     -7.23417566000000
  H          -9.59919568000000      1.50415712000000     -6.23415546000000
  H          -2.52826755000000     -0.66892901000000     -5.52186922000000
  H          -4.45903224000000     -3.01356816000000     -5.94518465000000
  H          -2.85890880000000     -2.84995876000000     -6.65689342000000
  H          -4.14267025000000     -1.72156343000000     -7.10319778000000
  H          -1.76317518000000     -2.74567282000000     -4.38719832000000
  H          -3.31090499000000     -2.88896441000000     -3.56205444000000
  H          -2.24434792000000     -1.52777412000000     -3.20147795000000
  H          -5.17255770000000     -1.49401919000000     -2.48117456000000
  H          -7.36174661000000     -2.53457554000000     -3.17244266000000
  H          -6.06772400000000     -2.94818324000000     -4.29558693000000
  H          -7.24883019000000     -1.71170360000000     -4.73033267000000
  H          -7.36221256000000     -0.45730368000000     -1.86523191000000
  H          -7.31820280000000      0.52064668000000     -3.32933814000000
  H          -6.11286346000000      0.77447294000000     -2.06078842000000
  H          -3.91784832000000      2.70098351000000     -2.65069793000000
  H          -5.22168171000000      2.48303366000000     -3.83383301000000
  H           1.57180709000000      3.52389847000000     -3.56757871000000
  H           0.96160694000000      2.59097563000000     -4.94524195000000
  H           0.07853488000000      2.57489760000000     -3.40106810000000
  H           0.29402472000000      4.82789122000000     -6.79126983000000
