68
Coordinates from ORCA-job goat_0_1
  O          -2.99298939000000      3.08367024000000     -8.43654144000000
  C          -2.87590584000000      3.56901064000000     -7.11365013000000
  H          -3.33845093000000      4.56274913000000     -7.03707555000000
  C          -3.61384150000000      2.63348440000000     -6.17398531000000
  H          -3.22762578000000      1.61685477000000     -6.31819271000000
  O          -4.99972826000000      2.70484414000000     -6.42726106000000
  Si         -5.99595069000000      1.41170393000000     -6.71788731000000
  C          -5.98930395000000      0.83661934000000     -8.49438292000000
  C          -7.13966427000000     -0.14897189000000     -8.73953339000000
  C          -4.65716025000000      0.19445278000000     -8.89097441000000
  C          -7.68664966000000      2.00446960000000     -6.18607276000000
  C          -8.17477229000000      3.13467357000000     -7.10074280000000
  C          -7.70177574000000      2.45570086000000     -4.72471824000000
  O          -5.47546041000000      0.15731652000000     -5.79439488000000
  Si         -4.61928418000000     -0.40549161000000     -4.51005781000000
  C          -3.42694343000000     -1.73779104000000     -5.05328537000000
  C          -2.28633928000000     -1.13913655000000     -5.88695668000000
  C          -4.12033740000000     -2.87729203000000     -5.80798352000000
  C          -5.86683031000000     -0.92746875000000     -3.21265544000000
  C          -5.22726639000000     -1.78198485000000     -2.11470390000000
  C          -7.10270490000000     -1.61493002000000     -3.79930980000000
  O          -3.64041790000000      0.78579907000000     -3.91041960000000
  C          -4.00312757000000      2.13264511000000     -3.70348914000000
  C          -3.35600702000000      3.05283911000000     -4.72235697000000
  H          -3.79011904000000      4.05646240000000     -4.58036648000000
  O          -1.95893978000000      3.08588814000000     -4.46392749000000
  C          -1.30244229000000      4.05457868000000     -5.25193746000000
  H          -1.75942997000000      5.04554100000000     -5.07126429000000
  O           0.04390162000000      4.07596440000000     -4.93204165000000
  C           0.31260943000000      4.57781948000000     -3.63124000000000
  C          -1.41894942000000      3.67941447000000     -6.71511713000000
  H          -0.93626279000000      2.70258534000000     -6.84092391000000
  O          -0.83066680000000      4.65421715000000     -7.55847020000000
  H          -2.41507709000000      3.62081691000000     -8.99175035000000
  H          -6.14693134000000      1.72453730000000     -9.11839884000000
  H          -7.13007351000000     -0.49345712000000     -9.77644422000000
  H          -8.12173942000000      0.28592775000000     -8.54303438000000
  H          -7.03355915000000     -1.03150141000000     -8.10244881000000
  H          -4.47571667000000     -0.69991981000000     -8.28992628000000
  H          -3.81758025000000      0.87786804000000     -8.76259334000000
  H          -4.68276620000000     -0.11579331000000     -9.93925849000000
  H          -8.36775548000000      1.15142989000000     -6.29264454000000
  H          -9.16312614000000      3.48267636000000     -6.79072611000000
  H          -8.24242249000000      2.82548575000000     -8.14573003000000
  H          -7.49527167000000      3.98838974000000     -7.05277615000000
  H          -8.70485158000000      2.77035900000000     -4.42614697000000
  H          -7.03373083000000      3.30857896000000     -4.58243645000000
  H          -7.38524168000000      1.65916135000000     -4.04670457000000
  H          -2.99331062000000     -2.15166962000000     -4.13409696000000
  H          -1.76849500000000     -0.34683235000000     -5.34441313000000
  H          -2.66633979000000     -0.71603177000000     -6.82114300000000
  H          -1.55671252000000     -1.90914472000000     -6.15293243000000
  H          -3.39293720000000     -3.62839894000000     -6.12718106000000
  H          -4.62216000000000     -2.50681165000000     -6.70500032000000
  H          -4.86991606000000     -3.38461006000000     -5.19733416000000
  H          -6.19541709000000      0.01466459000000     -2.75128840000000
  H          -4.89926523000000     -2.74762097000000     -2.50816051000000
  H          -5.94464628000000     -1.98378018000000     -1.31590559000000
  H          -4.35853518000000     -1.29300609000000     -1.67000532000000
  H          -7.84132159000000     -1.80871133000000     -3.01775061000000
  H          -6.84851899000000     -2.57700947000000     -4.25039065000000
  H          -7.57575464000000     -1.00652873000000     -4.57111730000000
  H          -3.66141693000000      2.43592430000000     -2.71074538000000
  H          -5.08784536000000      2.27613984000000     -3.74750834000000
  H           1.39317765000000      4.60701997000000     -3.52482818000000
  H          -0.11339503000000      3.92733821000000     -2.86722537000000
  H          -0.09114715000000      5.58899603000000     -3.51692410000000
  H           0.09657702000000      4.73005604000000     -7.30732991000000
