68
Coordinates from ORCA-job goat_0_99
  O          -3.00673360000000      3.79572370000000     -8.37688790000000
  C          -2.83210124000000      3.91524461000000     -6.97446385000000
  H          -3.24616760000000      4.87470372000000     -6.63170645000000
  C          -3.52412015000000      2.81064149000000     -6.19699481000000
  H          -3.10838025000000      1.83580806000000     -6.47734432000000
  O          -4.90931545000000      2.88512403000000     -6.47183283000000
  Si         -5.96013040000000      1.63186103000000     -6.77630478000000
  C          -5.80561039000000      0.99375058000000     -8.53113300000000
  C          -6.66108339000000     -0.25885291000000     -8.76189856000000
  C          -4.35148514000000      0.65911053000000     -8.88706846000000
  C          -7.60368111000000      2.40344722000000     -6.33382922000000
  C          -7.64758115000000      2.73665199000000     -4.83823706000000
  C          -8.83921651000000      1.59746544000000     -6.73563447000000
  O          -5.61116773000000      0.37505097000000     -5.78711400000000
  Si         -4.60731467000000     -0.38478205000000     -4.72864287000000
  C          -3.46338842000000     -1.57679462000000     -5.59180754000000
  C          -4.17596099000000     -2.76976969000000     -6.23105473000000
  C          -2.35533999000000     -2.04841904000000     -4.64352089000000
  C          -5.69978552000000     -1.20152190000000     -3.44217234000000
  C          -7.03243324000000     -1.67230198000000     -4.03616862000000
  C          -5.95145548000000     -0.29448407000000     -2.23489785000000
  O          -3.58325565000000      0.73404460000000     -4.07536236000000
  C          -3.88953692000000      2.07473717000000     -3.76513578000000
  C          -3.22058304000000      3.04615347000000     -4.71693854000000
  H          -3.57527947000000      4.05349914000000     -4.44589440000000
  O          -1.81913588000000      2.95274504000000     -4.53833473000000
  C          -1.08010472000000      3.95946170000000     -5.21393460000000
  H          -1.36887753000000      4.94882306000000     -4.81457833000000
  O           0.26025448000000      3.71990945000000     -5.01086062000000
  C           0.69698824000000      3.97972977000000     -3.68851788000000
  C          -1.34140207000000      3.91048900000000     -6.70969427000000
  H          -0.90781710000000      2.97679618000000     -7.08953915000000
  O          -0.72404699000000      5.03352867000000     -7.30054874000000
  H          -3.95459491000000      3.83265005000000     -8.55077945000000
  H          -6.15802338000000      1.78865997000000     -9.20138336000000
  H          -7.72823122000000     -0.08070907000000     -8.64301291000000
  H          -6.37454739000000     -1.04881670000000     -8.06406738000000
  H          -6.49772310000000     -0.64600823000000     -9.77093409000000
  H          -3.97676956000000     -0.14173985000000     -8.24363008000000
  H          -3.67931967000000      1.51159694000000     -8.80011761000000
  H          -4.29017209000000      0.29020937000000     -9.91405920000000
  H          -7.62131188000000      3.35174121000000     -6.88575304000000
  H          -8.58251148000000      3.24301481000000     -4.58400639000000
  H          -6.82473606000000      3.39093540000000     -4.54648099000000
  H          -7.59747927000000      1.82722375000000     -4.23244653000000
  H          -9.74567701000000      2.09061975000000     -6.37564192000000
  H          -8.82417777000000      0.59270054000000     -6.30582418000000
  H          -8.92794447000000      1.49904153000000     -7.81728907000000
  H          -2.98916239000000     -0.98865560000000     -6.38738756000000
  H          -3.46134543000000     -3.39676081000000     -6.77078338000000
  H          -4.94789947000000     -2.46143041000000     -6.93861771000000
  H          -4.64837838000000     -3.40169099000000     -5.47376863000000
  H          -1.64330023000000     -2.68643720000000     -5.17298461000000
  H          -2.76322194000000     -2.63976904000000     -3.81866944000000
  H          -1.80951818000000     -1.20672621000000     -4.21819947000000
  H          -5.14714379000000     -2.08325204000000     -3.09319368000000
  H          -7.63924462000000     -2.16999564000000     -3.27495631000000
  H          -6.89836036000000     -2.36852585000000     -4.86617540000000
  H          -7.60952026000000     -0.82294647000000     -4.40950130000000
  H          -6.55555112000000     -0.80804900000000     -1.48276062000000
  H          -6.50591513000000      0.60250198000000     -2.52463086000000
  H          -5.02040205000000      0.02254199000000     -1.76391037000000
  H          -3.53450683000000      2.28865993000000     -2.75387438000000
  H          -4.96797440000000      2.25576547000000     -3.78561879000000
  H           1.76423345000000      3.77334163000000     -3.66745557000000
  H           0.18640039000000      3.33582191000000     -2.97035639000000
  H           0.52688927000000      5.02970920000000     -3.42792268000000
  H          -0.97967016000000      5.03798323000000     -8.22997265000000
