68
Coordinates from ORCA-job goat_0_63
  O          -2.78519379000000      3.00706978000000     -8.35490258000000
  C          -2.79163628000000      3.48467460000000     -7.01891635000000
  H          -3.20230729000000      4.50430816000000     -6.98960578000000
  C          -3.62557140000000      2.60803911000000     -6.10931602000000
  H          -3.23105963000000      1.58786790000000     -6.14200180000000
  O          -4.96717639000000      2.65114015000000     -6.55882734000000
  Si         -6.01507100000000      1.36336620000000     -6.64513507000000
  C          -6.07122291000000      0.63414199000000     -8.36546275000000
  C          -4.74006181000000     -0.02321818000000     -8.74370179000000
  C          -6.50736304000000      1.63792572000000     -9.43568561000000
  C          -7.64915514000000      2.02853138000000     -6.03136322000000
  C          -8.80460892000000      1.04990194000000     -6.25573999000000
  C          -7.99238391000000      3.42319407000000     -6.56243310000000
  O          -5.47705413000000      0.17837997000000     -5.65087947000000
  Si         -4.63175898000000     -0.32999962000000     -4.33333840000000
  C          -3.28378259000000     -1.52794985000000     -4.81021581000000
  C          -2.19434895000000     -0.88079312000000     -5.66999050000000
  C          -3.83430332000000     -2.78972106000000     -5.48189068000000
  C          -5.86537889000000     -1.08532545000000     -3.14912624000000
  C          -6.88343368000000     -0.05321709000000     -2.65439254000000
  C          -5.18014692000000     -1.76942172000000     -1.96276696000000
  O          -3.84890053000000      0.95625023000000     -3.65711287000000
  C          -4.25534384000000      2.30742065000000     -3.65165387000000
  C          -3.50535072000000      3.13279762000000     -4.67948148000000
  H          -3.92505794000000      4.15089772000000     -4.65118742000000
  O          -2.14230547000000      3.15755516000000     -4.30323776000000
  C          -1.34497562000000      4.02420313000000     -5.09625385000000
  H          -1.75653932000000      5.04264266000000     -5.06860261000000
  O          -0.09447137000000      4.11648939000000     -4.52139631000000
  C           0.65929764000000      2.91163399000000     -4.48467913000000
  C          -1.35537620000000      3.52133369000000     -6.53957440000000
  H          -0.95420025000000      2.49918680000000     -6.57317456000000
  O          -0.57464560000000      4.39269761000000     -7.32604360000000
  H          -3.70126037000000      2.99547359000000     -8.65739716000000
  H          -6.83270599000000     -0.15487876000000     -8.31218347000000
  H          -3.92341221000000      0.70329424000000     -8.77630085000000
  H          -4.80335637000000     -0.48195391000000     -9.73403149000000
  H          -4.46492699000000     -0.80186518000000     -8.03186072000000
  H          -7.52438667000000      1.99658669000000     -9.27409400000000
  H          -6.47135384000000      1.18244092000000    -10.42826704000000
  H          -5.85346626000000      2.51453190000000     -9.46228290000000
  H          -7.49433359000000      2.12390814000000     -4.94814193000000
  H          -9.01794512000000      0.92625942000000     -7.32110123000000
  H          -9.71861695000000      1.42073068000000     -5.78490505000000
  H          -8.59348802000000      0.06133971000000     -5.84166478000000
  H          -7.18191033000000      4.12985184000000     -6.38437562000000
  H          -8.89153587000000      3.80582046000000     -6.07299593000000
  H          -8.19313527000000      3.40945102000000     -7.63555188000000
  H          -2.82367993000000     -1.81982603000000     -3.85753612000000
  H          -1.77425800000000      0.00184444000000     -5.18412899000000
  H          -2.58374054000000     -0.58318692000000     -6.64774516000000
  H          -1.37956377000000     -1.58596623000000     -5.85417656000000
  H          -3.02248813000000     -3.47980367000000     -5.72651644000000
  H          -4.34727994000000     -2.54916859000000     -6.41689598000000
  H          -4.54189730000000     -3.32296355000000     -4.84330816000000
  H          -6.40657095000000     -1.84738821000000     -3.72481697000000
  H          -6.39365786000000      0.73824997000000     -2.07976933000000
  H          -7.61847866000000     -0.51973377000000     -1.99285726000000
  H          -7.42996118000000      0.41020990000000     -3.47789466000000
  H          -4.52603943000000     -2.58379353000000     -2.27922528000000
  H          -5.92265440000000     -2.18739221000000     -1.27794419000000
  H          -4.57605172000000     -1.05816711000000     -1.39333968000000
  H          -4.04429257000000      2.72125205000000     -2.66383599000000
  H          -5.33082768000000      2.41008669000000     -3.83307996000000
  H           0.06130287000000      2.08287254000000     -4.10153635000000
  H           1.48878485000000      3.09549786000000     -3.80552754000000
  H           1.05736438000000      2.66221692000000     -5.47178805000000
  H          -0.76134799000000      4.18294504000000     -8.24905341000000
