68
Coordinates from ORCA-job goat_0_74
  O          -2.36024354000000      2.92331110000000     -8.13569027000000
  C          -2.83411937000000      3.70549928000000     -7.05227478000000
  H          -3.54360487000000      4.42136305000000     -7.46995854000000
  C          -3.58170402000000      2.83891692000000     -6.03889123000000
  H          -3.15284105000000      1.83319585000000     -6.08336828000000
  O          -4.96072421000000      2.81595057000000     -6.34766345000000
  Si         -5.83964376000000      1.44878418000000     -6.67049816000000
  C          -5.42021977000000      0.78540198000000     -8.36620346000000
  C          -5.89535809000000      1.69218753000000     -9.50403002000000
  C          -5.88088306000000     -0.65783633000000     -8.58863865000000
  C          -7.59523982000000      1.98538061000000     -6.33376294000000
  C          -8.63070370000000      0.90499277000000     -6.65004605000000
  C          -7.96075217000000      3.32202839000000     -6.98488889000000
  O          -5.42813920000000      0.27862134000000     -5.59018307000000
  Si         -4.51132325000000     -0.19228919000000     -4.31430099000000
  C          -3.23872565000000     -1.44736608000000     -4.85822138000000
  C          -2.49428255000000     -0.97852787000000     -6.11249648000000
  C          -3.84243488000000     -2.83587921000000     -5.08784402000000
  C          -5.68542798000000     -0.86220927000000     -3.02462524000000
  C          -6.79883654000000      0.12947866000000     -2.67586991000000
  C          -4.94925391000000     -1.31207045000000     -1.76043326000000
  O          -3.63112117000000      1.08764816000000     -3.74336732000000
  C          -4.09031061000000      2.42077701000000     -3.60542526000000
  C          -3.42931322000000      3.34552212000000     -4.60914756000000
  H          -3.90634100000000      4.32836311000000     -4.53773206000000
  O          -2.05522979000000      3.46811609000000     -4.22376378000000
  C          -1.12502397000000      3.69936395000000     -5.23593727000000
  H          -0.29146361000000      4.22021149000000     -4.74550753000000
  O          -0.64703206000000      2.50291464000000     -5.81015681000000
  C           0.00159583000000      1.65710831000000     -4.86914998000000
  C          -1.70542794000000      4.50169824000000     -6.39230498000000
  H          -0.92439259000000      4.66763581000000     -7.13869378000000
  O          -2.25776590000000      5.72575651000000     -5.93774536000000
  H          -1.66562390000000      2.35059205000000     -7.78317595000000
  H          -4.32167071000000      0.79989321000000     -8.37780685000000
  H          -5.55283523000000      2.72019426000000     -9.37630821000000
  H          -6.98611684000000      1.70171766000000     -9.57414589000000
  H          -5.51618333000000      1.33219160000000    -10.46371160000000
  H          -5.49415179000000     -1.04183836000000     -9.53648699000000
  H          -6.97059500000000     -0.72641857000000     -8.63517721000000
  H          -5.54005599000000     -1.32037178000000     -7.79147223000000
  H          -7.59372383000000      2.14188055000000     -5.24596467000000
  H          -8.70256340000000      0.73015621000000     -7.72652024000000
  H          -9.62248420000000      1.20931062000000     -6.30542442000000
  H          -8.38687397000000     -0.04647908000000     -6.17224386000000
  H          -7.24004936000000      4.09844121000000     -6.72852157000000
  H          -8.94908122000000      3.65132438000000     -6.65338501000000
  H          -7.99393500000000      3.24288323000000     -8.07327692000000
  H          -2.51622617000000     -1.51486243000000     -4.03559789000000
  H          -3.18111387000000     -0.87096378000000     -6.95683560000000
  H          -1.73257431000000     -1.70630820000000     -6.40672662000000
  H          -1.99606003000000     -0.02013276000000     -5.95584012000000
  H          -3.07001677000000     -3.54045718000000     -5.40747877000000
  H          -4.60324254000000     -2.81294300000000     -5.87325517000000
  H          -4.30639449000000     -3.23844981000000     -4.18573001000000
  H          -6.15250319000000     -1.74091965000000     -3.48824053000000
  H          -7.51272178000000     -0.31901684000000     -1.97952615000000
  H          -7.35143430000000      0.44666994000000     -3.56211584000000
  H          -6.39516290000000      1.02066074000000     -2.18703151000000
  H          -5.65140450000000     -1.72188451000000     -1.02962032000000
  H          -4.43768648000000     -0.47000471000000     -1.28718485000000
  H          -4.20050979000000     -2.07921373000000     -1.96908800000000
  H          -3.84160498000000      2.76688272000000     -2.60030508000000
  H          -5.17509349000000      2.49144985000000     -3.72791421000000
  H           0.84205934000000      2.18149324000000     -4.40249035000000
  H           0.37851695000000      0.79878896000000     -5.42021121000000
  H          -0.69670309000000      1.32787794000000     -4.09775385000000
  H          -1.56995238000000      6.24458676000000     -5.50883154000000
