68
Coordinates from ORCA-job goat_0_87
  O          -4.09046920000000      4.71217056000000     -7.54205725000000
  C          -3.46087047000000      4.24347867000000     -6.36477928000000
  H          -4.00250841000000      4.59707302000000     -5.47676731000000
  C          -3.52245544000000      2.72580023000000     -6.36266788000000
  H          -3.15375664000000      2.36922131000000     -7.33260659000000
  O          -4.86268873000000      2.34800617000000     -6.15507150000000
  Si         -5.78952914000000      1.10648514000000     -6.72753360000000
  C          -5.53716575000000      0.76611606000000     -8.55350046000000
  C          -4.24749216000000     -0.01320832000000     -8.84347875000000
  C          -5.62043945000000      2.02458599000000     -9.42712802000000
  C          -7.52269422000000      1.57295819000000     -6.21505804000000
  C          -8.51466050000000      0.42342342000000     -6.40736692000000
  C          -8.03418131000000      2.87033807000000     -6.84679632000000
  O          -5.38269802000000     -0.27715354000000     -5.93372185000000
  Si         -4.72285703000000     -0.78260654000000     -4.51633337000000
  C          -4.52838272000000     -2.63186333000000     -4.67001933000000
  C          -3.55528719000000     -2.98731522000000     -5.79700145000000
  C          -5.88648839000000     -3.30467683000000     -4.89883124000000
  C          -5.76376219000000     -0.27040581000000     -3.04637701000000
  C          -5.56033485000000      1.21680048000000     -2.73359193000000
  C          -5.47632453000000     -1.11692887000000     -1.80099945000000
  O          -3.25507881000000     -0.04203935000000     -4.32784774000000
  C          -2.50311792000000      0.61240122000000     -5.32792153000000
  C          -2.64434423000000      2.13716004000000     -5.24975398000000
  H          -3.10065347000000      2.38736471000000     -4.28142695000000
  O          -1.33060018000000      2.68019953000000     -5.32623117000000
  C          -1.32151172000000      4.07692264000000     -5.12514428000000
  H          -1.82527454000000      4.31156403000000     -4.16875671000000
  O          -0.01401417000000      4.53036432000000     -5.11188441000000
  C           0.71899912000000      4.10426704000000     -3.97201398000000
  C          -2.03372202000000      4.74423316000000     -6.28237835000000
  H          -1.49666184000000      4.47107301000000     -7.19878692000000
  O          -2.09747927000000      6.15073980000000     -6.12858042000000
  H          -3.97354559000000      5.66908009000000     -7.56953104000000
  H          -6.37880067000000      0.11020537000000     -8.81862693000000
  H          -3.36182577000000      0.60789402000000     -8.68253640000000
  H          -4.22259984000000     -0.33641360000000     -9.88764770000000
  H          -4.15673099000000     -0.89794257000000     -8.21195185000000
  H          -4.88005017000000      2.77104758000000     -9.13196584000000
  H          -6.59825873000000      2.50308717000000     -9.36826453000000
  H          -5.44127448000000      1.77198914000000    -10.47604424000000
  H          -7.42606640000000      1.74716144000000     -5.13502266000000
  H          -8.67075164000000      0.19886210000000     -7.46566918000000
  H          -9.48720167000000      0.68605176000000     -5.98535527000000
  H          -8.17398442000000     -0.49253501000000     -5.92128391000000
  H          -8.25903194000000      2.73520908000000     -7.90689692000000
  H          -7.30688983000000      3.67919765000000     -6.76036225000000
  H          -8.95897129000000      3.19077640000000     -6.36147958000000
  H          -4.11210975000000     -2.99288214000000     -3.72226168000000
  H          -3.94547610000000     -2.65067802000000     -6.76029377000000
  H          -3.41420120000000     -4.06878872000000     -5.86330831000000
  H          -2.57545623000000     -2.52796894000000     -5.65213040000000
  H          -6.33674945000000     -2.95346399000000     -5.83017310000000
  H          -6.59624207000000     -3.10300318000000     -4.09307785000000
  H          -5.77368410000000     -4.38862800000000     -4.97766886000000
  H          -6.81109450000000     -0.42948033000000     -3.33591933000000
  H          -4.54379333000000      1.38333101000000     -2.37048535000000
  H          -6.25331397000000      1.54935525000000     -1.95654257000000
  H          -5.69819948000000      1.85358741000000     -3.61032781000000
  H          -4.42935359000000     -1.02558738000000     -1.50136198000000
  H          -5.68383855000000     -2.17713583000000     -1.95755931000000
  H          -6.08557908000000     -0.77961663000000     -0.95873184000000
  H          -2.78611810000000      0.25848610000000     -6.32580028000000
  H          -1.44903282000000      0.37504730000000     -5.17384671000000
  H           1.71175144000000      4.53657683000000     -4.05650630000000
  H           0.79433997000000      3.01735803000000     -3.94577457000000
  H           0.24402409000000      4.45935602000000     -3.05185205000000
  H          -1.19344439000000      6.47469572000000     -6.04554565000000
