68
Coordinates from ORCA-job goat_0_40
  O          -2.06291672000000      2.84883434000000     -8.05340137000000
  C          -2.61626490000000      3.63851169000000     -7.01414361000000
  H          -3.28286296000000      4.35611856000000     -7.50064782000000
  C          -3.47332319000000      2.79453384000000     -6.06602849000000
  H          -3.09220095000000      1.76808299000000     -6.09905949000000
  O          -4.82820757000000      2.85136167000000     -6.47149463000000
  Si         -5.77738804000000      1.54424181000000     -6.84025480000000
  C          -5.24712016000000      0.80450419000000     -8.47236545000000
  C          -5.68904439000000      1.66147396000000     -9.66192305000000
  C          -5.67370268000000     -0.65322540000000     -8.66083090000000
  C          -7.51589268000000      2.22420217000000     -6.80129330000000
  C          -7.72995244000000      3.14605739000000     -5.59617259000000
  C          -8.56658647000000      1.11070881000000     -6.82671335000000
  O          -5.58969635000000      0.39520452000000     -5.68004122000000
  Si         -4.73370693000000     -0.18000166000000     -4.40157649000000
  C          -3.51311728000000     -1.48925197000000     -4.93054777000000
  C          -2.73141591000000     -2.02117023000000     -3.72399194000000
  C          -2.54697174000000     -0.97660474000000     -6.00112253000000
  C          -5.98370979000000     -0.84306717000000     -3.18021715000000
  C          -6.74616526000000     -2.03794449000000     -3.76527843000000
  C          -6.97264940000000      0.23285419000000     -2.72528529000000
  O          -3.80711901000000      1.03621070000000     -3.77161910000000
  C          -4.17263257000000      2.40090954000000     -3.66571238000000
  C          -3.38754970000000      3.27955963000000     -4.62183307000000
  H          -3.81242403000000      4.28808778000000     -4.56980027000000
  O          -2.03754755000000      3.31628597000000     -4.15180263000000
  C          -1.03633130000000      3.59278124000000     -5.08469589000000
  H          -0.24991947000000      4.11248894000000     -4.52811715000000
  O          -0.51375646000000      2.41260714000000     -5.65802698000000
  C           0.14667562000000      1.58532176000000     -4.71022962000000
  C          -1.53305073000000      4.41935426000000     -6.25586688000000
  H          -0.69482083000000      4.59229281000000     -6.93607465000000
  O          -2.02155315000000      5.63480130000000     -5.71284653000000
  H          -1.39916014000000      2.27677482000000     -7.64387426000000
  H          -4.15009098000000      0.84055961000000     -8.43620325000000
  H          -6.77779659000000      1.67134477000000     -9.76333526000000
  H          -5.28346221000000      1.26078316000000    -10.59379488000000
  H          -5.34872045000000      2.69444604000000     -9.57006007000000
  H          -6.75931529000000     -0.74515256000000     -8.74975552000000
  H          -5.35636219000000     -1.28194563000000     -7.82740072000000
  H          -5.24201658000000     -1.06216466000000     -9.57815737000000
  H          -7.62555175000000      2.82541420000000     -7.71200680000000
  H          -7.00958211000000      3.96434155000000     -5.58477136000000
  H          -7.62857578000000      2.59418309000000     -4.65739510000000
  H          -8.73632021000000      3.57350328000000     -5.60845693000000
  H          -9.57567364000000      1.52864138000000     -6.78743821000000
  H          -8.45402159000000      0.45010768000000     -5.96346461000000
  H          -8.49615086000000      0.49530954000000     -7.72545604000000
  H          -4.09912466000000     -2.31231386000000     -5.35808577000000
  H          -2.17046242000000     -1.21598811000000     -3.24359736000000
  H          -2.01147553000000     -2.78271366000000     -4.03408013000000
  H          -3.38326606000000     -2.46787418000000     -2.97090450000000
  H          -1.94300700000000     -0.15253484000000     -5.61168339000000
  H          -3.07029718000000     -0.62327124000000     -6.89266563000000
  H          -1.85836030000000     -1.76774954000000     -6.31158333000000
  H          -5.41984267000000     -1.18578496000000     -2.30483263000000
  H          -7.48125017000000     -2.41359171000000     -3.04848175000000
  H          -6.08648714000000     -2.86718833000000     -4.02780611000000
  H          -7.29314207000000     -1.74870086000000     -4.66674279000000
  H          -7.68073295000000     -0.17380969000000     -1.99836468000000
  H          -7.55903414000000      0.59999848000000     -3.57131130000000
  H          -6.47408185000000      1.08612329000000     -2.26127911000000
  H          -3.96238280000000      2.73393074000000     -2.64736425000000
  H          -5.24022419000000      2.54815369000000     -3.85682466000000
  H           0.52536049000000      0.72109234000000     -5.25180179000000
  H          -0.54382390000000      1.26162118000000     -3.92845677000000
  H           0.98628253000000      2.12452147000000     -4.25836394000000
  H          -2.27098260000000      6.21458797000000     -6.43940482000000
