68
Coordinates from ORCA-job goat_0_48
  O          -2.85127700000000      3.06083090000000     -8.46717802000000
  C          -2.77336882000000      3.60911183000000     -7.16422334000000
  H          -3.21062348000000      4.61813646000000     -7.15025674000000
  C          -3.57457362000000      2.73679150000000     -6.21594950000000
  H          -3.22264027000000      1.70178510000000     -6.30946612000000
  O          -4.94927689000000      2.85183292000000     -6.51092922000000
  Si         -6.00474391000000      1.60544143000000     -6.79778304000000
  C          -5.88464883000000      0.91248864000000     -8.52314306000000
  C          -4.57806218000000      0.15203207000000     -8.76783801000000
  C          -6.09726974000000      1.99252600000000     -9.58810042000000
  C          -7.68064280000000      2.34091668000000     -6.42491059000000
  C          -7.80681292000000      2.71478587000000     -4.94520037000000
  C          -8.83517672000000      1.42911232000000     -6.84795952000000
  O          -5.66837808000000      0.38538932000000     -5.75288414000000
  Si         -4.77663357000000     -0.21837826000000     -4.51414515000000
  C          -3.65432868000000     -1.56002760000000     -5.16314815000000
  C          -4.40372050000000     -2.79689857000000     -5.66338048000000
  C          -2.53456464000000     -1.94015293000000     -4.19068504000000
  C          -6.00851852000000     -0.66069097000000     -3.17649715000000
  C          -5.38056002000000     -1.37772635000000     -1.97948242000000
  C          -7.22294188000000     -1.43304309000000     -3.70071629000000
  O          -3.72331199000000      0.93486834000000     -3.96053046000000
  C          -4.04323112000000      2.29405897000000     -3.75395201000000
  C          -3.36791626000000      3.19789596000000     -4.77005032000000
  H          -3.81774888000000      4.19788327000000     -4.67571211000000
  O          -1.98772412000000      3.26950590000000     -4.44441334000000
  C          -1.30563902000000      4.19212988000000     -5.25570809000000
  H          -1.78279996000000      5.18155782000000     -5.19814487000000
  O          -0.01159755000000      4.38466759000000     -4.77747413000000
  C           0.72924135000000      3.19941891000000     -4.49656927000000
  C          -1.33370274000000      3.70749504000000     -6.69896142000000
  H          -0.87347232000000      2.71287801000000     -6.76050335000000
  O          -0.67537644000000      4.61933436000000     -7.56050086000000
  H          -2.26621236000000      3.57966502000000     -9.03167936000000
  H          -6.71141694000000      0.19220390000000     -8.58897740000000
  H          -3.72017871000000      0.82505687000000     -8.72459468000000
  H          -4.58169654000000     -0.30284282000000     -9.76198466000000
  H          -4.43573291000000     -0.64781146000000     -8.03869343000000
  H          -7.05585172000000      2.50409280000000     -9.47201520000000
  H          -6.07758923000000      1.55137884000000    -10.58800232000000
  H          -5.30327725000000      2.74038526000000     -9.54137938000000
  H          -7.73702802000000      3.26427798000000     -7.01425028000000
  H          -7.04088437000000      3.43142651000000     -4.64405621000000
  H          -7.71999978000000      1.82899937000000     -4.30840747000000
  H          -8.78157551000000      3.16485321000000     -4.73876137000000
  H          -8.79801543000000      0.47030051000000     -6.32329172000000
  H          -8.82436222000000      1.22290666000000     -7.91955649000000
  H          -9.79632899000000      1.89116882000000     -6.60703762000000
  H          -3.18435910000000     -1.07983898000000     -6.03265188000000
  H          -5.19713790000000     -2.53959254000000     -6.36851398000000
  H          -4.85636555000000     -3.34740190000000     -4.83468574000000
  H          -3.71770407000000     -3.48244133000000     -6.16774673000000
  H          -2.92676426000000     -2.45073802000000     -3.30868157000000
  H          -1.98587994000000     -1.06065849000000     -3.85350103000000
  H          -1.82723582000000     -2.62178979000000     -4.67015036000000
  H          -6.36653302000000      0.31889924000000     -2.82789873000000
  H          -4.51265238000000     -0.84304651000000     -1.58961750000000
  H          -5.05940099000000     -2.38611635000000     -2.25138596000000
  H          -6.10494612000000     -1.48176502000000     -1.16759011000000
  H          -6.94407973000000     -2.43607470000000     -4.03244368000000
  H          -7.69373486000000     -0.92295314000000     -4.54208687000000
  H          -7.97257797000000     -1.55203369000000     -2.91373802000000
  H          -3.69812708000000      2.58982909000000     -2.76061627000000
  H          -5.12255647000000      2.46460216000000     -3.80010169000000
  H           0.22154586000000      2.59270955000000     -3.74804197000000
  H           1.68829108000000      3.53553425000000     -4.10906619000000
  H           0.89744116000000      2.59789551000000     -5.39420642000000
  H           0.15290927000000      4.88374184000000     -7.14241061000000
