68
Coordinates from ORCA-job goat_0_68
  O          -2.63374253000000      2.11829762000000     -8.41469641000000
  C          -2.59612884000000      2.84716885000000     -7.20206469000000
  H          -2.87767641000000      3.89503480000000     -7.37730749000000
  C          -3.59560830000000      2.23532082000000     -6.24248781000000
  H          -3.36372879000000      1.16693645000000     -6.16736775000000
  O          -4.90275916000000      2.44935283000000     -6.71311721000000
  Si         -6.11403889000000      1.31638776000000     -6.77535368000000
  C          -6.39892200000000      0.74936113000000     -8.52779559000000
  C          -5.22984284000000     -0.07665686000000     -9.06831042000000
  C          -6.67618948000000      1.93983336000000     -9.45313274000000
  C          -7.62020586000000      2.12322331000000     -5.99994375000000
  C          -8.92379204000000      1.40780879000000     -6.36887142000000
  C          -7.73008976000000      3.62790885000000     -6.26504025000000
  O          -5.64307711000000      0.03459876000000     -5.85798107000000
  Si         -4.81779685000000     -0.45977054000000     -4.52115690000000
  C          -3.34689661000000     -1.55031766000000     -4.96674065000000
  C          -2.05061028000000     -1.04680123000000     -4.32022464000000
  C          -3.14599103000000     -1.75044383000000     -6.47119822000000
  C          -6.02176666000000     -1.35851681000000     -3.41005391000000
  C          -7.23276316000000     -0.49280615000000     -3.05227537000000
  C          -5.33617546000000     -1.86960470000000     -2.13818456000000
  O          -4.21026341000000      0.84073320000000     -3.70338488000000
  C          -4.38753843000000      2.22801964000000     -3.82796634000000
  C          -3.46112056000000      2.85778064000000     -4.85207724000000
  H          -3.73462129000000      3.92166729000000     -4.92915795000000
  O          -2.12721024000000      2.73326846000000     -4.38329923000000
  C          -1.21461152000000      3.42242304000000     -5.20953579000000
  H          -1.50005528000000      4.48951798000000     -5.25357702000000
  O           0.06456108000000      3.28422682000000     -4.69930626000000
  C           0.25919188000000      3.93964953000000     -3.45454441000000
  C          -1.20865071000000      2.80721644000000     -6.59628780000000
  H          -0.89554521000000      1.76108476000000     -6.48500771000000
  O          -0.34797985000000      3.50477668000000     -7.47831730000000
  H          -1.91776505000000      2.44860869000000     -8.97007708000000
  H          -7.29320052000000      0.11391879000000     -8.49972168000000
  H          -5.07902928000000     -0.98545607000000     -8.48819517000000
  H          -4.30338343000000      0.50019733000000     -9.04892287000000
  H          -5.41575924000000     -0.36648842000000    -10.10622743000000
  H          -6.83129126000000      1.59410677000000    -10.47851271000000
  H          -5.82643231000000      2.62642771000000     -9.46356732000000
  H          -7.56334763000000      2.50262467000000     -9.15716451000000
  H          -7.46456850000000      1.98974812000000     -4.92111552000000
  H          -8.88483489000000      0.33752020000000     -6.15209021000000
  H          -9.14832130000000      1.52260059000000     -7.43272613000000
  H          -9.76500631000000      1.82977633000000     -5.81218507000000
  H          -6.81944202000000      4.15542821000000     -5.97950701000000
  H          -8.56463014000000      4.05418583000000     -5.70149505000000
  H          -7.91280138000000      3.83793552000000     -7.32106996000000
  H          -3.57843942000000     -2.53278967000000     -4.53525146000000
  H          -1.22130149000000     -1.71805576000000     -4.55835840000000
  H          -2.13260406000000     -0.97658719000000     -3.23503093000000
  H          -1.78992940000000     -0.04918901000000     -4.68108061000000
  H          -4.02319661000000     -2.19195231000000     -6.94434587000000
  H          -2.29656043000000     -2.41453706000000     -6.65263260000000
  H          -2.93230897000000     -0.80897731000000     -6.98434234000000
  H          -6.37370951000000     -2.22357498000000     -3.98886614000000
  H          -6.92538344000000      0.39318240000000     -2.48798239000000
  H          -7.93590888000000     -1.04633491000000     -2.42312638000000
  H          -7.77309084000000     -0.16000642000000     -3.94004487000000
  H          -4.50752682000000     -2.54569633000000     -2.35906827000000
  H          -6.04588553000000     -2.41163149000000     -1.50696405000000
  H          -4.94084090000000     -1.03777854000000     -1.54903757000000
  H          -4.17288353000000      2.67918487000000     -2.85725653000000
  H          -5.41842312000000      2.48138785000000     -4.09149349000000
  H           1.30469262000000      3.80478664000000     -3.19002328000000
  H          -0.37438787000000      3.50311954000000     -2.68197379000000
  H           0.04100495000000      5.00866065000000     -3.54516319000000
  H           0.53608219000000      3.49975472000000     -7.09383369000000
