68
Coordinates from ORCA-job goat_0_95
  O          -3.55554537000000      4.71205075000000     -7.72326421000000
  C          -3.09241477000000      4.29020808000000     -6.45341396000000
  H          -3.66866885000000      4.78293164000000     -5.65859139000000
  C          -3.31651886000000      2.79222961000000     -6.34020959000000
  H          -2.88239956000000      2.32180132000000     -7.23260536000000
  O          -4.69870046000000      2.55948126000000     -6.25581164000000
  Si         -5.67658909000000      1.41105571000000     -6.92956542000000
  C          -5.01574293000000      0.91125108000000     -8.60901135000000
  C          -5.02258872000000      2.07259243000000     -9.60884406000000
  C          -5.70184834000000     -0.32335889000000     -9.20242096000000
  C          -7.38297352000000      2.16760076000000     -6.88559697000000
  C          -7.65721302000000      2.81704198000000     -5.52472870000000
  C          -8.47996868000000      1.14925436000000     -7.21235314000000
  O          -5.66853518000000      0.06643629000000     -5.98420119000000
  Si         -5.05093993000000     -0.58061699000000     -4.60741475000000
  C          -4.76288372000000     -2.38612646000000     -5.01548033000000
  C          -4.40288980000000     -3.25521530000000     -3.80829659000000
  C          -3.70398600000000     -2.54195864000000     -6.11216671000000
  C          -6.19180815000000     -0.22628960000000     -3.17360938000000
  C          -5.56027239000000     -0.45852462000000     -1.79793376000000
  C          -7.54204211000000     -0.93670752000000     -3.29784233000000
  O          -3.65213368000000      0.20186858000000     -4.20031604000000
  C          -2.65157198000000      0.68512769000000     -5.06631714000000
  C          -2.62554323000000      2.21269424000000     -5.10136816000000
  H          -3.14262321000000      2.58165671000000     -4.20544806000000
  O          -1.25604654000000      2.59963221000000     -5.07746288000000
  C          -1.10009388000000      4.00036463000000     -4.99949740000000
  H          -1.64368169000000      4.37698903000000     -4.11317422000000
  O           0.24686609000000      4.30919795000000     -4.91270634000000
  C           0.84575314000000      3.91157385000000     -3.68787438000000
  C          -1.62969000000000      4.63699087000000     -6.26873834000000
  H          -1.04924608000000      4.22531732000000     -7.10362581000000
  O          -1.53445606000000      6.05007810000000     -6.22886229000000
  H          -3.35196906000000      5.65081490000000     -7.80799394000000
  H          -3.96898901000000      0.63682949000000     -8.41005994000000
  H          -4.52258289000000      2.96052388000000     -9.21881039000000
  H          -6.04835896000000      2.35243813000000     -9.86557664000000
  H          -4.52698424000000      1.77986410000000    -10.53867352000000
  H          -5.17596887000000     -0.65737725000000    -10.10082371000000
  H          -6.72758103000000     -0.09649274000000     -9.49989578000000
  H          -5.73553884000000     -1.15574128000000     -8.49794238000000
  H          -7.38702149000000      2.95669089000000     -7.64779791000000
  H          -6.89788978000000      3.55396097000000     -5.26588174000000
  H          -7.67926986000000      2.06130507000000     -4.73497918000000
  H          -8.63137033000000      3.31250990000000     -5.52571626000000
  H          -8.39279302000000      0.75445371000000     -8.22559783000000
  H          -9.46841819000000      1.60728578000000     -7.11613980000000
  H          -8.43734798000000      0.30373420000000     -6.52019837000000
  H          -5.72191572000000     -2.73377080000000     -5.42166092000000
  H          -3.50106478000000     -2.88530756000000     -3.31268647000000
  H          -4.20644322000000     -4.28376293000000     -4.12534955000000
  H          -5.20439449000000     -3.28339526000000     -3.06849187000000
  H          -3.62547922000000     -3.58551713000000     -6.42766281000000
  H          -2.71943599000000     -2.24201984000000     -5.74458756000000
  H          -3.93231263000000     -1.94309625000000     -6.99582465000000
  H          -6.36175365000000      0.85379606000000     -3.27862858000000
  H          -4.60719625000000      0.06246264000000     -1.70297811000000
  H          -5.38127282000000     -1.51963632000000     -1.61416649000000
  H          -6.22707447000000     -0.10078207000000     -1.00876923000000
  H          -8.21863930000000     -0.61800904000000     -2.50043867000000
  H          -7.42834003000000     -2.02103326000000     -3.21257564000000
  H          -8.02886715000000     -0.72645251000000     -4.25293049000000
  H          -2.77273720000000      0.29320753000000     -6.08240970000000
  H          -1.67939407000000      0.35466330000000     -4.69926676000000
  H           0.34610425000000      4.39080271000000     -2.84063961000000
  H           1.88083179000000      4.23727302000000     -3.72729114000000
  H           0.80721820000000      2.82891471000000     -3.56554969000000
  H          -0.61081318000000      6.27501479000000     -6.06747180000000
