68
Coordinates from ORCA-job goat_0_36
  O          -2.89185985000000      2.76480113000000     -8.35886283000000
  C          -2.82555084000000      3.38417194000000     -7.08701068000000
  H          -3.23755579000000      4.40232405000000     -7.13704851000000
  C          -3.66171457000000      2.57713389000000     -6.11606849000000
  H          -3.31377853000000      1.54010459000000     -6.15015977000000
  O          -5.02542640000000      2.67778598000000     -6.45695355000000
  Si         -6.06013509000000      1.39490490000000     -6.64531104000000
  C          -6.07141257000000      0.72371315000000     -8.38592327000000
  C          -4.81811054000000     -0.10510587000000     -8.68341942000000
  C          -6.24306372000000      1.82646468000000     -9.43496379000000
  C          -7.70581572000000      2.03501784000000     -6.03216034000000
  C          -8.84641289000000      1.03765120000000     -6.24842850000000
  C          -8.07620837000000      3.42226030000000     -6.56340348000000
  O          -5.55412334000000      0.18078130000000     -5.65997169000000
  Si         -4.66875001000000     -0.35814062000000     -4.38726095000000
  C          -3.35418712000000     -1.56938587000000     -4.93545445000000
  C          -2.74847503000000     -2.29991206000000     -3.73056544000000
  C          -2.24242086000000     -0.89517148000000     -5.74627266000000
  C          -5.87284050000000     -1.10893612000000     -3.16961313000000
  C          -6.61251510000000     -2.30044933000000     -3.78827880000000
  C          -6.87917007000000     -0.07698057000000     -2.65328894000000
  O          -3.83368184000000      0.90124111000000     -3.71364829000000
  C          -4.21135976000000      2.25907876000000     -3.65571157000000
  C          -3.48628522000000      3.10176399000000     -4.68926783000000
  H          -3.91674488000000      4.11406852000000     -4.64997555000000
  O          -2.11460323000000      3.15145378000000     -4.32876621000000
  C          -1.37799157000000      4.00556832000000     -5.16784488000000
  H          -1.80994710000000      5.01683386000000     -5.16051046000000
  O          -0.08647572000000      4.15814027000000     -4.66927674000000
  C           0.61104824000000      2.94959799000000     -4.37476280000000
  C          -1.39569816000000      3.46242734000000     -6.59128292000000
  H          -0.96856382000000      2.45082348000000     -6.60090000000000
  O          -0.68863355000000      4.31551393000000     -7.47389667000000
  H          -2.28283243000000      3.23484259000000     -8.94017567000000
  H          -6.94279912000000      0.05709648000000     -8.43172355000000
  H          -3.92579857000000      0.52432284000000     -8.65793638000000
  H          -4.87734656000000     -0.54253606000000     -9.68356384000000
  H          -4.69423863000000     -0.91905049000000     -7.96754310000000
  H          -5.41359396000000      2.53393815000000     -9.38437186000000
  H          -7.17333473000000      2.38185325000000     -9.30749699000000
  H          -6.25078114000000      1.39839997000000    -10.44054399000000
  H          -7.54487467000000      2.13254213000000     -4.94953025000000
  H          -9.76425375000000      1.39205016000000     -5.77162633000000
  H          -8.61517108000000      0.05297723000000     -5.83547839000000
  H          -9.06382268000000      0.90951066000000     -7.31223450000000
  H          -7.27066778000000      4.13963300000000     -6.40628665000000
  H          -8.97081548000000      3.79814159000000     -6.05979612000000
  H          -8.29733125000000      3.39774359000000     -7.63235595000000
  H          -3.85233172000000     -2.30849569000000     -5.57560954000000
  H          -2.27552233000000     -1.59270551000000     -3.04404249000000
  H          -1.97642616000000     -3.00095546000000     -4.05775576000000
  H          -3.49447595000000     -2.86530703000000     -3.16940033000000
  H          -1.46900956000000     -1.62031953000000     -6.01364592000000
  H          -1.76448374000000     -0.10453701000000     -5.16099009000000
  H          -2.61427549000000     -0.45801577000000     -6.67469667000000
  H          -5.28080190000000     -1.46658038000000     -2.31891129000000
  H          -5.93151638000000     -3.09121899000000     -4.11041627000000
  H          -7.19314171000000     -1.98519569000000     -4.65965160000000
  H          -7.31343850000000     -2.73654687000000     -3.07093070000000
  H          -7.48734904000000      0.31765397000000     -3.47198175000000
  H          -6.38909319000000      0.76217816000000     -2.15554706000000
  H          -7.56698058000000     -0.53153741000000     -1.93491752000000
  H          -3.95540573000000      2.64229341000000     -2.66596431000000
  H          -5.28911404000000      2.38776407000000     -3.79718013000000
  H           0.85690760000000      2.38754320000000     -5.28049446000000
  H           0.03035565000000      2.31772131000000     -3.70401049000000
  H           1.53347259000000      3.25243982000000     -3.88480420000000
  H           0.13669553000000      4.57359187000000     -7.04634217000000
