68
Coordinates from ORCA-job goat_0_20
  O          -2.55379256000000      2.69894865000000     -8.27645123000000
  C          -2.55197407000000      3.23614726000000     -6.96765809000000
  H          -2.90715390000000      4.27495467000000     -6.98778106000000
  C          -3.50073481000000      2.42471378000000     -6.10553860000000
  H          -3.21709362000000      1.37019773000000     -6.20538188000000
  O          -4.82926949000000      2.65356140000000     -6.52059996000000
  Si         -6.00416881000000      1.51862187000000     -6.80559965000000
  C          -5.80163435000000      0.67651568000000     -8.46561862000000
  C          -5.43363713000000      1.59797525000000     -9.63082213000000
  C          -7.03285462000000     -0.17338746000000     -8.80576608000000
  C          -7.62003944000000      2.42029973000000     -6.53924943000000
  C          -7.87064546000000      3.50453580000000     -7.59252176000000
  C          -7.69844899000000      3.02611833000000     -5.13415299000000
  O          -5.88784724000000      0.32912911000000     -5.67448547000000
  Si         -4.87070960000000     -0.49294258000000     -4.68023822000000
  C          -3.67682774000000     -1.52833119000000     -5.68606024000000
  C          -4.34087163000000     -2.76662433000000     -6.29495916000000
  C          -2.39332180000000     -1.89615819000000     -4.93411498000000
  C          -5.97088808000000     -1.44855498000000     -3.51108641000000
  C          -6.98524697000000     -0.51932157000000     -2.83699230000000
  C          -5.18421154000000     -2.23651178000000     -2.46048959000000
  O          -3.93476152000000      0.59859213000000     -3.86186508000000
  C          -4.19960342000000      1.97376766000000     -3.69901029000000
  C          -3.36529010000000      2.83217590000000     -4.63274877000000
  H          -3.72121837000000      3.87139462000000     -4.53865834000000
  O          -2.01112182000000      2.74679552000000     -4.20975804000000
  C          -1.17337664000000      3.62223540000000     -4.93178219000000
  H          -1.54588643000000      4.65752059000000     -4.81885393000000
  O           0.12469491000000      3.51865096000000     -4.46081193000000
  C           0.29290871000000      3.99868386000000     -3.13563059000000
  C          -1.15185165000000      3.21276988000000     -6.39047123000000
  H          -0.76240886000000      2.18837287000000     -6.43282693000000
  O          -0.36289641000000      4.08861309000000     -7.17707985000000
  H          -1.86721638000000      3.15757911000000     -8.77566907000000
  H          -4.95764688000000     -0.00770841000000     -8.29713936000000
  H          -5.26964209000000      1.00764774000000    -10.53729093000000
  H          -4.52687565000000      2.16172941000000     -9.41939118000000
  H          -6.23530325000000      2.30780554000000     -9.84692373000000
  H          -7.29452784000000     -0.86997393000000     -8.00644403000000
  H          -6.85666323000000     -0.75542205000000     -9.71409266000000
  H          -7.90435427000000      0.45969038000000     -8.99330143000000
  H          -8.40254164000000      1.65557044000000     -6.62641685000000
  H          -7.94624329000000      3.09216933000000     -8.59944114000000
  H          -7.06173263000000      4.23979114000000     -7.59022030000000
  H          -8.80349822000000      4.03350235000000     -7.37893146000000
  H          -8.66955427000000      3.50317191000000     -4.97743047000000
  H          -6.92957293000000      3.79160249000000     -5.00309492000000
  H          -7.56661231000000      2.27630345000000     -4.35216121000000
  H          -3.39412624000000     -0.85991260000000     -6.51186974000000
  H          -5.22487582000000     -2.51337568000000     -6.88503813000000
  H          -4.64944304000000     -3.46944118000000     -5.51662372000000
  H          -3.64347110000000     -3.29484238000000     -6.95013703000000
  H          -2.59687964000000     -2.58815557000000     -4.11388984000000
  H          -1.90849972000000     -1.01538684000000     -4.51175219000000
  H          -1.68655525000000     -2.38990995000000     -5.60651707000000
  H          -6.52371380000000     -2.15465347000000     -4.14425752000000
  H          -7.65753353000000     -1.08859986000000     -2.18984691000000
  H          -7.59310607000000      0.01565646000000     -3.56732888000000
  H          -6.47903433000000      0.22048921000000     -2.21044236000000
  H          -4.55360111000000     -1.56937215000000     -1.86682126000000
  H          -4.53882824000000     -2.99323118000000     -2.90974927000000
  H          -5.86724468000000     -2.74639713000000     -1.77572866000000
  H          -3.94565184000000      2.25479899000000     -2.67494314000000
  H          -5.25445810000000      2.20456328000000     -3.87077686000000
  H          -0.00569413000000      5.04894839000000     -3.06311433000000
  H           1.34960470000000      3.90877436000000     -2.90254037000000
  H          -0.28907591000000      3.40658463000000     -2.42979904000000
  H           0.52429614000000      4.10132414000000     -6.80002990000000
