68
Coordinates from ORCA-job goat_0_33
  O          -2.73294592000000      3.13518575000000     -8.48471171000000
  C          -2.64757354000000      3.44766798000000     -7.10333974000000
  H          -2.96455985000000      4.48711376000000     -6.93728898000000
  C          -3.52736560000000      2.55182728000000     -6.25325906000000
  H          -3.23410144000000      1.50543668000000     -6.40585785000000
  O          -4.87284126000000      2.77355124000000     -6.63609758000000
  Si         -6.05029519000000      1.61517041000000     -6.82643923000000
  C          -6.05932394000000      0.89163671000000     -8.55267346000000
  C          -4.74215571000000      0.19479358000000     -8.90857095000000
  C          -6.44541329000000      1.92258350000000     -9.61806286000000
  C          -7.65231340000000      2.49334680000000     -6.44698247000000
  C          -7.61176760000000      3.22314378000000     -5.10211702000000
  C          -8.84852299000000      1.53885677000000     -6.52154791000000
  O          -5.77507918000000      0.39387989000000     -5.77219737000000
  Si         -4.82827486000000     -0.37341547000000     -4.66369716000000
  C          -3.62711168000000     -1.52138771000000     -5.52142590000000
  C          -4.29815969000000     -2.79134195000000     -6.05304301000000
  C          -2.39702425000000     -1.84851609000000     -4.66725717000000
  C          -6.00485569000000     -1.21132281000000     -3.47395060000000
  C          -6.96766476000000     -0.18722570000000     -2.86350069000000
  C          -5.27713235000000     -1.99549500000000     -2.37715879000000
  O          -3.89320155000000      0.74667318000000     -3.89115032000000
  C          -4.11419321000000      2.13474092000000     -3.79006438000000
  C          -3.28377453000000      2.91909517000000     -4.78813260000000
  H          -3.53978181000000      3.98462109000000     -4.65766511000000
  O          -1.91536065000000      2.69510395000000     -4.49777650000000
  C          -1.02629312000000      3.53712811000000     -5.21798671000000
  H          -1.24133234000000      4.59205015000000     -4.96581182000000
  O           0.26287649000000      3.19847247000000     -4.87228356000000
  C           0.62066464000000      3.57314740000000     -3.55326219000000
  C          -1.18787724000000      3.32321415000000     -6.71277362000000
  H          -0.84420611000000      2.30456496000000     -6.93318615000000
  O          -0.40797231000000      4.29045580000000     -7.38338733000000
  H          -3.65293626000000      3.24595771000000     -8.75205313000000
  H          -6.84658949000000      0.12624251000000     -8.53151867000000
  H          -3.90254421000000      0.89407385000000     -8.91254919000000
  H          -4.80185033000000     -0.24967511000000     -9.90525964000000
  H          -4.50702086000000     -0.60430008000000     -8.20413707000000
  H          -7.43599438000000      2.34724969000000     -9.44509981000000
  H          -6.44966429000000      1.46500398000000    -10.60993414000000
  H          -5.73871820000000      2.75684822000000     -9.65239814000000
  H          -7.76728750000000      3.24749112000000     -7.23593624000000
  H          -7.50022689000000      2.51787489000000     -4.27470444000000
  H          -8.54051778000000      3.77402407000000     -4.93532675000000
  H          -6.78295993000000      3.93111857000000     -5.05493711000000
  H          -9.77915377000000      2.07103917000000     -6.31187236000000
  H          -8.75726056000000      0.73607444000000     -5.78607027000000
  H          -8.94776874000000      1.07305773000000     -7.50419664000000
  H          -3.27494370000000     -0.94216282000000     -6.38614907000000
  H          -3.58812116000000     -3.38472805000000     -6.63414227000000
  H          -5.15145382000000     -2.57021397000000     -6.69853767000000
  H          -4.65765464000000     -3.42424586000000     -5.23747899000000
  H          -2.65992384000000     -2.44719917000000     -3.79236496000000
  H          -1.90792700000000     -0.94041941000000     -4.31474620000000
  H          -1.67363180000000     -2.42432912000000     -5.24990645000000
  H          -6.59232541000000     -1.91898323000000     -4.07348363000000
  H          -7.68198493000000     -0.67364940000000     -2.19443637000000
  H          -7.53510826000000      0.34165232000000     -3.63100612000000
  H          -6.42371679000000      0.55561136000000     -2.27274266000000
  H          -5.99212922000000     -2.43521071000000     -1.67709331000000
  H          -4.61389188000000     -1.34423608000000     -1.80291617000000
  H          -4.67369564000000     -2.80930769000000     -2.78261392000000
  H          -3.82343173000000      2.45841962000000     -2.78774046000000
  H          -5.16866988000000      2.39012170000000     -3.93891606000000
  H           0.53004208000000      4.65658039000000     -3.42182462000000
  H           1.65888300000000      3.28148892000000     -3.42128679000000
  H           0.00235439000000      3.06136699000000     -2.81401510000000
  H          -0.59930269000000      4.20338673000000     -8.32416565000000
