68
Coordinates from ORCA-job goat_0_85
  O          -2.82152491000000      2.83997474000000     -8.36046223000000
  C          -2.77765803000000      3.41455146000000     -7.06764446000000
  H          -3.18261479000000      4.43449326000000     -7.09930564000000
  C          -3.64349759000000      2.58609370000000     -6.13941640000000
  H          -3.30874240000000      1.54384576000000     -6.21025343000000
  O          -4.99620332000000      2.72782491000000     -6.50235005000000
  Si         -6.10603554000000      1.51406720000000     -6.70559227000000
  C          -6.12896981000000      0.86976603000000     -8.45777673000000
  C          -4.84340670000000      0.10640998000000     -8.79614172000000
  C          -6.37393206000000      1.97643603000000     -9.48898841000000
  C          -7.71717761000000      2.23973688000000     -6.08769587000000
  C          -8.91310680000000      1.33038246000000     -6.38467556000000
  C          -7.98133687000000      3.67568743000000     -6.55020877000000
  O          -5.69609894000000      0.25578093000000     -5.73235675000000
  Si         -4.73811433000000     -0.38047659000000     -4.56118305000000
  C          -3.44514270000000     -1.48176404000000     -5.34459759000000
  C          -4.02088152000000     -2.81647998000000     -5.82643457000000
  C          -2.20536044000000     -1.69210553000000     -4.46976862000000
  C          -5.89027552000000     -1.21824450000000     -3.34958295000000
  C          -6.93035998000000     -0.23218141000000     -2.80792852000000
  C          -5.15167535000000     -1.89996886000000     -2.19496288000000
  O          -3.87667446000000      0.82661490000000     -3.82792848000000
  C          -4.23175632000000      2.18394736000000     -3.70076330000000
  C          -3.48620793000000      3.06160497000000     -4.69074109000000
  H          -3.91098417000000      4.07610663000000     -4.62482795000000
  O          -2.11920760000000      3.09366324000000     -4.30525394000000
  C          -1.36587333000000      3.97392026000000     -5.10321184000000
  H          -1.80247083000000      4.98144888000000     -5.07431712000000
  O          -0.08386145000000      4.11985455000000     -4.57796211000000
  C           0.60576913000000      2.90902202000000     -4.27818501000000
  C          -1.35663216000000      3.47623746000000     -6.54325121000000
  H          -0.92811322000000      2.46630784000000     -6.57530680000000
  O          -0.63310020000000      4.35714576000000     -7.38567814000000
  H          -2.19743536000000      3.32163598000000     -8.91581976000000
  H          -6.96818956000000      0.16205942000000     -8.49174618000000
  H          -4.90431871000000     -0.31021195000000     -9.80564559000000
  H          -4.66549174000000     -0.71750467000000     -8.10337160000000
  H          -3.98107752000000      0.77487749000000     -8.76666323000000
  H          -5.58613164000000      2.73152634000000     -9.43397087000000
  H          -7.33368300000000      2.47538769000000     -9.34307067000000
  H          -6.36744280000000      1.55905039000000    -10.49989207000000
  H          -7.56926189000000      2.26386888000000     -4.99847911000000
  H          -9.82070695000000      1.71839466000000     -5.91537604000000
  H          -8.75745260000000      0.31215880000000     -6.02027390000000
  H          -9.10230771000000      1.27394315000000     -7.45992283000000
  H          -8.86909937000000      4.07863426000000     -6.05533467000000
  H          -8.16209117000000      3.72049781000000     -7.62608575000000
  H          -7.13853938000000      4.33116847000000     -6.32817547000000
  H          -3.13455035000000     -0.90714238000000     -6.22863490000000
  H          -4.34584265000000     -3.43091231000000     -4.98264132000000
  H          -3.26546042000000     -3.38820166000000     -6.37137972000000
  H          -4.87867585000000     -2.68208962000000     -6.48922679000000
  H          -1.78379161000000     -0.74196586000000     -4.14033094000000
  H          -1.43688665000000     -2.23865468000000     -5.02295346000000
  H          -2.44120819000000     -2.27697224000000     -3.57800938000000
  H          -6.41801560000000     -1.98358778000000     -3.93323718000000
  H          -6.45033074000000      0.54843325000000     -2.21130115000000
  H          -7.64491886000000     -0.74436277000000     -2.15804523000000
  H          -7.49217596000000      0.25169049000000     -3.60850465000000
  H          -4.49330939000000     -2.69848475000000     -2.54072833000000
  H          -5.86474579000000     -2.33848633000000     -1.49156425000000
  H          -4.54144956000000     -1.17929120000000     -1.64403696000000
  H          -3.96736701000000      2.51691562000000     -2.69482420000000
  H          -5.30600692000000      2.33893675000000     -3.84513744000000
  H           0.01199867000000      2.27041798000000     -3.62633537000000
  H           1.51400155000000      3.21021317000000     -3.76450854000000
  H           0.87717148000000      2.35425175000000     -5.18022226000000
  H           0.17396098000000      4.61488217000000     -6.92401675000000
