68
Coordinates from ORCA-job goat_0_43
  O          -2.91758741000000      2.76427215000000     -8.40312445000000
  C          -2.86637538000000      3.38893133000000     -7.13353345000000
  H          -3.30767415000000      4.39297373000000     -7.19225739000000
  C          -3.67842849000000      2.56751997000000     -6.15341128000000
  H          -3.29545861000000      1.54201518000000     -6.17420697000000
  O          -5.04033115000000      2.62460973000000     -6.50403741000000
  Si         -6.06192123000000      1.32867391000000     -6.64992406000000
  C          -6.09420043000000      0.62145817000000     -8.37654792000000
  C          -4.77860162000000     -0.07517189000000     -8.73571354000000
  C          -6.44251180000000      1.67230009000000     -9.43628176000000
  C          -7.70795531000000      1.97082299000000     -6.03290598000000
  C          -8.85292891000000      0.98070261000000     -6.26543010000000
  C          -8.06859295000000      3.36693167000000     -6.55080699000000
  O          -5.52685531000000      0.13715269000000     -5.65178583000000
  Si         -4.65174611000000     -0.34487672000000     -4.34904662000000
  C          -3.31555623000000     -1.56019595000000     -4.82968996000000
  C          -2.22746284000000     -0.93393724000000     -5.70712265000000
  C          -3.88872791000000     -2.82068621000000     -5.48561687000000
  C          -5.86213200000000     -1.06637496000000     -3.11472570000000
  C          -6.84840365000000     -0.01638242000000     -2.59340396000000
  C          -5.15896537000000     -1.76222741000000     -1.94525857000000
  O          -3.83323104000000      0.94326597000000     -3.71256313000000
  C          -4.23104147000000      2.29452292000000     -3.68310427000000
  C          -3.52040250000000      3.12477849000000     -4.73583218000000
  H          -3.96666729000000      4.13140695000000     -4.72078586000000
  O          -2.14923657000000      3.20793592000000     -4.37407525000000
  C          -1.42754047000000      4.06679126000000     -5.22288643000000
  H          -1.87943950000000      5.06843519000000     -5.22347465000000
  O          -0.13616758000000      4.24932216000000     -4.73136482000000
  C           0.56916881000000      3.05863081000000     -4.38908543000000
  C          -1.43755064000000      3.51518579000000     -6.64389752000000
  H          -0.97832999000000      2.51781536000000     -6.65190528000000
  O          -0.76172562000000      4.38726962000000     -7.53429908000000
  H          -2.32072636000000      3.24560544000000     -8.98828592000000
  H          -6.88988444000000     -0.13583189000000     -8.35717861000000
  H          -3.95474150000000      0.64021626000000     -8.74880657000000
  H          -4.84372652000000     -0.52147485000000     -9.73171621000000
  H          -4.53620503000000     -0.86887134000000     -8.02878763000000
  H          -5.70669483000000      2.48017886000000     -9.43179429000000
  H          -7.42985671000000      2.10982629000000     -9.27852170000000
  H          -6.43556577000000      1.21974612000000    -10.43212813000000
  H          -7.54625693000000      2.05809596000000     -4.94963218000000
  H          -9.05550634000000      0.86219226000000     -7.33348894000000
  H          -9.77422597000000      1.33953549000000     -5.79849900000000
  H          -8.63347536000000     -0.00857751000000     -5.85614911000000
  H          -8.27062720000000      3.35586542000000     -7.62364482000000
  H          -7.26398494000000      4.08093715000000     -6.37214340000000
  H          -8.97125965000000      3.73425232000000     -6.05475808000000
  H          -2.84899559000000     -1.84662222000000     -3.87821583000000
  H          -1.78248723000000     -0.05951182000000     -5.22898765000000
  H          -2.62814941000000     -0.62784701000000     -6.67685305000000
  H          -1.43004384000000     -1.65595366000000     -5.90213039000000
  H          -4.59611865000000     -3.34012643000000     -4.83530127000000
  H          -3.08800351000000     -3.52285864000000     -5.73238268000000
  H          -4.40918766000000     -2.57648786000000     -6.41531468000000
  H          -6.43231212000000     -1.81697102000000     -3.67787588000000
  H          -7.57473471000000     -0.47246750000000     -1.91544556000000
  H          -7.40612069000000      0.46084101000000     -3.40082895000000
  H          -6.32790414000000      0.76340535000000     -2.03082232000000
  H          -4.53105914000000     -2.59139188000000     -2.27688801000000
  H          -5.89227235000000     -2.16299139000000     -1.24012137000000
  H          -4.52497632000000     -1.06005540000000     -1.39658169000000
  H          -3.97679707000000      2.70937507000000     -2.70556188000000
  H          -5.30966763000000      2.40447985000000     -3.82865098000000
  H           0.00514451000000      2.46023886000000     -3.67539479000000
  H           1.49768080000000      3.39081819000000     -3.93409598000000
  H           0.80259641000000      2.44976057000000     -5.26664530000000
  H           0.05866658000000      4.66957799000000     -7.11248176000000
