68
Coordinates from ORCA-job goat_0_76
  O          -2.71720649000000      2.90351853000000     -8.26148931000000
  C          -2.63344824000000      3.46173997000000     -6.96291614000000
  H          -3.00038410000000      4.49721427000000     -6.97029283000000
  C          -3.51371857000000      2.64525280000000     -6.03900572000000
  H          -3.22073200000000      1.59245441000000     -6.13561244000000
  O          -4.87290551000000      2.83974853000000     -6.36440427000000
  Si         -5.89410763000000      1.59537059000000     -6.77053760000000
  C          -5.63069557000000      1.06053899000000     -8.54205942000000
  C          -6.17635766000000      2.06511802000000     -9.56212761000000
  C          -6.15020605000000     -0.35550710000000     -8.81559922000000
  C          -7.58321025000000      2.22652425000000     -6.26747568000000
  C          -8.71034134000000      1.24120694000000     -6.59029568000000
  C          -7.89373019000000      3.63392293000000     -6.78877681000000
  O          -5.50428887000000      0.29815235000000     -5.84166093000000
  Si         -4.81680927000000     -0.29434288000000     -4.47461384000000
  C          -3.70502817000000     -1.71392477000000     -4.95169787000000
  C          -3.03211239000000     -2.36738932000000     -3.74017985000000
  C          -2.65610509000000     -1.22106382000000     -5.95706580000000
  C          -6.23791332000000     -0.69813386000000     -3.32496141000000
  C          -5.86326949000000     -0.79867462000000     -1.84557879000000
  C          -6.98000570000000     -1.95193145000000     -3.80335326000000
  O          -3.79662067000000      0.82505268000000     -3.80637940000000
  C          -4.08288319000000      2.19341673000000     -3.60882680000000
  C          -3.31850520000000      3.07352600000000     -4.58328165000000
  H          -3.70202298000000      4.10095751000000     -4.47912582000000
  O          -1.94489139000000      3.03970865000000     -4.22442675000000
  C          -1.17593219000000      3.92152138000000     -5.00621437000000
  H          -1.58129071000000      4.94033806000000     -4.94410543000000
  O           0.11501939000000      4.00948275000000     -4.49056122000000
  C           0.77344078000000      2.76490038000000     -4.26961754000000
  C          -1.20443098000000      3.46294718000000     -6.45839440000000
  H          -0.81552668000000      2.43935075000000     -6.51871542000000
  O          -0.46259272000000      4.33763494000000     -7.28996216000000
  H          -2.10776921000000      3.38913261000000     -8.82910318000000
  H          -4.53730030000000      1.05110484000000     -8.64817917000000
  H          -7.26900595000000      2.10500088000000     -9.53792357000000
  H          -5.88631508000000      1.77569692000000    -10.57527746000000
  H          -5.79535901000000      3.07291397000000     -9.38501253000000
  H          -5.74160628000000     -1.07759642000000     -8.10685749000000
  H          -5.87184783000000     -0.67774095000000     -9.82230307000000
  H          -7.24026344000000     -0.40492801000000     -8.74754246000000
  H          -7.50616741000000      2.29260472000000     -5.17173813000000
  H          -8.86289827000000      1.14887982000000     -7.66850600000000
  H          -9.65480402000000      1.58014138000000     -6.15734505000000
  H          -8.50536928000000      0.24325312000000     -6.19599725000000
  H          -8.01829722000000      3.64285309000000     -7.87367250000000
  H          -7.09740684000000      4.33646463000000     -6.54010596000000
  H          -8.82284011000000      4.00679864000000     -6.35007460000000
  H          -4.33874252000000     -2.46026714000000     -5.44675914000000
  H          -3.75460868000000     -2.80795600000000     -3.05045272000000
  H          -2.44642043000000     -1.63395143000000     -3.18228864000000
  H          -2.35116485000000     -3.16215870000000     -4.05539714000000
  H          -2.01336058000000     -0.46748537000000     -5.49397631000000
  H          -3.11556283000000     -0.77226816000000     -6.84144811000000
  H          -2.01735963000000     -2.04314371000000     -6.29011313000000
  H          -6.92215058000000      0.15369307000000     -3.44272219000000
  H          -5.36177065000000      0.10334854000000     -1.49224787000000
  H          -5.19399641000000     -1.63957155000000     -1.65333506000000
  H          -6.75717397000000     -0.94784823000000     -1.23494798000000
  H          -7.28391570000000     -1.87263330000000     -4.84928258000000
  H          -7.87950712000000     -2.11926513000000     -3.20665679000000
  H          -6.35543019000000     -2.84433697000000     -3.70890137000000
  H          -3.77942531000000      2.47294687000000     -2.59690747000000
  H          -5.15314166000000      2.40665622000000     -3.71717396000000
  H           0.18568487000000      2.11953138000000     -3.61836494000000
  H           1.71562045000000      3.00912906000000     -3.78694476000000
  H           0.98031753000000      2.24242357000000     -5.20713210000000
  H           0.37611097000000      4.52072609000000     -6.85021369000000
