68
Coordinates from ORCA-job goat_0_60
  O          -2.81147741000000      3.35870052000000     -8.27450034000000
  C          -2.79311078000000      3.72508497000000     -6.90377230000000
  H          -3.20270371000000      4.73812318000000     -6.78506143000000
  C          -3.60289216000000      2.77539095000000     -6.04459535000000
  H          -3.20072426000000      1.76161327000000     -6.15755534000000
  O          -4.95594865000000      2.84092179000000     -6.45423096000000
  Si         -5.96369890000000      1.53579066000000     -6.68191930000000
  C          -5.88062030000000      0.98846317000000     -8.47377660000000
  C          -7.00552892000000      0.01792654000000     -8.85483547000000
  C          -4.51710229000000      0.35850410000000     -8.79088295000000
  C          -7.63410019000000      2.14087599000000     -6.09995346000000
  C          -8.68215980000000      1.04282324000000     -5.89600422000000
  C          -8.16811407000000      3.26755535000000     -6.99168085000000
  O          -5.44505145000000      0.29644804000000     -5.74601795000000
  Si         -4.62308956000000     -0.27987845000000     -4.43954524000000
  C          -3.32481221000000     -1.51023263000000     -4.96860370000000
  C          -2.19455075000000     -0.83883602000000     -5.75584920000000
  C          -3.92757003000000     -2.68162506000000     -5.75126582000000
  C          -5.89080373000000     -1.00639216000000     -3.26979318000000
  C          -6.69451477000000      0.09889181000000     -2.57638236000000
  C          -5.26198025000000     -1.94287988000000     -2.23369942000000
  O          -3.78409917000000      0.95270380000000     -3.73123440000000
  C          -4.18208570000000      2.30117529000000     -3.60524568000000
  C          -3.45118667000000      3.19966773000000     -4.58438635000000
  H          -3.86992223000000      4.21442180000000     -4.47793421000000
  O          -2.07893922000000      3.19960834000000     -4.23832953000000
  C          -1.30105460000000      4.12659200000000     -4.98221672000000
  H          -1.71616283000000      5.13662029000000     -4.87469073000000
  O          -0.03960967000000      4.18330164000000     -4.42708909000000
  C           0.71664704000000      2.98297804000000     -4.50842434000000
  C          -1.34485496000000      3.73132925000000     -6.45702306000000
  H          -0.95091773000000      2.71240111000000     -6.56605959000000
  O          -0.58187903000000      4.65703912000000     -7.19792157000000
  H          -3.72875092000000      3.39011624000000     -8.57067452000000
  H          -5.99746345000000      1.89779844000000     -9.08030590000000
  H          -7.99342424000000      0.47392401000000     -8.77894746000000
  H          -6.99387132000000     -0.86671112000000     -8.21255230000000
  H          -6.88159325000000     -0.32686098000000     -9.88467253000000
  H          -4.44520584000000      0.11018163000000     -9.85318214000000
  H          -4.39346576000000     -0.57001154000000     -8.22897275000000
  H          -3.67738703000000      1.01226279000000     -8.54581965000000
  H          -7.41531861000000      2.57696302000000     -5.11480434000000
  H          -8.29831868000000      0.21458996000000     -5.29771734000000
  H          -9.02712174000000      0.63055437000000     -6.84516503000000
  H          -9.55781595000000      1.44777143000000     -5.38297545000000
  H          -8.38699340000000      2.90906650000000     -8.00147609000000
  H          -7.45293098000000      4.08763664000000     -7.07489859000000
  H          -9.09610839000000      3.67311658000000     -6.58204020000000
  H          -2.89736055000000     -1.90742167000000     -4.03935622000000
  H          -1.75648655000000     -0.00959665000000     -5.19695812000000
  H          -2.55999840000000     -0.44838499000000     -6.70947162000000
  H          -1.40265924000000     -1.55748008000000     -5.98182317000000
  H          -4.39416182000000     -2.33769674000000     -6.67709278000000
  H          -4.69043458000000     -3.21738927000000     -5.18153955000000
  H          -3.15213249000000     -3.40154180000000     -6.02382323000000
  H          -6.57585754000000     -1.59321026000000     -3.89504333000000
  H          -7.16655369000000      0.77870928000000     -3.28960280000000
  H          -6.04965354000000      0.69218641000000     -1.92327302000000
  H          -7.48469820000000     -0.32893096000000     -1.95492243000000
  H          -4.52269751000000     -1.41781324000000     -1.62391965000000
  H          -4.76213710000000     -2.79528581000000     -2.69691345000000
  H          -6.02394603000000     -2.33524995000000     -1.55600155000000
  H          -3.93737877000000      2.64031036000000     -2.59636638000000
  H          -5.26100619000000      2.42395962000000     -3.75564419000000
  H           0.13679346000000      2.12666594000000     -4.16035068000000
  H           1.57309276000000      3.12025209000000     -3.85397205000000
  H           1.07252718000000      2.80830766000000     -5.52663985000000
  H          -0.80692276000000      4.52488430000000     -8.12682091000000
