68
Coordinates from ORCA-job goat_0_72
  O          -2.25861092000000      3.09012250000000     -8.08348328000000
  C          -2.93620615000000      3.81239812000000     -7.06952036000000
  H          -3.70104842000000      4.40642320000000     -7.57791771000000
  C          -3.66748968000000      2.87923906000000     -6.09310766000000
  H          -3.18806510000000      1.89499637000000     -6.14622597000000
  O          -5.03693867000000      2.79962290000000     -6.45134908000000
  Si         -5.91537444000000      1.42872220000000     -6.75811019000000
  C          -5.74227584000000      0.84241451000000     -8.51974886000000
  C          -6.71562982000000     -0.30387211000000     -8.81563839000000
  C          -4.31257495000000      0.41454185000000     -8.85606510000000
  C          -7.68242550000000      1.88816026000000     -6.36077949000000
  C          -8.20791236000000      2.94241344000000     -7.34147655000000
  C          -7.84473879000000      2.38320653000000     -4.92283390000000
  O          -5.36604483000000      0.23456560000000     -5.77593887000000
  Si         -4.56601361000000     -0.19804076000000     -4.40718409000000
  C          -3.25823438000000     -1.46601343000000     -4.80647501000000
  C          -2.12696158000000     -0.83852810000000     -5.62872544000000
  C          -3.83161302000000     -2.69400741000000     -5.51855104000000
  C          -5.86088076000000     -0.74999356000000     -3.17292857000000
  C          -5.24889258000000     -1.51164741000000     -1.99461096000000
  C          -7.01181063000000     -1.54353154000000     -3.79751267000000
  O          -3.71202508000000      1.08697200000000     -3.81190189000000
  C          -4.20192421000000      2.40513041000000     -3.65615024000000
  C          -3.58238741000000      3.37182179000000     -4.65016797000000
  H          -4.12720343000000      4.31935474000000     -4.57597198000000
  O          -2.22849329000000      3.57803925000000     -4.23639648000000
  C          -1.31577471000000      4.02986754000000     -5.19148467000000
  H          -0.61352565000000      4.67541205000000     -4.65405114000000
  O          -0.61432219000000      2.95698972000000     -5.78424490000000
  C           0.23053048000000      2.27465084000000     -4.86831892000000
  C          -1.97791657000000      4.76348128000000     -6.34235937000000
  H          -1.20075927000000      5.06750545000000     -7.04828163000000
  O          -2.64098565000000      5.88522173000000     -5.78385546000000
  H          -1.51287016000000      2.64559698000000     -7.65542593000000
  H          -6.00531856000000      1.69725854000000     -9.15453468000000
  H          -7.75970822000000     -0.02110388000000     -8.66661294000000
  H          -6.50576058000000     -1.16466881000000     -8.17453002000000
  H          -6.60532839000000     -0.64003685000000     -9.84980859000000
  H          -3.59151639000000      1.21713118000000     -8.69846926000000
  H          -4.24341896000000      0.10125427000000     -9.90131728000000
  H          -4.01886519000000     -0.44399222000000     -8.24663687000000
  H          -8.27580371000000      0.97313355000000     -6.48267283000000
  H          -8.17667413000000      2.59940010000000     -8.37690659000000
  H          -7.61807040000000      3.85969086000000     -7.27498556000000
  H          -9.24266446000000      3.20591928000000     -7.10908036000000
  H          -7.27049227000000      3.29999535000000     -4.76483484000000
  H          -7.51311016000000      1.63984955000000     -4.19430074000000
  H          -8.89102603000000      2.61531491000000     -4.70670194000000
  H          -2.84350601000000     -1.78526335000000     -3.84242864000000
  H          -1.70036371000000      0.02811944000000     -5.12198111000000
  H          -2.48989201000000     -0.51344896000000     -6.60791007000000
  H          -1.32734044000000     -1.56312789000000     -5.80782405000000
  H          -4.56830291000000     -3.21899908000000     -4.90794891000000
  H          -3.03822010000000     -3.40461085000000     -5.76385672000000
  H          -4.31613303000000     -2.41284218000000     -6.45700940000000
  H          -6.27878812000000      0.18728547000000     -2.78057233000000
  H          -4.45187565000000     -0.94459792000000     -1.51046653000000
  H          -4.83049793000000     -2.46879571000000     -2.31727267000000
  H          -6.00940400000000     -1.73161631000000     -1.24153142000000
  H          -6.67246269000000     -2.50948392000000     -4.17962057000000
  H          -7.47346515000000     -1.00496262000000     -4.62619015000000
  H          -7.78495423000000     -1.74789062000000     -3.05195817000000
  H          -3.94536510000000      2.74960701000000     -2.65259276000000
  H          -5.29083403000000      2.44694952000000     -3.75568426000000
  H           0.99137733000000      2.95911184000000     -4.47803603000000
  H           0.71726808000000      1.47374309000000     -5.42071645000000
  H          -0.34656861000000      1.85734502000000     -4.04048192000000
  H          -3.01757522000000      6.40387629000000     -6.50195145000000
