68
Coordinates from ORCA-job goat_0_92
  O          -4.05840496000000      5.01689645000000     -6.86440036000000
  C          -3.40383201000000      4.26840183000000     -5.85196231000000
  H          -3.90066639000000      4.43093606000000     -4.88508379000000
  C          -3.44340573000000      2.77949129000000     -6.13670698000000
  H          -3.00361992000000      2.59118015000000     -7.12410347000000
  O          -4.80594872000000      2.40122571000000     -6.11571799000000
  Si         -5.58833414000000      1.17652098000000     -6.91047227000000
  C          -4.81597145000000      0.83878268000000     -8.58017958000000
  C          -4.89158605000000      2.04255584000000     -9.52576381000000
  C          -5.45935030000000     -0.40057961000000     -9.21591059000000
  C          -7.38850324000000      1.69840404000000     -7.00923822000000
  C          -7.53580263000000      3.22345339000000     -7.09220264000000
  C          -8.21819382000000      1.13316258000000     -5.85034685000000
  O          -5.46186715000000     -0.19596751000000     -6.02625195000000
  Si         -4.83927068000000     -0.81320881000000     -4.63388540000000
  C          -4.69970202000000     -2.65136590000000     -4.90896374000000
  C          -3.71554007000000     -2.94156770000000     -6.04576853000000
  C          -6.07495117000000     -3.26277707000000     -5.20098738000000
  C          -5.89808289000000     -0.35334025000000     -3.16483420000000
  C          -5.72256906000000      1.13252871000000     -2.83479945000000
  C          -5.59195761000000     -1.21775389000000     -1.93634948000000
  O          -3.35233237000000     -0.14434930000000     -4.36829813000000
  C          -2.51339036000000      0.53801239000000     -5.27436841000000
  C          -2.60167487000000      2.05360242000000     -5.08773418000000
  H          -3.02600048000000      2.24158816000000     -4.09210517000000
  O          -1.28147578000000      2.57077181000000     -5.16801156000000
  C          -1.18223616000000      3.94036715000000     -4.79388101000000
  H          -1.57133116000000      4.05690333000000     -3.76601296000000
  O           0.14042036000000      4.31558307000000     -4.86872299000000
  C           0.94804116000000      3.75576901000000     -3.84607253000000
  C          -1.98696515000000      4.79938569000000     -5.75272119000000
  H          -1.50429886000000      4.73185938000000     -6.73539698000000
  O          -1.98543224000000      6.12710312000000     -5.27071123000000
  H          -4.97456345000000      4.71619829000000     -6.89953114000000
  H          -3.75673119000000      0.60783523000000     -8.40446687000000
  H          -4.39955014000000      1.81591355000000    -10.47539419000000
  H          -4.41397780000000      2.93194476000000     -9.10699148000000
  H          -5.93052658000000      2.29825252000000     -9.75362936000000
  H          -5.41224263000000     -1.26700130000000     -8.55441751000000
  H          -4.95737293000000     -0.65873223000000    -10.15129196000000
  H          -6.51248745000000     -0.22275236000000     -9.45046574000000
  H          -7.77994517000000      1.26944493000000     -7.94114014000000
  H          -8.58413840000000      3.50980611000000     -7.20777183000000
  H          -6.98512445000000      3.64743247000000     -7.93628058000000
  H          -7.16435599000000      3.69154213000000     -6.17739971000000
  H          -9.27231873000000      1.39881080000000     -5.96338653000000
  H          -7.87904830000000      1.53600462000000     -4.89261328000000
  H          -8.14582494000000      0.04605955000000     -5.79291128000000
  H          -4.30794419000000     -3.09446221000000     -3.98556340000000
  H          -2.72096249000000     -2.54607623000000     -5.82986584000000
  H          -4.05972933000000     -2.48799382000000     -6.97933383000000
  H          -3.62039223000000     -4.01657289000000     -6.21712127000000
  H          -5.99403459000000     -4.34119716000000     -5.35954819000000
  H          -6.50899594000000     -2.82649952000000     -6.10469450000000
  H          -6.78286962000000     -3.10029254000000     -4.38418710000000
  H          -6.94052012000000     -0.52838644000000     -3.46002285000000
  H          -5.85605158000000      1.77364118000000     -3.70911643000000
  H          -4.71358993000000      1.30995783000000     -2.45727400000000
  H          -6.43018753000000      1.45132248000000     -2.06580185000000
  H          -4.54496907000000     -1.11354979000000     -1.63964823000000
  H          -5.78154231000000     -2.27816725000000     -2.11668982000000
  H          -6.20690842000000     -0.91017961000000     -1.08632373000000
  H          -2.74554522000000      0.26584847000000     -6.31021929000000
  H          -1.48068721000000      0.24564705000000     -5.07909856000000
  H           0.94754887000000      2.66550192000000     -3.89305329000000
  H           0.60254030000000      4.07890499000000     -2.85863035000000
  H           1.95681982000000      4.12418922000000     -4.00904218000000
  H          -2.58159510000000      6.63481014000000     -5.83332834000000
