68
Coordinates from ORCA-job goat_0_58
  O          -2.97745562000000      2.82776652000000     -8.37167671000000
  C          -2.93072417000000      3.45713198000000     -7.10472899000000
  H          -3.42702963000000      4.43753747000000     -7.14793631000000
  C          -3.67307079000000      2.59562899000000     -6.10438722000000
  H          -3.23750663000000      1.59079564000000     -6.12123494000000
  O          -5.04552561000000      2.57122055000000     -6.42012717000000
  Si         -5.97767567000000      1.20679274000000     -6.55705384000000
  C          -5.98507475000000      0.50931269000000     -8.28512637000000
  C          -4.64961825000000     -0.14637752000000     -8.64690585000000
  C          -6.36414302000000      1.56856623000000     -9.32391094000000
  C          -7.66330123000000      1.72275248000000     -5.92388952000000
  C          -8.78435247000000      0.77986162000000     -6.36910675000000
  C          -8.02035261000000      3.17737009000000     -6.24226649000000
  O          -5.33844864000000      0.05833378000000     -5.57065821000000
  Si         -4.48160402000000     -0.33939734000000     -4.22753116000000
  C          -3.08502620000000     -1.50461329000000     -4.64623422000000
  C          -2.04044312000000     -0.84116649000000     -5.54997078000000
  C          -3.56343823000000     -2.82754623000000     -5.25062664000000
  C          -5.68917506000000     -1.04125921000000     -2.97389597000000
  C          -6.80144630000000     -1.86476729000000     -3.63261701000000
  C          -6.30941041000000      0.05369339000000     -2.09970772000000
  O          -3.71157505000000      0.99964119000000     -3.63508840000000
  C          -4.17557603000000      2.33112250000000     -3.62318357000000
  C          -3.51709170000000      3.17649273000000     -4.69722094000000
  H          -4.01065230000000      4.16048481000000     -4.68664307000000
  O          -2.14638704000000      3.32758222000000     -4.36177516000000
  C          -1.48597583000000      4.21542076000000     -5.22939600000000
  H          -1.98224575000000      5.19675663000000     -5.22417582000000
  O          -0.19572062000000      4.45744627000000     -4.76366466000000
  C           0.58366478000000      3.30011254000000     -4.46844517000000
  C          -1.49998405000000      3.65559709000000     -6.64665669000000
  H          -0.99363768000000      2.68131881000000     -6.66008319000000
  O          -0.88758589000000      4.55335262000000     -7.55558837000000
  H          -2.42182286000000      3.34223014000000     -8.96864568000000
  H          -6.76082176000000     -0.26743826000000     -8.27928974000000
  H          -4.69730032000000     -0.58629407000000     -9.64664828000000
  H          -4.38958523000000     -0.93967247000000     -7.94477399000000
  H          -3.84518287000000      0.59160955000000     -8.65454988000000
  H          -6.38045272000000      1.13401469000000    -10.32651864000000
  H          -5.63292822000000      2.37900109000000     -9.32875936000000
  H          -7.34966407000000      1.99958725000000     -9.13688028000000
  H          -7.56597553000000      1.63671356000000     -4.83249124000000
  H          -8.94502736000000      0.84206271000000     -7.44863653000000
  H          -9.72681923000000      1.04953766000000     -5.88546010000000
  H          -8.57292013000000     -0.26341953000000     -6.12598305000000
  H          -7.24832262000000      3.86440325000000     -5.89771988000000
  H          -8.96452722000000      3.45315358000000     -5.76511292000000
  H          -8.14331229000000      3.33267090000000     -7.31648909000000
  H          -2.60511358000000     -1.72087946000000     -3.68265972000000
  H          -2.45923383000000     -0.60709379000000     -6.53298256000000
  H          -1.19295259000000     -1.51201095000000     -5.71539346000000
  H          -1.65994487000000      0.08202066000000     -5.10912329000000
  H          -4.11706051000000     -2.66159439000000     -6.17859472000000
  H          -4.21066939000000     -3.38127675000000     -4.56821044000000
  H          -2.71163790000000     -3.46945105000000     -5.49081960000000
  H          -5.10304027000000     -1.70334833000000     -2.32328298000000
  H          -6.41682544000000     -2.68806773000000     -4.23622440000000
  H          -7.40731850000000     -1.23256533000000     -4.28580363000000
  H          -7.46835032000000     -2.28648778000000     -2.87545819000000
  H          -6.91353315000000      0.74056921000000     -2.70077793000000
  H          -5.55311284000000      0.63768487000000     -1.57398934000000
  H          -6.97926357000000     -0.38214676000000     -1.35387844000000
  H          -3.93339032000000      2.76999732000000     -2.65318910000000
  H          -5.26117550000000      2.38899721000000     -3.75298816000000
  H           0.05736409000000      2.64126204000000     -3.77907930000000
  H           1.49365607000000      3.66776382000000     -4.00003963000000
  H           0.84823871000000      2.74293192000000     -5.37193223000000
  H          -0.06644419000000      4.86935021000000     -7.16032034000000
