68
Coordinates from ORCA-job goat_0_65
  O          -2.76154123000000      2.85130082000000     -8.49682444000000
  C          -2.66953789000000      3.31576592000000     -7.16528105000000
  H          -3.00639668000000      4.36012664000000     -7.10190187000000
  C          -3.53899974000000      2.48130350000000     -6.23639732000000
  H          -3.24547089000000      1.42941647000000     -6.33753200000000
  O          -4.88826910000000      2.67910944000000     -6.61188597000000
  Si         -6.08017625000000      1.52680378000000     -6.71913499000000
  C          -6.23000530000000      0.84469304000000     -8.45310161000000
  C          -4.97997628000000      0.05416156000000     -8.85596087000000
  C          -6.56552296000000      1.91004640000000     -9.50023038000000
  C          -7.62017821000000      2.35746425000000     -6.06133595000000
  C          -8.88292347000000      1.53444428000000     -6.33327373000000
  C          -7.79487378000000      3.80893823000000     -6.51698607000000
  O          -5.70101195000000      0.26249127000000     -5.75148018000000
  Si         -4.75207743000000     -0.42698773000000     -4.59972268000000
  C          -3.49474178000000     -1.54300442000000     -5.41568386000000
  C          -4.09242198000000     -2.87936774000000     -5.86552846000000
  C          -2.23102115000000     -1.75011806000000     -4.57529756000000
  C          -5.91558287000000     -1.26773411000000     -3.40335046000000
  C          -6.94367522000000     -0.27035307000000     -2.85914218000000
  C          -5.18035106000000     -1.95737764000000     -2.25093320000000
  O          -3.87998771000000      0.74812868000000     -3.83572119000000
  C          -4.13379724000000      2.13049677000000     -3.77593867000000
  C          -3.31192044000000      2.90478896000000     -4.78745076000000
  H          -3.58519588000000      3.96722301000000     -4.68851881000000
  O          -1.94210626000000      2.72022841000000     -4.47389796000000
  C          -1.10075480000000      3.55015917000000     -5.24586786000000
  H          -1.36124057000000      4.60668474000000     -5.05094777000000
  O           0.21735363000000      3.30455688000000     -4.89942277000000
  C           0.54955651000000      3.69532717000000     -3.57589316000000
  C          -1.22224748000000      3.25218322000000     -6.73464883000000
  H          -0.84597669000000      2.23526006000000     -6.90173464000000
  O          -0.49041858000000      4.20114596000000     -7.48064438000000
  H          -3.67927005000000      2.95865339000000     -8.77085460000000
  H          -7.07138661000000      0.14061430000000     -8.40561980000000
  H          -5.10443678000000     -0.38119587000000     -9.85081001000000
  H          -4.77978844000000     -0.76088375000000     -8.15919014000000
  H          -4.09194979000000      0.69013627000000     -8.89140552000000
  H          -5.81621579000000      2.70690010000000     -9.52500812000000
  H          -7.53266040000000      2.37979731000000     -9.31424306000000
  H          -6.59745092000000      1.46970159000000    -10.50010808000000
  H          -7.45622341000000      2.37026874000000     -4.97452821000000
  H          -9.10388907000000      1.49354562000000     -7.40350483000000
  H          -9.74985116000000      1.98326914000000     -5.84114868000000
  H          -8.78959972000000      0.50724070000000     -5.97294130000000
  H          -6.90904171000000      4.40659789000000     -6.30098288000000
  H          -8.64806137000000      4.26797223000000     -6.01044643000000
  H          -7.98571238000000      3.87330215000000     -7.59050471000000
  H          -3.20157249000000     -0.98642968000000     -6.31662756000000
  H          -3.35671248000000     -3.45846249000000     -6.42988836000000
  H          -4.97067696000000     -2.74677362000000     -6.50216117000000
  H          -4.39199152000000     -3.48641420000000     -5.00681465000000
  H          -1.78371302000000     -0.79826092000000     -4.28844172000000
  H          -1.49007915000000     -2.32330629000000     -5.13857796000000
  H          -2.44452007000000     -2.30822072000000     -3.66078397000000
  H          -6.45083758000000     -2.02972715000000     -3.98476540000000
  H          -7.66055467000000     -0.76966827000000     -2.20193368000000
  H          -7.50604611000000      0.21350443000000     -3.65960024000000
  H          -6.45481451000000      0.50841759000000     -2.26634651000000
  H          -4.51828189000000     -2.75108336000000     -2.60098946000000
  H          -5.89245432000000     -2.40380656000000     -1.55142983000000
  H          -4.57504056000000     -1.24096747000000     -1.68945506000000
  H          -3.86919499000000      2.48123813000000     -2.77634358000000
  H          -5.19211919000000      2.35763873000000     -3.94005904000000
  H           1.60851533000000      3.48749454000000     -3.44570350000000
  H          -0.02684208000000      3.12743023000000     -2.84487188000000
  H           0.36893352000000      4.76559930000000     -3.43214590000000
  H           0.43297114000000      4.12935212000000     -7.21431251000000
