68
Coordinates from ORCA-job goat_0_67
  O          -2.33171293000000      2.77347447000000     -8.19012849000000
  C          -2.75717430000000      3.63148276000000     -7.14111002000000
  H          -3.41743527000000      4.37016097000000     -7.59420729000000
  C          -3.55694102000000      2.84690994000000     -6.10330530000000
  H          -3.16006709000000      1.82883052000000     -6.09448297000000
  O          -4.93201981000000      2.84685047000000     -6.43233767000000
  Si         -5.82471620000000      1.47390805000000     -6.69528726000000
  C          -5.45606121000000      0.77202956000000     -8.38948522000000
  C          -5.97562322000000      1.66218896000000     -9.52402629000000
  C          -5.92883929000000     -0.67618961000000     -8.55850155000000
  C          -7.57524466000000      2.01553078000000     -6.31691237000000
  C          -8.62203183000000      0.93604679000000     -6.60736916000000
  C          -7.94550915000000      3.35425695000000     -6.96545182000000
  O          -5.37712014000000      0.33200776000000     -5.59905900000000
  Si         -4.45180406000000     -0.13820648000000     -4.33048840000000
  C          -3.18736758000000     -1.39949763000000     -4.87971109000000
  C          -2.47437184000000     -0.94168251000000     -6.15670877000000
  C          -3.79918705000000     -2.79105646000000     -5.07878667000000
  C          -5.61164198000000     -0.80610851000000     -3.02884829000000
  C          -6.72764463000000      0.18441673000000     -2.68660514000000
  C          -4.86472338000000     -1.25322916000000     -1.76939235000000
  O          -3.57750397000000      1.15870974000000     -3.77654801000000
  C          -4.07602396000000      2.47942752000000     -3.66252936000000
  C          -3.44174277000000      3.40793096000000     -4.68753706000000
  H          -3.99904893000000      4.35533335000000     -4.65684438000000
  O          -2.08888545000000      3.65695396000000     -4.27523187000000
  C          -1.09451084000000      3.65891365000000     -5.27280203000000
  H          -0.24363931000000      4.16913837000000     -4.80806336000000
  O          -0.72537729000000      2.36741956000000     -5.67342275000000
  C          -0.18410188000000      1.59163209000000     -4.60817917000000
  C          -1.58202026000000      4.39469189000000     -6.50841653000000
  H          -0.78061772000000      4.44745170000000     -7.24516039000000
  O          -1.92630530000000      5.72631863000000     -6.16575991000000
  H          -1.68972747000000      2.16004385000000     -7.80938440000000
  H          -4.35800029000000      0.78457935000000     -8.44413846000000
  H          -5.62535122000000      2.69193634000000     -9.42905538000000
  H          -7.06874864000000      1.67546257000000     -9.54931200000000
  H          -5.63457647000000      1.28676722000000    -10.49172703000000
  H          -5.58117152000000     -1.08496109000000     -9.51066366000000
  H          -7.01959077000000     -0.74297711000000     -8.55572015000000
  H          -5.55723285000000     -1.32165713000000     -7.76045630000000
  H          -7.55448342000000      2.17397770000000     -5.22869004000000
  H          -8.72272809000000      0.75988583000000     -7.68113601000000
  H          -9.60406076000000      1.24034232000000     -6.23646505000000
  H          -8.37058763000000     -0.01692342000000     -6.13591331000000
  H          -8.00244214000000      3.27303531000000     -8.05305157000000
  H          -7.21284261000000      4.12607343000000     -6.72823297000000
  H          -8.92212616000000      3.69407919000000     -6.61153763000000
  H          -2.44775131000000     -1.46259268000000     -4.07143639000000
  H          -3.18246379000000     -0.84744617000000     -6.98465442000000
  H          -1.71505744000000     -1.66884706000000     -6.45563357000000
  H          -1.98247190000000      0.02387365000000     -6.02665932000000
  H          -3.03441164000000     -3.49959978000000     -5.40578682000000
  H          -4.57709881000000     -2.77854569000000     -5.84665855000000
  H          -4.24649303000000     -3.18636802000000     -4.16509964000000
  H          -6.07382286000000     -1.68932813000000     -3.48881888000000
  H          -6.32658954000000      1.08017488000000     -2.20520123000000
  H          -7.44069239000000     -0.26383967000000     -1.99114704000000
  H          -7.27816989000000      0.49728982000000     -3.57569925000000
  H          -4.35531176000000     -0.40978779000000     -1.29788326000000
  H          -4.10967699000000     -2.01365771000000     -1.98107713000000
  H          -5.55925318000000     -1.67109010000000     -1.03676551000000
  H          -3.83181355000000      2.85819761000000     -2.66701480000000
  H          -5.16353832000000      2.51509894000000     -3.78954700000000
  H           0.63481113000000      2.13383446000000     -4.12467661000000
  H           0.20108836000000      0.67540602000000     -5.04924269000000
  H          -0.95508406000000      1.35612184000000     -3.87289303000000
  H          -2.30757459000000      5.72617553000000     -5.28014099000000
