68
Coordinates from ORCA-job goat_0_79
  O          -4.19979522000000      4.85079816000000     -7.41892725000000
  C          -3.56447690000000      4.41296804000000     -6.23333885000000
  H          -4.13554630000000      4.73863810000000     -5.35302324000000
  C          -3.54776838000000      2.89443144000000     -6.23288862000000
  H          -3.11518449000000      2.56287031000000     -7.18543671000000
  O          -4.86516464000000      2.43944038000000     -6.07666853000000
  Si         -5.78082645000000      1.25121959000000     -6.75908177000000
  C          -5.30313593000000      0.86932770000000     -8.53313325000000
  C          -6.41322205000000      0.03820375000000     -9.19409794000000
  C          -3.96995996000000      0.12530453000000     -8.66409142000000
  C          -7.53096690000000      1.87101015000000     -6.60926665000000
  C          -7.75197332000000      3.07671513000000     -7.52952593000000
  C          -7.85705156000000      2.23178318000000     -5.15825174000000
  O          -5.59959373000000     -0.12098024000000     -5.87148530000000
  Si         -4.66210423000000     -0.81245980000000     -4.71139337000000
  C          -3.95248007000000     -2.37803806000000     -5.45775440000000
  C          -4.99293875000000     -3.20972776000000     -6.21250348000000
  C          -3.21546795000000     -3.23120798000000     -4.42204824000000
  C          -5.64205761000000     -1.05558396000000     -3.13600924000000
  C          -7.04722731000000     -1.60375357000000     -3.41278432000000
  C          -5.70688663000000      0.24694879000000     -2.32787236000000
  O          -3.43628637000000      0.20709814000000     -4.27172887000000
  C          -2.49789672000000      0.84472732000000     -5.10951463000000
  C          -2.68535173000000      2.36235005000000     -5.08367303000000
  H          -3.17600779000000      2.61975260000000     -4.13374849000000
  O          -1.38867238000000      2.94420791000000     -5.14645017000000
  C          -1.43043722000000      4.34399109000000     -4.96581866000000
  H          -1.94464757000000      4.57380080000000     -4.01411965000000
  O          -0.13966387000000      4.84298357000000     -4.95549287000000
  C           0.60924689000000      4.45292957000000     -3.81313056000000
  C          -2.16168900000000      4.97605508000000     -6.13243955000000
  H          -1.60362909000000      4.72544574000000     -7.04260292000000
  O          -2.28670077000000      6.37891226000000     -5.98213535000000
  H          -4.12357178000000      5.81192891000000     -7.44842189000000
  H          -5.22594920000000      1.82735392000000     -9.06196417000000
  H          -6.54102875000000     -0.91681093000000     -8.67742122000000
  H          -6.15536422000000     -0.18522278000000    -10.23230334000000
  H          -7.37894850000000      0.54618129000000     -9.19191735000000
  H          -3.99390333000000     -0.80984971000000     -8.09779618000000
  H          -3.12054537000000      0.71206634000000     -8.30920804000000
  H          -3.77611530000000     -0.13035958000000     -9.70955040000000
  H          -8.19379482000000      1.05616928000000     -6.92301241000000
  H          -7.05458191000000      3.88047540000000     -7.28420821000000
  H          -8.76609773000000      3.46673148000000     -7.41452624000000
  H          -7.60826592000000      2.83023034000000     -8.58373069000000
  H          -7.18902506000000      3.01771999000000     -4.80008281000000
  H          -7.75009314000000      1.37367169000000     -4.49310945000000
  H          -8.88191799000000      2.60011484000000     -5.07219648000000
  H          -3.20962450000000     -2.02833565000000     -6.18867518000000
  H          -4.51508515000000     -4.04375438000000     -6.73188892000000
  H          -5.53352042000000     -2.61392867000000     -6.94901241000000
  H          -5.73018726000000     -3.63617830000000     -5.52813185000000
  H          -2.45675306000000     -2.65958451000000     -3.88436069000000
  H          -2.72003120000000     -4.07670995000000     -4.90459215000000
  H          -3.90779116000000     -3.64119295000000     -3.68246642000000
  H          -5.10056111000000     -1.79856470000000     -2.53742210000000
  H          -7.61264468000000     -0.92671706000000     -4.05615269000000
  H          -7.60673237000000     -1.71757521000000     -2.48067904000000
  H          -7.02464349000000     -2.57746047000000     -3.90583645000000
  H          -6.29646026000000      0.10713180000000     -1.41747796000000
  H          -6.17663307000000      1.04706009000000     -2.90556256000000
  H          -4.71091613000000      0.58969780000000     -2.04805030000000
  H          -2.55741591000000      0.47358373000000     -6.14024943000000
  H          -1.49328884000000      0.63165999000000     -4.73682098000000
  H           1.58357120000000      4.92505113000000     -3.90016554000000
  H           0.72911700000000      3.37009733000000     -3.78077553000000
  H           0.12016615000000      4.79353729000000     -2.89494447000000
  H          -1.39785869000000      6.74240027000000     -5.90106903000000
