68
Coordinates from ORCA-job goat_0_96
  O          -2.49800802000000      2.82783675000000     -8.35229136000000
  C          -2.45409003000000      3.26822276000000     -7.00277002000000
  H          -2.72669181000000      4.33135836000000     -6.94649107000000
  C          -3.40984039000000      2.48933528000000     -6.12455537000000
  H          -3.17903423000000      1.42048053000000     -6.22268150000000
  O          -4.73265367000000      2.77954870000000     -6.53685810000000
  Si         -5.92622302000000      1.64183697000000     -6.75492001000000
  C          -5.82526451000000      0.97543696000000     -8.50478517000000
  C          -6.26674899000000      1.99638820000000     -9.56061837000000
  C          -6.56248509000000     -0.35660971000000     -8.68484660000000
  C          -7.50170978000000      2.50644558000000     -6.23823983000000
  C          -8.75976883000000      1.68163429000000     -6.52763436000000
  C          -7.62524459000000      3.93553908000000     -6.77748863000000
  O          -5.66184150000000      0.38411914000000     -5.74344957000000
  Si         -4.74896579000000     -0.36304138000000     -4.59656416000000
  C          -3.48835172000000     -1.46510488000000     -5.43086915000000
  C          -4.07854205000000     -2.80557533000000     -5.88042554000000
  C          -2.21672170000000     -1.65931405000000     -4.59835488000000
  C          -5.94760863000000     -1.23877405000000     -3.46419479000000
  C          -6.99077555000000     -0.24323369000000     -2.94430188000000
  C          -5.23846446000000     -1.94761018000000     -2.30613125000000
  O          -3.89860663000000      0.77117430000000     -3.75107472000000
  C          -4.09139325000000      2.16452614000000     -3.69146138000000
  C          -3.19621961000000      2.90210716000000     -4.67046423000000
  H          -3.42403947000000      3.97810682000000     -4.58216075000000
  O          -1.84890526000000      2.64352427000000     -4.32148415000000
  C          -0.91075091000000      3.41987656000000     -5.05329607000000
  H          -1.11185641000000      4.49195254000000     -4.87353425000000
  O           0.35434941000000      3.07591975000000     -4.63262434000000
  C           0.66721795000000      3.53286902000000     -3.32793240000000
  C          -1.01854554000000      3.11471556000000     -6.53744414000000
  H          -0.70734475000000      2.07157509000000     -6.67409659000000
  O          -0.17067535000000      4.00281439000000     -7.23477558000000
  H          -3.39874991000000      2.94922909000000     -8.67440963000000
  H          -4.75215133000000      0.78018080000000     -8.65225637000000
  H          -6.04556815000000      1.63300254000000    -10.56686219000000
  H          -5.77455787000000      2.96592239000000     -9.44259953000000
  H          -7.34415785000000      2.17348978000000     -9.50972378000000
  H          -7.64224727000000     -0.23558041000000     -8.57027802000000
  H          -6.23379306000000     -1.09895620000000     -7.95659770000000
  H          -6.38347738000000     -0.76393319000000     -9.68291703000000
  H          -7.39667818000000      2.57535173000000     -5.14532696000000
  H          -9.63756322000000      2.14813339000000     -6.07415624000000
  H          -8.68451915000000      0.66574638000000     -6.13324247000000
  H          -8.94950413000000      1.60871791000000     -7.60148988000000
  H          -6.73957007000000      4.52784238000000     -6.54492879000000
  H          -8.49131389000000      4.43490308000000     -6.33610811000000
  H          -7.75880832000000      3.94761152000000     -7.86168131000000
  H          -3.20916087000000     -0.90974540000000     -6.33772278000000
  H          -3.33977860000000     -3.37490392000000     -6.44920342000000
  H          -4.95709204000000     -2.67921035000000     -6.51675963000000
  H          -4.37647856000000     -3.42062344000000     -5.02758132000000
  H          -1.77954716000000     -0.70254950000000     -4.31213646000000
  H          -1.47291048000000     -2.22178843000000     -5.16808779000000
  H          -2.41742147000000     -2.21784604000000     -3.68057374000000
  H          -6.45989934000000     -1.99313937000000     -4.07452479000000
  H          -7.73002705000000     -0.74355721000000     -2.31412166000000
  H          -7.52204223000000      0.25158591000000     -3.76002285000000
  H          -6.51473353000000      0.53102348000000     -2.33593261000000
  H          -4.54861939000000     -2.71972920000000     -2.65250829000000
  H          -5.96140674000000     -2.42665027000000     -1.64126324000000
  H          -4.66304590000000     -1.23667647000000     -1.70924973000000
  H          -3.83898550000000      2.50273793000000     -2.68409305000000
  H          -5.13345235000000      2.44107045000000     -3.89305824000000
  H          -0.00410685000000      3.09961357000000     -2.58448552000000
  H           0.61381034000000      4.62568319000000     -3.27957802000000
  H           1.68606802000000      3.21394604000000     -3.12610028000000
  H          -0.31476632000000      3.85179706000000     -8.17581849000000
