68
Coordinates from ORCA-job goat_0_70
  O          -2.21503637000000      2.63497038000000     -8.13498441000000
  C          -2.67156620000000      3.53374077000000     -7.13414668000000
  H          -3.31045628000000      4.25824208000000     -7.63799485000000
  C          -3.51385152000000      2.79302447000000     -6.09553672000000
  H          -3.14670758000000      1.76354749000000     -6.06188824000000
  O          -4.88272438000000      2.82961486000000     -6.45092026000000
  Si         -5.81692960000000      1.48343178000000     -6.70290196000000
  C          -5.44218572000000      0.74181066000000     -8.37795236000000
  C          -5.96822664000000      1.59824918000000     -9.53496713000000
  C          -5.90421723000000     -0.71330669000000     -8.50755030000000
  C          -7.55683432000000      2.07777692000000     -6.36009465000000
  C          -8.62038505000000      1.00516173000000     -6.61330445000000
  C          -7.90017121000000      3.39854310000000     -7.05769662000000
  O          -5.42566386000000      0.34947999000000     -5.57922810000000
  Si         -4.52932753000000     -0.13799337000000     -4.29723157000000
  C          -3.30164528000000     -1.43607342000000     -4.82952918000000
  C          -2.38088769000000     -1.84341482000000     -3.67427167000000
  C          -2.49113441000000     -0.97843796000000     -6.04464977000000
  C          -5.72972283000000     -0.77511457000000     -3.01433988000000
  C          -6.44932919000000     -2.02934176000000     -3.52580667000000
  C          -6.75293438000000      0.29581663000000     -2.62513434000000
  O          -3.62953426000000      1.14030974000000     -3.74056650000000
  C          -4.08640511000000      2.47796991000000     -3.65664229000000
  C          -3.41565057000000      3.37586819000000     -4.68694803000000
  H          -3.96380387000000      4.32893809000000     -4.68451141000000
  O          -2.06940125000000      3.62058203000000     -4.25173444000000
  C          -1.05421839000000      3.60859092000000     -5.22785427000000
  H          -0.21639335000000      4.13413844000000     -4.75632522000000
  O          -0.66973757000000      2.30962032000000     -5.58851777000000
  C          -0.12107841000000      1.57990169000000     -4.49611837000000
  C          -1.51422436000000      4.31367076000000     -6.49107169000000
  H          -0.69448434000000      4.35155901000000     -7.20850388000000
  O          -1.87025801000000      5.65193727000000     -6.18832780000000
  H          -1.59466185000000      2.02937015000000     -7.70837643000000
  H          -4.34424212000000      0.76174244000000     -8.43264966000000
  H          -5.62843537000000      2.63357363000000     -9.46482513000000
  H          -7.06134685000000      1.60089133000000     -9.56146963000000
  H          -5.62241941000000      1.20204325000000    -10.49261631000000
  H          -6.99453977000000     -0.78863752000000     -8.49326176000000
  H          -5.52006860000000     -1.33443177000000     -7.69638104000000
  H          -5.56120449000000     -1.14189251000000     -9.45258908000000
  H          -7.53832006000000      2.27536300000000     -5.27814064000000
  H          -8.71675138000000      0.78147363000000     -7.67867499000000
  H          -9.59954113000000      1.34191143000000     -6.26350455000000
  H          -8.38795577000000      0.07077050000000     -6.09685851000000
  H          -8.86746974000000      3.77292616000000     -6.71314083000000
  H          -7.96363453000000      3.27938752000000     -8.14136045000000
  H          -7.14988064000000      4.16233084000000     -6.85068991000000
  H          -3.89531636000000     -2.31056825000000     -5.12393283000000
  H          -1.80199987000000     -0.98696871000000     -3.32276262000000
  H          -1.67468234000000     -2.61283528000000     -3.99555565000000
  H          -2.93488699000000     -2.23688825000000     -2.81902875000000
  H          -1.80238684000000     -1.76313620000000     -6.36774120000000
  H          -1.89545028000000     -0.09565895000000     -5.80103777000000
  H          -3.13314867000000     -0.72474605000000     -6.89135093000000
  H          -5.14610907000000     -1.04411307000000     -2.12573038000000
  H          -7.00382976000000     -1.81195120000000     -4.44218767000000
  H          -7.16949796000000     -2.38687223000000     -2.78634538000000
  H          -5.76269293000000     -2.84957706000000     -3.74269582000000
  H          -7.32598220000000      0.61451483000000     -3.50004846000000
  H          -6.28408910000000      1.17954899000000     -2.18859953000000
  H          -7.46483461000000     -0.09774379000000     -1.89613157000000
  H          -3.84480146000000      2.86598071000000     -2.66412379000000
  H          -5.17051657000000      2.54523581000000     -3.79825268000000
  H           0.24630822000000      0.63773154000000     -4.89533453000000
  H          -0.88321752000000      1.39132267000000     -3.73811115000000
  H           0.71116446000000      2.13547754000000     -4.05196926000000
  H          -2.27049160000000      5.67239103000000     -5.31148961000000
