68
Coordinates from ORCA-job goat_0_38
  O          -2.73998223000000      2.81393073000000     -8.39424179000000
  C          -2.57549366000000      3.38155555000000     -7.10727328000000
  H          -2.92389450000000      4.42449363000000     -7.10145700000000
  C          -3.42213351000000      2.59066773000000     -6.13172359000000
  H          -3.16167525000000      1.53004962000000     -6.24156571000000
  O          -4.79163503000000      2.82223792000000     -6.37915112000000
  Si         -5.87884959000000      1.61456504000000     -6.72223242000000
  C          -5.72432488000000      1.06501115000000     -8.49817999000000
  C          -6.23781336000000      2.10849133000000     -9.49328011000000
  C          -6.34549147000000     -0.30954001000000     -8.76216168000000
  C          -7.51402751000000      2.32324513000000     -6.15837141000000
  C          -8.71547848000000      1.45794122000000     -6.54432494000000
  C          -7.72442898000000      3.78262820000000     -6.57266330000000
  O          -5.50483548000000      0.31520660000000     -5.79100649000000
  Si         -4.68037577000000     -0.33148656000000     -4.52774284000000
  C          -3.54670095000000     -1.66695724000000     -5.17436771000000
  C          -4.28127113000000     -2.92723897000000     -5.63821962000000
  C          -2.40308408000000     -2.00809244000000     -4.21445308000000
  C          -5.97398426000000     -0.80223790000000     -3.26199786000000
  C          -5.39328479000000     -1.52295756000000     -2.04373668000000
  C          -7.14996502000000     -1.58296439000000     -3.85621794000000
  O          -3.64312599000000      0.78291082000000     -3.87759835000000
  C          -3.87759123000000      2.15822127000000     -3.67694040000000
  C          -3.12796070000000      3.00687028000000     -4.68929321000000
  H          -3.46443987000000      4.04780830000000     -4.56096719000000
  O          -1.73901533000000      2.90568471000000     -4.41571308000000
  C          -0.98482050000000      3.77309959000000     -5.23191464000000
  H          -1.33764614000000      4.81085783000000     -5.08713609000000
  O           0.35457554000000      3.66936782000000     -4.89938007000000
  C           0.66709103000000      4.17486055000000     -3.60941034000000
  C          -1.12121184000000      3.35414857000000     -6.68358541000000
  H          -0.74113437000000      2.32760887000000     -6.75762407000000
  O          -0.41853694000000      4.22494496000000     -7.55154823000000
  H          -2.11990869000000      3.25773457000000     -8.98423656000000
  H          -4.63982718000000      0.98260386000000     -8.64574679000000
  H          -6.01910600000000      1.79748697000000    -10.51775439000000
  H          -5.77085358000000      3.08202612000000     -9.33550186000000
  H          -7.32192651000000      2.23128880000000     -9.42260428000000
  H          -5.95888128000000     -1.06299912000000     -8.07431078000000
  H          -6.12342593000000     -0.63940818000000     -9.78043098000000
  H          -7.43371085000000     -0.28909856000000     -8.66110482000000
  H          -7.42853463000000      2.30121190000000     -5.06244833000000
  H          -8.88294018000000      1.46808269000000     -7.62387487000000
  H          -9.62720980000000      1.83358953000000     -6.07340977000000
  H          -8.58925745000000      0.41816309000000     -6.23704033000000
  H          -8.63111325000000      4.18309037000000     -6.11124011000000
  H          -7.84063644000000      3.88100937000000     -7.65433766000000
  H          -6.88448186000000      4.40759973000000     -6.26929898000000
  H          -3.10056226000000     -1.19964927000000     -6.06361481000000
  H          -3.59207705000000     -3.60595563000000     -6.14729417000000
  H          -5.09396191000000     -2.69905541000000     -6.33110242000000
  H          -4.70551149000000     -3.47457164000000     -4.79262126000000
  H          -1.85437822000000     -1.11382934000000     -3.91951666000000
  H          -1.70140079000000     -2.69999318000000     -4.68811773000000
  H          -2.77142655000000     -2.49122322000000     -3.30611270000000
  H          -6.36254435000000      0.16935854000000     -2.92294537000000
  H          -5.03210583000000     -2.51905977000000     -2.31202760000000
  H          -6.15680945000000     -1.65563995000000     -1.27295232000000
  H          -4.56073942000000     -0.97268314000000     -1.60185968000000
  H          -6.84533071000000     -2.58301571000000     -4.17334081000000
  H          -7.57470890000000     -1.07392020000000     -4.72225759000000
  H          -7.94390217000000     -1.70743865000000     -3.11494354000000
  H          -3.52912160000000      2.42873202000000     -2.67689335000000
  H          -4.94363889000000      2.40422582000000     -3.73915214000000
  H           0.16687905000000      3.59422446000000     -2.83332024000000
  H           0.37320390000000      5.22684257000000     -3.52741454000000
  H           1.74491025000000      4.09004066000000     -3.49261371000000
  H           0.50552628000000      4.22607756000000     -7.27729921000000
