68
Coordinates from ORCA-job goat_0_28
  O          -2.64916521000000      2.92320912000000     -8.39821292000000
  C          -2.62426447000000      3.40793773000000     -7.06264986000000
  H          -3.00864978000000      4.43642310000000     -7.03170117000000
  C          -3.47038459000000      2.55930432000000     -6.13719483000000
  H          -3.14593749000000      1.51681182000000     -6.22523363000000
  O          -4.83158613000000      2.70847500000000     -6.50589216000000
  Si         -5.86267114000000      1.43093049000000     -6.76272778000000
  C          -5.59907944000000      0.69175466000000     -8.46208322000000
  C          -6.03149133000000      1.60672957000000     -9.61308724000000
  C          -6.27745556000000     -0.67744446000000     -8.58343268000000
  C          -7.56903760000000      2.14156402000000     -6.46244863000000
  C          -7.73892078000000      3.51083548000000     -7.13838397000000
  C          -7.85226240000000      2.26498705000000     -4.96039392000000
  O          -5.51434138000000      0.24597050000000     -5.68887268000000
  Si         -4.69763991000000     -0.34514258000000     -4.38811562000000
  C          -3.52299351000000     -1.70586165000000     -4.90058793000000
  C          -2.52113970000000     -1.17821429000000     -5.93473021000000
  C          -4.22039471000000     -2.97213328000000     -5.40827126000000
  C          -5.99010650000000     -0.82573649000000     -3.12407302000000
  C          -5.37206310000000     -1.57133792000000     -1.93737176000000
  C          -7.16936197000000     -1.60087285000000     -3.72028934000000
  O          -3.70870800000000      0.83002767000000     -3.78222899000000
  C          -4.01811097000000      2.20197168000000     -3.67648242000000
  C          -3.25187791000000      3.02032779000000     -4.69773838000000
  H          -3.59308508000000      4.06564269000000     -4.61360925000000
  O          -1.87276641000000      2.92160594000000     -4.39286586000000
  C          -1.05651672000000      3.78850652000000     -5.16689796000000
  H          -1.38746049000000      4.83101979000000     -5.00673319000000
  O           0.25282400000000      3.61964409000000     -4.77492611000000
  C           0.53830474000000      4.14867330000000     -3.49144255000000
  C          -1.16732849000000      3.42994968000000     -6.63782615000000
  H          -0.74246813000000      2.42552884000000     -6.75683927000000
  O          -0.44634404000000      4.38676558000000     -7.38597190000000
  H          -3.56047407000000      2.95102688000000     -8.71035831000000
  H          -4.51341356000000      0.53708737000000     -8.53958926000000
  H          -7.11889908000000      1.71390446000000     -9.64106557000000
  H          -5.72208088000000      1.18690936000000    -10.57281470000000
  H          -5.61293093000000      2.61479457000000     -9.54016075000000
  H          -7.36572651000000     -0.58867672000000     -8.51941877000000
  H          -5.95649377000000     -1.35790411000000     -7.79457966000000
  H          -6.04332258000000     -1.13676459000000     -9.54647031000000
  H          -8.29486303000000      1.44144956000000     -6.89643743000000
  H          -7.00150418000000      4.21640256000000     -6.75079565000000
  H          -8.73201069000000      3.92073605000000     -6.93598957000000
  H          -7.61415360000000      3.46670081000000     -8.22091934000000
  H          -8.86879092000000      2.62591033000000     -4.78458158000000
  H          -7.17011476000000      2.98800188000000     -4.50502966000000
  H          -7.73387620000000      1.31587791000000     -4.43528649000000
  H          -2.96543650000000     -1.96675022000000     -3.99190159000000
  H          -1.79905623000000     -1.95227667000000     -6.20675147000000
  H          -1.96728766000000     -0.31921870000000     -5.55270809000000
  H          -3.03250680000000     -0.87278724000000     -6.85314719000000
  H          -4.85835008000000     -3.42680573000000     -4.64867438000000
  H          -3.48319527000000     -3.72216324000000     -5.70729209000000
  H          -4.84349626000000     -2.76379138000000     -6.28176088000000
  H          -6.37511931000000      0.13402583000000     -2.75030434000000
  H          -6.12135656000000     -1.75002613000000     -1.16260888000000
  H          -4.55087906000000     -1.00909359000000     -1.48873125000000
  H          -4.97882977000000     -2.54484332000000     -2.24244321000000
  H          -6.86449427000000     -2.59183681000000     -4.06272781000000
  H          -7.60644663000000     -1.08137612000000     -4.57448003000000
  H          -7.95323009000000     -1.74283191000000     -2.97247492000000
  H          -3.73466490000000      2.54687120000000     -2.67972628000000
  H          -5.08857589000000      2.39307520000000     -3.81321280000000
  H           1.59720233000000      3.98056430000000     -3.31664817000000
  H          -0.04259449000000      3.64561623000000     -2.71671462000000
  H           0.33486687000000      5.22441236000000     -3.46171579000000
  H          -0.60747044000000      4.19670676000000     -8.31738332000000
