68
Coordinates from ORCA-job goat_0_11
  O          -2.95695718000000      2.63001755000000     -8.52554839000000
  C          -2.80148349000000      3.26805925000000     -7.27242083000000
  H          -3.21312332000000      4.28494720000000     -7.31810861000000
  C          -3.57081101000000      2.48606685000000     -6.22781097000000
  H          -3.22780620000000      1.44614788000000     -6.26112798000000
  O          -4.95260281000000      2.59148332000000     -6.47868722000000
  Si         -6.02182993000000      1.33036403000000     -6.59182474000000
  C          -6.16817455000000      0.66543623000000     -8.32970109000000
  C          -4.93118814000000     -0.13700101000000     -8.74830863000000
  C          -6.45020488000000      1.77833924000000     -9.34556889000000
  C          -7.61688934000000      2.00508168000000     -5.86844126000000
  C          -8.84350582000000      1.17681776000000     -6.26456607000000
  C          -7.84880236000000      3.49150812000000     -6.16112870000000
  O          -5.46318517000000      0.10059519000000     -5.65607233000000
  Si         -4.62817605000000     -0.35404114000000     -4.31686865000000
  C          -3.43143480000000     -1.72218837000000     -4.74368140000000
  C          -2.32706199000000     -1.21903623000000     -5.68141045000000
  C          -4.12571570000000     -2.94808174000000     -5.34473629000000
  C          -5.89162336000000     -0.74133462000000     -2.98638655000000
  C          -5.25261692000000     -1.37888099000000     -1.74849846000000
  C          -7.08383665000000     -1.57116735000000     -3.47221719000000
  O          -3.64893453000000      0.87721907000000     -3.80237432000000
  C          -3.96410937000000      2.24772574000000     -3.72904580000000
  C          -3.28860760000000      3.04578011000000     -4.83072225000000
  H          -3.68637745000000      4.07286429000000     -4.79132054000000
  O          -1.89135366000000      3.05971775000000     -4.57226228000000
  C          -1.19591599000000      3.88961152000000     -5.47760167000000
  H          -1.59942664000000      4.91743926000000     -5.41062363000000
  O           0.15472098000000      3.87651434000000     -5.17373637000000
  C           0.46721960000000      4.48290767000000     -3.92910973000000
  C          -1.33986652000000      3.34894333000000     -6.88773239000000
  H          -0.90985745000000      2.33982816000000     -6.89446133000000
  O          -0.70176713000000      4.18061529000000     -7.84074051000000
  H          -2.36019844000000      3.06417531000000     -9.14676484000000
  H          -7.02799267000000     -0.01789811000000     -8.30615873000000
  H          -4.73181425000000     -0.96279285000000     -8.06399830000000
  H          -4.04895582000000      0.50454550000000     -8.77996721000000
  H          -5.07181650000000     -0.55514332000000     -9.74902493000000
  H          -6.54857805000000      1.35693848000000    -10.35003776000000
  H          -5.62554364000000      2.49460477000000     -9.36036327000000
  H          -7.37012217000000      2.32378871000000     -9.12197080000000
  H          -7.46779264000000      1.89657866000000     -4.78415817000000
  H          -8.72225189000000      0.11466105000000     -6.04011065000000
  H          -9.04199941000000      1.26861241000000     -7.33563349000000
  H          -9.73392709000000      1.52859191000000     -5.73689408000000
  H          -8.01141434000000      3.66406353000000     -7.22768847000000
  H          -6.99816084000000      4.10144626000000     -5.85651179000000
  H          -8.73730167000000      3.84933257000000     -5.63361979000000
  H          -2.96202927000000     -2.01226342000000     -3.79526669000000
  H          -2.74335810000000     -0.91250742000000     -6.64506326000000
  H          -1.60377546000000     -2.01488352000000     -5.87886609000000
  H          -1.79088316000000     -0.36926424000000     -5.25725685000000
  H          -3.38811421000000     -3.70676016000000     -5.61933717000000
  H          -4.67634642000000     -2.67887785000000     -6.25001343000000
  H          -4.83101831000000     -3.40844345000000     -4.65090058000000
  H          -6.27105220000000      0.25117738000000     -2.70077616000000
  H          -4.86498782000000     -2.37449477000000     -1.98086120000000
  H          -5.98921070000000     -1.49718861000000     -0.94964053000000
  H          -4.42569049000000     -0.78304481000000     -1.35774311000000
  H          -7.83551100000000     -1.65837746000000     -2.68326729000000
  H          -6.77905774000000     -2.58508144000000     -3.74041297000000
  H          -7.56131474000000     -1.12830606000000     -4.34694973000000
  H          -3.60771432000000      2.63762131000000     -2.77280081000000
  H          -5.04463105000000      2.42239883000000     -3.78882001000000
  H           0.01258798000000      3.93591978000000     -3.10347882000000
  H           0.12633580000000      5.52252427000000     -3.90864167000000
  H           1.54835344000000      4.45699070000000     -3.83224204000000
  H           0.22453263000000      4.25983665000000     -7.58613372000000
