68
Coordinates from ORCA-job goat_0_94
  O          -3.86813534000000      4.75451542000000     -7.45765759000000
  C          -3.26420150000000      4.26341948000000     -6.27507769000000
  H          -3.78718747000000      4.65198330000000     -5.38932183000000
  C          -3.38869704000000      2.75012307000000     -6.26538569000000
  H          -2.99214035000000      2.36975273000000     -7.21820675000000
  O          -4.74388635000000      2.41542111000000     -6.09799901000000
  Si         -5.67173111000000      1.24903422000000     -6.81592373000000
  C          -5.11629883000000      0.94016301000000     -8.57409905000000
  C          -5.27492173000000      2.15339901000000     -9.49344601000000
  C          -5.75986268000000     -0.30834559000000     -9.18725980000000
  C          -7.41478003000000      1.83045163000000     -6.48996239000000
  C          -8.48556327000000      0.86886788000000     -7.01002726000000
  C          -7.67667816000000      3.26827080000000     -6.94573038000000
  O          -5.44836892000000     -0.17891231000000     -6.02495400000000
  Si         -4.89670919000000     -0.68342150000000     -4.56127195000000
  C          -4.67419374000000     -2.53091486000000     -4.72619468000000
  C          -4.23478288000000     -3.21008512000000     -3.42760020000000
  C          -3.68995644000000     -2.84776931000000     -5.85718234000000
  C          -6.05589947000000     -0.11477352000000     -3.21225771000000
  C          -5.44156612000000     -0.13635879000000     -1.81007159000000
  C          -7.40506212000000     -0.83760429000000     -3.24416209000000
  O          -3.45775373000000      0.06444792000000     -4.23105844000000
  C          -2.53996074000000      0.61424041000000     -5.14876407000000
  C          -2.57095044000000      2.14264502000000     -5.12195340000000
  H          -3.01587331000000      2.45042535000000     -4.16452788000000
  O          -1.22364937000000      2.58957430000000     -5.20777505000000
  C          -1.12213058000000      3.98662927000000     -5.04191606000000
  H          -1.58179039000000      4.27360276000000     -4.07922649000000
  O           0.21160260000000      4.35630190000000     -5.06789666000000
  C           0.95590968000000      3.88733568000000     -3.95183793000000
  C          -1.81086525000000      4.68433736000000     -6.19779443000000
  H          -1.29453804000000      4.37466505000000     -7.11460650000000
  O          -1.78992895000000      6.09313179000000     -6.05071064000000
  H          -3.70649598000000      5.70481202000000     -7.48722256000000
  H          -4.04123212000000      0.73073783000000     -8.47527569000000
  H          -6.33015711000000      2.35096973000000     -9.69631730000000
  H          -4.79472561000000      1.96688209000000    -10.45767182000000
  H          -4.84131223000000      3.05795915000000     -9.06437276000000
  H          -5.64260586000000     -1.18268167000000     -8.54540550000000
  H          -5.30762688000000     -0.53548479000000    -10.15631060000000
  H          -6.82794184000000     -0.15861361000000     -9.36042880000000
  H          -7.46684513000000      1.81887577000000     -5.39201131000000
  H          -9.47440425000000      1.15265448000000     -6.64052492000000
  H          -8.29521436000000     -0.16044172000000     -6.69947478000000
  H          -8.53529014000000      0.88408576000000     -8.10114610000000
  H          -7.68940000000000      3.34597122000000     -8.03494589000000
  H          -6.91082891000000      3.94948596000000     -6.57410795000000
  H          -8.64906286000000      3.61574658000000     -6.58615642000000
  H          -5.65908538000000     -2.92412657000000     -5.00944574000000
  H          -4.06544946000000     -4.27806037000000     -3.58897749000000
  H          -4.98163432000000     -3.11050578000000     -2.63884424000000
  H          -3.29795515000000     -2.78571881000000     -3.05787848000000
  H          -3.61274087000000     -3.92648912000000     -6.01698017000000
  H          -2.68637134000000     -2.48901159000000     -5.61073670000000
  H          -3.99445350000000     -2.38974307000000     -6.79984000000000
  H          -6.23138209000000      0.93800848000000     -3.47445327000000
  H          -5.26594911000000     -1.15630725000000     -1.46168115000000
  H          -6.11454955000000      0.33745845000000     -1.09050369000000
  H          -4.48935223000000      0.39377027000000     -1.78533936000000
  H          -7.29776060000000     -1.89651869000000     -2.99240272000000
  H          -7.87893267000000     -0.77438559000000     -4.22654416000000
  H          -8.09247280000000     -0.40123894000000     -2.51429502000000
  H          -2.72812421000000      0.25188748000000     -6.16577420000000
  H          -1.53306865000000      0.30091100000000     -4.86776323000000
  H           0.96922739000000      2.79705223000000     -3.92386717000000
  H           0.53010962000000      4.27065088000000     -3.01890039000000
  H           1.96949133000000      4.26263944000000     -4.07043131000000
  H          -0.86791190000000      6.36499550000000     -5.97632982000000
