68
Coordinates from ORCA-job goat_0_12
  O          -3.02168124000000      2.68143499000000     -8.48480943000000
  C          -2.86255840000000      3.28515392000000     -7.21524751000000
  H          -3.30525886000000      4.28992030000000     -7.22192730000000
  C          -3.58898396000000      2.44933793000000     -6.18169845000000
  H          -3.20843854000000      1.42394814000000     -6.24620489000000
  O          -4.97621306000000      2.51118515000000     -6.41423395000000
  Si         -5.99399521000000      1.20848571000000     -6.52901010000000
  C          -6.12828982000000      0.55196459000000     -8.27044547000000
  C          -4.86059388000000     -0.18653859000000     -8.71290962000000
  C          -6.47842921000000      1.65664495000000     -9.27468792000000
  C          -7.61206567000000      1.81329372000000     -5.79837604000000
  C          -8.80679017000000      0.93983896000000     -6.19554732000000
  C          -7.90306817000000      3.29118137000000     -6.08178940000000
  O          -5.38142156000000     -0.00105616000000     -5.60107713000000
  Si         -4.47881032000000     -0.47282578000000     -4.31267303000000
  C          -3.17884410000000     -1.71759919000000     -4.81763699000000
  C          -2.14451599000000     -1.11892819000000     -5.77803589000000
  C          -3.77720955000000     -3.00391738000000     -5.39505793000000
  C          -5.66597921000000     -1.11619504000000     -3.00218126000000
  C          -6.87461085000000     -1.83808287000000     -3.60940038000000
  C          -6.14977320000000     -0.00785815000000     -2.06008983000000
  O          -3.59338520000000      0.80404087000000     -3.74671698000000
  C          -3.95521048000000      2.16323440000000     -3.67947918000000
  C          -3.30433059000000      2.98651926000000     -4.77646311000000
  H          -3.72165914000000      4.00503834000000     -4.71388823000000
  O          -1.90417716000000      3.02243155000000     -4.53681094000000
  C          -1.24068920000000      3.89369548000000     -5.42734536000000
  H          -1.66234215000000      4.91055285000000     -5.31905038000000
  O           0.11531839000000      3.89652915000000     -5.14803810000000
  C           0.43860452000000      4.46063333000000     -3.88644708000000
  C          -1.39753455000000      3.39748031000000     -6.85270904000000
  H          -0.93876602000000      2.40228001000000     -6.90224721000000
  O          -0.80171993000000      4.27991800000000     -7.78735864000000
  H          -2.45284326000000      3.15515223000000     -9.10330379000000
  H          -6.95399314000000     -0.17205444000000     -8.23998862000000
  H          -4.01029000000000      0.49668493000000     -8.75090631000000
  H          -4.99560591000000     -0.60258403000000     -9.71526436000000
  H          -4.61255741000000     -1.00777189000000     -8.03898936000000
  H          -7.42416778000000      2.15074405000000     -9.03956995000000
  H          -6.56329276000000      1.23651658000000    -10.28109147000000
  H          -5.69365157000000      2.41653930000000     -9.29180661000000
  H          -7.45410063000000      1.70522418000000     -4.71565950000000
  H          -8.64367497000000     -0.11881129000000     -5.98109626000000
  H          -9.01364200000000      1.03220769000000     -7.26498866000000
  H          -9.70778237000000      1.25258959000000     -5.66116310000000
  H          -7.07818358000000      3.93282446000000     -5.77146323000000
  H          -8.80628876000000      3.60852817000000     -5.55333122000000
  H          -8.07014305000000      3.46434798000000     -7.14756994000000
  H          -2.65950959000000     -1.96623848000000     -3.88250982000000
  H          -1.67040046000000     -0.23003671000000     -5.35855342000000
  H          -2.60530104000000     -0.84383297000000     -6.73060427000000
  H          -1.36002599000000     -1.84864771000000     -5.99709108000000
  H          -4.36958230000000     -2.79292329000000     -6.28927548000000
  H          -4.42244326000000     -3.51776357000000     -4.67984981000000
  H          -2.98436645000000     -3.69948879000000     -5.68207656000000
  H          -5.09310396000000     -1.83814543000000     -2.40596283000000
  H          -7.46807567000000     -1.14477909000000     -4.20911414000000
  H          -7.52055412000000     -2.23135344000000     -2.81984369000000
  H          -6.59276400000000     -2.67017729000000     -4.25609638000000
  H          -5.32367304000000      0.50842218000000     -1.56974449000000
  H          -6.79802833000000     -0.42190311000000     -1.28313710000000
  H          -6.73809066000000      0.73721017000000     -2.60409437000000
  H          -3.61917251000000      2.56623633000000     -2.72086600000000
  H          -5.03969426000000      2.29962428000000     -3.74571879000000
  H           0.07046337000000      5.48874170000000     -3.81640978000000
  H           1.52191818000000      4.46060944000000     -3.81345854000000
  H           0.01660889000000      3.86826298000000     -3.07497586000000
  H           0.12737487000000      4.37508333000000     -7.54905115000000
