68
Coordinates from ORCA-job goat_0_61
  O          -3.71834546000000      4.67232739000000     -7.61068887000000
  C          -3.21313333000000      4.24471112000000     -6.35883549000000
  H          -3.80173618000000      4.68743355000000     -5.54403536000000
  C          -3.36197851000000      2.73615936000000     -6.27687836000000
  H          -2.92068727000000      2.30303888000000     -7.18434552000000
  O          -4.73082214000000      2.44137017000000     -6.17854136000000
  Si         -5.67388420000000      1.26049814000000     -6.83750659000000
  C          -5.00874716000000      0.72667756000000     -8.50316197000000
  C          -4.93954671000000      1.88372425000000     -9.50612893000000
  C          -5.80892199000000     -0.44232420000000     -9.08918631000000
  C          -7.41219606000000      1.95713210000000     -6.91067318000000
  C          -7.58142435000000      3.22858872000000     -6.07270805000000
  C          -8.46654525000000      0.91452048000000     -6.52448501000000
  O          -5.64183960000000     -0.05498127000000     -5.85294328000000
  Si         -4.91173160000000     -0.73656011000000     -4.55188050000000
  C          -4.54578368000000     -2.51200521000000     -5.01963010000000
  C          -4.02047212000000     -3.33913864000000     -3.84238423000000
  C          -3.58386424000000     -2.61029243000000     -6.20803014000000
  C          -5.96942221000000     -0.56751082000000     -3.02497078000000
  C          -7.26245158000000     -1.38414511000000     -3.10692963000000
  C          -6.27100503000000      0.90649475000000     -2.73983168000000
  O          -3.53369432000000      0.09492852000000     -4.17326280000000
  C          -2.58019864000000      0.63927506000000     -5.05520143000000
  C          -2.62575568000000      2.16605669000000     -5.06075971000000
  H          -3.14696289000000      2.49331422000000     -4.15130502000000
  O          -1.27630305000000      2.61788055000000     -5.04785395000000
  C          -1.18741938000000      4.02257109000000     -4.93990336000000
  H          -1.73464206000000      4.35044588000000     -4.03656983000000
  O           0.14411227000000      4.39438796000000     -4.86638496000000
  C           0.78165345000000      3.99119724000000     -3.66317857000000
  C          -1.76766800000000      4.66075000000000     -6.18616068000000
  H          -1.17940603000000      4.29829811000000     -7.03814894000000
  O          -1.74460068000000      6.07561536000000     -6.11492580000000
  H          -3.55227392000000      5.61983213000000     -7.68020662000000
  H          -3.98673994000000      0.37079693000000     -8.30903655000000
  H          -5.94580641000000      2.21829374000000     -9.77510338000000
  H          -4.45115315000000      1.55964699000000    -10.42961481000000
  H          -4.40063295000000      2.74812523000000     -9.11481380000000
  H          -5.86533038000000     -1.29064656000000     -8.40519546000000
  H          -5.35702692000000     -0.78814180000000    -10.02278753000000
  H          -6.83149997000000     -0.13363040000000     -9.32406466000000
  H          -7.56444385000000      2.22852783000000     -7.96396646000000
  H          -6.87101568000000      4.00024837000000     -6.36696016000000
  H          -7.42167285000000      3.02242389000000     -5.01166246000000
  H          -8.59383137000000      3.62621950000000     -6.18282044000000
  H          -9.47355524000000      1.32264253000000     -6.64582766000000
  H          -8.34893349000000      0.62492173000000     -5.47756421000000
  H          -8.39332182000000      0.00603623000000     -7.12562514000000
  H          -5.51400835000000     -2.92443497000000     -5.33286536000000
  H          -3.83005733000000     -4.37031438000000     -4.15344350000000
  H          -4.72533092000000     -3.36822353000000     -3.00889489000000
  H          -3.07791437000000     -2.92971296000000     -3.46855242000000
  H          -2.58973866000000     -2.24738590000000     -5.93409460000000
  H          -3.92999362000000     -2.03392131000000     -7.06837768000000
  H          -3.46909548000000     -3.64945648000000     -6.52742268000000
  H          -5.35797265000000     -0.95724412000000     -2.20128088000000
  H          -7.87807470000000     -1.06249031000000     -3.95133266000000
  H          -7.85672442000000     -1.25092806000000     -2.19889178000000
  H          -7.06926725000000     -2.45270475000000     -3.22408140000000
  H          -5.35696918000000      1.48628195000000     -2.60753612000000
  H          -6.87579070000000      1.01180941000000     -1.83564834000000
  H          -6.83356821000000      1.35497283000000     -3.56241668000000
  H          -2.71016718000000      0.25981091000000     -6.07501626000000
  H          -1.58311805000000      0.34948982000000     -4.72114686000000
  H           0.79926904000000      2.90488777000000     -3.57283310000000
  H           0.27228511000000      4.41919729000000     -2.79469643000000
  H           1.79800980000000      4.36994966000000     -3.70813943000000
  H          -0.83117123000000      6.34546144000000     -5.96486920000000
