68
Coordinates from ORCA-job goat_0_14
  O          -2.73726271000000      2.78828860000000     -8.36780134000000
  C          -2.56388401000000      3.30109837000000     -7.05970308000000
  H          -2.87192254000000      4.35513560000000     -7.02354945000000
  C          -3.44311738000000      2.50735830000000     -6.11560578000000
  H          -3.20745857000000      1.44499858000000     -6.25203905000000
  O          -4.80456442000000      2.77648049000000     -6.37190782000000
  Si         -5.89466104000000      1.58790206000000     -6.76945532000000
  C          -5.74995068000000      1.11087689000000     -8.57102395000000
  C          -6.31292723000000      2.17108726000000     -9.52305812000000
  C          -6.33618309000000     -0.27477654000000     -8.86475614000000
  C          -7.52782878000000      2.26271803000000     -6.15115860000000
  C          -8.70881758000000      1.33672976000000     -6.45606965000000
  C          -7.80664826000000      3.70329400000000     -6.59359645000000
  O          -5.50645126000000      0.24235251000000     -5.91151992000000
  Si         -4.81814367000000     -0.40426979000000     -4.56868041000000
  C          -3.77611923000000     -1.85900828000000     -5.09365789000000
  C          -3.08633617000000     -2.54471423000000     -3.90969352000000
  C          -2.74264023000000     -1.39617410000000     -6.12894196000000
  C          -6.23435735000000     -0.76679458000000     -3.39873272000000
  C          -5.83450198000000     -0.93184229000000     -1.93181649000000
  C          -7.05507931000000     -1.96319673000000     -3.89490259000000
  O          -3.74013838000000      0.65621268000000     -3.89836836000000
  C          -3.93690671000000      2.03464544000000     -3.67469927000000
  C          -3.14933983000000      2.87960171000000     -4.66098288000000
  H          -3.44489902000000      3.93091022000000     -4.51060500000000
  O          -1.76612327000000      2.71772283000000     -4.38023949000000
  C          -0.96880696000000      3.57478609000000     -5.16829683000000
  H          -1.28314256000000      4.62212038000000     -5.00296942000000
  O           0.36286044000000      3.40943728000000     -4.82792894000000
  C           0.68227044000000      3.88508230000000     -3.52861351000000
  C          -1.11440270000000      3.20210974000000     -6.63085593000000
  H          -0.77921472000000      2.16308817000000     -6.73465141000000
  O          -0.37048864000000      4.06533366000000     -7.47176072000000
  H          -2.08903518000000      3.22007424000000     -8.93666939000000
  H          -4.66529347000000      1.06625252000000     -8.73829757000000
  H          -7.40018651000000      2.25000525000000     -9.43495234000000
  H          -6.09150075000000      1.90809044000000    -10.56048462000000
  H          -5.88412058000000      3.15725134000000     -9.33393128000000
  H          -6.12575583000000     -0.56786448000000     -9.89655459000000
  H          -7.42190903000000     -0.28891485000000     -8.73724665000000
  H          -5.91587689000000     -1.03672533000000     -8.20654226000000
  H          -7.39138250000000      2.27604820000000     -5.05918476000000
  H          -8.91782744000000      1.29722040000000     -7.52809550000000
  H          -9.61600489000000      1.69265814000000     -5.96135771000000
  H          -8.52455910000000      0.31541604000000     -6.11467452000000
  H          -8.69845887000000      4.09005823000000     -6.09347752000000
  H          -7.98195459000000      3.76710684000000     -7.66967475000000
  H          -6.97182103000000      4.36297512000000     -6.35364298000000
  H          -4.45186385000000     -2.57847480000000     -5.57251018000000
  H          -2.44683239000000     -3.36175026000000     -4.25350204000000
  H          -3.79986457000000     -2.96290432000000     -3.19711151000000
  H          -2.45455261000000     -1.83631739000000     -3.37022432000000
  H          -3.21347169000000     -0.92223130000000     -6.99386841000000
  H          -2.14750381000000     -2.23930036000000     -6.48921574000000
  H          -2.05617857000000     -0.67289987000000     -5.68089991000000
  H          -6.87276359000000      0.12461405000000     -3.47605092000000
  H          -6.72219872000000     -1.04202133000000     -1.30397450000000
  H          -5.26869060000000     -0.07348331000000     -1.56692414000000
  H          -5.21593549000000     -1.81836330000000     -1.77866361000000
  H          -7.37395751000000     -1.83810846000000     -4.93184603000000
  H          -7.95107433000000     -2.09724766000000     -3.28450810000000
  H          -6.47963581000000     -2.89107559000000     -3.83738205000000
  H          -3.58874513000000      2.27829594000000     -2.66784890000000
  H          -4.99460474000000      2.31526255000000     -3.74772200000000
  H           0.42866686000000      4.94580438000000     -3.43436025000000
  H           1.75387910000000      3.75820573000000     -3.40443331000000
  H           0.15458883000000      3.31529349000000     -2.76334767000000
  H           0.55155263000000      4.00923527000000     -7.19739791000000
