68
Coordinates from ORCA-job goat_0_19
  O          -2.78902616000000      3.03303935000000     -8.46953519000000
  C          -2.64426481000000      3.47697241000000     -7.13407183000000
  H          -3.00504924000000      4.51077004000000     -7.04275113000000
  C          -3.48419613000000      2.59910764000000     -6.22581978000000
  H          -3.19859384000000      1.55439951000000     -6.39237824000000
  O          -4.85095176000000      2.81419460000000     -6.48904229000000
  Si         -6.00179872000000      1.65137860000000     -6.76429824000000
  C          -6.12069333000000      1.21833684000000     -8.57990371000000
  C          -7.39567287000000      0.43405555000000     -8.91534765000000
  C          -4.88259891000000      0.42992057000000     -9.02550475000000
  C          -7.54322288000000      2.39596864000000     -6.00392199000000
  C          -8.68729827000000      1.41204816000000     -5.74444237000000
  C          -8.01882688000000      3.61931651000000     -6.79650587000000
  O          -5.55756225000000      0.28739511000000     -5.96405929000000
  Si         -4.78231296000000     -0.38256447000000     -4.67791293000000
  C          -3.71872564000000     -1.79139183000000     -5.28861305000000
  C          -3.15106731000000     -2.64434718000000     -4.14818604000000
  C          -2.58625583000000     -1.23851000000000     -6.16453162000000
  C          -6.11372280000000     -0.81127995000000     -3.43011059000000
  C          -5.60244880000000     -1.04844715000000     -2.00605073000000
  C          -6.97447797000000     -1.98217611000000     -3.91877671000000
  O          -3.71247870000000      0.69834836000000     -4.02694297000000
  C          -3.95723352000000      2.06456660000000     -3.78383168000000
  C          -3.20607394000000      2.94981369000000     -4.76096920000000
  H          -3.53668623000000      3.98744517000000     -4.59252692000000
  O          -1.81730563000000      2.83317010000000     -4.48409704000000
  C          -1.05338851000000      3.74855028000000     -5.23913805000000
  H          -1.40626825000000      4.77639560000000     -5.03427912000000
  O           0.28441663000000      3.62104292000000     -4.90592969000000
  C           0.58448173000000      4.04357425000000     -3.58367471000000
  C          -1.18978496000000      3.42918525000000     -6.71434484000000
  H          -0.80645786000000      2.41298319000000     -6.86547276000000
  O          -0.49375333000000      4.36218672000000     -7.52209021000000
  H          -2.15165791000000      3.52034074000000     -9.00535653000000
  H          -6.14036848000000      2.17125108000000     -9.12354803000000
  H          -8.30394686000000      1.00847313000000     -8.72660805000000
  H          -7.45603466000000     -0.48694404000000     -8.32856061000000
  H          -7.40216307000000      0.14766473000000     -9.97064841000000
  H          -4.83378158000000     -0.52583307000000     -8.49770501000000
  H          -3.95810299000000      0.97703592000000     -8.83783449000000
  H          -4.93050168000000      0.21378433000000    -10.09661641000000
  H          -7.19319999000000      2.75732478000000     -5.02653778000000
  H          -9.13588729000000      1.05330120000000     -6.67222955000000
  H          -9.47917529000000      1.89735965000000     -5.16762411000000
  H          -8.35283089000000      0.53838092000000     -5.18162428000000
  H          -8.37534253000000      3.33866109000000     -7.79140887000000
  H          -7.21788543000000      4.34939801000000     -6.92562376000000
  H          -8.84527799000000      4.11293481000000     -6.27906244000000
  H          -4.36333450000000     -2.42526930000000     -5.91058034000000
  H          -3.93450998000000     -3.13808054000000     -3.57033097000000
  H          -2.56321895000000     -2.03289488000000     -3.45956128000000
  H          -2.49192976000000     -3.42399721000000     -4.53943377000000
  H          -1.96869839000000     -2.04935296000000     -6.55972606000000
  H          -1.94189682000000     -0.57899872000000     -5.57891181000000
  H          -2.96691551000000     -0.66618085000000     -7.01312375000000
  H          -6.75391204000000      0.08276009000000     -3.40833459000000
  H          -4.99569062000000     -0.21475280000000     -1.64871939000000
  H          -4.98949547000000     -1.94960108000000     -1.94150948000000
  H          -6.44046858000000     -1.17526237000000     -1.31552102000000
  H          -7.37621404000000     -1.80373993000000     -4.91844524000000
  H          -7.81761944000000     -2.15088998000000     -3.24437980000000
  H          -6.39695398000000     -2.90981223000000     -3.95691608000000
  H          -3.61303874000000      2.31112654000000     -2.77650928000000
  H          -5.02474376000000      2.30616473000000     -3.84667953000000
  H           0.09208402000000      3.40702113000000     -2.84815135000000
  H           0.27471661000000      5.08239798000000     -3.43185993000000
  H           1.66185879000000      3.96835966000000     -3.46876029000000
  H           0.43337783000000      4.33320041000000     -7.26071661000000
