68
Coordinates from ORCA-job goat_0_41
  O          -2.48989754000000      2.95893915000000     -8.34571659000000
  C          -2.45613771000000      3.35260421000000     -6.98113327000000
  H          -2.71585434000000      4.41672117000000     -6.89190183000000
  C          -3.43105289000000      2.55801617000000     -6.13687138000000
  H          -3.21181208000000      1.48912555000000     -6.26559077000000
  O          -4.74803815000000      2.87628070000000     -6.55141331000000
  Si         -5.92182132000000      1.73913291000000     -6.86411173000000
  C          -5.65023485000000      1.03467872000000     -8.57923422000000
  C          -6.09382921000000      2.01834126000000     -9.66886301000000
  C          -6.28282269000000     -0.34323023000000     -8.79459035000000
  C          -7.54037136000000      2.63892704000000     -6.62617469000000
  C          -7.58395178000000      3.31303891000000     -5.24955771000000
  C          -8.74643775000000      1.71151581000000     -6.81614372000000
  O          -5.79883906000000      0.52694339000000     -5.77032848000000
  Si         -4.85536765000000     -0.29903307000000     -4.70118126000000
  C          -3.61546517000000     -1.36762374000000     -5.61977601000000
  C          -4.16698673000000     -2.74960905000000     -5.98754684000000
  C          -2.27971956000000     -1.48668980000000     -4.87577274000000
  C          -6.02230185000000     -1.23948624000000     -3.58602410000000
  C          -7.10697139000000     -0.30079459000000     -3.04730514000000
  C          -5.27753523000000     -1.93227931000000     -2.44007184000000
  O          -3.98133873000000      0.78305178000000     -3.81228646000000
  C          -4.13941110000000      2.17957571000000     -3.71489881000000
  C          -3.22275835000000      2.92303986000000     -4.66878979000000
  H          -3.42881267000000      4.00077884000000     -4.55290479000000
  O          -1.88253795000000      2.62928328000000     -4.31848932000000
  C          -0.92720284000000      3.41807645000000     -5.01307531000000
  H          -1.11606399000000      4.48601202000000     -4.79825896000000
  O           0.32916255000000      3.04343528000000     -4.59209001000000
  C           0.63129062000000      3.44367993000000     -3.26602284000000
  C          -1.02592334000000      3.16698070000000     -6.50815438000000
  H          -0.72409207000000      2.12608608000000     -6.68005861000000
  O          -0.16361483000000      4.07158087000000     -7.16544640000000
  H          -3.38117379000000      3.11389582000000     -8.67958784000000
  H          -4.56037888000000      0.91337038000000     -8.65845819000000
  H          -7.18037875000000      2.13829751000000     -9.67372464000000
  H          -5.80135176000000      1.65648881000000    -10.65676125000000
  H          -5.66358364000000      3.01528983000000     -9.53806790000000
  H          -6.01501858000000     -0.73638512000000     -9.77810243000000
  H          -7.37323634000000     -0.30072485000000     -8.74720366000000
  H          -5.94890828000000     -1.06046660000000     -8.04456012000000
  H          -7.58020742000000      3.42053245000000     -7.39531503000000
  H          -7.53975643000000      2.56613928000000     -4.45156842000000
  H          -8.51364913000000      3.87327952000000     -5.12053358000000
  H          -6.74880403000000      4.00204635000000     -5.11314257000000
  H          -9.68041014000000      2.24964396000000     -6.63569796000000
  H          -8.71138838000000      0.87419922000000     -6.11477973000000
  H          -8.79615206000000      1.29568416000000     -7.82419532000000
  H          -3.42707177000000     -0.83033794000000     -6.56106550000000
  H          -5.10205311000000     -2.69157694000000     -6.54842681000000
  H          -4.35531669000000     -3.35552672000000     -5.09784303000000
  H          -3.44681661000000     -3.29390037000000     -6.60306049000000
  H          -1.85994688000000     -0.50695530000000     -4.64662028000000
  H          -1.55630131000000     -2.04234698000000     -5.47797514000000
  H          -2.39756072000000     -2.02136771000000     -3.92929377000000
  H          -6.50305000000000     -2.00705410000000     -4.20542660000000
  H          -6.66403388000000      0.49407538000000     -2.44017440000000
  H          -7.81199342000000     -0.84114607000000     -2.41089382000000
  H          -7.67027336000000      0.16953651000000     -3.85502926000000
  H          -4.54615979000000     -2.65909122000000     -2.79962842000000
  H          -5.97421277000000     -2.46257904000000     -1.78612041000000
  H          -4.74337352000000     -1.20157824000000     -1.82909710000000
  H          -3.88159022000000      2.48486251000000     -2.69817789000000
  H          -5.17268415000000      2.48408287000000     -3.91320944000000
  H          -0.04513992000000      2.97832495000000     -2.54691252000000
  H           0.57626551000000      4.53337720000000     -3.17052073000000
  H           1.64898750000000      3.11703453000000     -3.07066267000000
  H          -0.29858626000000      3.95455626000000     -8.11259839000000
