68
Coordinates from ORCA-job goat_0_18
  O          -2.63397529000000      3.06341368000000     -8.39187790000000
  C          -2.58089395000000      3.45954308000000     -7.02865843000000
  H          -2.94322633000000      4.49190129000000     -6.92445252000000
  C          -3.43204757000000      2.57095586000000     -6.14686349000000
  H          -3.11996409000000      1.52972622000000     -6.28634415000000
  O          -4.79163381000000      2.75746457000000     -6.50102738000000
  Si         -5.86377136000000      1.52277261000000     -6.79841199000000
  C          -5.57322697000000      0.85421316000000     -8.52574176000000
  C          -6.08590058000000      1.82183918000000     -9.59953283000000
  C          -6.13265527000000     -0.55291793000000     -8.75357699000000
  C          -7.54299901000000      2.30577213000000     -6.54609284000000
  C          -7.57776310000000      3.15576263000000     -5.27023671000000
  C          -8.67158587000000      1.26812448000000     -6.54952069000000
  O          -5.60978878000000      0.30993403000000     -5.72634270000000
  Si         -4.72459346000000     -0.39564839000000     -4.52917881000000
  C          -3.58247955000000     -1.72108663000000     -5.18240307000000
  C          -2.64898525000000     -1.18350370000000     -6.27070187000000
  C          -4.32911356000000     -2.96997313000000     -5.66123852000000
  C          -5.94008567000000     -1.07873805000000     -3.28650390000000
  C          -6.87338751000000      0.00550976000000     -2.74464817000000
  C          -5.22363226000000     -1.80591930000000     -2.14504311000000
  O          -3.72796161000000      0.73918045000000     -3.86275679000000
  C          -3.99222098000000      2.11703390000000     -3.70546184000000
  C          -3.19662498000000      2.95486590000000     -4.68794142000000
  H          -3.50470018000000      4.00580253000000     -4.55330082000000
  O          -1.81951089000000      2.79896644000000     -4.39731520000000
  C          -0.98294606000000      3.68295948000000     -5.12934026000000
  H          -1.27266414000000      4.72554605000000     -4.90211827000000
  O           0.32349665000000      3.44255052000000     -4.76637284000000
  C           0.64649959000000      3.88445748000000     -3.45901722000000
  C          -1.12033044000000      3.42183970000000     -6.61931994000000
  H          -0.72024598000000      2.41780047000000     -6.80848704000000
  O          -0.38517995000000      4.40993636000000     -7.31048152000000
  H          -3.55244714000000      3.11493290000000     -8.68093533000000
  H          -4.47931780000000      0.79572124000000     -8.61945136000000
  H          -7.17817808000000      1.86578277000000     -9.59988332000000
  H          -5.77309158000000      1.49546460000000    -10.59347670000000
  H          -5.72646348000000      2.84512139000000     -9.45635289000000
  H          -5.76070070000000     -1.25961366000000     -8.01176946000000
  H          -5.84930838000000     -0.92122138000000     -9.74237196000000
  H          -7.22386853000000     -0.56628487000000     -8.70329052000000
  H          -7.69492867000000      2.97699870000000     -7.40119007000000
  H          -7.43196971000000      2.53647440000000     -4.38133764000000
  H          -8.54548569000000      3.65284768000000     -5.16349219000000
  H          -6.79855380000000      3.91890352000000     -5.27625207000000
  H          -9.63911812000000      1.74916127000000     -6.38516484000000
  H          -8.53074471000000      0.53195762000000     -5.75444867000000
  H          -8.73117045000000      0.72372351000000     -7.49409554000000
  H          -2.96274244000000     -2.00944498000000     -4.32356953000000
  H          -2.04019998000000     -0.35671117000000     -5.90045693000000
  H          -3.21548699000000     -0.83146829000000     -7.13887556000000
  H          -1.97277659000000     -1.96799438000000     -6.61999848000000
  H          -4.93988566000000     -3.41744282000000     -4.87474712000000
  H          -3.62065356000000     -3.72920437000000     -6.00119572000000
  H          -4.99029445000000     -2.74553090000000     -6.50118308000000
  H          -6.54817965000000     -1.80927523000000     -3.83544572000000
  H          -6.31275173000000      0.77517927000000     -2.20691925000000
  H          -7.59514463000000     -0.41966179000000     -2.04324774000000
  H          -7.43177118000000      0.49237410000000     -3.54526179000000
  H          -4.61371616000000     -2.63802225000000     -2.50218205000000
  H          -5.94554257000000     -2.20732095000000     -1.43005342000000
  H          -4.56486022000000     -1.12502059000000     -1.60131529000000
  H          -3.70075781000000      2.41294051000000     -2.69510547000000
  H          -5.05577358000000      2.34698456000000     -3.83791896000000
  H           0.05124826000000      3.36476180000000     -2.70627013000000
  H           0.49293402000000      4.96506056000000     -3.36774002000000
  H           1.69854696000000      3.65809715000000     -3.30823016000000
  H          -0.55480700000000      4.28242521000000     -8.25068014000000
