68
Coordinates from ORCA-job goat_0_17
  O          -2.89473857000000      2.80117250000000     -8.48354541000000
  C          -2.75117206000000      3.34190513000000     -7.18385472000000
  H          -3.16595806000000      4.35989553000000     -7.14731633000000
  C          -3.52944500000000      2.48353241000000     -6.20609928000000
  H          -3.19993340000000      1.44315353000000     -6.31850241000000
  O          -4.90989898000000      2.62570860000000     -6.44985816000000
  Si         -6.02075328000000      1.40478798000000     -6.60361467000000
  C          -6.14850911000000      0.76520020000000     -8.35092629000000
  C          -4.86765023000000      0.04080863000000     -8.77914932000000
  C          -6.50187241000000      1.86712073000000     -9.35368098000000
  C          -7.59670177000000      2.11997768000000     -5.89505640000000
  C          -8.82501388000000      1.26421960000000     -6.21439239000000
  C          -7.83546232000000      3.58723208000000     -6.25993660000000
  O          -5.55004059000000      0.14408837000000     -5.66337959000000
  Si         -4.56610785000000     -0.49332250000000     -4.51612149000000
  C          -3.35427171000000     -1.68177449000000     -5.28905166000000
  C          -4.00709825000000     -2.94268500000000     -5.86011053000000
  C          -2.21906633000000     -2.04099586000000     -4.32443156000000
  C          -5.67527618000000     -1.23927295000000     -3.20213912000000
  C          -6.87429639000000     -1.97515487000000     -3.81144379000000
  C          -6.16995369000000     -0.17012293000000     -2.22242126000000
  O          -3.60825082000000      0.70023797000000     -3.88536795000000
  C          -3.93153871000000      2.06301015000000     -3.72991808000000
  C          -3.24762371000000      2.93274331000000     -4.76905384000000
  H          -3.64570986000000      3.95341393000000     -4.65486362000000
  O          -1.85288331000000      2.92491062000000     -4.50645429000000
  C          -1.15828813000000      3.82809764000000     -5.33670453000000
  H          -1.56570778000000      4.84577606000000     -5.19230215000000
  O           0.18988336000000      3.80010028000000     -5.02464931000000
  C           0.49435245000000      4.32686157000000     -3.74143922000000
  C          -1.29150206000000      3.39755489000000     -6.78441854000000
  H          -0.85393477000000      2.39480162000000     -6.86632274000000
  O          -0.65401680000000      4.30592723000000     -7.66446690000000
  H          -2.29525026000000      3.28797009000000     -9.06147050000000
  H          -6.96824583000000      0.03473399000000     -8.33127395000000
  H          -4.02818849000000      0.73657427000000     -8.82554145000000
  H          -4.98702685000000     -0.39123618000000     -9.77640177000000
  H          -4.61163038000000     -0.76976362000000     -8.09438929000000
  H          -6.56273668000000      1.45851674000000    -10.36571164000000
  H          -5.73410645000000      2.64366821000000     -9.36008781000000
  H          -7.46180389000000      2.33698487000000     -9.13148615000000
  H          -7.42784398000000      2.07178079000000     -4.80975027000000
  H          -9.04926886000000      1.27907701000000     -7.28434718000000
  H          -9.70671528000000      1.64575635000000     -5.69279025000000
  H          -8.68885902000000      0.22181343000000     -5.91831322000000
  H          -6.97505388000000      4.20668664000000     -6.00755906000000
  H          -8.70708504000000      3.97745796000000     -5.72752350000000
  H          -8.02832851000000      3.70857656000000     -7.32800864000000
  H          -2.91874981000000     -1.11659854000000     -6.12427674000000
  H          -4.41129665000000     -3.57187260000000     -5.06261203000000
  H          -3.27087286000000     -3.54357851000000     -6.40053438000000
  H          -4.82125254000000     -2.71103329000000     -6.55031034000000
  H          -2.59294221000000     -2.60002576000000     -3.46163469000000
  H          -1.71090899000000     -1.15073633000000     -3.95354023000000
  H          -1.48044161000000     -2.67533822000000     -4.82145626000000
  H          -5.06524532000000     -1.96119985000000     -2.64417178000000
  H          -7.50496137000000     -2.40165314000000     -3.02651631000000
  H          -6.57704269000000     -2.78492618000000     -4.47885486000000
  H          -7.49276248000000     -1.28238505000000     -4.38671665000000
  H          -6.78447627000000      0.57481806000000     -2.73807482000000
  H          -5.34598376000000      0.34864809000000     -1.73083544000000
  H          -6.79942925000000     -0.61472099000000     -1.44717256000000
  H          -3.59631113000000      2.38691353000000     -2.74185917000000
  H          -5.01097992000000      2.23597550000000     -3.78994076000000
  H           0.03331865000000      3.72709884000000     -2.95589731000000
  H           0.15014225000000      5.36328688000000     -3.66037440000000
  H           1.57637434000000      4.29514730000000     -3.63890097000000
  H           0.27234516000000      4.36545350000000     -7.40489253000000
