68
Coordinates from ORCA-job goat_0_75
  O          -2.10839336000000      2.83910783000000     -8.13076172000000
  C          -2.58011047000000      3.63817629000000     -7.05893404000000
  H          -3.19265309000000      4.42422951000000     -7.49917740000000
  C          -3.46445605000000      2.82449701000000     -6.11135337000000
  H          -3.12417452000000      1.78471375000000     -6.15542763000000
  O          -4.81820469000000      2.93660583000000     -6.49995214000000
  Si         -5.78963577000000      1.67148469000000     -6.94483203000000
  C          -5.31503557000000      1.04597410000000     -8.64171337000000
  C          -5.72747662000000      2.01585413000000     -9.75408267000000
  C          -5.80521819000000     -0.37296758000000     -8.94435841000000
  C          -7.51846302000000      2.35884041000000     -6.78224284000000
  C          -7.71590248000000      3.05963590000000     -5.43561495000000
  C          -8.58101144000000      1.27427544000000     -6.97961253000000
  O          -5.56703689000000      0.43440385000000     -5.88877458000000
  Si         -4.86621664000000     -0.10483302000000     -4.50672889000000
  C          -3.72846913000000     -1.52856932000000     -4.91336549000000
  C          -2.90235470000000     -1.97277563000000     -3.70163144000000
  C          -2.80144383000000     -1.16431960000000     -6.07661084000000
  C          -6.29653652000000     -0.50029123000000     -3.36079832000000
  C          -5.92802988000000     -0.58621171000000     -1.87895393000000
  C          -7.05088701000000     -1.75729941000000     -3.81292920000000
  O          -3.86541993000000      1.05016125000000     -3.87771051000000
  C          -4.15590924000000      2.42410431000000     -3.71149953000000
  C          -3.34860851000000      3.28888963000000     -4.66287689000000
  H          -3.72028567000000      4.31716680000000     -4.59412806000000
  O          -1.99087544000000      3.26098420000000     -4.20278094000000
  C          -0.98529379000000      3.44410621000000     -5.15272503000000
  H          -0.14019266000000      3.88053020000000     -4.60175925000000
  O          -0.57328816000000      2.22846488000000     -5.73854912000000
  C          -0.02461205000000      1.31788265000000     -4.79703986000000
  C          -1.42709963000000      4.32058016000000     -6.31662777000000
  H          -0.59213939000000      4.43610319000000     -7.01452903000000
  O          -1.89644253000000      5.57756372000000     -5.85623738000000
  H          -1.48617171000000      2.20764095000000     -7.74582973000000
  H          -4.21682402000000      1.03123164000000     -8.60535481000000
  H          -5.33435306000000      3.02056808000000     -9.58751059000000
  H          -6.81646779000000      2.08675968000000     -9.83190676000000
  H          -5.35527511000000      1.66945036000000    -10.72174927000000
  H          -5.38776758000000     -0.72647788000000     -9.89091673000000
  H          -6.89313014000000     -0.40738440000000     -9.03951639000000
  H          -5.52050396000000     -1.07849295000000     -8.16245047000000
  H          -7.62331872000000      3.10875078000000     -7.57611654000000
  H          -8.72007051000000      3.48473364000000     -5.36513135000000
  H          -6.99475089000000      3.86296400000000     -5.28748146000000
  H          -7.60846890000000      2.34989542000000     -4.61026438000000
  H          -8.45508135000000      0.47365345000000     -6.24488189000000
  H          -8.53430486000000      0.82565360000000     -7.97325618000000
  H          -9.58318173000000      1.69041738000000     -6.84826434000000
  H          -4.37090237000000     -2.35945587000000     -5.23099195000000
  H          -2.31260520000000     -1.13805379000000     -3.31458674000000
  H          -2.21117660000000     -2.77181489000000     -3.98319438000000
  H          -3.52608016000000     -2.34484455000000     -2.88729337000000
  H          -3.35662630000000     -0.86601195000000     -6.96705407000000
  H          -2.16857874000000     -2.01432450000000     -6.34391204000000
  H          -2.14279247000000     -0.33814026000000     -5.79692207000000
  H          -6.97208181000000      0.35592818000000     -3.49395428000000
  H          -6.82627827000000     -0.71663058000000     -1.26892410000000
  H          -5.41152222000000      0.31241123000000     -1.53690799000000
  H          -5.27452244000000     -1.43917514000000     -1.68176625000000
  H          -7.95003191000000     -1.90537260000000     -3.20908171000000
  H          -6.43200492000000     -2.65070442000000     -3.69384713000000
  H          -7.35728783000000     -1.70176551000000     -4.85963743000000
  H          -3.89679412000000      2.70983267000000     -2.68974780000000
  H          -5.21673657000000      2.63859194000000     -3.86918824000000
  H          -0.76365206000000      1.04934882000000     -4.04177638000000
  H           0.85148564000000      1.75433682000000     -4.30754269000000
  H           0.27914530000000      0.43134219000000     -5.34709230000000
  H          -1.18146981000000      6.03885001000000     -5.40584913000000
