68
Coordinates from ORCA-job goat_0_37
  O          -2.60181887000000      2.67762724000000     -8.38597378000000
  C          -2.52600869000000      3.30249610000000     -7.11891659000000
  H          -2.92068139000000      4.32529715000000     -7.18094868000000
  C          -3.38510518000000      2.51860068000000     -6.14609548000000
  H          -3.07745852000000      1.46704243000000     -6.20263138000000
  O          -4.74547253000000      2.68623997000000     -6.47793635000000
  Si         -5.88295853000000      1.48806931000000     -6.63380699000000
  C          -5.76864709000000      0.66238425000000     -8.30819689000000
  C          -5.64743220000000      1.63321550000000     -9.48633954000000
  C          -6.90043181000000     -0.34523376000000     -8.54575023000000
  C          -7.47872958000000      2.34007282000000     -6.16158119000000
  C          -8.59758731000000      1.37145639000000     -5.77080678000000
  C          -7.96126588000000      3.35341214000000     -7.20383221000000
  O          -5.58660946000000      0.31891501000000     -5.51716802000000
  Si         -4.56001591000000     -0.37217066000000     -4.44025369000000
  C          -3.35466061000000     -1.50888314000000     -5.30891908000000
  C          -4.01301441000000     -2.61882998000000     -6.13167729000000
  C          -2.31394275000000     -2.08351122000000     -4.34124617000000
  C          -5.63919071000000     -1.15522234000000     -3.12319682000000
  C          -6.73208446000000     -2.05419840000000     -3.71365849000000
  C          -6.28043451000000     -0.07745948000000     -2.24052404000000
  O          -3.59776179000000      0.80691757000000     -3.78482358000000
  C          -3.90773189000000      2.17900255000000     -3.68029158000000
  C          -3.16787219000000      3.01530741000000     -4.71129692000000
  H          -3.56064495000000      4.04406606000000     -4.64938950000000
  O          -1.78689691000000      3.00465111000000     -4.37732169000000
  C          -1.03637050000000      3.86291961000000     -5.20746433000000
  H          -1.44214812000000      4.88942659000000     -5.13485765000000
  O           0.29246065000000      3.83776431000000     -4.81929959000000
  C           0.52502519000000      4.39478427000000     -3.53456638000000
  C          -1.09191845000000      3.36350393000000     -6.63761710000000
  H          -0.66685570000000      2.35277607000000     -6.64464675000000
  O          -0.39022524000000      4.21577376000000     -7.52522057000000
  H          -1.96978022000000      3.12084328000000     -8.96405878000000
  H          -4.82542824000000      0.10068493000000     -8.23693345000000
  H          -6.54890020000000      2.24096950000000     -9.59607749000000
  H          -5.51390535000000      1.07512547000000    -10.41804113000000
  H          -4.79613543000000      2.30070628000000     -9.36215907000000
  H          -7.01269679000000     -1.05437858000000     -7.72235694000000
  H          -6.71512225000000     -0.91588300000000     -9.46004024000000
  H          -7.85778461000000      0.16662407000000     -8.67520194000000
  H          -7.18268846000000      2.89699537000000     -5.26135520000000
  H          -8.94280111000000      0.79443768000000     -6.63127194000000
  H          -9.45792333000000      1.92053429000000     -5.37953949000000
  H          -8.27241593000000      0.66369133000000     -5.00651346000000
  H          -8.81298507000000      3.92055707000000     -6.81899122000000
  H          -8.29209012000000      2.84898618000000     -8.11505044000000
  H          -7.17854774000000      4.06266358000000     -7.48012449000000
  H          -2.83069837000000     -0.83744318000000     -6.00380497000000
  H          -4.77300453000000     -2.23228457000000     -6.81408563000000
  H          -4.48946765000000     -3.35765100000000     -5.48376695000000
  H          -3.26558007000000     -3.14948038000000     -6.72730141000000
  H          -2.78219285000000     -2.75403586000000     -3.61548275000000
  H          -1.79846623000000     -1.29761976000000     -3.78786455000000
  H          -1.56318615000000     -2.66659753000000     -4.88146060000000
  H          -4.98302648000000     -1.76649949000000     -2.49193380000000
  H          -6.32900612000000     -2.89776233000000     -4.27411097000000
  H          -7.37492526000000     -1.48607466000000     -4.39023116000000
  H          -7.36217640000000     -2.45718798000000     -2.91611128000000
  H          -5.53515418000000      0.54497735000000     -1.74332288000000
  H          -6.90399956000000     -0.53764912000000     -1.46893554000000
  H          -6.92592500000000      0.57710257000000     -2.83400279000000
  H          -3.60534597000000      2.52865299000000     -2.69007174000000
  H          -4.98158924000000      2.36015470000000     -3.79874097000000
  H           0.01318303000000      3.82017013000000     -2.76296072000000
  H           0.18904388000000      5.43568723000000     -3.49597395000000
  H           1.59735101000000      4.35675848000000     -3.36607998000000
  H           0.51580127000000      4.28879169000000     -7.20400668000000
