68
Coordinates from ORCA-job goat_0_59
  O          -2.22198885000000      3.02553261000000     -8.12677478000000
  C          -2.71873627000000      3.73658729000000     -7.00620130000000
  H          -3.40753648000000      4.48826387000000     -7.39129163000000
  C          -3.50656233000000      2.81786672000000     -6.07034142000000
  H          -3.07629539000000      1.81377378000000     -6.14500982000000
  O          -4.86848010000000      2.82384870000000     -6.44031392000000
  Si         -5.78000621000000      1.50671872000000     -6.85090332000000
  C          -5.23245832000000      0.81618394000000     -8.50115632000000
  C          -5.24644413000000      1.86616400000000     -9.61631917000000
  C          -6.01140699000000     -0.43481615000000     -8.92125548000000
  C          -7.54226231000000      2.13024080000000     -6.79373642000000
  C          -7.74243010000000      3.18547263000000     -5.70118246000000
  C          -8.54976623000000      0.98879237000000     -6.61896234000000
  O          -5.56245857000000      0.33019612000000     -5.72260224000000
  Si         -4.71541368000000     -0.21315210000000     -4.42656134000000
  C          -3.51359140000000     -1.55096893000000     -4.93390282000000
  C          -2.56292367000000     -1.07834147000000     -6.03657942000000
  C          -4.22797647000000     -2.83636503000000     -5.36345656000000
  C          -5.97215934000000     -0.81770317000000     -3.17643973000000
  C          -6.91221043000000      0.29271944000000     -2.69871039000000
  C          -5.31571493000000     -1.50719428000000     -1.97642796000000
  O          -3.76702161000000      0.99975481000000     -3.82365915000000
  C          -4.14829558000000      2.35314020000000     -3.66459363000000
  C          -3.40297959000000      3.26729012000000     -4.61650785000000
  H          -3.83671561000000      4.26995210000000     -4.53225394000000
  O          -2.03880763000000      3.31621102000000     -4.17892444000000
  C          -1.06965634000000      3.60350408000000     -5.14179267000000
  H          -0.24785945000000      4.08468612000000     -4.59315903000000
  O          -0.58109635000000      2.44196674000000     -5.77592802000000
  C           0.07377367000000      1.55632512000000     -4.87966192000000
  C          -1.60045977000000      4.47938786000000     -6.26784540000000
  H          -0.79286798000000      4.67421192000000     -6.97991005000000
  O          -2.14520287000000      5.68657990000000     -5.75950522000000
  H          -1.54655186000000      2.42199558000000     -7.79082231000000
  H          -4.18637889000000      0.52805981000000     -8.33223466000000
  H          -4.89742288000000      1.42611424000000    -10.55508421000000
  H          -4.59538137000000      2.70794976000000     -9.38069024000000
  H          -6.25677699000000      2.24652370000000     -9.79309469000000
  H          -7.04381363000000     -0.18407865000000     -9.17764291000000
  H          -6.03694710000000     -1.19159200000000     -8.13481441000000
  H          -5.56293225000000     -0.88581237000000     -9.81039517000000
  H          -7.71930280000000      2.61043949000000     -7.76479725000000
  H          -8.76544512000000      3.56900973000000     -5.72270593000000
  H          -7.05683683000000      4.02326181000000     -5.81667450000000
  H          -7.57929790000000      2.75638467000000     -4.70866028000000
  H          -9.56840224000000      1.38292348000000     -6.57650240000000
  H          -8.36249793000000      0.44835669000000     -5.68759972000000
  H          -8.50477788000000      0.26434452000000     -7.43292560000000
  H          -2.91909329000000     -1.76097984000000     -4.03564940000000
  H          -2.02154602000000     -0.17592161000000     -5.74952421000000
  H          -3.11377128000000     -0.86657916000000     -6.95629593000000
  H          -1.82781700000000     -1.85257039000000     -6.27188529000000
  H          -4.87221656000000     -2.65385396000000     -6.22844812000000
  H          -4.84773701000000     -3.25247260000000     -4.56685093000000
  H          -3.50131084000000     -3.60035283000000     -5.65263997000000
  H          -6.57397471000000     -1.55857395000000     -3.71990751000000
  H          -7.41143034000000      0.79377386000000     -3.52916007000000
  H          -6.36664583000000      1.04689470000000     -2.12587433000000
  H          -7.68620305000000     -0.11334012000000     -2.04213641000000
  H          -4.71405800000000     -2.36940064000000     -2.27115594000000
  H          -6.07625145000000     -1.85684065000000     -1.27267585000000
  H          -4.66368097000000     -0.81354926000000     -1.43849362000000
  H          -3.91693311000000      2.66201886000000     -2.64263225000000
  H          -5.21974040000000      2.49542733000000     -3.82961497000000
  H           0.93278093000000      2.04938873000000     -4.41422980000000
  H           0.42261970000000      0.70875773000000     -5.46337953000000
  H          -0.61088122000000      1.21447416000000     -4.10307178000000
  H          -1.45739262000000      6.17376936000000     -5.29407970000000
