68
Coordinates from ORCA-job goat_0_53
  O          -2.88020713000000      3.38174898000000     -8.25956668000000
  C          -2.88632193000000      3.82324598000000     -6.91636303000000
  H          -3.39614922000000      4.79357596000000     -6.84102826000000
  C          -3.65757392000000      2.82288277000000     -6.07533333000000
  H          -3.23169372000000      1.82414157000000     -6.23778327000000
  O          -5.02369028000000      2.87133182000000     -6.42408019000000
  Si         -5.99209410000000      1.58612585000000     -6.81981293000000
  C          -5.80480466000000      1.04239556000000     -8.59360087000000
  C          -6.89638428000000      0.03144345000000     -8.96498822000000
  C          -4.42110477000000      0.44218338000000     -8.86061919000000
  C          -7.72153031000000      2.15770359000000     -6.41548924000000
  C          -8.14110334000000      3.33406512000000     -7.30274549000000
  C          -7.85610758000000      2.52354834000000     -4.93592137000000
  O          -5.57884237000000      0.31415273000000     -5.87046599000000
  Si         -4.68612814000000     -0.33163494000000     -4.65435973000000
  C          -3.45495598000000     -1.53383419000000     -5.38291467000000
  C          -4.11483117000000     -2.76164432000000     -6.01732244000000
  C          -2.33851642000000     -1.93088978000000     -4.41150821000000
  C          -5.93009434000000     -0.97677994000000     -3.40983054000000
  C          -5.29727633000000     -1.81906756000000     -2.29917203000000
  C          -7.09715134000000     -1.71935310000000     -4.06932436000000
  O          -3.73889005000000      0.84048009000000     -3.96421859000000
  C          -4.17691572000000      2.15166434000000     -3.67198471000000
  C          -3.53417347000000      3.17824128000000     -4.58881636000000
  H          -4.05836089000000      4.13478876000000     -4.43308259000000
  O          -2.17266715000000      3.31440807000000     -4.20755818000000
  C          -1.53271109000000      4.34845615000000     -4.91277694000000
  H          -2.08573926000000      5.29086118000000     -4.79715749000000
  O          -0.27665251000000      4.59375573000000     -4.36448564000000
  C           0.53982157000000      3.44564903000000     -4.15150855000000
  C          -1.47548584000000      3.98446219000000     -6.38940378000000
  H          -0.94680723000000      3.03073683000000     -6.50642646000000
  O          -0.85702502000000      5.00580103000000     -7.15155053000000
  H          -2.32658984000000      3.99054496000000     -8.76224601000000
  H          -5.92394432000000      1.93866439000000     -9.21386630000000
  H          -6.77916434000000     -0.29308531000000    -10.00165941000000
  H          -7.90478046000000      0.43510438000000     -8.85470311000000
  H          -6.82547961000000     -0.86110333000000     -8.33720493000000
  H          -4.34157677000000      0.11952940000000     -9.90232297000000
  H          -4.26092973000000     -0.44039681000000     -8.23498990000000
  H          -3.62131797000000      1.15741927000000     -8.66938491000000
  H          -8.38575576000000      1.31023157000000     -6.62332400000000
  H          -9.15506117000000      3.65911342000000     -7.05829429000000
  H          -8.11786688000000      3.08402746000000     -8.36521594000000
  H          -7.47730726000000      4.18747512000000     -7.15119970000000
  H          -7.20427934000000      3.36524984000000     -4.68894211000000
  H          -7.59341648000000      1.68743093000000     -4.28289994000000
  H          -8.88050789000000      2.82296088000000     -4.70109577000000
  H          -2.99330006000000     -0.95089263000000     -6.19329482000000
  H          -3.37667453000000     -3.35817303000000     -6.55939380000000
  H          -4.89960472000000     -2.48414446000000     -6.72454589000000
  H          -4.56209020000000     -3.41110820000000     -5.26035367000000
  H          -1.57514319000000     -2.52002699000000     -4.92653579000000
  H          -2.71810552000000     -2.54011324000000     -3.58803016000000
  H          -1.85589994000000     -1.05228166000000     -3.98258437000000
  H          -6.33583447000000     -0.06467832000000     -2.94726281000000
  H          -4.92334450000000     -2.76787990000000     -2.69150470000000
  H          -6.03379726000000     -2.05833322000000     -1.52860801000000
  H          -4.46405105000000     -1.30507691000000     -1.81658367000000
  H          -6.76457253000000     -2.65335963000000     -4.52907142000000
  H          -7.57027471000000     -1.11778569000000     -4.84664006000000
  H          -7.85822399000000     -1.97565510000000     -3.32806664000000
  H          -3.89457973000000      2.39856886000000     -2.64501168000000
  H          -5.26518817000000      2.24394720000000     -3.75696112000000
  H           0.06118241000000      2.74912036000000     -3.46490222000000
  H           1.46339140000000      3.81561690000000     -3.71359130000000
  H           0.77123181000000      2.92862515000000     -5.08625434000000
  H          -0.05703520000000      5.27659836000000     -6.68647429000000
