68
Coordinates from ORCA-job goat_0_3
  O          -2.79537209000000      2.73136439000000     -8.31890919000000
  C          -2.63502101000000      3.29470061000000     -7.02922069000000
  H          -2.98650482000000      4.33648344000000     -7.02035498000000
  C          -3.47816367000000      2.49677181000000     -6.05726649000000
  H          -3.20443369000000      1.44190300000000     -6.16646101000000
  O          -4.84869539000000      2.70872317000000     -6.31639125000000
  Si         -5.90509189000000      1.47223552000000     -6.65206976000000
  C          -5.67959574000000      0.85011512000000     -8.39758253000000
  C          -6.21836755000000      1.81362778000000     -9.45723924000000
  C          -6.22484889000000     -0.56447564000000     -8.61074207000000
  C          -7.56570302000000      2.17303109000000     -6.16732725000000
  C          -8.72573455000000      1.21756748000000     -6.45312847000000
  C          -7.83654601000000      3.57148498000000     -6.72761664000000
  O          -5.55558521000000      0.21302522000000     -5.65662790000000
  Si         -4.67772143000000     -0.45330502000000     -4.44252362000000
  C          -3.53127607000000     -1.76776652000000     -5.10287477000000
  C          -2.78409272000000     -2.47181580000000     -3.96506046000000
  C          -2.53507353000000     -1.19750839000000     -6.11579753000000
  C          -5.90739320000000     -1.12123674000000     -3.20436558000000
  C          -6.75364088000000     -2.24168174000000     -3.81917836000000
  C          -6.81730626000000     -0.01576728000000     -2.66195062000000
  O          -3.68729820000000      0.68795614000000     -3.76965568000000
  C          -3.94234285000000      2.06533912000000     -3.60255841000000
  C          -3.19310568000000      2.91331825000000     -4.61380834000000
  H          -3.53371560000000      3.95255182000000     -4.48694804000000
  O          -1.80486164000000      2.82017366000000     -4.33423655000000
  C          -1.04939796000000      3.68721243000000     -5.14991297000000
  H          -1.40331693000000      4.72469059000000     -5.00491615000000
  O           0.28976782000000      3.58383763000000     -4.81510360000000
  C           0.59897162000000      4.08687408000000     -3.52343053000000
  C          -1.18141398000000      3.26832168000000     -6.60249056000000
  H          -0.80039038000000      2.24180309000000     -6.67692992000000
  O          -0.47555702000000      4.13920754000000     -7.46818630000000
  H          -2.17553387000000      3.18079400000000     -8.90505271000000
  H          -4.58879156000000      0.81740846000000     -8.51439321000000
  H          -7.30907791000000      1.87772074000000     -9.42020967000000
  H          -5.95438511000000      1.46526437000000    -10.45895821000000
  H          -5.81108307000000      2.81842160000000     -9.33602671000000
  H          -5.82248742000000     -1.26527745000000     -7.87802600000000
  H          -5.96140456000000     -0.92854135000000     -9.60740086000000
  H          -7.31514201000000     -0.59176501000000     -8.53677265000000
  H          -7.47429708000000      2.27029068000000     -5.07645219000000
  H          -8.54903060000000      0.22601016000000     -6.03043847000000
  H          -8.88766038000000      1.09886885000000     -7.52744819000000
  H          -9.65646469000000      1.60143092000000     -6.02712302000000
  H          -7.01972342000000      4.25549369000000     -6.49715956000000
  H          -8.75525449000000      3.98336688000000     -6.30149881000000
  H          -7.96245105000000      3.55388452000000     -7.81185311000000
  H          -4.16455669000000     -2.50313962000000     -5.61556664000000
  H          -3.46453554000000     -2.95639469000000     -3.26198222000000
  H          -2.17220258000000     -1.75934698000000     -3.40609391000000
  H          -2.11357112000000     -3.23837389000000     -4.36202093000000
  H          -1.88747442000000     -0.45483594000000     -5.64152102000000
  H          -3.03613499000000     -0.72613553000000     -6.96467682000000
  H          -1.88954499000000     -1.98641357000000     -6.51065865000000
  H          -5.32814922000000     -1.53505865000000     -2.37030072000000
  H          -7.32130132000000     -1.87261820000000     -4.67844474000000
  H          -7.47618409000000     -2.62348493000000     -3.09230626000000
  H          -6.14472117000000     -3.08291613000000     -4.15664101000000
  H          -6.25219304000000      0.77028643000000     -2.15738654000000
  H          -7.53530489000000     -0.42052047000000     -1.94338603000000
  H          -7.39552477000000      0.44210456000000     -3.46994924000000
  H          -3.61533875000000      2.35512854000000     -2.60156418000000
  H          -5.00939606000000      2.29227797000000     -3.68727674000000
  H           0.31306438000000      5.14096625000000     -3.44315573000000
  H           1.67517100000000      3.99329476000000     -3.40024799000000
  H           0.08961487000000      3.51092211000000     -2.74999823000000
  H           0.44783913000000      4.14290437000000     -7.19136357000000
