68
Coordinates from ORCA-job goat_0_71
  O          -2.82757850000000      3.22707811000000     -8.37152875000000
  C          -2.70350391000000      3.52735665000000     -6.99615990000000
  H          -3.09573796000000      4.53465579000000     -6.79720626000000
  C          -3.52151660000000      2.54037419000000     -6.18239607000000
  H          -3.19874778000000      1.52270252000000     -6.42534268000000
  O          -4.88884365000000      2.73463415000000     -6.45299426000000
  Si         -6.07026439000000      1.60715549000000     -6.74094529000000
  C          -6.16865304000000      1.07604031000000     -8.53456314000000
  C          -7.18962428000000     -0.05404365000000     -8.73482371000000
  C          -4.79914853000000      0.60964796000000     -9.04580188000000
  C          -7.59141824000000      2.45800659000000     -6.05564903000000
  C          -8.91376125000000      1.71307992000000     -6.24767859000000
  C          -7.70429512000000      3.89574508000000     -6.57596422000000
  O          -5.72017613000000      0.25021261000000     -5.88357455000000
  Si         -4.80260452000000     -0.56769388000000     -4.79536788000000
  C          -3.77836245000000     -1.85406280000000     -5.69347929000000
  C          -3.41438334000000     -3.07446084000000     -4.84260725000000
  C          -2.51358046000000     -1.23907777000000     -6.30421119000000
  C          -5.96956699000000     -1.27010570000000     -3.50372152000000
  C          -7.11258139000000     -0.30011483000000     -3.18442478000000
  C          -5.24573005000000     -1.66638035000000     -2.21159162000000
  O          -3.72614961000000      0.48118181000000     -4.10162252000000
  C          -3.99981471000000      1.82648975000000     -3.77725088000000
  C          -3.26225120000000      2.78756559000000     -4.69047343000000
  H          -3.61592708000000      3.80463338000000     -4.45290761000000
  O          -1.87292991000000      2.67936053000000     -4.41208491000000
  C          -1.12363715000000      3.67106033000000     -5.07926969000000
  H          -1.49482719000000      4.67149901000000     -4.78764931000000
  O           0.21493532000000      3.53620474000000     -4.75373868000000
  C           0.50837721000000      3.85064240000000     -3.40053547000000
  C          -1.24963071000000      3.47876185000000     -6.57632225000000
  H          -0.84078899000000      2.48935326000000     -6.81422025000000
  O          -0.57705582000000      4.49695225000000     -7.29594590000000
  H          -2.19821732000000      3.78588411000000     -8.84323261000000
  H          -6.48404575000000      1.94932810000000     -9.11971936000000
  H          -6.92501434000000     -0.91734891000000     -8.11906560000000
  H          -7.18918689000000     -0.38603096000000     -9.77659380000000
  H          -8.20938829000000      0.23334557000000     -8.48105035000000
  H          -4.86131299000000      0.33334629000000    -10.10264973000000
  H          -4.48152646000000     -0.28439669000000     -8.50061816000000
  H          -4.02946050000000      1.37340182000000     -8.94048449000000
  H          -7.39122062000000      2.50930344000000     -4.97599104000000
  H          -9.23649522000000      1.74701066000000     -7.28984553000000
  H          -9.70129997000000      2.18198731000000     -5.65331506000000
  H          -8.85417937000000      0.66367099000000     -5.95389417000000
  H          -6.79369342000000      4.46381074000000     -6.38970763000000
  H          -8.53701177000000      4.41028279000000     -6.09078551000000
  H          -7.89214079000000      3.91492021000000     -7.65300750000000
  H          -4.42628428000000     -2.19777807000000     -6.51110866000000
  H          -4.29418378000000     -3.57725514000000     -4.43734094000000
  H          -2.77200280000000     -2.79521585000000     -4.00494443000000
  H          -2.86409086000000     -3.80326481000000     -5.44252483000000
  H          -1.88204240000000     -0.80403444000000     -5.52716330000000
  H          -2.74413748000000     -0.45066864000000     -7.02260234000000
  H          -1.93248373000000     -2.00154467000000     -6.82962664000000
  H          -6.40667084000000     -2.17423283000000     -3.94829555000000
  H          -7.66123303000000     -0.00294728000000     -4.07782672000000
  H          -6.73257859000000      0.60859552000000     -2.70852905000000
  H          -7.81788992000000     -0.75623300000000     -2.48537205000000
  H          -4.76476101000000     -0.79707969000000     -1.75797518000000
  H          -4.47391891000000     -2.41876485000000     -2.37216204000000
  H          -5.95430098000000     -2.06822613000000     -1.48274307000000
  H          -3.66687059000000      2.01673244000000     -2.75344176000000
  H          -5.07153697000000      2.04929230000000     -3.83428804000000
  H           0.01571581000000      3.15384936000000     -2.72194360000000
  H           0.19446737000000      4.87286910000000     -3.16633443000000
  H           1.58577237000000      3.76926671000000     -3.28858474000000
  H           0.35094278000000      4.46445012000000     -7.03939931000000
