68
Coordinates from ORCA-job goat_0_66
  O          -2.54205152000000      2.53209828000000     -8.40567045000000
  C          -2.44718528000000      3.20511055000000     -7.16461526000000
  H          -2.77059734000000      4.24834371000000     -7.27789648000000
  C          -3.37567148000000      2.52326686000000     -6.17854844000000
  H          -3.14270486000000      1.45160522000000     -6.18873437000000
  O          -4.71464815000000      2.77270141000000     -6.54394709000000
  Si         -5.94517254000000      1.66579727000000     -6.66110416000000
  C          -5.86319779000000      0.72181185000000     -8.27445317000000
  C          -5.61306288000000      1.59254585000000     -9.50813336000000
  C          -7.08246396000000     -0.18524267000000     -8.48165197000000
  C          -7.47503601000000      2.67537656000000     -6.28891369000000
  C          -8.65736555000000      1.83225211000000     -5.80477065000000
  C          -7.88493414000000      3.60064404000000     -7.43822609000000
  O          -5.78049358000000      0.54789827000000     -5.46819487000000
  Si         -4.77932471000000     -0.20308115000000     -4.40759495000000
  C          -3.66566325000000     -1.40528012000000     -5.31296514000000
  C          -4.39179490000000     -2.64888100000000     -5.83231522000000
  C          -2.41624060000000     -1.78878172000000     -4.51245804000000
  C          -5.90155604000000     -0.87433919000000     -3.07058727000000
  C          -5.15664617000000     -1.66562004000000     -1.99299221000000
  C          -7.09393243000000     -1.67079213000000     -3.61144328000000
  O          -3.74050265000000      0.91950715000000     -3.77005319000000
  C          -3.95786480000000      2.31156994000000     -3.71284471000000
  C          -3.14676526000000      3.05856252000000     -4.75916069000000
  H          -3.46611542000000      4.11395418000000     -4.74153387000000
  O          -1.77500414000000      2.96377192000000     -4.39987650000000
  C          -0.95295568000000      3.73670605000000     -5.24623985000000
  H          -1.28675674000000      4.79087046000000     -5.21740285000000
  O           0.36511169000000      3.63332519000000     -4.83453265000000
  C           0.62140435000000      4.22809579000000     -3.57147201000000
  C          -1.02023882000000      3.19050903000000     -6.65860736000000
  H          -0.66196303000000      2.15471495000000     -6.62285720000000
  O          -0.25000150000000      3.96297004000000     -7.56265724000000
  H          -1.87047819000000      2.90551047000000     -8.98843273000000
  H          -4.98393062000000      0.07560317000000     -8.13357858000000
  H          -5.50282571000000      0.96305433000000    -10.39620810000000
  H          -4.70722906000000      2.18563516000000     -9.39464678000000
  H          -6.44879287000000      2.27213477000000     -9.69090515000000
  H          -6.93330371000000     -0.82992308000000     -9.35225276000000
  H          -7.98222394000000      0.40662311000000     -8.66997583000000
  H          -7.28083756000000     -0.82462259000000     -7.61852548000000
  H          -7.14274183000000      3.30441747000000     -5.45145387000000
  H          -8.38322714000000      1.20412529000000     -4.95580922000000
  H          -9.03077692000000      1.17784873000000     -6.59550269000000
  H          -9.48441740000000      2.47727945000000     -5.49687949000000
  H          -8.24563729000000      3.02466535000000     -8.29395198000000
  H          -7.05478794000000      4.22196171000000     -7.77988601000000
  H          -8.69708931000000      4.26256919000000     -7.12648285000000
  H          -3.33395592000000     -0.82340038000000     -6.18573759000000
  H          -5.27754350000000     -2.39657596000000     -6.41982819000000
  H          -4.71046462000000     -3.28942062000000     -5.00628618000000
  H          -3.72802525000000     -3.24412047000000     -6.46517263000000
  H          -1.87734749000000     -0.90719566000000     -4.16463981000000
  H          -1.73810620000000     -2.38848316000000     -5.12621841000000
  H          -2.67676338000000     -2.38663945000000     -3.63572627000000
  H          -6.29518954000000      0.04360848000000     -2.61016704000000
  H          -5.82666430000000     -1.91259146000000     -1.16562796000000
  H          -4.30875123000000     -1.11012358000000     -1.58821156000000
  H          -4.77693925000000     -2.60844449000000     -2.39500343000000
  H          -7.64267896000000     -1.11820695000000     -4.37547650000000
  H          -7.78847605000000     -1.91217534000000     -2.80247138000000
  H          -6.77224371000000     -2.61583405000000     -4.05396877000000
  H          -3.64438222000000      2.66958327000000     -2.72984816000000
  H          -5.01508229000000      2.56276573000000     -3.85509223000000
  H           1.68463236000000      4.11266070000000     -3.38146626000000
  H           0.05349384000000      3.73142143000000     -2.78507521000000
  H           0.36934292000000      5.29301830000000     -3.58567781000000
  H           0.65277942000000      3.99205990000000     -7.22557885000000
