68
Coordinates from ORCA-job goat_0_82
  O          -2.29756504000000      3.10699638000000     -8.13367687000000
  C          -2.96289347000000      3.83010342000000     -7.11165856000000
  H          -3.71779808000000      4.44285501000000     -7.60254532000000
  C          -3.68822140000000      2.89604521000000     -6.13304862000000
  H          -3.19581549000000      1.91914008000000     -6.17747405000000
  O          -5.05128666000000      2.79311648000000     -6.50127838000000
  Si         -5.91759784000000      1.41100506000000     -6.78280210000000
  C          -5.75051385000000      0.79287479000000     -8.53584502000000
  C          -6.70869398000000     -0.37762790000000     -8.78934873000000
  C          -4.31406988000000      0.38543835000000     -8.87090912000000
  C          -7.68964984000000      1.86180281000000     -6.39138459000000
  C          -8.22242920000000      2.88599557000000     -7.40262494000000
  C          -7.84742285000000      2.38867677000000     -4.96395607000000
  O          -5.35609233000000      0.23698106000000     -5.78054451000000
  Si         -4.55445423000000     -0.17419011000000     -4.40661025000000
  C          -3.24561576000000     -1.44962468000000     -4.79622345000000
  C          -2.13116147000000     -0.82720660000000     -5.64580461000000
  C          -3.83086741000000     -2.69100303000000     -5.47946737000000
  C          -5.84063956000000     -0.71559998000000     -3.15285312000000
  C          -5.20829738000000     -1.47867321000000     -1.98365277000000
  C          -6.99512666000000     -1.51124121000000     -3.77076535000000
  O          -3.70406036000000      1.12687972000000     -3.83836915000000
  C          -4.23293618000000      2.43156116000000     -3.69477158000000
  C          -3.62601183000000      3.40232032000000     -4.69160211000000
  H          -4.18697510000000      4.34178539000000     -4.63536850000000
  O          -2.27936221000000      3.64133714000000     -4.25905886000000
  C          -1.35365644000000      4.04461505000000     -5.22200320000000
  H          -0.63147813000000      4.67893551000000     -4.68954029000000
  O          -0.66988609000000      2.94873218000000     -5.78967272000000
  C           0.13345420000000      2.25036692000000     -4.84911015000000
  C          -1.99784529000000      4.77507053000000     -6.39254491000000
  H          -1.21897645000000      5.06629724000000     -7.10322070000000
  O          -2.73984970000000      5.90000104000000     -5.94787206000000
  H          -1.56792246000000      2.63730804000000     -7.70682660000000
  H          -6.03636198000000      1.62604981000000     -9.19014170000000
  H          -6.47712429000000     -1.21449310000000     -8.12473410000000
  H          -6.60854268000000     -0.73749164000000     -9.81636700000000
  H          -7.75585098000000     -0.11038759000000     -8.63223556000000
  H          -3.60580280000000      1.20085447000000     -8.71760576000000
  H          -4.24097966000000      0.06816897000000     -9.91448873000000
  H          -4.00860767000000     -0.46094512000000     -8.25032383000000
  H          -8.27794775000000      0.94036438000000     -6.48840947000000
  H          -8.19198225000000      2.51346625000000     -8.42879441000000
  H          -7.63196647000000      3.80462049000000     -7.36668658000000
  H          -9.25828337000000      3.15104412000000     -7.17547184000000
  H          -7.50728817000000      1.66477695000000     -4.21912344000000
  H          -8.89320276000000      2.62181272000000     -4.74860664000000
  H          -7.27105899000000      3.30740346000000     -4.83164796000000
  H          -2.81264079000000     -1.75741773000000     -3.83601124000000
  H          -1.32902382000000     -1.54799834000000     -5.82584281000000
  H          -1.70355584000000      0.05103111000000     -5.16120542000000
  H          -2.51349830000000     -0.51433160000000     -6.62068047000000
  H          -4.56065862000000     -3.20492020000000     -4.85029032000000
  H          -3.04270456000000     -3.40926073000000     -5.72084815000000
  H          -4.33041070000000     -2.42453264000000     -6.41456819000000
  H          -6.25666537000000      0.21964909000000     -2.75188533000000
  H          -4.79352140000000     -2.43440739000000     -2.31582562000000
  H          -5.95570526000000     -1.69775215000000     -1.21700944000000
  H          -4.40159142000000     -0.91221692000000     -1.51353090000000
  H          -6.65363360000000     -2.47207832000000     -4.16337274000000
  H          -7.46571816000000     -0.97101655000000     -4.59349173000000
  H          -7.76060488000000     -1.72179564000000     -3.01958821000000
  H          -3.99862695000000      2.79331209000000     -2.69051695000000
  H          -5.32030673000000      2.44361024000000     -3.81591625000000
  H          -0.47250850000000      1.86605427000000     -4.02744840000000
  H           0.91070907000000      2.91083453000000     -4.45133615000000
  H           0.60022503000000      1.42359935000000     -5.37815965000000
  H          -2.14490097000000      6.52409904000000     -5.51962035000000
