68
Coordinates from ORCA-job goat_0_93
  O          -2.28444039000000      2.96363900000000     -8.37135454000000
  C          -2.72529702000000      3.76228747000000     -7.28406624000000
  H          -3.38656706000000      4.51937101000000     -7.70362993000000
  C          -3.53365005000000      2.92917151000000     -6.28217169000000
  H          -3.15919216000000      1.90267005000000     -6.32371759000000
  O          -4.90849660000000      2.97346647000000     -6.61430733000000
  Si         -5.90020884000000      1.66689068000000     -6.85420035000000
  C          -5.75063506000000      0.92521523000000     -8.55627768000000
  C          -4.38183812000000      0.28479729000000     -8.80271052000000
  C          -6.08752942000000      1.94461528000000     -9.64913823000000
  C          -7.61625987000000      2.32280072000000     -6.51726011000000
  C          -7.75285928000000      2.78283339000000     -5.06353389000000
  C          -8.71909956000000      1.32484805000000     -6.88282487000000
  O          -5.49567418000000      0.49595054000000     -5.77640196000000
  Si         -4.62431008000000     -0.02749910000000     -4.48883399000000
  C          -3.44051588000000     -1.35812477000000     -5.06081853000000
  C          -4.14380063000000     -2.57738483000000     -5.66619133000000
  C          -2.42089415000000     -1.77398805000000     -3.99457405000000
  C          -5.88522296000000     -0.45780302000000     -3.16683244000000
  C          -5.27989285000000     -1.09118922000000     -1.90970516000000
  C          -7.04166934000000     -1.30741584000000     -3.70834831000000
  O          -3.62681831000000      1.19044730000000     -3.95917498000000
  C          -4.05067991000000      2.53321111000000     -3.81870838000000
  C          -3.39363404000000      3.44137284000000     -4.84658551000000
  H          -3.91182353000000      4.40972906000000     -4.79514464000000
  O          -2.02740469000000      3.62308356000000     -4.43674876000000
  C          -1.04920442000000      3.66734442000000     -5.44801744000000
  H          -0.17463845000000      4.11621018000000     -4.96515162000000
  O          -0.73137350000000      2.39760038000000     -5.95253260000000
  C          -0.25576075000000      1.49903847000000     -4.95626214000000
  C          -1.54596124000000      4.49297742000000     -6.62045139000000
  H          -0.75679626000000      4.59278345000000     -7.36586877000000
  O          -1.88324667000000      5.79881155000000     -6.18712802000000
  H          -1.63264513000000      2.34660133000000     -8.01276299000000
  H          -6.50994713000000      0.13154712000000     -8.57788251000000
  H          -4.12554392000000     -0.43829070000000     -8.02486873000000
  H          -3.60310541000000      1.04800510000000     -8.83595995000000
  H          -4.37236644000000     -0.23843213000000     -9.76185823000000
  H          -5.37413276000000      2.77168358000000     -9.64319917000000
  H          -7.08833245000000      2.36662873000000     -9.52964827000000
  H          -6.04109682000000      1.47798548000000    -10.63572758000000
  H          -7.72352166000000      3.20167759000000     -7.16533235000000
  H          -8.74568651000000      3.19937227000000     -4.87884240000000
  H          -7.01677429000000      3.54961344000000     -4.81600114000000
  H          -7.61705107000000      1.94407810000000     -4.37401548000000
  H          -8.68956688000000      1.04170244000000     -7.93653350000000
  H          -9.70439459000000      1.75302220000000     -6.68275726000000
  H          -8.63927331000000      0.40789363000000     -6.29369675000000
  H          -2.88815889000000     -0.85787407000000     -5.87038558000000
  H          -4.86893181000000     -2.29475763000000     -6.43221693000000
  H          -4.67213077000000     -3.15208487000000     -4.90143446000000
  H          -3.41666544000000     -3.24950685000000     -6.12890024000000
  H          -1.91763963000000     -0.91003737000000     -3.55832346000000
  H          -1.65799077000000     -2.42675847000000     -4.42682873000000
  H          -2.89605520000000     -2.32705318000000     -3.18176454000000
  H          -6.30141115000000      0.51920689000000     -2.87797983000000
  H          -6.03059856000000     -1.17027842000000     -1.11946791000000
  H          -4.44182003000000     -0.51202894000000     -1.51632610000000
  H          -4.92226263000000     -2.10339240000000     -2.11325711000000
  H          -7.49191440000000     -0.86168832000000     -4.59632327000000
  H          -7.82461486000000     -1.41986534000000     -2.95430961000000
  H          -6.70468021000000     -2.31168621000000     -3.97631725000000
  H          -3.76411327000000      2.89445164000000     -2.82731046000000
  H          -5.13749601000000      2.62595058000000     -3.91355860000000
  H           0.62184897000000      1.91840711000000     -4.45405730000000
  H           0.02471187000000      0.58269988000000     -5.46993705000000
  H          -1.03564633000000      1.28939781000000     -4.22332362000000
  H          -2.21765713000000      5.74682846000000     -5.28443884000000
