68
Coordinates from ORCA-job goat_0_90
  O          -2.84313847000000      3.13706883000000     -8.27599266000000
  C          -2.87805472000000      3.66582665000000     -6.96643242000000
  H          -3.38272293000000      4.64497272000000     -6.97154194000000
  C          -3.67860584000000      2.74129502000000     -6.06991113000000
  H          -3.24921982000000      1.73638155000000     -6.14547821000000
  O          -5.03577498000000      2.75325069000000     -6.45507081000000
  Si         -5.96992201000000      1.41625752000000     -6.75512440000000
  C          -5.84701607000000      0.81390974000000     -8.51627724000000
  C          -6.94095567000000     -0.22294211000000     -8.80489639000000
  C          -4.46724624000000      0.22653497000000     -8.82404097000000
  C          -7.71208012000000      1.94314435000000     -6.32957659000000
  C          -8.18721606000000      3.04923794000000     -7.28249726000000
  C          -7.83860047000000      2.39719550000000     -4.87410269000000
  O          -5.44635123000000      0.20695233000000     -5.77491497000000
  Si         -4.64746438000000     -0.30695956000000     -4.43374500000000
  C          -3.36109808000000     -1.58135956000000     -4.89354531000000
  C          -2.20817932000000     -0.92879946000000     -5.66589532000000
  C          -3.95373738000000     -2.75861113000000     -5.67670000000000
  C          -5.94307086000000     -0.88238705000000     -3.20674818000000
  C          -5.32045703000000     -1.69867762000000     -2.06765237000000
  C          -7.10301656000000     -1.63900007000000     -3.86344383000000
  O          -3.77208788000000      0.94031332000000     -3.78863415000000
  C          -4.23419057000000      2.26401938000000     -3.62878931000000
  C          -3.58290476000000      3.21481079000000     -4.61634899000000
  H          -4.10964295000000      4.17945520000000     -4.54715860000000
  O          -2.23030409000000      3.38565733000000     -4.22208795000000
  C          -1.55530448000000      4.35872495000000     -4.99077464000000
  H          -2.12991524000000      5.29890157000000     -4.97919192000000
  O          -0.34563531000000      4.66678854000000     -4.39921409000000
  C           0.58055706000000      3.58776234000000     -4.32494097000000
  C          -1.46598926000000      3.84231483000000     -6.42418101000000
  H          -0.96787437000000      2.86933602000000     -6.43093113000000
  O          -0.70912079000000      4.68267854000000     -7.28188267000000
  H          -2.17069561000000      3.63294250000000     -8.76044336000000
  H          -6.00676642000000      1.68536485000000     -9.16313386000000
  H          -7.94807336000000      0.17661692000000     -8.66872839000000
  H          -6.83631690000000     -1.08832634000000     -8.14327405000000
  H          -6.86516301000000     -0.58397945000000     -9.83410234000000
  H          -4.28298376000000     -0.65162568000000     -8.20027441000000
  H          -3.66723763000000      0.94626902000000     -8.65118817000000
  H          -4.41051960000000     -0.09280997000000     -9.86834870000000
  H          -8.35086769000000      1.06249197000000     -6.47203358000000
  H          -9.21031857000000      3.35405084000000     -7.04428175000000
  H          -8.17134209000000      2.73159981000000     -8.32760842000000
  H          -7.54677065000000      3.93109770000000     -7.19642515000000
  H          -7.53499508000000      1.61573668000000     -4.17304210000000
  H          -8.87048798000000      2.66999611000000     -4.63740298000000
  H          -7.21435654000000      3.27575966000000     -4.69208867000000
  H          -2.95794283000000     -1.96627935000000     -3.94875883000000
  H          -1.42473792000000     -1.65872923000000     -5.88394444000000
  H          -1.76178429000000     -0.10836833000000     -5.10280658000000
  H          -2.55390715000000     -0.52758862000000     -6.62186231000000
  H          -4.42217408000000     -2.41888098000000     -6.60413542000000
  H          -4.71142173000000     -3.29787128000000     -5.10447024000000
  H          -3.17344604000000     -3.47663856000000     -5.94349364000000
  H          -6.35118529000000      0.04035426000000     -2.76929546000000
  H          -6.06815568000000     -1.93985169000000     -1.30686728000000
  H          -4.50568207000000     -1.16053776000000     -1.57764351000000
  H          -4.91611138000000     -2.64455600000000     -2.43966331000000
  H          -6.76665494000000     -2.58512850000000     -4.29516061000000
  H          -7.56118400000000     -1.05948143000000     -4.66699815000000
  H          -7.87815230000000     -1.87422243000000     -3.12862558000000
  H          -3.98032459000000      2.60403996000000     -2.62240250000000
  H          -5.31867968000000      2.33006044000000     -3.74810964000000
  H           0.12036333000000      2.70737198000000     -3.87417238000000
  H           1.39372927000000      3.93328082000000     -3.69276815000000
  H           0.97803598000000      3.34047426000000     -5.31203188000000
  H          -0.88940873000000      5.60409364000000     -7.06091109000000
