68
Coordinates from ORCA-job goat_0_44
  O          -2.19323991000000      2.95083143000000     -8.10284940000000
  C          -2.71961761000000      3.70776612000000     -7.02622894000000
  H          -3.41564190000000      4.42456738000000     -7.47087378000000
  C          -3.52472169000000      2.82882357000000     -6.06646344000000
  H          -3.11572592000000      1.81470531000000     -6.12322787000000
  O          -4.89097968000000      2.85057534000000     -6.43113375000000
  Si         -5.80429575000000      1.52289288000000     -6.81520048000000
  C          -5.27213816000000      0.84551703000000     -8.47402264000000
  C          -5.59618878000000      1.80730203000000     -9.62087141000000
  C          -5.80170926000000     -0.55871224000000     -8.77542438000000
  C          -7.56257996000000      2.14671013000000     -6.73368604000000
  C          -7.77346949000000      3.09401803000000     -5.54819007000000
  C          -8.57889832000000      1.00192192000000     -6.69608617000000
  O          -5.55876427000000      0.35490772000000     -5.68360607000000
  Si         -4.66882606000000     -0.19637954000000     -4.41674209000000
  C          -3.43824687000000     -1.48981701000000     -4.96436677000000
  C          -2.53995437000000     -0.98239519000000     -6.09569969000000
  C          -4.10928088000000     -2.80749832000000     -5.36264562000000
  C          -5.87880628000000     -0.86776091000000     -3.16063166000000
  C          -6.88740958000000      0.18532273000000     -2.69522264000000
  C          -5.16661553000000     -1.49270073000000     -1.95858352000000
  O          -3.74649763000000      1.03247083000000     -3.80537607000000
  C          -4.14352098000000      2.38433808000000     -3.65792155000000
  C          -3.40887408000000      3.29751833000000     -4.61992585000000
  H          -3.85220778000000      4.29586503000000     -4.54037078000000
  O          -2.04696137000000      3.35777485000000     -4.18864614000000
  C          -1.07849935000000      3.65319447000000     -5.14937530000000
  H          -0.27788131000000      4.17152500000000     -4.61169834000000
  O          -0.56574659000000      2.48610794000000     -5.75753685000000
  C           0.11124332000000      1.63832794000000     -4.84043621000000
  C          -1.62068244000000      4.48995121000000     -6.29258218000000
  H          -0.80682715000000      4.68347908000000     -6.99633228000000
  O          -2.10440418000000      5.69174316000000     -5.71678384000000
  H          -1.50542890000000      2.38123781000000     -7.73112888000000
  H          -4.17794105000000      0.79086222000000     -8.39716218000000
  H          -5.17079976000000      2.79793009000000     -9.45251036000000
  H          -6.67587255000000      1.91699288000000     -9.75608335000000
  H          -5.19220696000000      1.42918510000000    -10.56343003000000
  H          -5.58679872000000     -1.25869669000000     -7.96655790000000
  H          -5.35101736000000     -0.95122932000000     -9.69106864000000
  H          -6.88353047000000     -0.55243505000000     -8.93114579000000
  H          -7.71841850000000      2.72055965000000     -7.65535377000000
  H          -7.62971720000000      2.57345315000000     -4.59747527000000
  H          -8.79360459000000      3.48692718000000     -5.54530962000000
  H          -7.08131939000000      3.93509176000000     -5.57707727000000
  H          -8.41347353000000      0.36248359000000     -5.82546803000000
  H          -8.52463434000000      0.37031967000000     -7.58403768000000
  H          -9.59709484000000      1.39308693000000     -6.62671364000000
  H          -2.80628041000000     -1.67593147000000     -4.08700952000000
  H          -1.80000596000000     -1.73910726000000     -6.37161541000000
  H          -2.00204907000000     -0.07642855000000     -5.81056619000000
  H          -3.12522680000000     -0.76467051000000     -6.99381722000000
  H          -4.68675597000000     -3.24207147000000     -4.54470814000000
  H          -3.35938462000000     -3.54228467000000     -5.66734658000000
  H          -4.78618124000000     -2.66815560000000     -6.20968341000000
  H          -6.43347046000000     -1.65635081000000     -3.68568834000000
  H          -6.39034806000000      0.99854103000000     -2.15861282000000
  H          -7.61566254000000     -0.25322968000000     -2.00728352000000
  H          -7.43929799000000      0.61605803000000     -3.53187475000000
  H          -4.56082562000000     -0.74945369000000     -1.43413052000000
  H          -4.50758819000000     -2.31314974000000     -2.24854267000000
  H          -5.89243223000000     -1.88681834000000     -1.24246459000000
  H          -3.91151002000000      2.70137053000000     -2.63946392000000
  H          -5.21890904000000      2.50856329000000     -3.81411060000000
  H           0.94894861000000      2.17117080000000     -4.37864797000000
  H           0.49488549000000      0.79501462000000     -5.40997267000000
  H          -0.56855876000000      1.28444681000000     -4.06332821000000
  H          -2.37157915000000      6.28460413000000     -6.42608871000000
