68
Coordinates from ORCA-job goat_0_35
  O          -2.25883721000000      2.79693026000000     -8.27921716000000
  C          -2.66969213000000      3.68612286000000     -7.25019229000000
  H          -3.31411477000000      4.42690680000000     -7.72210895000000
  C          -3.48519071000000      2.94006208000000     -6.19427427000000
  H          -3.11244920000000      1.91249956000000     -6.16922154000000
  O          -4.86260355000000      2.96593291000000     -6.51751661000000
  Si         -5.76388984000000      1.60451403000000     -6.81267961000000
  C          -5.30942010000000      0.86609707000000     -8.46379000000000
  C          -5.74725686000000      1.76605187000000     -9.62337742000000
  C          -5.79927377000000     -0.57287328000000     -8.65044520000000
  C          -7.52665685000000      2.20190720000000     -6.62946330000000
  C          -7.74394507000000      2.73719995000000     -5.20880225000000
  C          -8.57460946000000      1.14256607000000     -6.98582948000000
  O          -5.42021642000000      0.48419236000000     -5.65748844000000
  Si         -4.56466325000000      0.04586527000000     -4.32684904000000
  C          -3.39334987000000     -1.35097884000000     -4.75013052000000
  C          -2.58067238000000     -0.98306407000000     -5.99903633000000
  C          -4.09543231000000     -2.70012621000000     -4.94281029000000
  C          -5.81422018000000     -0.29228455000000     -2.97685176000000
  C          -5.16526691000000     -0.86441899000000     -1.71329497000000
  C          -6.99736098000000     -1.14818880000000     -3.44002717000000
  O          -3.56406236000000      1.28852085000000     -3.86517423000000
  C          -3.99733507000000      2.63090065000000     -3.74028404000000
  C          -3.35004977000000      3.52379420000000     -4.78909126000000
  H          -3.88492294000000      4.48383630000000     -4.77248517000000
  O          -1.98845154000000      3.74966884000000     -4.38908828000000
  C          -0.99965237000000      3.71161188000000     -5.39147257000000
  H          -0.13499416000000      4.21039252000000     -4.94009383000000
  O          -0.66226194000000      2.40507603000000     -5.77072832000000
  C          -0.13543747000000      1.63694889000000     -4.69294071000000
  C          -1.47825461000000      4.43827931000000     -6.63564675000000
  H          -0.68046199000000      4.46594906000000     -7.37776529000000
  O          -1.79613316000000      5.78067828000000     -6.31012639000000
  H          -1.62820564000000      2.18098244000000     -7.88361185000000
  H          -4.21111648000000      0.85749732000000     -8.45732861000000
  H          -5.39910983000000      1.35703552000000    -10.57421733000000
  H          -5.33946118000000      2.77393485000000     -9.52804204000000
  H          -6.83656760000000      1.84539862000000     -9.68180587000000
  H          -6.88795726000000     -0.62387980000000     -8.72102371000000
  H          -5.49441298000000     -1.21661811000000     -7.82334442000000
  H          -5.39478100000000     -0.99426800000000     -9.57365525000000
  H          -7.63631938000000      3.03861049000000     -7.33108748000000
  H          -8.75349107000000      3.13896902000000     -5.09071035000000
  H          -7.03533241000000      3.53265988000000     -4.97042834000000
  H          -7.62068286000000      1.93845965000000     -4.47076666000000
  H          -9.58470855000000      1.52732543000000     -6.82127213000000
  H          -8.46387979000000      0.24715891000000     -6.36890052000000
  H          -8.50823752000000      0.83415583000000     -8.03052893000000
  H          -2.70163149000000     -1.44451937000000     -3.90288417000000
  H          -2.04776346000000     -0.03823785000000     -5.87337689000000
  H          -3.23460660000000     -0.88612367000000     -6.87025929000000
  H          -1.84387647000000     -1.75841012000000     -6.22646911000000
  H          -4.84786698000000     -2.64944866000000     -5.73422530000000
  H          -4.59354159000000     -3.04094435000000     -4.03358743000000
  H          -3.37483432000000     -3.47058913000000     -5.22988140000000
  H          -6.20652613000000      0.70432425000000     -2.72733216000000
  H          -5.89931741000000     -0.94694974000000     -0.90865869000000
  H          -4.34615023000000     -0.23714055000000     -1.35643397000000
  H          -4.76444947000000     -1.86592847000000     -1.88970215000000
  H          -7.46314724000000     -0.73938132000000     -4.33782554000000
  H          -7.75856546000000     -1.20219042000000     -2.65844123000000
  H          -6.69055911000000     -2.17164117000000     -3.66504035000000
  H          -3.70698136000000      3.00524032000000     -2.75523602000000
  H          -5.08620839000000      2.71678600000000     -3.83316705000000
  H          -0.90580036000000      1.44330350000000     -3.94478288000000
  H           0.70542369000000      2.16357914000000     -4.23015765000000
  H           0.21481011000000      0.69874089000000     -5.11624959000000
  H          -2.15506497000000      5.80231832000000     -5.41548210000000
