68
Coordinates from ORCA-job goat_0_86
  O          -2.51554212000000      3.24825417000000     -8.18032420000000
  C          -2.57897491000000      3.67064613000000     -6.82519983000000
  H          -2.98375104000000      4.69064459000000     -6.76968646000000
  C          -3.45800695000000      2.76069476000000     -5.99103390000000
  H          -3.10308326000000      1.72801520000000     -6.11194671000000
  O          -4.79928177000000      2.90434914000000     -6.42564238000000
  Si         -5.81034960000000      1.63644049000000     -6.79051666000000
  C          -5.40237526000000      1.01468082000000     -8.50856105000000
  C          -5.87665307000000      1.99482025000000     -9.58869190000000
  C          -5.90340088000000     -0.40326344000000     -8.79550893000000
  C          -7.52956420000000      2.33575978000000     -6.58254018000000
  C          -7.72493909000000      2.82504212000000     -5.14245677000000
  C          -8.62823002000000      1.34149442000000     -6.97436414000000
  O          -5.56798948000000      0.42132603000000     -5.71930671000000
  Si         -4.64978644000000     -0.28881960000000     -4.55022305000000
  C          -3.39253802000000     -1.45123457000000     -5.29849226000000
  C          -3.99574951000000     -2.76957974000000     -5.79135350000000
  C          -2.24372396000000     -1.71717095000000     -4.31840577000000
  C          -5.83258213000000     -1.11995552000000     -3.35481363000000
  C          -7.04824679000000     -1.70934542000000     -4.08104354000000
  C          -6.28241408000000     -0.15973712000000     -2.24752627000000
  O          -3.74867637000000      0.87455492000000     -3.79961051000000
  C          -4.11429078000000      2.22354879000000     -3.59528729000000
  C          -3.34671443000000      3.15170438000000     -4.51854190000000
  H          -3.77209020000000      4.16248520000000     -4.40476129000000
  O          -1.98913822000000      3.14749273000000     -4.12214498000000
  C          -1.19721357000000      4.09440183000000     -4.82390274000000
  H          -1.64443468000000      5.09276467000000     -4.73907012000000
  O           0.03174663000000      4.18565822000000     -4.20502418000000
  C           0.82806382000000      3.01023212000000     -4.25933901000000
  C          -1.15752018000000      3.69104967000000     -6.29615694000000
  H          -0.74651659000000      2.67654884000000     -6.37390633000000
  O          -0.36275959000000      4.61997534000000     -7.00011672000000
  H          -3.40462621000000      3.29865760000000     -8.54990946000000
  H          -4.30356258000000      0.98900644000000     -8.53523082000000
  H          -5.49996924000000      1.69925075000000    -10.57016742000000
  H          -5.54998312000000      3.02186764000000     -9.40130668000000
  H          -6.96770555000000      2.01603215000000     -9.65132259000000
  H          -6.99429789000000     -0.45552875000000     -8.79850746000000
  H          -5.54224662000000     -1.11315294000000     -8.05133691000000
  H          -5.55813633000000     -0.73865754000000     -9.77622642000000
  H          -7.59533640000000      3.20228461000000     -7.25270241000000
  H          -7.65093658000000      1.98990386000000     -4.43968409000000
  H          -8.71263327000000      3.27487971000000     -5.01282688000000
  H          -6.97513344000000      3.56828134000000     -4.86484648000000
  H          -9.61757934000000      1.77185496000000     -6.79943579000000
  H          -8.56298132000000      0.42484068000000     -6.38297910000000
  H          -8.57541130000000      1.05935330000000     -8.02732093000000
  H          -2.98237659000000     -0.91905650000000     -6.16801427000000
  H          -4.39994560000000     -3.35579923000000     -4.96200779000000
  H          -3.22870040000000     -3.37954196000000     -6.27401487000000
  H          -4.80111414000000     -2.61937121000000     -6.51215593000000
  H          -1.47790751000000     -2.33883776000000     -4.78813707000000
  H          -2.59652920000000     -2.25172148000000     -3.43151754000000
  H          -1.77997096000000     -0.79040275000000     -3.98235525000000
  H          -5.27807799000000     -1.94325635000000     -2.88530254000000
  H          -6.76935818000000     -2.42096270000000     -4.86065930000000
  H          -7.62582955000000     -0.91464539000000     -4.55754923000000
  H          -7.70857469000000     -2.22362710000000     -3.37829073000000
  H          -5.43696351000000      0.25011522000000     -1.69245357000000
  H          -6.94160717000000     -0.66620911000000     -1.53797541000000
  H          -6.84601962000000      0.67921579000000     -2.66567278000000
  H          -3.87270666000000      2.50001822000000     -2.56661130000000
  H          -5.18680463000000      2.38098257000000     -3.75161834000000
  H           1.24586989000000      2.86426585000000     -5.25828849000000
  H           0.25489459000000      2.13206164000000     -3.95816926000000
  H           1.64079147000000      3.16161656000000     -3.55424915000000
  H          -0.52386364000000      4.47358363000000     -7.93987403000000
