68
Coordinates from ORCA-job goat_0_23
  O          -2.85565931000000      2.86090965000000     -8.48512916000000
  C          -2.76208195000000      3.37739096000000     -7.17175550000000
  H          -3.15449032000000      4.40388038000000     -7.14087512000000
  C          -3.60776579000000      2.52485285000000     -6.24442821000000
  H          -3.29798020000000      1.47711960000000     -6.35425059000000
  O          -4.97251775000000      2.70387146000000     -6.55021887000000
  Si         -6.09291962000000      1.50702217000000     -6.80338542000000
  C          -6.07254987000000      0.82720311000000     -8.54040737000000
  C          -4.78132080000000      0.06435407000000     -8.85248207000000
  C          -6.34250747000000      1.89931665000000     -9.59958635000000
  C          -7.73165102000000      2.29423498000000     -6.34695765000000
  C          -7.77542495000000      3.78141167000000     -6.71875972000000
  C          -8.06512726000000      2.12457600000000     -4.86166076000000
  O          -5.74846072000000      0.25476988000000     -5.79985913000000
  Si         -4.82509723000000     -0.41992277000000     -4.62125268000000
  C          -3.63174789000000     -1.64516257000000     -5.37680220000000
  C          -4.29790819000000     -2.92113765000000     -5.89807359000000
  C          -2.44909362000000     -1.96982758000000     -4.45759007000000
  C          -6.02903205000000     -1.04976254000000     -3.33408122000000
  C          -5.34682019000000     -1.79148163000000     -2.18210048000000
  C          -7.17118800000000     -1.88212652000000     -3.92553853000000
  O          -3.83592484000000      0.72887147000000     -3.95616167000000
  C          -4.13080434000000      2.09647254000000     -3.78970892000000
  C          -3.38071918000000      2.95590071000000     -4.79087578000000
  H          -3.75752408000000      3.98692508000000     -4.68750307000000
  O          -1.99978278000000      2.90349719000000     -4.46625625000000
  C          -1.24433338000000      3.80114663000000     -5.24725357000000
  H          -1.63286271000000      4.82738095000000     -5.10797740000000
  O           0.08507808000000      3.73207297000000     -4.86984292000000
  C           0.33659755000000      4.22835122000000     -3.56340575000000
  C          -1.32123440000000      3.39397721000000     -6.70547222000000
  H          -0.90489428000000      2.38166967000000     -6.78073039000000
  O          -0.62512047000000      4.29891336000000     -7.54366041000000
  H          -2.21503219000000      3.33882031000000     -9.02524140000000
  H          -6.90481069000000      0.10971495000000     -8.55840665000000
  H          -4.83675499000000     -0.38744036000000     -9.84660815000000
  H          -4.60336268000000     -0.73771813000000     -8.13381235000000
  H          -3.92082854000000      0.73566853000000     -8.84585250000000
  H          -5.56938129000000      2.66993488000000     -9.57849494000000
  H          -7.31111049000000      2.38287178000000     -9.45974814000000
  H          -6.33982216000000      1.45699998000000    -10.59881326000000
  H          -8.49617205000000      1.76617538000000     -6.93073751000000
  H          -7.02122452000000      4.33421993000000     -6.15663620000000
  H          -8.75134846000000      4.20947101000000     -6.47654164000000
  H          -7.58296584000000      3.95862412000000     -7.77727585000000
  H          -9.05670791000000      2.52832481000000     -4.64219118000000
  H          -7.35580208000000      2.67771875000000     -4.23967868000000
  H          -8.04414705000000      1.08069539000000     -4.54614858000000
  H          -3.23130111000000     -1.10068537000000     -6.24400176000000
  H          -3.57986096000000     -3.52781627000000     -6.45585329000000
  H          -5.13836442000000     -2.70810291000000     -6.56228039000000
  H          -4.66967577000000     -3.53784830000000     -5.07594955000000
  H          -1.95196500000000     -1.06228767000000     -4.11518104000000
  H          -1.71456845000000     -2.58379694000000     -4.98532620000000
  H          -2.76806389000000     -2.53118745000000     -3.57605807000000
  H          -6.46740850000000     -0.12741324000000     -2.92585409000000
  H          -4.93170544000000     -2.74472180000000     -2.51825473000000
  H          -6.06398399000000     -2.01606524000000     -1.38903051000000
  H          -4.53434797000000     -1.20940364000000     -1.74407198000000
  H          -7.66668215000000     -1.36538197000000     -4.74875074000000
  H          -7.92328541000000     -2.10101814000000     -3.16313830000000
  H          -6.80931035000000     -2.83999454000000     -4.30567823000000
  H          -3.82493891000000      2.40014368000000     -2.78522350000000
  H          -5.20236666000000      2.29715971000000     -3.89201750000000
  H           1.41126641000000      4.17346797000000     -3.40934703000000
  H          -0.17289718000000      3.62265810000000     -2.81345313000000
  H           0.00841316000000      5.26954755000000     -3.47760715000000
  H           0.29132658000000      4.32277396000000     -7.24691269000000
