68
Coordinates from ORCA-job goat_0_9
  O          -2.89521557000000      2.76501462000000     -8.40218802000000
  C          -2.69643582000000      3.36949860000000     -7.13734779000000
  H          -3.08679498000000      4.39765422000000     -7.13849425000000
  C          -3.46338772000000      2.56939848000000     -6.10527202000000
  H          -3.16028843000000      1.51949549000000     -6.19616734000000
  O          -4.85224182000000      2.72808003000000     -6.30030703000000
  Si         -5.88315836000000      1.45769607000000     -6.58707949000000
  C          -5.70847834000000      0.83154193000000     -8.33682373000000
  C          -6.24699072000000      1.81567530000000     -9.37762426000000
  C          -6.29346911000000     -0.56898050000000     -8.54129039000000
  C          -7.54733988000000      2.12064545000000     -6.05017049000000
  C          -8.71580401000000      1.20836412000000     -6.42844343000000
  C          -7.80165057000000      3.56022963000000     -6.50681330000000
  O          -5.44784590000000      0.21655145000000     -5.60209580000000
  Si         -4.58480981000000     -0.33424605000000     -4.31996029000000
  C          -3.48617712000000     -1.74110520000000     -4.85982680000000
  C          -2.56253368000000     -1.27593238000000     -5.99235459000000
  C          -4.26550712000000     -2.98963020000000     -5.27908962000000
  C          -5.81366299000000     -0.70970296000000     -2.96322817000000
  C          -5.16944277000000     -1.43918793000000     -1.78214367000000
  C          -7.07052230000000     -1.43956988000000     -3.44325739000000
  O          -3.52146927000000      0.82252518000000     -3.79768515000000
  C          -3.79425379000000      2.19526424000000     -3.62112146000000
  C          -3.12685333000000      3.04290086000000     -4.68999977000000
  H          -3.50150726000000      4.07264208000000     -4.57630445000000
  O          -1.72373153000000      3.00902593000000     -4.47534749000000
  C          -1.04183857000000      3.87931366000000     -5.35030407000000
  H          -1.43078225000000      4.90641535000000     -5.22296103000000
  O           0.31383378000000      3.84095099000000     -5.07410087000000
  C           0.66014220000000      4.40947843000000     -3.81943579000000
  C          -1.22445459000000      3.40911608000000     -6.78076922000000
  H          -0.80940532000000      2.39517724000000     -6.84188025000000
  O          -0.59451864000000      4.27730992000000     -7.70515675000000
  H          -2.31676488000000      3.21565712000000     -9.02814838000000
  H          -4.62167700000000      0.77130869000000     -8.47999149000000
  H          -7.33374596000000      1.91320081000000     -9.31142726000000
  H          -6.02088441000000      1.46583184000000    -10.38773573000000
  H          -5.80388731000000      2.80581467000000     -9.26318094000000
  H          -6.05048514000000     -0.94085431000000     -9.54005707000000
  H          -7.38303175000000     -0.56953158000000     -8.45459487000000
  H          -5.89928303000000     -1.28026381000000     -7.81385614000000
  H          -7.47255294000000      2.12927763000000     -4.95326651000000
  H          -8.87572577000000      1.19719392000000     -7.50904416000000
  H          -9.64277310000000      1.56048775000000     -5.96953206000000
  H          -8.55698718000000      0.17792209000000     -6.10563914000000
  H          -8.73001078000000      3.94184518000000     -6.07366454000000
  H          -7.90070084000000      3.62379300000000     -7.59270529000000
  H          -6.98954597000000      4.22202556000000     -6.20737302000000
  H          -2.86561597000000     -1.99266472000000     -3.99116921000000
  H          -1.89476853000000     -2.08285787000000     -6.30679461000000
  H          -1.94548646000000     -0.43028186000000     -5.68289546000000
  H          -3.14315965000000     -0.97750967000000     -6.87153353000000
  H          -4.84937444000000     -3.40648338000000     -4.45723839000000
  H          -3.58294479000000     -3.76858980000000     -5.62844298000000
  H          -4.95256228000000     -2.77216311000000     -6.10080735000000
  H          -6.12532039000000      0.28470990000000     -2.61288160000000
  H          -5.88398109000000     -1.54880366000000     -0.96246577000000
  H          -4.29722453000000     -0.90606999000000     -1.39984237000000
  H          -4.84780954000000     -2.44500610000000     -2.06593670000000
  H          -7.54996758000000     -0.91435530000000     -4.26981427000000
  H          -7.79687470000000     -1.52596456000000     -2.63064082000000
  H          -6.84402473000000     -2.45337511000000     -3.78112192000000
  H          -3.40667136000000      2.50428218000000     -2.64726444000000
  H          -4.87031836000000      2.40431347000000     -3.63576183000000
  H           0.33562662000000      5.45441340000000     -3.76868958000000
  H           1.74388865000000      4.36276195000000     -3.74257312000000
  H           0.20947390000000      3.84674444000000     -3.00098332000000
  H           0.33970678000000      4.32236096000000     -7.47210202000000
