68
Coordinates from ORCA-job goat_0_22
  O          -2.77744663000000      3.03669855000000     -8.44663669000000
  C          -2.65402127000000      3.49009360000000     -7.11248961000000
  H          -3.03030725000000      4.51963834000000     -7.02511287000000
  C          -3.49555881000000      2.60563683000000     -6.21170210000000
  H          -3.20131965000000      1.56155077000000     -6.37621611000000
  O          -4.86091242000000      2.81528081000000     -6.48738618000000
  Si         -6.03473724000000      1.66779752000000     -6.72944164000000
  C          -6.10226399000000      1.13172455000000     -8.51798738000000
  C          -7.30897759000000      0.23797787000000     -8.82165680000000
  C          -4.81136522000000      0.41344066000000     -8.92472479000000
  C          -7.57299528000000      2.48889819000000     -6.05729338000000
  C          -8.75052323000000      1.54269511000000     -5.81243561000000
  C          -7.99680494000000      3.70035159000000     -6.89342353000000
  O          -5.68914746000000      0.35216339000000     -5.81083514000000
  Si         -4.71842751000000     -0.40891498000000     -4.72622003000000
  C          -3.58441787000000     -1.57784508000000     -5.63657451000000
  C          -4.32128826000000     -2.78328675000000     -6.22660947000000
  C          -2.36049555000000     -2.00812743000000     -4.82353174000000
  C          -5.87068940000000     -1.18165389000000     -3.47203864000000
  C          -6.60343041000000     -0.09397293000000     -2.67826149000000
  C          -5.17749742000000     -2.15415901000000     -2.51619753000000
  O          -3.70931462000000      0.69135351000000     -4.01100735000000
  C          -3.97660349000000      2.05540656000000     -3.77311633000000
  C          -3.23458692000000      2.95630141000000     -4.74243554000000
  H          -3.59252765000000      3.98421320000000     -4.57447257000000
  O          -1.84854165000000      2.87317128000000     -4.44761697000000
  C          -1.09842903000000      3.80187236000000     -5.19674383000000
  H          -1.47612680000000      4.82183351000000     -4.99800235000000
  O           0.23773687000000      3.70636287000000     -4.84811915000000
  C           0.51967949000000      4.14356871000000     -3.52652398000000
  C          -1.20460293000000      3.46834172000000     -6.67159756000000
  H          -0.79773692000000      2.45836721000000     -6.80601186000000
  O          -0.51281885000000      4.40852288000000     -7.47422597000000
  H          -2.16097830000000      3.55164223000000     -8.98014050000000
  H          -6.18651659000000      2.05208632000000     -9.10880856000000
  H          -8.25960040000000      0.75393249000000     -8.68356694000000
  H          -7.30897848000000     -0.64959534000000     -8.18277521000000
  H          -7.27095595000000     -0.11223235000000     -9.85673712000000
  H          -4.68597382000000     -0.50609838000000     -8.34647426000000
  H          -3.93192732000000      1.04141230000000     -8.78876834000000
  H          -4.85291096000000      0.12401627000000     -9.97841072000000
  H          -7.23968099000000      2.86320800000000     -5.07912083000000
  H          -9.53648325000000      2.04950520000000     -5.24588713000000
  H          -8.45105087000000      0.65542793000000     -5.25198188000000
  H          -9.19678702000000      1.20593818000000     -6.74940538000000
  H          -8.32453761000000      3.39926227000000     -7.89234643000000
  H          -7.18100955000000      4.41558318000000     -7.01051672000000
  H          -8.83480113000000      4.22075068000000     -6.42193727000000
  H          -3.22249716000000     -0.96611889000000     -6.47468085000000
  H          -4.70261409000000     -3.44205864000000     -5.44164367000000
  H          -3.64605684000000     -3.37841155000000     -6.84725930000000
  H          -5.16683753000000     -2.48287340000000     -6.84974257000000
  H          -1.82452170000000     -1.14531224000000     -4.42771251000000
  H          -1.67078189000000     -2.58271569000000     -5.44745340000000
  H          -2.64026755000000     -2.64452533000000     -3.98139352000000
  H          -6.61262919000000     -1.73777798000000     -4.05924968000000
  H          -7.35424169000000     -0.53400785000000     -2.01636758000000
  H          -7.11350135000000      0.62025212000000     -3.32817025000000
  H          -5.90335838000000      0.45968558000000     -2.04631756000000
  H          -4.75006045000000     -3.01011456000000     -3.03962478000000
  H          -5.88539341000000     -2.53804214000000     -1.77661887000000
  H          -4.37144925000000     -1.66002692000000     -1.96809030000000
  H          -3.64950760000000      2.30174831000000     -2.75987047000000
  H          -5.04630774000000      2.27486290000000     -3.84272625000000
  H           0.01463747000000      3.51403671000000     -2.79304158000000
  H           0.20912123000000      5.18502081000000     -3.39123249000000
  H           1.59621434000000      4.06763685000000     -3.39430669000000
  H           0.40668491000000      4.41938002000000     -7.18519178000000
