68
Coordinates from ORCA-job goat_0_89
  O          -2.19314241000000      2.85218237000000     -8.24458596000000
  C          -2.61251063000000      3.68286896000000     -7.17235754000000
  H          -3.23830261000000      4.45966694000000     -7.61038905000000
  C          -3.46314660000000      2.89367323000000     -6.17563092000000
  H          -3.09011336000000      1.86467387000000     -6.16875824000000
  O          -4.82358227000000      2.93257917000000     -6.55581308000000
  Si         -5.75726471000000      1.59077537000000     -6.82870331000000
  C          -5.29614211000000      0.79415102000000     -8.45390816000000
  C          -5.22057994000000      1.81216684000000     -9.59691499000000
  C          -6.23180184000000     -0.36502809000000     -8.81640695000000
  C          -7.52686775000000      2.19475677000000     -6.70906404000000
  C          -7.65040734000000      3.30019027000000     -5.65249860000000
  C          -8.50926672000000      1.05606411000000     -6.40205214000000
  O          -5.47693331000000      0.50067576000000     -5.62680715000000
  Si         -4.51437392000000     -0.03196622000000     -4.40919319000000
  C          -3.19553617000000     -1.20114211000000     -5.04222236000000
  C          -3.68478062000000     -2.21778214000000     -6.07787886000000
  C          -2.46807562000000     -1.89438513000000     -3.88375684000000
  C          -5.65125209000000     -0.75760685000000     -3.11054272000000
  C          -6.51463371000000     -1.88736466000000     -3.68699290000000
  C          -6.53410161000000      0.34193124000000     -2.50772256000000
  O          -3.65965575000000      1.24705385000000     -3.78920209000000
  C          -4.09821328000000      2.58952471000000     -3.73817615000000
  C          -3.37179912000000      3.45239556000000     -4.75587773000000
  H          -3.86691163000000      4.43397109000000     -4.75534551000000
  O          -2.01899085000000      3.61430844000000     -4.29886074000000
  C          -1.00024219000000      3.58796518000000     -5.27146911000000
  H          -0.13150058000000      4.03220019000000     -4.77288664000000
  O          -0.69880507000000      2.29110057000000     -5.71083503000000
  C          -0.25728949000000      1.43432771000000     -4.66337081000000
  C          -1.42191324000000      4.38343796000000     -6.49344896000000
  H          -0.60360740000000      4.42414898000000     -7.21319596000000
  O          -1.71700812000000      5.71771286000000     -6.11676123000000
  H          -1.57599615000000      2.20765853000000     -7.87594160000000
  H          -4.28684528000000      0.38669433000000     -8.30075339000000
  H          -4.94728839000000      1.31068772000000    -10.52903330000000
  H          -4.47404092000000      2.58116709000000     -9.40151276000000
  H          -6.18583582000000      2.30033241000000     -9.76140855000000
  H          -7.23069332000000      0.00372274000000     -9.06341324000000
  H          -6.33689688000000     -1.08892350000000     -8.00508425000000
  H          -5.85800589000000     -0.89475244000000     -9.69556565000000
  H          -7.78882044000000      2.62043648000000     -7.68634682000000
  H          -8.67195823000000      3.68531157000000     -5.60970554000000
  H          -6.97479079000000      4.13158015000000     -5.85173033000000
  H          -7.40975320000000      2.90889978000000     -4.65926520000000
  H          -9.53228617000000      1.43697845000000     -6.34258463000000
  H          -8.27327835000000      0.59484958000000     -5.44037061000000
  H          -8.49307047000000      0.26609070000000     -7.15416294000000
  H          -2.47160653000000     -0.54220152000000     -5.54169912000000
  H          -4.37721102000000     -2.94190280000000     -5.64340981000000
  H          -2.83925038000000     -2.78143497000000     -6.48062921000000
  H          -4.19441497000000     -1.73494602000000     -6.91329438000000
  H          -3.13318177000000     -2.57886896000000     -3.34990756000000
  H          -2.08122271000000     -1.17622977000000     -3.15770401000000
  H          -1.62607726000000     -2.48310087000000     -4.25632663000000
  H          -5.02124961000000     -1.17060318000000     -2.31269629000000
  H          -7.21143491000000     -2.26728525000000     -2.93521704000000
  H          -5.91694987000000     -2.73150579000000     -4.03599421000000
  H          -7.10555412000000     -1.52917019000000     -4.53366916000000
  H          -7.20838212000000     -0.06962329000000     -1.75274795000000
  H          -7.15468505000000      0.80567650000000     -3.27951026000000
  H          -5.94440016000000      1.12926449000000     -2.03384786000000
  H          -3.88554175000000      2.98880318000000     -2.74329109000000
  H          -5.17388566000000      2.67369639000000     -3.92023335000000
  H           0.03296538000000      0.49469766000000     -5.12704916000000
  H          -1.05818927000000      1.26159920000000     -3.94380085000000
  H           0.60809376000000      1.87066747000000     -4.15484995000000
  H          -2.07156970000000      5.71328628000000     -5.21983390000000
