68
Coordinates from ORCA-job goat_0_27
  O          -2.90050388000000      2.70430049000000     -8.40842835000000
  C          -2.80875576000000      3.25484605000000     -7.10606815000000
  H          -3.18021864000000      4.28944631000000     -7.10106579000000
  C          -3.67788454000000      2.43514210000000     -6.17298545000000
  H          -3.40576887000000      1.38098022000000     -6.30633699000000
  O          -5.03937404000000      2.66662973000000     -6.46274878000000
  Si         -6.18159330000000      1.49542212000000     -6.74122398000000
  C          -6.20628572000000      0.94861652000000     -8.53221504000000
  C          -5.13334085000000     -0.10543650000000     -8.82722958000000
  C          -6.06265152000000      2.11633398000000     -9.51707910000000
  C          -7.81775010000000      2.20172542000000     -6.15933389000000
  C          -8.48409415000000      3.13720169000000     -7.17300254000000
  C          -7.70720119000000      2.90093402000000     -4.80105708000000
  O          -5.81153317000000      0.19724208000000     -5.80447309000000
  Si         -4.81222848000000     -0.55292367000000     -4.73767224000000
  C          -3.56592704000000     -1.61307609000000     -5.64583255000000
  C          -4.13326832000000     -2.96823551000000     -6.07992240000000
  C          -2.24957170000000     -1.78546745000000     -4.88072338000000
  C          -5.91863779000000     -1.49933488000000     -3.56650917000000
  C          -7.02122622000000     -0.60366805000000     -2.99586211000000
  C          -5.13267870000000     -2.17020644000000     -2.43689453000000
  O          -3.91017149000000      0.57297514000000     -3.93022133000000
  C          -4.17476457000000      1.94122951000000     -3.72989445000000
  C          -3.42597173000000      2.82124905000000     -4.71304344000000
  H          -3.78363072000000      3.85316977000000     -4.57420614000000
  O          -2.04309246000000      2.74455189000000     -4.40275725000000
  C          -1.28314991000000      3.64543854000000     -5.17524917000000
  H          -1.66409754000000      4.67107246000000     -5.01630664000000
  O           0.04965581000000      3.56246781000000     -4.81015410000000
  C           0.31738530000000      4.03759138000000     -3.49907004000000
  C          -1.36901444000000      3.25323309000000     -6.63624024000000
  H          -0.96254570000000      2.23765409000000     -6.72026607000000
  O          -0.66216562000000      4.15465441000000     -7.46983879000000
  H          -2.25895814000000      3.16913736000000     -8.95911796000000
  H          -7.19105812000000      0.48312933000000     -8.68048004000000
  H          -5.21342095000000     -0.45146174000000     -9.86117302000000
  H          -5.22292796000000     -0.97427751000000     -8.17492334000000
  H          -4.13295572000000      0.31894761000000     -8.70822147000000
  H          -5.09116185000000      2.59484092000000     -9.39241735000000
  H          -6.83354217000000      2.87627362000000     -9.39008007000000
  H          -6.12400071000000      1.75016037000000    -10.54578553000000
  H          -8.46405236000000      1.32146862000000     -6.03671229000000
  H          -8.69057877000000      2.63657777000000     -8.11978946000000
  H          -7.85629004000000      4.00786190000000     -7.37987705000000
  H          -9.43446284000000      3.50745970000000     -6.77859323000000
  H          -7.02198721000000      3.75054544000000     -4.85479231000000
  H          -7.35606326000000      2.22722956000000     -4.01825829000000
  H          -8.68212813000000      3.28343045000000     -4.48648593000000
  H          -3.34690641000000     -1.03610509000000     -6.55420310000000
  H          -5.05411934000000     -2.86806842000000     -6.65944047000000
  H          -4.35198519000000     -3.60004759000000     -5.21453613000000
  H          -3.40925949000000     -3.50632441000000     -6.69778901000000
  H          -2.39068409000000     -2.36541184000000     -3.96547388000000
  H          -1.82250478000000     -0.82298230000000     -4.59911369000000
  H          -1.52058894000000     -2.32179879000000     -5.49399185000000
  H          -6.39366287000000     -2.27965819000000     -4.17565067000000
  H          -6.59658886000000      0.20021628000000     -2.38653339000000
  H          -7.69167342000000     -1.17490723000000     -2.34812358000000
  H          -7.62236581000000     -0.15123727000000     -3.78552930000000
  H          -4.40711272000000     -2.89366397000000     -2.81298400000000
  H          -5.80738311000000     -2.69866049000000     -1.75770550000000
  H          -4.58770911000000     -1.42809028000000     -1.84773725000000
  H          -3.84834763000000      2.20798962000000     -2.72266185000000
  H          -5.24014683000000      2.16284456000000     -3.80997981000000
  H           0.00330493000000      5.08147755000000     -3.39752845000000
  H           1.39248016000000      3.96705541000000     -3.35517665000000
  H          -0.19393774000000      3.42915240000000     -2.75240554000000
  H           0.25277657000000      4.18191734000000     -7.16703674000000
