68
Coordinates from ORCA-job goat_0_52
  O          -2.61638278000000      2.07609340000000     -8.30626957000000
  C          -2.47970730000000      2.87758689000000     -7.14670497000000
  H          -2.68479149000000      3.92938007000000     -7.38658498000000
  C          -3.50034710000000      2.39851250000000     -6.13680948000000
  H          -3.35044302000000      1.31796593000000     -6.02105331000000
  O          -4.80321464000000      2.69718646000000     -6.58115096000000
  Si         -6.00546538000000      1.55774282000000     -6.72453924000000
  C          -5.93709429000000      0.74285089000000     -8.40261088000000
  C          -6.30357695000000      1.68845926000000     -9.55025415000000
  C          -6.74545907000000     -0.55614645000000     -8.48926633000000
  C          -7.55951050000000      2.47761406000000     -6.23699022000000
  C          -8.82983032000000      1.64245948000000     -6.41588132000000
  C          -7.70151964000000      3.84923735000000     -6.90510116000000
  O          -5.71680249000000      0.38247824000000     -5.61451108000000
  Si         -4.86972800000000     -0.15662789000000     -4.31555476000000
  C          -3.51676082000000     -1.36517473000000     -4.83288646000000
  C          -2.15616132000000     -0.99960726000000     -4.22287519000000
  C          -3.38527372000000     -1.54163726000000     -6.35142620000000
  C          -6.12280144000000     -0.91255672000000     -3.15357507000000
  C          -5.48122838000000     -1.39879255000000     -1.85216086000000
  C          -6.91400161000000     -2.03743156000000     -3.82921343000000
  O          -4.10784015000000      1.10286669000000     -3.56421714000000
  C          -4.22861198000000      2.49588300000000     -3.71590680000000
  C          -3.28644965000000      3.05274133000000     -4.77117832000000
  H          -3.49540501000000      4.13126010000000     -4.86657764000000
  O          -1.95063376000000      2.85009673000000     -4.33275262000000
  C          -1.01387204000000      3.43866401000000     -5.20845090000000
  H          -1.22453461000000      4.52068699000000     -5.29534756000000
  O           0.26551946000000      3.22990269000000     -4.72114151000000
  C           0.53370330000000      3.90096610000000     -3.49850455000000
  C          -1.08284238000000      2.77011833000000     -6.56997249000000
  H          -0.83583068000000      1.71092348000000     -6.42397275000000
  O          -0.19869466000000      3.37521683000000     -7.49575472000000
  H          -1.92280007000000      2.33313194000000     -8.92421214000000
  H          -4.87116810000000      0.49430288000000     -8.49876102000000
  H          -7.36261880000000      1.95889705000000     -9.51439650000000
  H          -6.12585579000000      1.20379355000000    -10.51406015000000
  H          -5.71908373000000      2.60969415000000     -9.52620270000000
  H          -6.50282138000000     -1.24701631000000     -7.68036143000000
  H          -6.54789666000000     -1.06341142000000     -9.43774465000000
  H          -7.81954782000000     -0.36085972000000     -8.44306096000000
  H          -7.40971065000000      2.64211725000000     -5.15979940000000
  H          -9.03604601000000      1.46971869000000     -7.47493880000000
  H          -9.69601974000000      2.16150162000000     -5.99748956000000
  H          -8.75627277000000      0.66784534000000     -5.92835759000000
  H          -6.81043571000000      4.46235448000000     -6.76624926000000
  H          -8.55621528000000      4.38986161000000     -6.48897507000000
  H          -7.87033697000000      3.75072075000000     -7.97965977000000
  H          -3.81848384000000     -2.33554706000000     -4.41893145000000
  H          -2.18854843000000     -0.96134733000000     -3.13290878000000
  H          -1.82736457000000     -0.01345738000000     -4.55891422000000
  H          -1.39797662000000     -1.73169624000000     -4.51653773000000
  H          -4.32554544000000     -1.83616382000000     -6.82005183000000
  H          -2.63989927000000     -2.31024533000000     -6.57713071000000
  H          -3.05498365000000     -0.62013357000000     -6.83908916000000
  H          -6.81796633000000     -0.09605068000000     -2.91793454000000
  H          -4.93837252000000     -0.60193900000000     -1.34227873000000
  H          -4.77446369000000     -2.21019419000000     -2.04627167000000
  H          -6.23596628000000     -1.78694186000000     -1.16357372000000
  H          -7.40315901000000     -1.70390802000000     -4.74601146000000
  H          -7.68563428000000     -2.42797556000000     -3.16067543000000
  H          -6.26119597000000     -2.87543947000000     -4.08885642000000
  H          -3.97755961000000      2.96021424000000     -2.75921942000000
  H          -5.25030009000000      2.78627744000000     -3.98529560000000
  H           1.56786082000000      3.68482816000000     -3.24382303000000
  H          -0.12189569000000      3.53964190000000     -2.70619310000000
  H           0.40611012000000      4.98213559000000     -3.61385818000000
  H           0.68570626000000      3.34715124000000     -7.11319917000000
