68
Coordinates from ORCA-job goat_0_25
  O          -2.92117523000000      2.86944842000000     -8.49889838000000
  C          -2.75619349000000      3.40201902000000     -7.19778558000000
  H          -3.14394534000000      4.43020788000000     -7.15636424000000
  C          -3.54917861000000      2.55944240000000     -6.21858247000000
  H          -3.24036529000000      1.51330188000000     -6.33232910000000
  O          -4.92698941000000      2.72941844000000     -6.45670812000000
  Si         -6.04637297000000      1.52398187000000     -6.66118516000000
  C          -6.12337678000000      0.88602107000000     -8.41259371000000
  C          -4.87307471000000      0.07815284000000     -8.77644742000000
  C          -6.35727333000000      2.00331897000000     -9.43337641000000
  C          -7.63459281000000      2.26266148000000     -6.00375242000000
  C          -8.86609948000000      1.42879776000000     -6.36811904000000
  C          -7.83799807000000      3.73520211000000     -6.37078421000000
  O          -5.62398365000000      0.25181038000000     -5.71471856000000
  Si         -4.70679731000000     -0.37962887000000     -4.50997748000000
  C          -3.57263370000000     -1.67843564000000     -5.22444789000000
  C          -4.30544542000000     -2.93847841000000     -5.69101490000000
  C          -2.39089116000000     -2.02311851000000     -4.31353821000000
  C          -5.91139181000000     -0.88691429000000     -3.16970118000000
  C          -5.25001693000000     -1.61867455000000     -1.99925136000000
  C          -7.11580746000000     -1.67356289000000     -3.69609968000000
  O          -3.66872200000000      0.77042255000000     -3.92668883000000
  C          -3.95017755000000      2.13846548000000     -3.74459337000000
  C          -3.25324778000000      2.99938877000000     -4.78225940000000
  H          -3.62468550000000      4.02901821000000     -4.66390158000000
  O          -1.85797908000000      2.95780741000000     -4.52477437000000
  C          -1.14184827000000      3.84227440000000     -5.35733552000000
  H          -1.52062743000000      4.87032722000000     -5.20844987000000
  O           0.20685674000000      3.77610250000000     -5.05169019000000
  C           0.52903939000000      4.27909959000000     -3.76330323000000
  C          -1.29331661000000      3.41901784000000     -6.80573177000000
  H          -0.88221046000000      2.40568936000000     -6.89255122000000
  O          -0.63572314000000      4.31238827000000     -7.68675584000000
  H          -2.31601326000000      3.34537452000000     -9.08008609000000
  H          -6.98666573000000      0.20702483000000     -8.43144467000000
  H          -4.70428776000000     -0.74323983000000     -8.07818619000000
  H          -3.98904873000000      0.71789872000000     -8.78520010000000
  H          -4.97164293000000     -0.35026345000000     -9.77728850000000
  H          -6.40245510000000      1.59245185000000    -10.44557552000000
  H          -5.53734549000000      2.72404900000000     -9.40641436000000
  H          -7.29159418000000      2.53902900000000     -9.25334801000000
  H          -7.50288313000000      2.20765372000000     -4.91353626000000
  H          -8.75670973000000      0.38233404000000     -6.07392220000000
  H          -9.05375537000000      1.45479453000000     -7.44513764000000
  H          -9.75831625000000      1.82246307000000     -5.87337489000000
  H          -6.97611436000000      4.34038605000000     -6.08944229000000
  H          -8.72027176000000      4.13705076000000     -5.86474548000000
  H          -7.99575634000000      3.86160150000000     -7.44428305000000
  H          -3.16699598000000     -1.17824870000000     -6.11511104000000
  H          -4.69363579000000     -3.50514410000000     -4.84075908000000
  H          -3.62434421000000     -3.59915061000000     -6.23382104000000
  H          -5.14431648000000     -2.70676142000000     -6.35150403000000
  H          -1.69537528000000     -2.69076460000000     -4.82875100000000
  H          -2.72121667000000     -2.53754393000000     -3.40834355000000
  H          -1.84608639000000     -1.12838203000000     -4.01200747000000
  H          -6.28695287000000      0.07637491000000     -2.79394380000000
  H          -4.89723385000000     -2.60696584000000     -2.30526768000000
  H          -5.96525242000000     -1.77130668000000     -1.18641132000000
  H          -4.39687468000000     -1.06725455000000     -1.59947080000000
  H          -7.85094675000000     -1.82878566000000     -2.90151811000000
  H          -6.81850314000000     -2.66093313000000     -4.05678264000000
  H          -7.61006160000000     -1.15356555000000     -4.51764535000000
  H          -3.59204096000000      2.43996381000000     -2.75782455000000
  H          -5.02476309000000      2.34466881000000     -3.79060110000000
  H           1.61039587000000      4.22439114000000     -3.66798828000000
  H           0.06098346000000      3.67851632000000     -2.98277921000000
  H           0.20659410000000      5.32084913000000     -3.66550250000000
  H           0.29367148000000      4.34724139000000     -7.43249144000000
