68
Coordinates from ORCA-job goat_0_0
  O          -2.77264477000000      2.82301900000000     -8.45091277000000
  C          -2.61525561000000      3.40574389000000     -7.16989805000000
  H          -2.99635279000000      4.43594712000000     -7.17664187000000
  C          -3.42703542000000      2.60297596000000     -6.17243804000000
  H          -3.13663143000000      1.54989508000000     -6.27029578000000
  O          -4.80589634000000      2.78556822000000     -6.41229119000000
  Si         -5.84228968000000      1.53433612000000     -6.75488779000000
  C          -5.55541670000000      0.88210859000000     -8.47974931000000
  C          -6.06918647000000      1.85987188000000     -9.54238155000000
  C          -6.10549474000000     -0.53039959000000     -8.70016263000000
  C          -7.53094837000000      2.27180378000000     -6.43391273000000
  C          -7.62051830000000      2.76442889000000     -4.98498535000000
  C          -8.68318084000000      1.31657067000000     -6.76255841000000
  O          -5.53598633000000      0.30987244000000     -5.70120326000000
  Si         -4.70401655000000     -0.27412246000000     -4.41050929000000
  C          -3.65293327000000     -1.73147653000000     -4.92474565000000
  C          -2.67983023000000     -1.29918155000000     -6.02914811000000
  C          -4.46981381000000     -2.95260758000000     -5.35999828000000
  C          -5.95876986000000     -0.59580276000000     -3.06000593000000
  C          -5.33673817000000     -1.32763518000000     -1.86675710000000
  C          -7.22292124000000     -1.30541887000000     -3.55424222000000
  O          -3.59639704000000      0.84023267000000     -3.88967255000000
  C          -3.83787594000000      2.21689930000000     -3.70013536000000
  C          -3.12493487000000      3.05796235000000     -4.74296022000000
  H          -3.48091360000000      4.09497894000000     -4.63341238000000
  O          -1.72776548000000      2.99849974000000     -4.49060827000000
  C          -1.00971185000000      3.87886005000000     -5.32804776000000
  H          -1.40037191000000      4.90542611000000     -5.19990703000000
  O           0.33662077000000      3.83082708000000     -5.00796813000000
  C           0.63959683000000      4.38499715000000     -3.73573920000000
  C          -1.15393270000000      3.43355965000000     -6.76989698000000
  H          -0.74083218000000      2.42021169000000     -6.83929190000000
  O          -0.49564730000000      4.31422156000000     -7.66354724000000
  H          -2.16608376000000      3.27421145000000     -9.05013014000000
  H          -4.46254044000000      0.84358637000000     -8.57547445000000
  H          -5.80802797000000      1.50627013000000    -10.54310453000000
  H          -5.63494325000000      2.85345348000000     -9.41713085000000
  H          -7.15826805000000      1.95743288000000     -9.50470312000000
  H          -5.72543758000000     -1.23166620000000     -7.95569876000000
  H          -5.81903756000000     -0.89914134000000     -9.68848218000000
  H          -7.19664326000000     -0.55573686000000     -8.64629032000000
  H          -7.60927060000000      3.14285617000000     -7.09706731000000
  H          -7.51930640000000      1.92906372000000     -4.28541241000000
  H          -8.58542038000000      3.24021786000000     -4.79106726000000
  H          -6.83572332000000      3.48888256000000     -4.76074400000000
  H          -9.64661959000000      1.78212569000000     -6.53644371000000
  H          -8.61779846000000      0.39748914000000     -6.17432123000000
  H          -8.69533262000000      1.03293384000000     -7.81657846000000
  H          -3.06384809000000     -2.01127313000000     -4.04239174000000
  H          -2.03280071000000     -2.12954759000000     -6.32403191000000
  H          -2.04407386000000     -0.47473812000000     -5.70168635000000
  H          -3.22325770000000     -0.97317285000000     -6.92136554000000
  H          -5.09018957000000     -3.34525227000000     -4.55226140000000
  H          -3.80884106000000     -3.76014463000000     -5.68674238000000
  H          -5.13084201000000     -2.71266045000000     -6.19662566000000
  H          -6.25238847000000      0.40858687000000     -2.72113047000000
  H          -5.03523951000000     -2.34264606000000     -2.13985334000000
  H          -6.05482080000000     -1.41033870000000     -1.04714065000000
  H          -4.45247670000000     -0.81134951000000     -1.48792345000000
  H          -7.01070922000000     -2.32949307000000     -3.86900343000000
  H          -7.66881856000000     -0.78854432000000     -4.40483880000000
  H          -7.97062756000000     -1.35759117000000     -2.75885990000000
  H          -3.46156846000000      2.50698692000000     -2.71635102000000
  H          -4.90682743000000      2.45335448000000     -3.74138009000000
  H           0.16746149000000      3.81154389000000     -2.93782894000000
  H           0.30960832000000      5.42726777000000     -3.68025334000000
  H           1.71930559000000      4.34356486000000     -3.62479716000000
  H           0.43337371000000      4.34207469000000     -7.40819339000000
