68
Coordinates from ORCA-job goat_0_56
  O          -2.66911934000000      3.06174227000000     -8.25198098000000
  C          -2.64852467000000      3.61157981000000     -6.94710443000000
  H          -3.08769854000000      4.61843497000000     -6.95364411000000
  C          -3.49329072000000      2.73085612000000     -6.04674481000000
  H          -3.15060336000000      1.69374507000000     -6.16705175000000
  O          -4.85786757000000      2.87288796000000     -6.37848017000000
  Si         -5.83934926000000      1.60450246000000     -6.80538137000000
  C          -5.43479256000000      1.03752734000000     -8.53689690000000
  C          -5.89377237000000      2.06645517000000     -9.57600551000000
  C          -5.94703455000000     -0.36555065000000     -8.87214304000000
  C          -7.56868847000000      2.26413727000000     -6.54470997000000
  C          -7.76167237000000      2.66355383000000     -5.07704111000000
  C          -8.65801767000000      1.28396844000000     -6.99249220000000
  O          -5.56245667000000      0.36313912000000     -5.76279270000000
  Si         -4.64366785000000     -0.32010705000000     -4.58508109000000
  C          -3.42713571000000     -1.53417549000000     -5.31374782000000
  C          -4.09800646000000     -2.80031111000000     -5.85262999000000
  C          -2.33027543000000     -1.88825523000000     -4.30381586000000
  C          -5.81401896000000     -1.10288660000000     -3.34164017000000
  C          -7.09673466000000     -1.60239280000000     -4.01799010000000
  C          -6.14831759000000     -0.15792691000000     -2.18183561000000
  O          -3.69324670000000      0.83820835000000     -3.87908885000000
  C          -4.04990266000000      2.18282949000000     -3.63528710000000
  C          -3.33518130000000      3.13491541000000     -4.57913882000000
  H          -3.79390695000000      4.12876957000000     -4.45693136000000
  O          -1.96598066000000      3.19686111000000     -4.20726558000000
  C          -1.26636939000000      4.15622930000000     -4.96183109000000
  H          -1.76356067000000      5.13338047000000     -4.89593702000000
  O           0.00294582000000      4.35549544000000     -4.42389857000000
  C           0.75070966000000      3.17124925000000     -4.16224665000000
  C          -1.23160997000000      3.71514080000000     -6.41877914000000
  H          -0.76153960000000      2.72685064000000     -6.48337738000000
  O          -0.54742954000000      4.65555484000000     -7.22784333000000
  H          -2.08593938000000      3.59609583000000     -8.80335955000000
  H          -4.33738442000000      1.01818840000000     -8.56360351000000
  H          -5.56344406000000      1.77042709000000    -10.57450167000000
  H          -5.48327653000000      3.05632932000000     -9.36977149000000
  H          -6.98414835000000      2.14851498000000     -9.60545805000000
  H          -7.03842552000000     -0.40673938000000     -8.89621580000000
  H          -5.60648363000000     -1.10359143000000     -8.14502401000000
  H          -5.58844464000000     -0.67422482000000     -9.85718253000000
  H          -7.64617957000000      3.16849842000000     -7.16105001000000
  H          -7.66797745000000      1.79006436000000     -4.42471010000000
  H          -8.75563333000000      3.08876830000000     -4.91393668000000
  H          -7.02171277000000      3.40194987000000     -4.76193336000000
  H          -8.57774993000000      0.33046229000000     -6.46425380000000
  H          -8.60823552000000      1.07400180000000     -8.06211606000000
  H          -9.65150440000000      1.68941033000000     -6.78373469000000
  H          -2.95973037000000     -1.01009073000000     -6.15834143000000
  H          -4.87213405000000     -2.57967176000000     -6.58902526000000
  H          -4.56179537000000     -3.37747008000000     -5.04839039000000
  H          -3.35961728000000     -3.44789313000000     -6.33089272000000
  H          -1.58791621000000     -2.54779189000000     -4.75959104000000
  H          -2.74405404000000     -2.41520939000000     -3.43899211000000
  H          -1.82134299000000     -0.99786256000000     -3.93567196000000
  H          -5.28538364000000     -1.97104741000000     -2.92600903000000
  H          -7.74597738000000     -2.10595926000000     -3.29723790000000
  H          -6.89645107000000     -2.29875018000000     -4.83497713000000
  H          -7.65495192000000     -0.76373622000000     -4.43875254000000
  H          -6.79587624000000     -0.65220288000000     -1.45291746000000
  H          -6.68443877000000      0.72575261000000     -2.53915334000000
  H          -5.25187712000000      0.18431092000000     -1.66170538000000
  H          -3.76298684000000      2.44326804000000     -2.61328195000000
  H          -5.12828028000000      2.34045457000000     -3.73951514000000
  H           1.69392164000000      3.50324612000000     -3.73729647000000
  H           0.95125776000000      2.60638713000000     -5.07587974000000
  H           0.23287999000000      2.53092196000000     -3.44972019000000
  H           0.26535042000000      4.89956010000000     -6.76918300000000
