68
Coordinates from ORCA-job goat_0_46
  O          -2.81988613000000      3.14536414000000     -8.57400518000000
  C          -2.68013282000000      3.55579698000000     -7.22950986000000
  H          -3.04193951000000      4.58697129000000     -7.10700739000000
  C          -3.48381176000000      2.66016790000000     -6.29515746000000
  H          -3.16485776000000      1.61969320000000     -6.43675433000000
  O          -4.85623336000000      2.82848552000000     -6.60523400000000
  Si         -5.98453947000000      1.62601564000000     -6.80835978000000
  C          -5.96682727000000      0.86795965000000     -8.51546430000000
  C          -4.64425121000000      0.16611412000000     -8.84110943000000
  C          -6.36013577000000      1.84861247000000     -9.62270259000000
  C          -7.61015168000000      2.45040662000000     -6.40964500000000
  C          -7.63908964000000      2.95756082000000     -4.96507233000000
  C          -8.80871812000000      1.53698236000000     -6.68012224000000
  O          -5.67608516000000      0.41200906000000     -5.75650887000000
  Si         -4.78052354000000     -0.26883251000000     -4.55818930000000
  C          -3.68956428000000     -1.60454092000000     -5.26985126000000
  C          -4.45584531000000     -2.82999446000000     -5.77172027000000
  C          -2.54572768000000     -2.00423562000000     -4.33315497000000
  C          -6.01163606000000     -0.74458438000000     -3.23176685000000
  C          -5.38351417000000     -1.50237229000000     -2.06007763000000
  C          -7.23329399000000     -1.49342186000000     -3.77331918000000
  O          -3.70833041000000      0.84588477000000     -3.97687360000000
  C          -3.95261039000000      2.22450962000000     -3.81577703000000
  C          -3.20711088000000      3.05101951000000     -4.84492858000000
  H          -3.51158876000000      4.10041212000000     -4.70473257000000
  O          -1.81838107000000      2.90737111000000     -4.59774977000000
  C          -1.04234329000000      3.78928058000000     -5.37877378000000
  H          -1.33667693000000      4.83010407000000     -5.14958840000000
  O           0.29664112000000      3.59175145000000     -5.08859542000000
  C           0.66365009000000      3.97540381000000     -3.77252346000000
  C          -1.21363566000000      3.51845379000000     -6.86636107000000
  H          -0.81961699000000      2.51483332000000     -7.06925854000000
  O          -0.53785998000000      4.50051645000000     -7.62138355000000
  H          -3.75121391000000      3.24086410000000     -8.80327109000000
  H          -6.74745163000000      0.09647200000000     -8.46255993000000
  H          -4.70239131000000     -0.32779596000000     -9.81453265000000
  H          -4.40277519000000     -0.59630246000000     -8.09831797000000
  H          -3.81202874000000      0.87207456000000     -8.88729847000000
  H          -6.39493008000000      1.33954024000000    -10.58904853000000
  H          -5.63785548000000      2.66392500000000     -9.72289033000000
  H          -7.33911790000000      2.29967036000000     -9.44761567000000
  H          -7.67908888000000      3.31907137000000     -7.07638031000000
  H          -7.54113080000000      2.12817246000000     -4.25759016000000
  H          -8.58758964000000      3.45507658000000     -4.74655004000000
  H          -6.83632867000000      3.67091440000000     -4.77253199000000
  H          -9.74371636000000      2.05069980000000     -6.44228831000000
  H          -8.76815441000000      0.63850419000000     -6.05865593000000
  H          -8.86042717000000      1.21832030000000     -7.72278508000000
  H          -3.23761484000000     -1.11045155000000     -6.14101225000000
  H          -4.88830175000000     -3.39292477000000     -4.94072726000000
  H          -3.78493764000000     -3.50884347000000     -6.30451946000000
  H          -5.26685916000000     -2.55986687000000     -6.45196577000000
  H          -2.91740157000000     -2.51391994000000     -3.44166485000000
  H          -1.97512807000000     -1.13341240000000     -4.01102111000000
  H          -1.86327559000000     -2.69258442000000     -4.83791498000000
  H          -6.36158237000000      0.22659765000000     -2.85226269000000
  H          -6.10682978000000     -1.63099059000000     -1.25073275000000
  H          -4.51349619000000     -0.98331510000000     -1.65446044000000
  H          -5.06550311000000     -2.50216099000000     -2.36554417000000
  H          -6.96323509000000     -2.48973954000000     -4.13114539000000
  H          -7.70178827000000     -0.95817257000000     -4.60011787000000
  H          -7.98262951000000     -1.62635881000000     -2.98819181000000
  H          -3.60864102000000      2.52572538000000     -2.82330708000000
  H          -5.01917653000000      2.45848020000000     -3.88625524000000
  H           1.73685222000000      3.82212483000000     -3.68985272000000
  H           0.14815970000000      3.36418577000000     -3.03085678000000
  H           0.43239618000000      5.03194463000000     -3.60070657000000
  H           0.39576037000000      4.45155729000000     -7.38836629000000
