68
Coordinates from ORCA-job goat_0_30
  O          -2.84658024000000      2.56333099000000     -8.46705888000000
  C          -2.68691264000000      3.13263059000000     -7.17948987000000
  H          -2.98150326000000      4.19153983000000     -7.19109144000000
  C          -3.58845409000000      2.39067629000000     -6.21573897000000
  H          -3.36496674000000      1.32386365000000     -6.30947372000000
  O          -4.93951986000000      2.66337948000000     -6.51292406000000
  Si         -6.09197908000000      1.49373138000000     -6.75572776000000
  C          -6.28704135000000      1.03753772000000     -8.55796465000000
  C          -5.28598592000000     -0.03062492000000     -9.00592800000000
  C          -6.18936838000000      2.26371324000000     -9.47415192000000
  C          -7.64485595000000      2.19174742000000     -5.98203729000000
  C          -8.80807534000000      1.19624811000000     -6.00026527000000
  C          -8.07138307000000      3.54395114000000     -6.56115550000000
  O          -5.62116088000000      0.15653198000000     -5.92595137000000
  Si         -4.86302712000000     -0.50279062000000     -4.62278246000000
  C          -3.63849000000000     -1.81058687000000     -5.16098268000000
  C          -2.72528525000000     -2.24720784000000     -4.00726759000000
  C          -2.76090684000000     -1.31775754000000     -6.31731883000000
  C          -6.25342922000000     -1.11316437000000     -3.51534640000000
  C          -6.84601150000000      0.02798495000000     -2.68095610000000
  C          -5.90988273000000     -2.29952322000000     -2.61305696000000
  O          -3.91969631000000      0.63663778000000     -3.88299964000000
  C          -4.11776930000000      2.02558374000000     -3.75844482000000
  C          -3.31017626000000      2.81492974000000     -4.77255388000000
  H          -3.59412990000000      3.87364098000000     -4.66766716000000
  O          -1.93399691000000      2.64987889000000     -4.46436173000000
  C          -1.11321671000000      3.45887407000000     -5.27683870000000
  H          -1.40618769000000      4.51725365000000     -5.14934060000000
  O           0.21252730000000      3.27781662000000     -4.92088744000000
  C           0.53412657000000      3.77151399000000     -3.62900367000000
  C          -1.24549397000000      3.03225978000000     -6.72634998000000
  H          -0.92087129000000      1.98567968000000     -6.78544471000000
  O          -0.47869148000000      3.85242471000000     -7.59008584000000
  H          -2.18372210000000      2.96530151000000     -9.04105893000000
  H          -7.29787797000000      0.61567938000000     -8.64207202000000
  H          -4.26453983000000      0.35238715000000     -8.94603243000000
  H          -5.46668215000000     -0.31145333000000    -10.04685485000000
  H          -5.35562651000000     -0.93175518000000     -8.39604041000000
  H          -5.19761315000000      2.71145441000000     -9.39820951000000
  H          -6.92608437000000      3.03061780000000     -9.23171843000000
  H          -6.34534157000000      1.97099730000000    -10.51592619000000
  H          -7.35627747000000      2.35977020000000     -4.93559992000000
  H          -9.14936112000000      1.00950589000000     -7.02220496000000
  H          -9.66301152000000      1.58918711000000     -5.44276025000000
  H          -8.53308847000000      0.23515364000000     -5.55985611000000
  H          -8.89391276000000      3.96852236000000     -5.97903081000000
  H          -8.42794014000000      3.43963008000000     -7.58845898000000
  H          -7.25020731000000      4.26242022000000     -6.56111094000000
  H          -4.21859754000000     -2.67601727000000     -5.50712271000000
  H          -1.99573712000000     -2.98025968000000     -4.36166773000000
  H          -3.26991203000000     -2.69574232000000     -3.17763435000000
  H          -2.17029988000000     -1.38884366000000     -3.62271375000000
  H          -3.34195911000000     -0.96486136000000     -7.16892424000000
  H          -2.10610734000000     -2.12031576000000     -6.66621479000000
  H          -2.11346273000000     -0.50380367000000     -5.97872824000000
  H          -7.02182611000000     -1.44442683000000     -4.22651054000000
  H          -7.18640683000000      0.86148182000000     -3.29883711000000
  H          -6.11059170000000      0.41220364000000     -1.96934529000000
  H          -7.70655838000000     -0.32200175000000     -2.10386250000000
  H          -5.55983381000000     -3.16038594000000     -3.18555439000000
  H          -6.79193151000000     -2.61312108000000     -2.04734102000000
  H          -5.13504448000000     -2.03766527000000     -1.88832281000000
  H          -3.79586406000000      2.32704818000000     -2.75933448000000
  H          -5.17121734000000      2.29831774000000     -3.86738043000000
  H          -0.01587815000000      3.23122496000000     -2.85794859000000
  H           0.30809394000000      4.84045037000000     -3.55836858000000
  H           1.60150380000000      3.61802659000000     -3.49247945000000
  H           0.43925223000000      3.81034775000000     -7.29834642000000
