68
Coordinates from ORCA-job goat_0_100
  O          -3.82699864000000      4.77412468000000     -7.44942886000000
  C          -3.23762892000000      4.28238879000000     -6.25995396000000
  H          -3.75920480000000      4.68600608000000     -5.38020285000000
  C          -3.38706666000000      2.77148248000000     -6.23928379000000
  H          -2.99062095000000      2.37757371000000     -7.18671850000000
  O          -4.74863097000000      2.46158635000000     -6.07858558000000
  Si         -5.69628139000000      1.30639479000000     -6.78759360000000
  C          -5.13268427000000      0.96132108000000     -8.53739596000000
  C          -5.25323425000000      2.16499469000000     -9.47479415000000
  C          -5.79898407000000     -0.27952674000000     -9.14204618000000
  C          -7.42875652000000      1.92649570000000     -6.48047151000000
  C          -8.51514769000000      0.97378335000000     -6.98432434000000
  C          -7.66460236000000      3.35884556000000     -6.96611530000000
  O          -5.51661283000000     -0.11553065000000     -5.97886226000000
  Si         -4.92412391000000     -0.68532277000000     -4.55745572000000
  C          -4.65251503000000     -2.51075962000000     -4.85197612000000
  C          -4.20196250000000     -3.28163950000000     -3.61034766000000
  C          -3.66198002000000     -2.72036345000000     -6.00271187000000
  C          -6.07609389000000     -0.23567485000000     -3.15953203000000
  C          -5.44810765000000     -0.35443529000000     -1.76823493000000
  C          -7.41559349000000     -0.97298357000000     -3.23295797000000
  O          -3.50935870000000      0.09477812000000     -4.19834975000000
  C          -2.57293462000000      0.63080899000000     -5.10618321000000
  C          -2.58718024000000      2.15928901000000     -5.08505931000000
  H          -3.03838980000000      2.47619665000000     -4.13379114000000
  O          -1.23307117000000      2.58788949000000     -5.15848279000000
  C          -1.11315626000000      3.98490277000000     -5.00532606000000
  H          -1.58050976000000      4.28877181000000     -4.05160499000000
  O           0.22618105000000      4.33435803000000     -5.01785643000000
  C           0.94705779000000      3.87270753000000     -3.88344549000000
  C          -1.77806800000000      4.67947587000000     -6.17684097000000
  H          -1.25954712000000      4.34812060000000     -7.08481762000000
  O          -1.73364634000000      6.08941858000000     -6.04836994000000
  H          -3.64983145000000      5.72147582000000     -7.48491240000000
  H          -4.06376685000000      0.72779059000000     -8.42452511000000
  H          -4.76867003000000      1.95347700000000    -10.43159496000000
  H          -4.80243099000000      3.06514661000000     -9.05418441000000
  H          -6.30156186000000      2.38414541000000     -9.69090045000000
  H          -6.86024668000000     -0.10529458000000     -9.33329190000000
  H          -5.71350508000000     -1.14805018000000     -8.48729438000000
  H          -5.33917780000000     -0.53167840000000    -10.10128422000000
  H          -7.48285650000000      1.93742249000000     -5.38233915000000
  H          -8.56100769000000      0.96684961000000     -8.07576790000000
  H          -9.50006290000000      1.28290278000000     -6.62470754000000
  H          -8.34462157000000     -0.05188307000000     -6.65137126000000
  H          -6.88715527000000      4.03408062000000     -6.60788061000000
  H          -8.63113446000000      3.73093129000000     -6.61528389000000
  H          -7.67496129000000      3.41386963000000     -8.05682154000000
  H          -5.62878803000000     -2.90048677000000     -5.16827762000000
  H          -3.27389200000000     -2.87084251000000     -3.20499456000000
  H          -4.01197225000000     -4.32989274000000     -3.85611637000000
  H          -4.95204775000000     -3.25983093000000     -2.81871188000000
  H          -3.57278751000000     -3.78076918000000     -6.25274893000000
  H          -2.66275803000000     -2.37337764000000     -5.72378533000000
  H          -3.96941356000000     -2.18849093000000     -6.90513848000000
  H          -6.26950715000000      0.83087536000000     -3.34124618000000
  H          -5.25377175000000     -1.39523933000000     -1.50082025000000
  H          -6.12198584000000      0.05158542000000     -1.00904946000000
  H          -4.50416940000000      0.18755326000000     -1.70972287000000
  H          -7.90138165000000     -0.83947786000000     -4.20217520000000
  H          -8.09927380000000     -0.60340350000000     -2.46380922000000
  H          -7.29219753000000     -2.04671385000000     -3.06541311000000
  H          -2.75245451000000      0.26839185000000     -6.12471016000000
  H          -1.57272571000000      0.30714341000000     -4.81251028000000
  H           0.51527928000000      4.28012138000000     -2.96355390000000
  H           1.96856333000000      4.22838301000000     -3.99443861000000
  H           0.94117137000000      2.78298811000000     -3.83574168000000
  H          -0.80750308000000      6.34559956000000     -5.96997531000000
