68
Coordinates from ORCA-job goat_0_50
  O          -2.58109576000000      3.19062739000000     -8.42285175000000
  C          -2.50163931000000      3.56450973000000     -7.05447211000000
  H          -2.83126621000000      4.60551903000000     -6.93229014000000
  C          -3.36979343000000      2.68964001000000     -6.17411083000000
  H          -3.09428098000000      1.63946652000000     -6.33701999000000
  O          -4.72850595000000      2.92946658000000     -6.50120116000000
  Si         -5.83317028000000      1.73261302000000     -6.83705777000000
  C          -5.57828081000000      1.11931883000000     -8.58558822000000
  C          -6.08922765000000      2.12194780000000     -9.62653668000000
  C          -6.15039298000000     -0.27876381000000     -8.83801037000000
  C          -7.49004054000000      2.52552678000000     -6.50096895000000
  C          -7.55674009000000      2.99181776000000     -5.04179719000000
  C          -8.67101803000000      1.60739646000000     -6.83400457000000
  O          -5.58746541000000      0.47364072000000     -5.82309282000000
  Si         -4.74809266000000     -0.25231636000000     -4.60693134000000
  C          -3.65697401000000     -1.59581564000000     -5.32020009000000
  C          -4.41837674000000     -2.85185422000000     -5.75608854000000
  C          -2.48365827000000     -1.94949936000000     -4.39789337000000
  C          -6.03470376000000     -0.74081375000000     -3.33605192000000
  C          -5.44041283000000     -1.52747701000000     -2.16370245000000
  C          -7.23815364000000     -1.46927341000000     -3.94413244000000
  O          -3.67961092000000      0.82133612000000     -3.94764759000000
  C          -3.89904986000000      2.19792210000000     -3.73307902000000
  C          -3.10183148000000      3.03970820000000     -4.71158906000000
  H          -3.38595202000000      4.09356425000000     -4.55199458000000
  O          -1.72480981000000      2.84738136000000     -4.44337995000000
  C          -0.87717103000000      3.72176393000000     -5.17436525000000
  H          -1.14318106000000      4.76707009000000     -4.93139756000000
  O           0.42760399000000      3.45028880000000     -4.82857370000000
  C           0.77122351000000      3.86608246000000     -3.51799064000000
  C          -1.03758347000000      3.47890376000000     -6.66488772000000
  H          -0.66948239000000      2.46515614000000     -6.86603665000000
  O          -0.28276249000000      4.45046583000000     -7.35821711000000
  H          -3.49506643000000      3.29700817000000     -8.71063663000000
  H          -4.48605572000000      1.05220223000000     -8.68817987000000
  H          -7.18000932000000      2.18856842000000     -9.61073890000000
  H          -5.79557650000000      1.81524254000000    -10.63252028000000
  H          -5.70843310000000      3.13408651000000     -9.46225552000000
  H          -5.89355221000000     -0.61870879000000     -9.84389185000000
  H          -7.23962011000000     -0.29390901000000     -8.75609957000000
  H          -5.75778080000000     -1.00558128000000     -8.12662235000000
  H          -7.54530935000000      3.40859402000000     -7.15026220000000
  H          -6.75169785000000      3.69071068000000     -4.80777069000000
  H          -7.47336566000000      2.13856539000000     -4.36129027000000
  H          -8.50840655000000      3.48673387000000     -4.83183306000000
  H          -9.61868198000000      2.09841354000000     -6.59847710000000
  H          -8.63053502000000      0.68383442000000     -6.25143913000000
  H          -8.69834557000000      1.33019767000000     -7.88923277000000
  H          -3.23815701000000     -1.13086478000000     -6.22529183000000
  H          -5.25562989000000     -2.62296412000000     -6.41880390000000
  H          -4.81615720000000     -3.39463425000000     -4.89495806000000
  H          -3.75314678000000     -3.53588885000000     -6.28898158000000
  H          -1.91549223000000     -1.06190814000000     -4.12102203000000
  H          -1.80538063000000     -2.64918792000000     -4.89302538000000
  H          -2.82953976000000     -2.42609022000000     -3.47698701000000
  H          -6.39315647000000      0.22372041000000     -2.94510334000000
  H          -6.18582326000000     -1.67524187000000     -1.37866674000000
  H          -4.58494295000000     -1.01517656000000     -1.71942416000000
  H          -5.10691503000000     -2.51809689000000     -2.48356172000000
  H          -7.66522504000000     -0.91462344000000     -4.78086221000000
  H          -8.02307889000000     -1.60845894000000     -3.19667563000000
  H          -6.95992570000000     -2.45925367000000     -4.31230485000000
  H          -3.57126325000000      2.45465218000000     -2.72293872000000
  H          -4.95872269000000      2.46296895000000     -3.82639745000000
  H           0.63576819000000      4.94744620000000     -3.40806213000000
  H           1.82096181000000      3.62039757000000     -3.38213153000000
  H           0.17471501000000      3.34399546000000     -2.76790274000000
  H          -0.47261561000000      4.33871047000000     -8.29670723000000
