
                                 *****************
                                 * O   R   C   A *
                                 *****************

                                            #,                                       
                                            ###                                      
                                            ####                                     
                                            #####                                    
                                            ######                                   
                                           ########,                                 
                                     ,,################,,,,,                         
                               ,,#################################,,                 
                          ,,##########################################,,             
                       ,#########################################, ''#####,          
                    ,#############################################,,   '####,        
                  ,##################################################,,,,####,       
                ,###########''''           ''''###############################       
              ,#####''   ,,,,##########,,,,          '''####'''          '####       
            ,##' ,,,,###########################,,,                        '##       
           ' ,,###''''                  '''############,,,                           
         ,,##''                                '''############,,,,        ,,,,,,###''
      ,#''                                            '''#######################'''  
     '                                                          ''''####''''         
             ,#######,   #######,   ,#######,      ##                                
            ,#'     '#,  ##    ##  ,#'     '#,    #''#        ,####,    ,#,          
            ##       ##  ##   ,#'  ##            #'  '#       #'       ,# #          
            ##       ##  #######   ##           ,######,      #####,      #          
            '#,     ,#'  ##    ##  '#,     ,#' ,#      #,     #,   #      #          
             '#######'   ##     ##  '#######'  #'      '#     '####' #    #          



                #########################################################
                #                        -***-                          #
                #          Department of theory and spectroscopy        #
                #                                                       #
                #                      Frank Neese                      #
                #                                                       #
                #     Directorship, Architecture, Infrastructure        #
                #                    SHARK, DRIVERS                     #
                #        Core code/Algorithms in most modules           #
                #                                                       #
                #        Max Planck Institute fuer Kohlenforschung      #
                #                Kaiser Wilhelm Platz 1                 #
                #                 D-45470 Muelheim/Ruhr                 #
                #                      Germany                          #
                #                                                       #
                #                  All rights reserved                  #
                #                        -***-                          #
                #########################################################


                         Program Version 6.1.0  -  RELEASE   -
                                (GIT: $679e74b$)
                          ($2025-06-10 18:02:51 +0200$)


 With contributions from (in alphabetic order):
[Max-Planck-Institut fuer Kohlenforschung]                               
  Daniel Aravena         : Magnetic Suceptibility                        
  Michael Atanasov       : Ab Initio Ligand Field Theory (pilot matlab implementation)
  Alexander A. Auer      : GIAO ZORA, VPT2 properties, NMR spectrum      
  Ute Becker             : All parallelization in ORCA, NUMFREQ, NUMCALC 
  Giovanni Bistoni       : ED, misc. LED, open-shell LED, HFLD           
  Dmytro Bykov           : pre 5.0 version of the SCF Hessian            
  Marcos Casanova-Páez   : Triplet and SCS-CIS(D). UHF-(DLPNO)-IP/EA/STEOM-CCSD. UHF-CVS-IP/STEOM-CCSD   
  Vijay G. Chilkuri      : MRCI spin determinant printing, contributions to CSF-ICE 
  Pauline Colinet        : FMM embedding                                 
  Dipayan Datta          : RHF DLPNO-CCSD density                        
  Achintya Kumar Dutta   : EOM-CC, STEOM-CC                              
  Nicolas Foglia         : Exact transition moments, OPA infrastructure, MCD improvements    
  Dmitry Ganyushin       : Spin-Orbit,Spin-Spin,Magnetic field MRCI      
  Miquel Garcia-Rates    : C-PCM and meta-GGA Hessian, CCSD/C-PCM, Gaussian charge scheme 
  Tiago L. C. Gouveia    : GS-ROHF, GS-ROCIS                             
  Yang Guo               : DLPNO-NEVPT2, F12-NEVPT2, CIM, IAO-localization        
  Andreas Hansen         : Spin unrestricted coupled pair/coupled cluster methods 
  Ingolf Harden          : AUTO-CI MPn and infrastructure                
  Benjamin Helmich-Paris : MC-RPA, TRAH-(SCF,CASSCF), AVAS, COSX integrals, SCF dyn. polar., MC-PDFT, srDFT 
  Lee Huntington         : MR-EOM, pCC                                   
  Robert Izsak           : Overlap fitted RIJCOSX, COSX-SCS-MP3, EOM     
  Riya Kayal             : Wick's Theorem for AUTO-CI, AUTO-CI UHF-CCSDT 
  Emily Kempfer          : AUTO-CI RHF CISDT and CCSDT, approximate NEVPT4
  Christian Kollmar      : KDIIS, OOCD, Brueckner-CCSD(T), CCSD density, CASPT2, CASPT2-K, improved NEVPT2 
  Axel Koslowski         : Symmetry handling                             
  Simone Kossmann        : meta-GGA functionals, TD-DFT gradient, OOMP2, (MP2 Hessian; deprecated post 5.0) 
  Lucas Lang             : DCDCAS, Hyperfine gauge corrections, ICE-SOC+SSC
  Marvin Lechner         : AUTO-CI (C++ implementation), FIC-MRCC        
  Spencer Leger          : CASSCF response                               
  Dagmar Lenk            : GEPOL surface, SMD, ORCA-2-JSON               
  Dimitrios Liakos       : Extrapolation schemes; Compound Job, Property file
  Dimitrios Manganas     : Further ROCIS development; embedding schemes. LFT, Crystal Embedding 
  Dimitrios Pantazis     : SARC Basis sets                               
  Anastasios Papadopoulos: AUTO-CI, single reference methods and gradients 
  Taras Petrenko         : pre 6.0 DFT Hessian and TD-DFT gradient,  ECA, NRVS 
  Petra Pikulova         : Analytic Raman intensities                    
  Peter Pinski           : DLPNO-MP2, DLPNO-MP2 Gradient                 
  Shashank Vittal Rao    : ES-AILFT, MagRelax                            
  Christoph Reimann      : Effective Core Potentials                     
  Marius Retegan         : Local ZFS, SOC                                
  Christoph Riplinger    : Optimizer, TS searches, QM/MM, DLPNO-CCSD(T), (RO)-DLPNO pert. Triples 
  Michael Roemelt        : Original ROCIS implementation, recursive CI coupling coefficients
  Masaaki Saitow         : Open-shell DLPNO-CCSD energy and density      
  Barbara Sandhoefer     : DKH picture change effects                    
  Yorick L. A. Schmerwitz: GMF and freeze-and-release deltaSCF, NEB S-IDPP initial path                    
  Kantharuban Sivalingam : CASSCF convergence/infrastructure, NEVPT2, NEVPT3, NEVPT4(SD), FIC-MRCI and CEPA variants
  Bernardo de Souza      : ESD, SOC TD-DFT                               
  Georgi L. Stoychev     : AutoAux, RI-MP2 NMR, DLPNO-MP2 response, X2C  
  Van Anh Tran           : RI-MP2 g-tensors                              
  Willem Van den Heuvel  : Paramagnetic NMR                              
  Zikuan Wang            : NOTCH, Electric field optimization            
  Frank Wennmohs         : Technical directorship and infrastructure     
  Hang Xu                : AUTO-CI-Response properties                   
                                                                         
[FACCTs GmbH]                                                            
  Markus Bursch, Nicolas Foglia, Miquel Garcia-Rates, Ingolf Harden, Hagen Neugebauer, Anastasios Papadopoulos, 
  Christoph Riplinger, Bernardo de Souza, Georgi L. Stoychev                                                    
                                                                 
  APM, various basis sets, CI-OPT, improved COSX, DLPNO-Multilevel,           
  DOCKER, DRACO, updates on ESD, Fragmentator, GOAT, IRC, LR-CPCM, L-BFGS, MBIS, meta-GGA TD-DFT gradient, ML-optimized integration grids, 
  MM, NACMEs, nearIR, NEB, NEB-TS, NL-DFT gradient (VV10), 2- and 3-layer-ONIOM, interface openCOSMO-RS, QMMM,   
  Crystal-QMMM, RESP, rigid body optimization, SF, symmetry and pop. for TD-DFT, various functionals, SOLVATOR                                   
                                                                         
[Other institutions]                                                     
  V. Asgeirsson          : NEB                                           
  Christoph Bannwarth    : sTDA-DFT, sTD-DFT, PBEh-3c, B97-3c, D3        
  Giovanni Bistoni       : ETS/NOCV, ADLD/ADEX, COVALED                  
  Martin Brehm           : Molecular dynamics                            
  Ronald Cardenas        : ETS/NOCV                                      
  Martina Colucci        : COVALED                                       
  Sebastian Ehlert       : rSCAN, r2SCAN, r2SCAN-3c, D4, dhf basis sets  
  Marvin Friede          : D4 for Fr, Ra, Ac-Lr                          
  Lars Goerigk           : TD-DFT with DH, B97 family of functionals     
  Stefan Grimme          : VdW corrections, initial TS optimization, DFT functionals, gCP, sTDA/sTD-DF 
  Waldemar Hujo          : DFT-NL                                        
  H. Jonsson             : NEB                                           
  Holger Kruse           : gCP                                           
  Marcel Mueller         : wB97X-3c, vDZP basis set                      
  Hagen Neugebauer       : wr2SCAN, Native XTB                           
  Gianluca Regni         : ADLD/ADEX                                     
  Tobias Risthaus        : pre 6.0 range-separated hybrid DFT and stability analysis
  Lukas Wittmann         : regularized MP2, r2SCAN double-hybrids, wr2SCAN        
                                                                         
We gratefully acknowledge several colleagues who have allowed us to      
interface, adapt or use parts of their codes:                            
  Ed Valeev, F. Pavosevic, A. Kumar             : LibInt (2-el integral package), F12 methods 
  Garnet Chan, S. Sharma, J. Yang, R. Olivares  : DMRG                   
  Ulf Ekstrom                                   : XCFun DFT Library      
  Mihaly Kallay                                 : mrcc  (arbitrary order and MRCC methods)
  Frank Weinhold                                : gennbo (NPA and NBO analysis)           
  Simon Mueller                                 : openCOSMO-RS                            
  Christopher J. Cramer and Donald G. Truhlar   : smd solvation model                     
  S Lehtola, MJT Oliveira, MAL Marques          : LibXC Library                           
  Liviu Ungur et al                             : ANISO software                          


 Your calculation uses the libint2 library for the computation of 2-el integrals
 For citations please refer to: http://libint.valeyev.net

 Your ORCA version has been built with support for libXC version: 7.0.0
 For citations please refer to: https://libxc.gitlab.io

 This ORCA versions uses:
   CBLAS   interface :  Fast vector & matrix operations
   LAPACKE interface :  Fast linear algebra routines
   SCALAPACK package :  Parallel linear algebra routines
   Shared memory     :  Shared parallel matrices
   BLAS/LAPACK       :  OpenBLAS 0.3.29  USE64BITINT DYNAMIC_ARCH NO_AFFINITY Cooperlake SINGLE_THREADED
        Core in use  :  Cooperlake
   Copyright (c) 2011-2014, The OpenBLAS Project


  ***********************************
  * Starting time: Wed Sep 10 11:29:44 2025
  * Host name:     node2704
  * Process ID:    2692160
  * Working dir.:  /orcd/home/002/kmoult/learning_mannose/(IPr)2Si/goat search
  ***********************************

Your calculation utilizes the semiempirical GFN2-xTB method
Please cite in your paper:
Bannwarth, C.; Ehlert S.; Grimme, S. J. Chem. Theory Comput. 2019, 15, 1652.
   

================================================================================

================================================================================
                                        WARNINGS
                       Please study these warnings very carefully!
================================================================================


================================================================================
 STARTING AUTOMATIC FRAGMENTATION: 
================================================================================

WARNING: Geometry Optimization
  ===> : Switching off AutoStart
         For restart on a previous wavefunction, please use MOREAD

WARNING: Found dipole moment calculation with XTB calculation
  ===> : Switching off dipole moment calculation


================================================================================
                                       INPUT FILE
================================================================================
NAME = goat_0.inp
|  1> ! xtb alpb(acetone) goat PAL4
|  2> 
|  3> *xyz 0 1
|  4> O         -3.83158        0.09441       -0.25443
|  5> C         -2.51610       -0.41370        0.03309
|  6> H         -1.96265       -0.32035       -0.90730
|  7> C         -1.85994        0.41285        1.14557
|  8> H         -2.55643        0.40897        1.99546
|  9> O         -1.77050        1.78762        0.74151
| 10> Si        -0.40076        2.38518       -0.01610
| 11> C         -0.06402        4.21212        0.56211
| 12> C         -1.34736        5.03853        0.71197
| 13> C          0.73217        4.26378        1.87427
| 14> C         -0.60360        2.32711       -1.94734
| 15> C         -1.83908        3.07347       -2.45793
| 16> C          0.64893        2.80462       -2.69204
| 17> O          0.86659        1.39161        0.43742
| 18> C          0.60011        0.00647        0.62376
| 19> C         -0.54571       -0.23324        1.61831
| 20> H         -0.25923        0.26861        2.55218
| 21> O         -0.71606       -1.61300        1.93826
| 22> C         -1.26662       -2.42760        0.90120
| 23> H         -0.57184       -2.49177        0.05456
| 24> O         -1.47313       -3.74879        1.41450
| 25> C         -0.25114       -4.42848        1.65899
| 26> C         -2.62825       -1.88714        0.41982
| 27> O         -3.09928       -2.60741       -0.73307
| 28> H         -3.75756        1.06891       -0.22717
| 29> H          0.55216        4.66863       -0.22122
| 30> H         -1.99996        4.62985        1.49203
| 31> H         -1.92166        5.06964       -0.21839
| 32> H         -1.10923        6.07278        0.98410
| 33> H          0.18189        3.79503        2.69823
| 34> H          0.94363        5.30082        2.15733
| 35> H          1.69401        3.74795        1.77717
| 36> H         -0.73918        1.26441       -2.18223
| 37> H         -1.73997        4.15568       -2.32534
| 38> H         -2.74823        2.74944       -1.93993
| 39> H         -1.98367        2.88582       -3.52773
| 40> H          0.84554        3.86745       -2.51365
| 41> H          0.53080        2.66423       -3.77217
| 42> H          1.53665        2.24238       -2.38145
| 43> H          1.51428       -0.45963        1.01058
| 44> H          0.41683       -0.46910       -0.34774
| 45> H         -0.48470       -5.43101        2.02769
| 46> H          0.33930       -3.91020        2.42026
| 47> H          0.32715       -4.52593        0.73509
| 48> H         -3.38448       -2.01999        1.20347
| 49> H         -3.93417       -2.16478       -0.98344
| 50> **                         ****END OF INPUT****
================================================================================

                       *****************************
                       * Geometry Optimization Run *
                       *****************************


                       *********************************
                       *              GOAT             *
                       * Global Optimization Algorithm *
                       *********************************

Geometry optimization settings:
Update method            Update   .... BFGS
Choice of coordinates    CoordSys .... (2022) Redundant Internals
Initial Hessian          InHess   .... Almloef's Model
Max. no of cycles        MaxIter  .... 138

Convergence Tolerances:
Energy Change            TolE     ....  5.0000e-06 Eh
Max. Gradient            TolMAXG  ....  3.0000e-04 Eh/bohr
RMS Gradient             TolRMSG  ....  1.0000e-04 Eh/bohr
Max. Displacement        TolMAXD  ....  4.0000e-03 bohr
RMS Displacement         TolRMSD  ....  2.0000e-03 bohr
Strict Convergence                .... True

------------------------------------------------------------------------------
                        ORCA OPTIMIZATION COORDINATE SETUP
------------------------------------------------------------------------------

The optimization will be done in redundant internal coordinates (2022)
Making redundant internal coordinates   ...  (2022 redundants) done
Evaluating the initial hessian          ...  (Almloef) done
Evaluating the coordinates              ...  done
Calculating the B-matrix                .... done
Calculating the G-matrix                .... done
The number of degrees of freedom        ....  235

    -----------------------------------------------------------------
                    Redundant Internal Coordinates


    -----------------------------------------------------------------
         Definition                    Initial Value    Approx d2E/dq
    -----------------------------------------------------------------
      1. B(C   1,O   0)                  1.4392         0.467047   
      2. B(H   2,C   1)                  1.0952         0.353351   
      3. B(C   3,C   1)                  1.5334         0.368926   
      4. B(H   4,C   3)                  1.0988         0.348607   
      5. B(O   5,C   3)                  1.4357         0.473099   
      6. B(Si  6,O   5)                  1.6755         0.852280   
      7. B(C   7,Si  6)                  1.9456         0.352744   
      8. B(C   8,C   7)                  1.5337         0.368471   
      9. B(C   9,C   7)                  1.5357         0.365844   
     10. B(C  10,Si  6)                  1.9427         0.356505   
     11. B(C  11,C  10)                  1.5311         0.372113   
     12. B(C  12,C  10)                  1.5334         0.368889   
     13. B(O  13,Si  6)                  1.6730         0.859983   
     14. B(C  14,O  13)                  1.4228         0.496081   
     15. B(C  15,C   3)                  1.5389         0.361600   
     16. B(C  15,C  14)                  1.5361         0.365344   
     17. B(H  16,C  15)                  1.0982         0.349418   
     18. B(O  17,C  15)                  1.4266         0.489235   
     19. B(C  18,O  17)                  1.4290         0.484813   
     20. B(H  19,C  18)                  1.0971         0.350824   
     21. B(O  20,C  18)                  1.4324         0.478946   
     22. B(C  21,O  20)                  1.4195         0.502101   
     23. B(C  22,C  18)                  1.5420         0.357423   
     24. B(C  22,C   1)                  1.5275         0.377064   
     25. B(O  23,C  22)                  1.4387         0.467953   
     26. B(H  24,O   0)                  0.9777         0.487246   
     27. B(H  24,O   5)                  2.3245         0.010000   
     28. B(H  25,C   7)                  1.0962         0.351973   
     29. B(H  26,C   8)                  1.0961         0.352141   
     30. B(H  27,C   8)                  1.0938         0.355132   
     31. B(H  28,C   8)                  1.0956         0.352712   
     32. B(H  29,C   9)                  1.0961         0.352115   
     33. B(H  30,C   9)                  1.0956         0.352797   
     34. B(H  31,C   9)                  1.0957         0.352587   
     35. B(H  32,C  10)                  1.0968         0.351265   
     36. B(H  33,C  11)                  1.0948         0.353809   
     37. B(H  34,C  11)                  1.0954         0.353043   
     38. B(H  35,C  11)                  1.0957         0.352619   
     39. B(H  36,C  12)                  1.0955         0.352917   
     40. B(H  37,C  12)                  1.0956         0.352764   
     41. B(H  38,C  12)                  1.0957         0.352598   
     42. B(H  39,C  14)                  1.0966         0.351442   
     43. B(H  40,C  14)                  1.0971         0.350863   
     44. B(H  41,C  21)                  1.0934         0.355611   
     45. B(H  42,C  21)                  1.0940         0.354889   
     46. B(H  43,C  21)                  1.0943         0.354448   
     47. B(H  44,C  22)                  1.0971         0.350822   
     48. B(H  45,O   0)                  2.3761         0.010000   
     49. B(H  45,O  23)                  0.9776         0.487451   
     50. A(C   1,O   0,H  24)          106.0887         0.348808   
     51. A(H   2,C   1,C   3)          111.1478         0.322650   
     52. A(O   0,C   1,C   3)          110.2279         0.374390   
     53. A(H   2,C   1,C  22)          109.6780         0.323807   
     54. A(O   0,C   1,H   2)          105.0866         0.333433   
     55. A(O   0,C   1,C  22)          108.9068         0.375803   
     56. A(C   3,C   1,C  22)          111.5736         0.363151   
     57. A(O   5,C   3,C  15)          115.8032         0.373927   
     58. A(C   1,C   3,H   4)          106.7384         0.321936   
     59. A(H   4,C   3,C  15)          107.5918         0.320881   
     60. A(H   4,C   3,O   5)          105.1024         0.333397   
     61. A(C   1,C   3,C  15)          111.2235         0.360565   
     62. A(C   1,C   3,O   5)          109.7932         0.375223   
     63. A(C   3,O   5,Si  6)          121.3121         0.467692   
     64. A(C  10,Si  6,O  13)          109.3182         0.484424   
     65. A(O   5,Si  6,C   7)          109.9993         0.482673   
     66. A(C   7,Si  6,O  13)          110.2417         0.483476   
     67. A(O   5,Si  6,O  13)          106.5533         0.567512   
     68. A(O   5,Si  6,C  10)          110.7005         0.483619   
     69. A(C   7,Si  6,C  10)          109.9723         0.414317   
     70. A(C   8,C   7,H  25)          108.4068         0.322378   
     71. A(Si  6,C   7,C   8)          112.9651         0.386463   
     72. A(Si  6,C   7,H  25)          106.0195         0.343619   
     73. A(C   8,C   7,C   9)          109.4023         0.361207   
     74. A(Si  6,C   7,C   9)          112.0396         0.385982   
     75. A(C   9,C   7,H  25)          107.7661         0.322001   
     76. A(H  27,C   8,H  28)          107.3696         0.289264   
     77. A(C   7,C   8,H  28)          110.5507         0.322489   
     78. A(C   7,C   8,H  27)          111.8113         0.322851   
     79. A(C   7,C   8,H  26)          111.5198         0.322404   
     80. A(H  26,C   8,H  27)          107.6581         0.289191   
     81. A(H  26,C   8,H  28)          107.7343         0.288881   
     82. A(H  30,C   9,H  31)          107.4021         0.288949   
     83. A(C   7,C   9,H  31)          111.3182         0.322093   
     84. A(C   7,C   9,H  30)          110.6507         0.322124   
     85. A(C   7,C   9,H  29)          111.5695         0.322022   
     86. A(H  29,C   9,H  31)          107.8170         0.288861   
     87. A(H  29,C   9,H  30)          107.9075         0.288888   
     88. A(Si  6,C  10,C  12)          112.8412         0.387255   
     89. A(Si  6,C  10,H  32)          104.7599         0.344115   
     90. A(Si  6,C  10,C  11)          113.6529         0.387843   
     91. A(C  11,C  10,C  12)          110.2041         0.362326   
     92. A(C  12,C  10,H  32)          107.3791         0.322332   
     93. A(C  11,C  10,H  32)          107.5275         0.322792   
     94. A(C  10,C  11,H  35)          110.4016         0.322996   
     95. A(H  34,C  11,H  35)          107.5491         0.288985   
     96. A(H  33,C  11,H  35)          107.4264         0.289083   
     97. A(H  33,C  11,H  34)          108.0759         0.289137   
     98. A(C  10,C  11,H  34)          111.5824         0.323059   
     99. A(C  10,C  11,H  33)          111.6190         0.323174   
    100. A(H  36,C  12,H  38)          107.8342         0.288966   
    101. A(C  10,C  12,H  38)          111.3651         0.322532   
    102. A(H  36,C  12,H  37)          107.7108         0.288987   
    103. A(C  10,C  12,H  37)          110.5369         0.322557   
    104. A(C  10,C  12,H  36)          111.6928         0.322580   
    105. A(H  37,C  12,H  38)          107.5209         0.288946   
    106. A(Si  6,O  13,C  14)          118.1500         0.472560   
    107. A(O  13,C  14,C  15)          112.1129         0.377674   
    108. A(H  39,C  14,H  40)          105.5085         0.288554   
    109. A(O  13,C  14,H  40)          109.7143         0.336396   
    110. A(C  15,C  14,H  39)          109.0942         0.321849   
    111. A(O  13,C  14,H  39)          107.6889         0.336489   
    112. A(C  15,C  14,H  40)          112.4011         0.321762   
    113. A(H  16,C  15,O  17)          106.4041         0.335389   
    114. A(C  14,C  15,O  17)          112.6574         0.376768   
    115. A(C   3,C  15,O  17)          111.8999         0.376098   
    116. A(C  14,C  15,H  16)          106.5397         0.321545   
    117. A(C   3,C  15,H  16)          106.9871         0.321003   
    118. A(C   3,C  15,C  14)          111.8782         0.359966   
    119. A(C  15,O  17,C  18)          115.7578         0.393274   
    120. A(O  20,C  18,C  22)          107.9294         0.373969   
    121. A(H  19,C  18,C  22)          109.8034         0.320604   
    122. A(O  17,C  18,C  22)          111.5275         0.374756   
    123. A(H  19,C  18,O  20)          108.2944         0.334430   
    124. A(O  17,C  18,O  20)          108.7398         0.391813   
    125. A(O  17,C  18,H  19)          110.4497         0.335107   
    126. A(C  18,O  20,C  21)          112.2882         0.394224   
    127. A(H  42,C  21,H  43)          110.1505         0.289456   
    128. A(H  41,C  21,H  43)          108.4165         0.289548   
    129. A(O  20,C  21,H  43)          110.6186         0.337644   
    130. A(H  41,C  21,H  42)          108.3620         0.289604   
    131. A(O  20,C  21,H  42)          110.9548         0.337714   
    132. A(O  20,C  21,H  41)          108.2531         0.337828   
    133. A(O  23,C  22,H  44)          106.6242         0.333143   
    134. A(C  18,C  22,H  44)          110.0740         0.320604   
    135. A(C  18,C  22,O  23)          111.3332         0.372476   
    136. A(C   1,C  22,H  44)          110.3812         0.323425   
    137. A(C   1,C  22,O  23)          107.7032         0.375929   
    138. A(C   1,C  22,C  18)          110.6276         0.361193   
    139. A(C  22,O  23,H  45)          104.9615         0.348947   
    140. D(C   3,C   1,O   0,H  24)     40.4852         0.018632   
    141. D(C  22,C   1,O   0,H  24)    163.1975         0.018632   
    142. D(H   2,C   1,O   0,H  24)    -79.3525         0.018632   
    143. D(H   4,C   3,C   1,H   2)    170.4939         0.010884   
    144. D(H   4,C   3,C   1,C  22)    -66.7409         0.010884   
    145. D(O   5,C   3,C   1,O   0)    -59.0223         0.010884   
    146. D(O   5,C   3,C   1,C  22)    179.8440         0.010884   
    147. D(O   5,C   3,C   1,H   2)     57.0788         0.010884   
    148. D(H   4,C   3,C   1,O   0)     54.3928         0.010884   
    149. D(Si  6,O   5,C   3,C  15)     34.2545         0.019129   
    150. D(Si  6,O   5,C   3,C   1)    -92.7119         0.019129   
    151. D(Si  6,O   5,C   3,H   4)    152.8219         0.019129   
    152. D(O  13,Si  6,O   5,C   3)    -24.3939         0.010300   
    153. D(C  10,Si  6,O   5,C   3)     94.3732         0.010300   
    154. D(C   7,Si  6,O   5,C   3)   -143.8843         0.010300   
    155. D(C   9,C   7,Si  6,O  13)    -32.4104         0.010000   
    156. D(C   8,C   7,Si  6,O   5)    -39.3041         0.010000   
    157. D(C   8,C   7,Si  6,O  13)   -156.5208         0.010000   
    158. D(C   8,C   7,Si  6,C  10)     82.8709         0.010000   
    159. D(C   9,C   7,Si  6,O   5)     84.8063         0.010000   
    160. D(C   9,C   7,Si  6,C  10)   -153.0187         0.010000   
    161. D(H  26,C   8,C   7,C   9)    -62.2381         0.010859   
    162. D(H  27,C   8,C   7,C   9)    177.1639         0.010859   
    163. D(H  27,C   8,C   7,Si  6)    -57.2915         0.010859   
    164. D(H  26,C   8,C   7,H  25)   -179.5063         0.010859   
    165. D(H  27,C   8,C   7,H  25)     59.8957         0.010859   
    166. D(H  26,C   8,C   7,Si  6)     63.3064         0.010859   
    167. D(H  30,C   9,C   7,Si  6)    177.7194         0.010715   
    168. D(H  29,C   9,C   7,H  25)   -178.3801         0.010715   
    169. D(H  29,C   9,C   7,C   8)     63.9493         0.010715   
    170. D(H  29,C   9,C   7,Si  6)    -62.1266         0.010715   
    171. D(H  30,C   9,C   7,H  25)     61.4660         0.010715   
    172. D(H  30,C   9,C   7,C   8)    -56.2047         0.010715   
    173. D(C  12,C  10,Si  6,C   7)     60.8399         0.010000   
    174. D(C  12,C  10,Si  6,O   5)   -177.4018         0.010000   
    175. D(C  11,C  10,Si  6,O  13)    173.2631         0.010000   
    176. D(C  11,C  10,Si  6,C   7)    -65.5734         0.010000   
    177. D(C  12,C  10,Si  6,O  13)    -60.3237         0.010000   
    178. D(C  11,C  10,Si  6,O   5)     56.1850         0.010000   
    179. D(H  34,C  11,C  10,C  12)   -179.9788         0.011062   
    180. D(H  34,C  11,C  10,Si  6)    -52.1903         0.011062   
    181. D(H  33,C  11,C  10,H  32)   -175.6788         0.011062   
    182. D(H  33,C  11,C  10,C  12)    -58.9352         0.011062   
    183. D(H  33,C  11,C  10,Si  6)     68.8533         0.011062   
    184. D(H  34,C  11,C  10,H  32)     63.2776         0.011062   
    185. D(H  37,C  12,C  10,H  32)     59.5127         0.010882   
    186. D(H  37,C  12,C  10,C  11)    -57.3234         0.010882   
    187. D(H  37,C  12,C  10,Si  6)    174.4420         0.010882   
    188. D(H  36,C  12,C  10,H  32)    179.4229         0.010882   
    189. D(H  36,C  12,C  10,C  11)     62.5869         0.010882   
    190. D(H  36,C  12,C  10,Si  6)    -65.6477         0.010882   
    191. D(C  14,O  13,Si  6,C  10)    -84.8608         0.010000   
    192. D(C  14,O  13,Si  6,C   7)    154.1393         0.010000   
    193. D(C  14,O  13,Si  6,O   5)     34.8063         0.010000   
    194. D(H  40,C  14,O  13,Si  6)     71.1404         0.019446   
    195. D(H  39,C  14,O  13,Si  6)   -174.5034         0.019446   
    196. D(C  15,C  14,O  13,Si  6)    -54.4900         0.019446   
    197. D(H  16,C  15,C   3,H   4)    -50.5670         0.010484   
    198. D(H  16,C  15,C   3,C   1)   -167.1340         0.010484   
    199. D(C  14,C  15,C   3,O   5)    -49.7037         0.010484   
    200. D(C  14,C  15,C   3,H   4)   -166.8905         0.010484   
    201. D(H  16,C  15,C   3,O   5)     66.6198         0.010484   
    202. D(C  14,C  15,C   3,C   1)     76.5425         0.010484   
    203. D(H  16,C  15,C  14,H  40)    179.3032         0.010687   
    204. D(H  16,C  15,C  14,H  39)     62.6408         0.010687   
    205. D(H  16,C  15,C  14,O  13)    -56.5502         0.010687   
    206. D(C   3,C  15,C  14,H  40)    -64.1026         0.010687   
    207. D(C   3,C  15,C  14,H  39)    179.2350         0.010687   
    208. D(C   3,C  15,C  14,O  13)     60.0440         0.010687   
    209. D(C  18,O  17,C  15,H  16)    171.9078         0.018899   
    210. D(C  18,O  17,C  15,C  14)    -71.7029         0.018899   
    211. D(C  18,O  17,C  15,C   3)     55.3829         0.018899   
    212. D(C  22,C  18,O  17,C  15)    -56.4508         0.018550   
    213. D(O  20,C  18,O  17,C  15)   -175.3506         0.018550   
    214. D(H  19,C  18,O  17,C  15)     65.9463         0.018550   
    215. D(C  21,O  20,C  18,C  22)    169.2747         0.018094   
    216. D(C  21,O  20,C  18,H  19)     50.4577         0.018094   
    217. D(C  21,O  20,C  18,O  17)    -69.5917         0.018094   
    218. D(H  43,C  21,O  20,C  18)    -60.2174         0.019936   
    219. D(H  42,C  21,O  20,C  18)     62.3449         0.019936   
    220. D(H  41,C  21,O  20,C  18)   -178.8713         0.019936   
    221. D(O  23,C  22,C  18,O  20)    -67.8732         0.010260   
    222. D(O  23,C  22,C  18,H  19)     49.9775         0.010260   
    223. D(C   1,C  22,C  18,O  20)    172.4022         0.010260   
    224. D(C   1,C  22,C  18,H  19)    -69.7471         0.010260   
    225. D(C   1,C  22,C  18,O  17)     53.0207         0.010260   
    226. D(O  23,C  22,C   1,C   3)   -173.1176         0.011341   
    227. D(O  23,C  22,C   1,H   2)    -49.5159         0.011341   
    228. D(O  23,C  22,C   1,O   0)     64.9828         0.011341   
    229. D(O  23,C  22,C  18,O  17)    172.7453         0.010260   
    230. D(C  18,C  22,C   1,C   3)    -51.2344         0.011341   
    231. D(C  18,C  22,C   1,H   2)     72.3673         0.011341   
    232. D(C  18,C  22,C   1,O   0)   -173.1339         0.011341   
    233. D(H  45,O  23,C  22,H  44)     62.6860         0.017259   
    234. D(H  45,O  23,C  22,C  18)   -177.2370         0.017259   
    235. D(H  45,O  23,C  22,C   1)    -55.7925         0.017259   
    -----------------------------------------------------------------

Number of atoms                         .... 46
Number of degrees of freedom            .... 235


         *************************************************************
         *                GEOMETRY OPTIMIZATION CYCLE   1            *
         *************************************************************
---------------------------------
CARTESIAN COORDINATES (ANGSTROEM)
---------------------------------
  O    -3.831580    0.094410   -0.254430
  C    -2.516100   -0.413700    0.033090
  H    -1.962650   -0.320350   -0.907300
  C    -1.859940    0.412850    1.145570
  H    -2.556430    0.408970    1.995460
  O    -1.770500    1.787620    0.741510
  Si   -0.400760    2.385180   -0.016100
  C    -0.064020    4.212120    0.562110
  C    -1.347360    5.038530    0.711970
  C     0.732170    4.263780    1.874270
  C    -0.603600    2.327110   -1.947340
  C    -1.839080    3.073470   -2.457930
  C     0.648930    2.804620   -2.692040
  O     0.866590    1.391610    0.437420
  C     0.600110    0.006470    0.623760
  C    -0.545710   -0.233240    1.618310
  H    -0.259230    0.268610    2.552180
  O    -0.716060   -1.613000    1.938260
  C    -1.266620   -2.427600    0.901200
  H    -0.571840   -2.491770    0.054560
  O    -1.473130   -3.748790    1.414500
  C    -0.251140   -4.428480    1.658990
  C    -2.628250   -1.887140    0.419820
  O    -3.099280   -2.607410   -0.733070
  H    -3.757560    1.068910   -0.227170
  H     0.552160    4.668630   -0.221220
  H    -1.999960    4.629850    1.492030
  H    -1.921660    5.069640   -0.218390
  H    -1.109230    6.072780    0.984100
  H     0.181890    3.795030    2.698230
  H     0.943630    5.300820    2.157330
  H     1.694010    3.747950    1.777170
  H    -0.739180    1.264410   -2.182230
  H    -1.739970    4.155680   -2.325340
  H    -2.748230    2.749440   -1.939930
  H    -1.983670    2.885820   -3.527730
  H     0.845540    3.867450   -2.513650
  H     0.530800    2.664230   -3.772170
  H     1.536650    2.242380   -2.381450
  H     1.514280   -0.459630    1.010580
  H     0.416830   -0.469100   -0.347740
  H    -0.484700   -5.431010    2.027690
  H     0.339300   -3.910200    2.420260
  H     0.327150   -4.525930    0.735090
  H    -3.384480   -2.019990    1.203470
  H    -3.934170   -2.164780   -0.983440

----------------------------
CARTESIAN COORDINATES (A.U.)
----------------------------
  NO LB    ZA    FRAG    MASS        X           Y           Z
   0 O   8.0000    1    15.999   -7.240637    0.178409   -0.480803
   1 C   6.0000    1    12.011   -4.754740   -0.781780    0.062531
   2 H   1.0000    1     1.008   -3.708871   -0.605374   -1.714549
   3 C   6.0000    1    12.011   -3.514777    0.780173    2.164814
   4 H   1.0000    1     1.008   -4.830953    0.772841    3.770873
   5 O   8.0000    1    15.999   -3.345760    3.378112    1.401251
   6 Si 14.0000    1    28.086   -0.757327    4.507337   -0.030425
   7 C   6.0000    1    12.011   -0.120980    7.959753    1.062234
   8 C   6.0000    1    12.011   -2.546141    9.521442    1.345428
   9 C   6.0000    1    12.011    1.383601    8.057376    3.541857
  10 C   6.0000    1    12.011   -1.140639    4.397601   -3.679939
  11 C   6.0000    1    12.011   -3.475358    5.808017   -4.644815
  12 C   6.0000    1    12.011    1.226300    5.299964   -5.087218
  13 O   8.0000    1    15.999    1.637618    2.629762    0.826604
  14 C   6.0000    1    12.011    1.134044    0.012227    1.178736
  15 C   6.0000    1    12.011   -1.031242   -0.440760    3.058163
  16 H   1.0000    1     1.008   -0.489874    0.507599    4.822921
  17 O   8.0000    1    15.999   -1.353157   -3.048128    3.662781
  18 C   6.0000    1    12.011   -2.393565   -4.587499    1.703021
  19 H   1.0000    1     1.008   -1.080621   -4.708763    0.103103
  20 O   8.0000    1    15.999   -2.783812   -7.084186    2.673018
  21 C   6.0000    1    12.011   -0.474586   -8.368614    3.135037
  22 C   6.0000    1    12.011   -4.966673   -3.566178    0.793345
  23 O   8.0000    1    15.999   -5.856790   -4.927291   -1.385302
  24 H   1.0000    1     1.008   -7.100759    2.019947   -0.429289
  25 H   1.0000    1     1.008    1.043431    8.822432   -0.418045
  26 H   1.0000    1     1.008   -3.779377    8.749149    2.819528
  27 H   1.0000    1     1.008   -3.631411    9.580231   -0.412697
  28 H   1.0000    1     1.008   -2.096141   11.475891    1.859679
  29 H   1.0000    1     1.008    0.343722    7.171567    5.098916
  30 H   1.0000    1     1.008    1.783202   10.017098    4.076763
  31 H   1.0000    1     1.008    3.201215    7.082599    3.358365
  32 H   1.0000    1     1.008   -1.396848    2.389389   -4.123817
  33 H   1.0000    1     1.008   -3.288067    7.853097   -4.394256
  34 H   1.0000    1     1.008   -5.193402    5.195689   -3.665936
  35 H   1.0000    1     1.008   -3.748593    5.453409   -6.666444
  36 H   1.0000    1     1.008    1.597839    7.308421   -4.750110
  37 H   1.0000    1     1.008    1.003067    5.034665   -7.128368
  38 H   1.0000    1     1.008    2.903848    4.237484   -4.500288
  39 H   1.0000    1     1.008    2.861574   -0.868575    1.909719
  40 H   1.0000    1     1.008    0.787695   -0.886471   -0.657133
  41 H   1.0000    1     1.008   -0.915950  -10.263122    3.831779
  42 H   1.0000    1     1.008    0.641184   -7.389207    4.573629
  43 H   1.0000    1     1.008    0.618224   -8.552768    1.389119
  44 H   1.0000    1     1.008   -6.395740   -3.817228    2.274229
  45 H   1.0000    1     1.008   -7.434504   -4.090841   -1.858432

      -----------------------------------------------------------      
     |                   =====================                   |     
     |                           x T B                           |     
     |                   =====================                   |     
     |                         S. Grimme                         |     
     |          Mulliken Center for Theoretical Chemistry        |     
     |                    University of Bonn                     |     
      -----------------------------------------------------------      

   * xtb version 6.7.1 (edcfbbe) compiled by 'albert@albert-system' on 2024-07-22

   xtb is free software: you can redistribute it and/or modify it under
   the terms of the GNU Lesser General Public License as published by
   the Free Software Foundation, either version 3 of the License, or
   (at your option) any later version.
   
   xtb is distributed in the hope that it will be useful,
   but WITHOUT ANY WARRANTY; without even the implied warranty of
   MERCHANTABILITY or FITNESS FOR A PARTICULAR PURPOSE.  See the
   GNU Lesser General Public License for more details.
   
   Cite this work as:
   * C. Bannwarth, E. Caldeweyher, S. Ehlert, A. Hansen, P. Pracht,
     J. Seibert, S. Spicher, S. Grimme, WIREs Comput. Mol. Sci., 2020, 11,
     e01493. DOI: 10.1002/wcms.1493
   
   for GFN2-xTB:
   * C. Bannwarth, S. Ehlert and S. Grimme., J. Chem. Theory Comput., 2019,
     15, 1652-1671. DOI: 10.1021/acs.jctc.8b01176
   for GFN1-xTB:
   * S. Grimme, C. Bannwarth, P. Shushkov, J. Chem. Theory Comput., 2017,
     13, 1989-2009. DOI: 10.1021/acs.jctc.7b00118
   for GFN0-xTB:
   * P. Pracht, E. Caldeweyher, S. Ehlert, S. Grimme, ChemRxiv, 2019, preprint.
     DOI: 10.26434/chemrxiv.8326202.v1
   for GFN-FF:
   * S. Spicher and S. Grimme, Angew. Chem. Int. Ed., 2020, 59, 15665-15673.
     DOI: 10.1002/anie.202004239
   
   for ALPB and GBSA implicit solvation:
   * S. Ehlert, M. Stahn, S. Spicher, S. Grimme, J. Chem. Theory Comput.,
     2021, 17, 4250-4261. DOI: 10.1021/acs.jctc.1c00471
   
   for ddCOSMO and CPCM-X implicit solvation:
   * M. Stahn, S. Ehlert, S. Grimme, J. Phys. Chem. A,
     2023, XX, XXXX-XXXX. DOI: 10.1021/acs.jpca.3c04382
   
   for DFT-D4:
   * E. Caldeweyher, C. Bannwarth and S. Grimme, J. Chem. Phys., 2017,
     147, 034112. DOI: 10.1063/1.4993215
   * E. Caldeweyher, S. Ehlert, A. Hansen, H. Neugebauer, S. Spicher,
     C. Bannwarth and S. Grimme, J. Chem. Phys., 2019, 150, 154122.
     DOI: 10.1063/1.5090222
   * E. Caldeweyher, J.-M. Mewes, S. Ehlert and S. Grimme, Phys. Chem. Chem. Phys.
     2020, 22, 8499-8512. DOI: 10.1039/D0CP00502A
   
   for sTDA-xTB:
   * S. Grimme and C. Bannwarth, J. Chem. Phys., 2016, 145, 054103.
     DOI: 10.1063/1.4959605
   
   in the mass-spec context:
   * V. Asgeirsson, C. Bauer and S. Grimme, Chem. Sci., 2017, 8, 4879.
     DOI: 10.1039/c7sc00601b
   * J. Koopman and S. Grimme, ACS Omega 2019, 4, 12, 15120-15133.
     DOI: 10.1021/acsomega.9b02011
   
   for metadynamics refer to:
   * S. Grimme, J. Chem. Theory Comput., 2019, 155, 2847-2862
     DOI: 10.1021/acs.jctc.9b00143
   
   for SPH calculations refer to:
   * S. Spicher and S. Grimme, J. Chem. Theory Comput., 2021, 17, 1701-1714
     DOI: 10.1021/acs.jctc.0c01306
   
   for ONIOM refer to:
   * C. Plett, A. Katbashev, S. Ehlert, S. Grimme, M. Bursch,
     Phys. Chem. Chem. Phys., 2023, 25, 17860-17868. DOI: 10.1039/D3CP02178E
   
   for DIPRO refer to:
   * J. Kohn, N. Gildemeister, S. Grimme, D. Fazzi, A. Hansen,
     J. Chem. Phys., 2023, just accepted.
   
   for PTB refer to:
   * S. Grimme, M. Mueller, A. Hansen, J. Chem. Phys., 2023, 158, 124111.
     DOI: 10.1063/5.0137838
   
   with help from (in alphabetical order)
   P. Atkinson, C. Bannwarth, F. Bohle, G. Brandenburg, E. Caldeweyher
   M. Checinski, S. Dohm, S. Ehlert, S. Ehrlich, I. Gerasimov, C. Hölzer
   A. Katbashev, J. Kohn, J. Koopman, C. Lavigne, S. Lehtola, F. März, M. Müller,
   F. Musil, H. Neugebauer, J. Pisarek, C. Plett, P. Pracht, F. Pultar,
   J. Seibert, P. Shushkov, S. Spicher, M. Stahn, M. Steiner, T. Strunk,
   J. Stückrath, T. Rose, and J. Unsleber
   
 * started run on 2025/09/10 at 11:29:45.842     
   ID    Z sym.   atoms
    1    8 O      1, 6, 14, 18, 21, 24
    2    6 C      2, 4, 8-13, 15, 16, 19, 22, 23
    3    1 H      3, 5, 17, 20, 25-46
    4   14 Si     7

           -------------------------------------------------
          |                Calculation Setup                |
           -------------------------------------------------

          program call               : /home/kmoult/orca_6_1/otool_xtb goat_0_XTB.xyz --grad -c 0 -u 0 -P 4 --namespace goat_0 --input goat_0_XTB.input.tmp --alpb ACETONE --acc 0.200000
          hostname                   : node2704
          calculation namespace      : goat_0
          coordinate file            : goat_0_XTB.xyz
          omp threads                :                     4


           -------------------------------------------------
          |                 G F N 2 - x T B                 |
           -------------------------------------------------

        Reference                      10.1021/acs.jctc.8b01176
      * Hamiltonian:
        H0-scaling (s, p, d)           1.850000    2.230000    2.230000
        zeta-weighting                 0.500000
      * Dispersion:
        s8                             2.700000
        a1                             0.520000
        a2                             5.000000
        s9                             5.000000
      * Repulsion:
        kExp                           1.500000    1.000000
        rExp                           1.000000
      * Coulomb:
        alpha                          2.000000
        third order                    shell-resolved
        anisotropic                    true
        a3                             3.000000
        a5                             4.000000
        cn-shift                       1.200000
        cn-exp                         4.000000
        max-rad                        5.000000

      * Solvation model:               ALPB
        Solvent                        ACETONE
        Parameter file                 internal GFN2-xTB/ALPB
        Dielectric constant                2.0700E+01
        Reference state                gsolv [1 M gas/solution]
        Free energy shift                  5.9241E-03 Eh       3.7175E+00 kcal/mol
        Temperature                        2.9815E+02 K
        Density                            7.9000E-01 kg/L
        Solvent mass                       5.8080E+01 g/mol
        Interaction kernel             P16
        Born radius scaling (c1)           1.8274E+00
        Born radii integrator          GBOBC
        Born offset                        0.0000E+00 a0       0.0000E+00 AA
        H-bond correction              true
        Ion screening                  false
        Surface tension                    1.0000E-05 Eh       1.5569E+01 dyn/cm
        Grid points                               230 per atom

          ...................................................
          :                      SETUP                      :
          :.................................................:
          :  # basis functions                 112          :
          :  # atomic orbitals                 111          :
          :  # shells                           67          :
          :  # electrons                       118          :
          :  max. iterations                   250          :
          :  Hamiltonian                  GFN2-xTB          :
          :  restarted?                      false          :
          :  GBSA solvation                   true          :
          :  PC potential                    false          :
          :  electronic temp.          300.0000000     K    :
          :  accuracy                    0.2000000          :
          :  -> integral cutoff          0.3198970E+02      :
          :  -> integral neglect         0.2000000E-08      :
          :  -> SCF convergence          0.2000000E-06 Eh   :
          :  -> wf. convergence          0.2000000E-04 e    :
          :  Broyden damping             0.4000000          :
          :  net charge                          0          :
          :  unpaired electrons                  0          :
          ...................................................

 iter      E             dE          RMSdq      gap      omega  full diag
   1    -67.7882541 -0.677883E+02  0.462E+00    6.39       0.0  T
   2    -67.9418355 -0.153581E+00  0.254E+00    5.20       1.0  T
   3    -67.9342264  0.760912E-02  0.134E+00    6.03       1.0  T
   4    -67.9521709 -0.179445E-01  0.592E-01    5.25       1.0  T
   5    -67.9597267 -0.755583E-02  0.301E-01    5.49       1.0  T
   6    -67.9597935 -0.667739E-04  0.139E-01    5.50       1.0  T
   7    -67.9598320 -0.385406E-04  0.676E-02    5.51       1.0  T
   8    -67.9598425 -0.104189E-04  0.201E-02    5.51       1.0  T
   9    -67.9598435 -0.102708E-05  0.109E-02    5.51       1.4  T
  10    -67.9598438 -0.349657E-06  0.409E-03    5.51       3.6  T
  11    -67.9598442 -0.341916E-06  0.157E-03    5.51       9.4  T
  12    -67.9598442  0.229193E-08  0.707E-04    5.51      20.8  T
  13    -67.9598442 -0.673390E-08  0.223E-04    5.51      66.2  T
  14    -67.9598442 -0.273985E-09  0.837E-05    5.51     176.1  T
  15    -67.9598442 -0.281943E-10  0.463E-05    5.51     318.4  T

   *** convergence criteria satisfied after 15 iterations ***

         #    Occupation            Energy/Eh            Energy/eV
      -------------------------------------------------------------
         1        2.0000           -0.8093752             -22.0242
       ...           ...                  ...                  ...
        53        2.0000           -0.4314726             -11.7410
        54        2.0000           -0.4266193             -11.6089
        55        2.0000           -0.4227281             -11.5030
        56        2.0000           -0.4196690             -11.4198
        57        2.0000           -0.4178433             -11.3701
        58        2.0000           -0.4150962             -11.2953
        59        2.0000           -0.3769058             -10.2561 (HOMO)
        60                         -0.1742669              -4.7420 (LUMO)
        61                         -0.1269880              -3.4555
        62                         -0.1212953              -3.3006
        63                         -0.0728359              -1.9820
        64                         -0.0352716              -0.9598
       ...                                ...                  ...
       111                          0.7278564              19.8060
      -------------------------------------------------------------
                  HL-Gap            0.2026389 Eh            5.5141 eV
             Fermi-level           -0.2755863 Eh           -7.4991 eV

 SCC (total)                   0 d,  0 h,  0 min,  0.104 sec
 SCC setup                      ...        0 min,  0.014 sec ( 13.246%)
 Dispersion                     ...        0 min,  0.002 sec (  2.376%)
 classical contributions        ...        0 min,  0.000 sec (  0.046%)
 integral evaluation            ...        0 min,  0.020 sec ( 19.012%)
 iterations                     ...        0 min,  0.051 sec ( 49.333%)
 molecular gradient             ...        0 min,  0.012 sec ( 11.553%)
 printout                       ...        0 min,  0.005 sec (  4.409%)

         :::::::::::::::::::::::::::::::::::::::::::::::::::::
         ::                     SUMMARY                     ::
         :::::::::::::::::::::::::::::::::::::::::::::::::::::
         :: total energy             -67.342555654869 Eh    ::
         :: total w/o Gsasa/hb       -67.315088142360 Eh    ::
         :: gradient norm              0.068460629451 Eh/a0 ::
         :: HOMO-LUMO gap              5.514085830825 eV    ::
         ::.................................................::
         :: SCC energy               -67.958918832951 Eh    ::
         :: -> isotropic ES            0.156009032499 Eh    ::
         :: -> anisotropic ES          0.004626788280 Eh    ::
         :: -> anisotropic XC          0.004937278620 Eh    ::
         :: -> dispersion             -0.044274070398 Eh    ::
         :: -> Gsolv                  -0.030763670143 Eh    ::
         ::    -> Gelec               -0.003296157634 Eh    ::
         ::    -> Gsasa               -0.028220249479 Eh    ::
         ::    -> Ghb                 -0.005171404294 Eh    ::
         ::    -> Gshift               0.005924141264 Eh    ::
         :: repulsion energy           0.616363178081 Eh    ::
         :: add. restraining           0.000000000000 Eh    ::
         :: total charge              -0.000000000000 e     ::
         :::::::::::::::::::::::::::::::::::::::::::::::::::::


Property printout bound to 'properties.out'

           -------------------------------------------------
          | TOTAL ENERGY              -67.342555654869 Eh   |
          | GRADIENT NORM               0.068460629451 Eh/α |
          | HOMO-LUMO GAP               5.514085830825 eV   |
           -------------------------------------------------

------------------------------------------------------------------------
 * finished run on 2025/09/10 at 11:29:46.100     
------------------------------------------------------------------------
 total:
 * wall-time:     0 d,  0 h,  0 min,  0.258 sec
 *  cpu-time:     0 d,  0 h,  0 min,  0.675 sec
 * ratio c/w:     2.620 speedup
 SCF:
 * wall-time:     0 d,  0 h,  0 min,  0.112 sec
 *  cpu-time:     0 d,  0 h,  0 min,  0.327 sec
 * ratio c/w:     2.924 speedup


-------------------------   --------------------
FINAL SINGLE POINT ENERGY       -67.342555654870
-------------------------   --------------------


-------------
DIPOLE MOMENT
-------------
                                X             Y             Z
Total Dipole Moment    :      0.55100       0.93300      -0.26600
                        -----------------------------------------
Magnitude (a.u.)       :      1.11573
Magnitude (Debye)      :      2.83595


------------------
CARTESIAN GRADIENT
------------------

   1   O   :   -0.012958685   -0.001829346   -0.007408488
   2   C   :    0.012149365   -0.012992290    0.003056203
   3   H   :   -0.007514969    0.002087060   -0.000466481
   4   C   :    0.006610262   -0.008319694    0.002415793
   5   H   :    0.000282945   -0.000349573   -0.000347579
   6   O   :   -0.014025944    0.016061411    0.000715692
   7   Si  :   -0.000620224   -0.005919079   -0.004255494
   8   C   :    0.001398572    0.010742065   -0.004933444
   9   C   :    0.003479889   -0.000746065    0.000752772
  10   C   :   -0.003881330    0.000214297   -0.002694102
  11   C   :   -0.000823826    0.000087010   -0.007129664
  12   C   :    0.004747602   -0.001318391    0.002978145
  13   C   :   -0.004136864   -0.000118983    0.002189876
  14   O   :    0.014770487    0.005859885    0.000724962
  15   C   :   -0.008510557   -0.004637024    0.004137699
  16   C   :   -0.000772449   -0.002953502    0.005060219
  17   H   :   -0.000254324    0.004500515   -0.000397993
  18   O   :    0.004764939   -0.005450638    0.008323485
  19   C   :    0.011201493    0.018765451   -0.010457334
  20   H   :   -0.001942474   -0.001170748    0.003112705
  21   O   :   -0.007562106   -0.025018724    0.005151272
  22   C   :   -0.000901672    0.003341125   -0.002671875
  23   C   :    0.010118361    0.008075640    0.014904010
  24   O   :   -0.004567742   -0.009188763   -0.011850508
  25   H   :    0.001807547    0.008913166    0.000009366
  26   H   :    0.002271181    0.000320029   -0.002480508
  27   H   :   -0.004928964   -0.000310527    0.004136239
  28   H   :   -0.003360512    0.001616769   -0.003545953
  29   H   :   -0.000713247    0.003950468    0.000548961
  30   H   :   -0.001229389   -0.002246654    0.005389359
  31   H   :    0.001899908    0.002884437    0.001480582
  32   H   :    0.005552154   -0.001238550    0.001192901
  33   H   :    0.000329099    0.000407128    0.004489472
  34   H   :   -0.001386926    0.005465790   -0.000526464
  35   H   :   -0.005275015   -0.001391588    0.001347534
  36   H   :   -0.001227494   -0.000417677   -0.003413211
  37   H   :    0.002582430    0.005249036   -0.000352567
  38   H   :    0.000771250   -0.000612164   -0.003783443
  39   H   :    0.004930849   -0.002551106   -0.000287886
  40   H   :    0.000044562   -0.003543998   -0.002740497
  41   H   :    0.004859066   -0.002934760   -0.000704196
  42   H   :    0.004303797   -0.003894712    0.001596710
  43   H   :    0.000086221   -0.000970102    0.001677671
  44   H   :   -0.000868037   -0.001277657    0.000460096
  45   H   :   -0.004385649   -0.001957168   -0.004719678
  46   H   :   -0.007113579    0.004818197   -0.000684357

Difference to translation invariance:
           :   -0.0000000000    0.0000000000    0.0000000000

Difference to rotation invariance:
           :   -0.0002255074    0.0005422912    0.0003874112

Norm of the Cartesian gradient     ...    0.0684606295
RMS gradient                       ...    0.0058277558
MAX gradient                       ...    0.0250187241
------------------------------------------------------------------------------
                         ORCA GEOMETRY RELAXATION STEP
------------------------------------------------------------------------------

Reading the OPT-File                    .... done
Getting information on internals        .... done
Copying old internal coords+grads       .... done
Making the new internal coordinates     .... (2022 redundants) done
Validating the new internal coordinates .... (2022 redundants) done
Calculating the B-matrix                .... done
Calculating the G,G- and P matrices     .... done
Transforming gradient to internals      .... done
Projecting the internal gradient        .... done
Number of atoms                         ....  46
Number of internal coordinates          .... 235
Current Energy                          ....   -67.342555655 Eh
Current gradient norm                   ....     0.068460629 Eh/bohr
Maximum allowed component of the step   ....  0.300
Current trust radius                    ....  0.300
Evaluating the initial hessian          ....  (Almloef) done
Projecting the Hessian                  .... done
Forming the augmented Hessian           .... done
Diagonalizing the augmented Hessian     .... done
Last element of RFO vector              ....  0.975339616
Lowest eigenvalues of augmented Hessian:
 -0.012172713  0.010000000  0.010010288  0.010720062  0.010859685
Length of the computed step             ....  0.226289780
The final length of the internal step   ....  0.226289780
Converting the step to Cartesian space:
 Initial RMS(Int)=    0.0147615176
Transforming coordinates:
 Iter   0:  RMS(Cart)=    0.0875365755 RMS(Int)=    0.5788615982
 Iter   5:  RMS(Cart)=    0.0000000103 RMS(Int)=    0.0000000064
done
Storing new coordinates                 .... done

                                .--------------------.
          ----------------------|Geometry convergence|-------------------------
          Item                value                   Tolerance       Converged
          ---------------------------------------------------------------------
          RMS gradient        0.0044356434            0.0001000000      NO
          MAX gradient        0.0286038593            0.0003000000      NO
          RMS step            0.0147615176            0.0020000000      NO
          MAX step            0.0582422448            0.0040000000      NO
          -------------------------------------------------------------------------
          ........................................................
          Max(Bonds)      0.0308      Max(Angles)    1.89
          Max(Dihed)        2.44      Max(Improp)    0.00
          ---------------------------------------------------------------------

    ---------------------------------------------------------------------------
                         Redundant Internal Coordinates
                            (Angstroem and degrees)

        Definition                    Value    dE/dq     Step     New-Value
    ----------------------------------------------------------------------------
     1. B(C   1,O   0)                1.4392  0.014928 -0.0160    1.4232   
     2. B(H   2,C   1)                1.0952 -0.003218  0.0047    1.0998   
     3. B(C   3,C   1)                1.5334  0.006351 -0.0079    1.5255   
     4. B(H   4,C   3)                1.0988 -0.000447  0.0007    1.0995   
     5. B(O   5,C   3)                1.4357  0.020754 -0.0223    1.4135   
     6. B(Si  6,O   5)                1.6755  0.012649 -0.0075    1.6680   
     7. B(C   7,Si  6)                1.9456  0.014299 -0.0207    1.9249   
     8. B(C   8,C   7)                1.5337  0.007235 -0.0101    1.5237   
     9. B(C   9,C   7)                1.5357  0.005794 -0.0081    1.5276   
    10. B(C  10,Si  6)                1.9427  0.004255 -0.0061    1.9366   
    11. B(C  11,C  10)                1.5311  0.003537 -0.0049    1.5262   
    12. B(C  12,C  10)                1.5334  0.005093 -0.0071    1.5264   
    13. B(O  13,Si  6)                1.6730  0.014635 -0.0088    1.6642   
    14. B(C  14,O  13)                1.4228  0.016312 -0.0173    1.4055   
    15. B(C  15,C   3)                1.5389  0.004441 -0.0068    1.5321   
    16. B(C  15,C  14)                1.5361  0.002879 -0.0044    1.5316   
    17. B(H  16,C  15)                1.0982  0.001651 -0.0024    1.0958   
    18. B(O  17,C  15)                1.4266  0.012449 -0.0143    1.4123   
    19. B(C  18,O  17)                1.4290  0.010303 -0.0114    1.4177   
    20. B(H  19,C  18)                1.0971 -0.003564  0.0052    1.1023   
    21. B(O  20,C  18)                1.4324  0.028604 -0.0308    1.4015   
    22. B(C  21,O  20)                1.4195  0.003770 -0.0039    1.4156   
    23. B(C  22,C  18)                1.5420  0.010115 -0.0143    1.5277   
    24. B(C  22,C   1)                1.5275  0.003177 -0.0021    1.5254   
    25. B(O  23,C  22)                1.4387  0.017156 -0.0183    1.4203   
    26. B(H  24,O   0)                0.9777  0.008815 -0.0095    0.9682   
    27. B(H  24,O   5)                2.3245 -0.000538  0.0036    2.3281   
    28. B(H  25,C   7)                1.0962  0.003182 -0.0046    1.0916   
    29. B(H  26,C   8)                1.0961  0.005994 -0.0087    1.0874   
    30. B(H  27,C   8)                1.0938  0.004826 -0.0070    1.0868   
    31. B(H  28,C   8)                1.0956  0.003711 -0.0054    1.0903   
    32. B(H  29,C   9)                1.0961  0.005632 -0.0082    1.0879   
    33. B(H  30,C   9)                1.0956  0.003479 -0.0050    1.0905   
    34. B(H  31,C   9)                1.0957  0.005350 -0.0078    1.0880   
    35. B(H  32,C  10)                1.0968 -0.001397  0.0020    1.0988   
    36. B(H  33,C  11)                1.0948  0.005214 -0.0075    1.0873   
    37. B(H  34,C  11)                1.0954  0.005424 -0.0079    1.0875   
    38. B(H  35,C  11)                1.0957  0.003566 -0.0052    1.0905   
    39. B(H  36,C  12)                1.0955  0.005500 -0.0080    1.0875   
    40. B(H  37,C  12)                1.0956  0.003723 -0.0054    1.0902   
    41. B(H  38,C  12)                1.0957  0.005226 -0.0076    1.0882   
    42. B(H  39,C  14)                1.0966  0.000577 -0.0008    1.0958   
    43. B(H  40,C  14)                1.0971  0.001083 -0.0016    1.0955   
    44. B(H  41,C  21)                1.0934  0.003191 -0.0046    1.0888   
    45. B(H  42,C  21)                1.0940  0.000753 -0.0011    1.0929   
    46. B(H  43,C  21)                1.0943 -0.000735  0.0011    1.0954   
    47. B(H  44,C  22)                1.0971 -0.000112  0.0002    1.0973   
    48. B(H  45,O   0)                2.3761 -0.001487  0.0189    2.3950   
    49. B(H  45,O  23)                0.9776  0.007965 -0.0087    0.9689   
    50. A(C   1,O   0,H  24)          106.09 -0.001045    0.27    106.36   
    51. A(H   2,C   1,C   3)          111.15  0.001300   -0.38    110.77   
    52. A(O   0,C   1,C   3)          110.23 -0.002137    0.24    110.47   
    53. A(H   2,C   1,C  22)          109.68 -0.000604   -0.08    109.60   
    54. A(O   0,C   1,H   2)          105.09 -0.004426    1.89    106.98   
    55. A(O   0,C   1,C  22)          108.91  0.003239   -0.88    108.03   
    56. A(C   3,C   1,C  22)          111.57  0.002290   -0.67    110.91   
    57. A(O   5,C   3,C  15)          115.80  0.004770   -1.08    114.72   
    58. A(C   1,C   3,H   4)          106.74 -0.001106    0.73    107.47   
    59. A(H   4,C   3,C  15)          107.59 -0.003304    0.81    108.40   
    60. A(H   4,C   3,O   5)          105.10 -0.000313    0.38    105.48   
    61. A(C   1,C   3,C  15)          111.22  0.001121   -0.53    110.70   
    62. A(C   1,C   3,O   5)          109.79 -0.001768   -0.07    109.72   
    63. A(C   3,O   5,Si  6)          121.31 -0.003214    0.67    121.98   
    64. A(C  10,Si  6,O  13)          109.32  0.001797   -0.20    109.12   
    65. A(O   5,Si  6,C   7)          110.00  0.002946   -0.58    109.42   
    66. A(C   7,Si  6,O  13)          110.24  0.003212   -0.81    109.43   
    67. A(O   5,Si  6,O  13)          106.55 -0.001934    0.10    106.66   
    68. A(O   5,Si  6,C  10)          110.70  0.000880    0.06    110.76   
    69. A(C   7,Si  6,C  10)          109.97 -0.006654    1.36    111.34   
    70. A(C   8,C   7,H  25)          108.41  0.000469   -0.12    108.29   
    71. A(Si  6,C   7,C   8)          112.97  0.002474   -0.53    112.44   
    72. A(Si  6,C   7,H  25)          106.02 -0.001093    0.26    106.28   
    73. A(C   8,C   7,C   9)          109.40 -0.001463    0.24    109.64   
    74. A(Si  6,C   7,C   9)          112.04 -0.000571    0.10    112.14   
    75. A(C   9,C   7,H  25)          107.77  0.000159    0.07    107.84   
    76. A(H  27,C   8,H  28)          107.37 -0.002454    0.51    107.88   
    77. A(C   7,C   8,H  28)          110.55  0.001176   -0.16    110.39   
    78. A(C   7,C   8,H  27)          111.81  0.001162   -0.24    111.57   
    79. A(C   7,C   8,H  26)          111.52  0.003053   -0.57    110.95   
    80. A(H  26,C   8,H  27)          107.66 -0.001829    0.22    107.87   
    81. A(H  26,C   8,H  28)          107.73 -0.001467    0.32    108.05   
    82. A(H  30,C   9,H  31)          107.40 -0.003211    0.62    108.02   
    83. A(C   7,C   9,H  31)          111.32  0.002112   -0.35    110.97   
    84. A(C   7,C   9,H  30)          110.65  0.000082   -0.04    110.61   
    85. A(C   7,C   9,H  29)          111.57  0.002884   -0.52    111.05   
    86. A(H  29,C   9,H  31)          107.82 -0.000877    0.18    107.99   
    87. A(H  29,C   9,H  30)          107.91 -0.001334    0.18    108.09   
    88. A(Si  6,C  10,C  12)          112.84  0.002047   -0.44    112.40   
    89. A(Si  6,C  10,H  32)          104.76 -0.002786    1.06    105.82   
    90. A(Si  6,C  10,C  11)          113.65 -0.000901    0.14    113.79   
    91. A(C  11,C  10,C  12)          110.20 -0.000242   -0.30    109.90   
    92. A(C  12,C  10,H  32)          107.38  0.000831   -0.23    107.15   
    93. A(C  11,C  10,H  32)          107.53  0.001002   -0.17    107.36   
    94. A(C  10,C  11,H  35)          110.40  0.000057    0.05    110.45   
    95. A(H  34,C  11,H  35)          107.55 -0.001716    0.39    107.94   
    96. A(H  33,C  11,H  35)          107.43 -0.001012    0.26    107.68   
    97. A(H  33,C  11,H  34)          108.08 -0.001546    0.13    108.21   
    98. A(C  10,C  11,H  34)          111.58  0.000788   -0.19    111.40   
    99. A(C  10,C  11,H  33)          111.62  0.003163   -0.59    111.03   
   100. A(H  36,C  12,H  38)          107.83 -0.000418    0.08    107.92   
   101. A(C  10,C  12,H  38)          111.37  0.001491   -0.25    111.11   
   102. A(H  36,C  12,H  37)          107.71 -0.001437    0.22    107.93   
   103. A(C  10,C  12,H  37)          110.54 -0.000188    0.01    110.55   
   104. A(C  10,C  12,H  36)          111.69  0.003220   -0.57    111.12   
   105. A(H  37,C  12,H  38)          107.52 -0.002990    0.57    108.09   
   106. A(Si  6,O  13,C  14)          118.15 -0.000282    0.20    118.35   
   107. A(O  13,C  14,C  15)          112.11  0.003908   -0.93    111.18   
   108. A(H  39,C  14,H  40)          105.51 -0.003800    1.59    107.10   
   109. A(O  13,C  14,H  40)          109.71 -0.001560   -0.02    109.69   
   110. A(C  15,C  14,H  39)          109.09 -0.001188    0.26    109.35   
   111. A(O  13,C  14,H  39)          107.69  0.000354   -0.26    107.43   
   112. A(C  15,C  14,H  40)          112.40  0.001757   -0.48    111.92   
   113. A(H  16,C  15,O  17)          106.40  0.002618   -0.90    105.51   
   114. A(C  14,C  15,O  17)          112.66 -0.001825    0.00    112.66   
   115. A(C   3,C  15,O  17)          111.90  0.002936   -0.88    111.02   
   116. A(C  14,C  15,H  16)          106.54  0.000090    0.45    106.99   
   117. A(C   3,C  15,H  16)          106.99 -0.001245    0.69    107.68   
   118. A(C   3,C  15,C  14)          111.88 -0.002420    0.66    112.54   
   119. A(C  15,O  17,C  18)          115.76 -0.001951    0.27    116.03   
   120. A(O  20,C  18,C  22)          107.93  0.000508   -0.20    107.73   
   121. A(H  19,C  18,C  22)          109.80  0.000652    0.09    109.89   
   122. A(O  17,C  18,C  22)          111.53 -0.002380    0.27    111.80   
   123. A(H  19,C  18,O  20)          108.29 -0.002736    0.75    109.04   
   124. A(O  17,C  18,O  20)          108.74  0.003749   -1.08    107.66   
   125. A(O  17,C  18,H  19)          110.45  0.000219    0.17    110.62   
   126. A(C  18,O  20,C  21)          112.29 -0.004372    0.62    112.90   
   127. A(H  42,C  21,H  43)          110.15  0.000446   -0.10    110.05   
   128. A(H  41,C  21,H  43)          108.42 -0.003101    0.55    108.97   
   129. A(O  20,C  21,H  43)          110.62 -0.000795    0.11    110.73   
   130. A(H  41,C  21,H  42)          108.36 -0.003536    0.64    109.00   
   131. A(O  20,C  21,H  42)          110.95 -0.000227    0.02    110.97   
   132. A(O  20,C  21,H  41)          108.25  0.007192   -1.21    107.05   
   133. A(O  23,C  22,H  44)          106.62 -0.009693    1.75    108.37   
   134. A(C  18,C  22,H  44)          110.07  0.004452   -0.82    109.25   
   135. A(C  18,C  22,O  23)          111.33  0.005299   -1.59    109.75   
   136. A(C   1,C  22,H  44)          110.38  0.003044   -0.14    110.24   
   137. A(C   1,C  22,O  23)          107.70 -0.006255    1.22    108.92   
   138. A(C   1,C  22,C  18)          110.63  0.002578   -0.32    110.31   
   139. A(C  22,O  23,H  45)          104.96 -0.000946    0.32    105.28   
   140. D(C   3,C   1,O   0,H  24)     40.49 -0.001560    0.11     40.59   
   141. D(C  22,C   1,O   0,H  24)    163.20  0.002047   -1.14    162.05   
   142. D(H   2,C   1,O   0,H  24)    -79.35  0.000578   -0.67    -80.02   
   143. D(H   4,C   3,C   1,H   2)    170.49 -0.003507    1.96    172.45   
   144. D(H   4,C   3,C   1,C  22)    -66.74 -0.001715    1.11    -65.63   
   145. D(O   5,C   3,C   1,O   0)    -59.02  0.004255   -1.08    -60.10   
   146. D(O   5,C   3,C   1,C  22)    179.84  0.000083    0.32    180.16   
   147. D(O   5,C   3,C   1,H   2)     57.08 -0.001709    1.17     58.24   
   148. D(H   4,C   3,C   1,O   0)     54.39  0.002457   -0.29     54.10   
   149. D(Si  6,O   5,C   3,C  15)     34.25  0.001340   -0.59     33.66   
   150. D(Si  6,O   5,C   3,C   1)    -92.71 -0.002539    1.08    -91.64   
   151. D(Si  6,O   5,C   3,H   4)    152.82 -0.000282    0.06    152.88   
   152. D(O  13,Si  6,O   5,C   3)    -24.39 -0.000187    1.18    -23.21   
   153. D(C  10,Si  6,O   5,C   3)     94.37  0.001302    1.04     95.41   
   154. D(C   7,Si  6,O   5,C   3)   -143.88 -0.004509    2.41   -141.48   
   155. D(C   9,C   7,Si  6,O  13)    -32.41 -0.000871    0.75    -31.66   
   156. D(C   8,C   7,Si  6,O   5)    -39.30  0.000943    0.06    -39.24   
   157. D(C   8,C   7,Si  6,O  13)   -156.52 -0.000389    0.77   -155.75   
   158. D(C   8,C   7,Si  6,C  10)     82.87 -0.000398    0.66     83.53   
   159. D(C   9,C   7,Si  6,O   5)     84.81  0.000462    0.05     84.85   
   160. D(C   9,C   7,Si  6,C  10)   -153.02 -0.000880    0.64   -152.38   
   161. D(H  26,C   8,C   7,C   9)    -62.24  0.000251   -0.20    -62.44   
   162. D(H  27,C   8,C   7,C   9)    177.16 -0.000343    0.09    177.25   
   163. D(H  27,C   8,C   7,Si  6)    -57.29 -0.000402    0.01    -57.28   
   164. D(H  26,C   8,C   7,H  25)   -179.51  0.000608   -0.35   -179.86   
   165. D(H  27,C   8,C   7,H  25)     59.90  0.000014   -0.06     59.84   
   166. D(H  26,C   8,C   7,Si  6)     63.31  0.000192   -0.28     63.03   
   167. D(H  30,C   9,C   7,Si  6)    177.72 -0.001073   -0.03    177.69   
   168. D(H  29,C   9,C   7,H  25)   -178.38  0.000764   -0.59   -178.97   
   169. D(H  29,C   9,C   7,C   8)     63.95  0.000914   -0.61     63.34   
   170. D(H  29,C   9,C   7,Si  6)    -62.13 -0.000784   -0.18    -62.30   
   171. D(H  30,C   9,C   7,H  25)     61.47  0.000475   -0.44     61.03   
   172. D(H  30,C   9,C   7,C   8)    -56.20  0.000626   -0.46    -56.67   
   173. D(C  12,C  10,Si  6,C   7)     60.84  0.000611   -0.29     60.55   
   174. D(C  12,C  10,Si  6,O   5)   -177.40  0.000442   -0.06   -177.46   
   175. D(C  11,C  10,Si  6,O  13)    173.26 -0.000969    0.65    173.91   
   176. D(C  11,C  10,Si  6,C   7)    -65.57 -0.000043    0.38    -65.19   
   177. D(C  12,C  10,Si  6,O  13)    -60.32 -0.000316   -0.02    -60.35   
   178. D(C  11,C  10,Si  6,O   5)     56.18 -0.000212    0.61     56.79   
   179. D(H  34,C  11,C  10,C  12)   -179.98 -0.000599    0.42   -179.55   
   180. D(H  34,C  11,C  10,Si  6)    -52.19  0.001250   -0.31    -52.50   
   181. D(H  33,C  11,C  10,H  32)   -175.68 -0.001250    0.58   -175.10   
   182. D(H  33,C  11,C  10,C  12)    -58.94  0.000185    0.05    -58.89   
   183. D(H  33,C  11,C  10,Si  6)     68.85  0.002033   -0.69     68.17   
   184. D(H  34,C  11,C  10,H  32)     63.28 -0.002033    0.96     64.24   
   185. D(H  37,C  12,C  10,H  32)     59.51  0.001141   -0.75     58.76   
   186. D(H  37,C  12,C  10,C  11)    -57.32 -0.000399   -0.26    -57.58   
   187. D(H  37,C  12,C  10,Si  6)    174.44 -0.000623    0.15    174.59   
   188. D(H  36,C  12,C  10,H  32)    179.42  0.001327   -0.84    178.58   
   189. D(H  36,C  12,C  10,C  11)     62.59 -0.000213   -0.35     62.24   
   190. D(H  36,C  12,C  10,Si  6)    -65.65 -0.000436    0.06    -65.59   
   191. D(C  14,O  13,Si  6,C  10)    -84.86 -0.001379   -1.02    -85.88   
   192. D(C  14,O  13,Si  6,C   7)    154.14  0.003684   -2.07    152.07   
   193. D(C  14,O  13,Si  6,O   5)     34.81 -0.000466   -0.99     33.81   
   194. D(H  40,C  14,O  13,Si  6)     71.14  0.003125   -0.95     70.19   
   195. D(H  39,C  14,O  13,Si  6)   -174.50 -0.001966    0.78   -173.73   
   196. D(C  15,C  14,O  13,Si  6)    -54.49 -0.000847    0.37    -54.12   
   197. D(H  16,C  15,C   3,H   4)    -50.57 -0.001704   -0.05    -50.62   
   198. D(H  16,C  15,C   3,C   1)   -167.13  0.000972   -1.13   -168.26   
   199. D(C  14,C  15,C   3,O   5)    -49.70  0.000394   -0.97    -50.68   
   200. D(C  14,C  15,C   3,H   4)   -166.89  0.000238   -1.37   -168.26   
   201. D(H  16,C  15,C   3,O   5)     66.62 -0.001549    0.34     66.96   
   202. D(C  14,C  15,C   3,C   1)     76.54  0.002915   -2.44     74.10   
   203. D(H  16,C  15,C  14,H  40)    179.30 -0.001023    0.92    180.22   
   204. D(H  16,C  15,C  14,H  39)     62.64  0.003377   -0.93     61.71   
   205. D(H  16,C  15,C  14,O  13)    -56.55  0.001282   -0.20    -56.75   
   206. D(C   3,C  15,C  14,H  40)    -64.10 -0.003756    2.37    -61.73   
   207. D(C   3,C  15,C  14,H  39)    179.24  0.000644    0.52    179.76   
   208. D(C   3,C  15,C  14,O  13)     60.04 -0.001451    1.25     61.30   
   209. D(C  18,O  17,C  15,H  16)    171.91 -0.000008    0.85    172.76   
   210. D(C  18,O  17,C  15,C  14)    -71.70  0.000725    0.85    -70.85   
   211. D(C  18,O  17,C  15,C   3)     55.38 -0.001630    1.02     56.41   
   212. D(C  22,C  18,O  17,C  15)    -56.45  0.001182    0.01    -56.44   
   213. D(O  20,C  18,O  17,C  15)   -175.35 -0.000395    0.79   -174.56   
   214. D(H  19,C  18,O  17,C  15)     65.95  0.000524    0.43     66.38   
   215. D(C  21,O  20,C  18,C  22)    169.27 -0.000084    0.39    169.67   
   216. D(C  21,O  20,C  18,H  19)     50.46  0.000367   -0.01     50.45   
   217. D(C  21,O  20,C  18,O  17)    -69.59 -0.000469   -0.03    -69.62   
   218. D(H  43,C  21,O  20,C  18)    -60.22  0.000151   -0.09    -60.30   
   219. D(H  42,C  21,O  20,C  18)     62.34  0.000011   -0.13     62.21   
   220. D(H  41,C  21,O  20,C  18)   -178.87  0.000006   -0.08   -178.95   
   221. D(O  23,C  22,C  18,O  20)    -67.87  0.001643   -1.48    -69.35   
   222. D(O  23,C  22,C  18,H  19)     49.98 -0.000983   -0.65     49.33   
   223. D(C   1,C  22,C  18,O  20)    172.40  0.004322   -1.76    170.64   
   224. D(C   1,C  22,C  18,H  19)    -69.75  0.001695   -0.93    -70.68   
   225. D(C   1,C  22,C  18,O  17)     53.02  0.000808   -0.47     52.55   
   226. D(O  23,C  22,C   1,C   3)   -173.12 -0.002196    0.59   -172.53   
   227. D(O  23,C  22,C   1,H   2)    -49.52  0.000621   -0.41    -49.93   
   228. D(O  23,C  22,C   1,O   0)     64.98 -0.003198    1.31     66.29   
   229. D(O  23,C  22,C  18,O  17)    172.75 -0.001870   -0.19    172.56   
   230. D(C  18,C  22,C   1,C   3)    -51.23  0.001883   -0.78    -52.01   
   231. D(C  18,C  22,C   1,H   2)     72.37  0.004700   -1.78     70.59   
   232. D(C  18,C  22,C   1,O   0)   -173.13  0.000881   -0.05   -173.19   
   233. D(H  45,O  23,C  22,H  44)     62.69 -0.002882    1.37     64.06   
   234. D(H  45,O  23,C  22,C  18)   -177.24 -0.000492    0.56   -176.68   
   235. D(H  45,O  23,C  22,C   1)    -55.79  0.001859   -0.01    -55.81   
    ----------------------------------------------------------------------------

Geometry step timings:
Preparation and reading OPT file:      0.001 s ( 3.708 %)
Internal coordinates            :      0.000 s ( 0.167 %)
B/P matrices and projection     :      0.004 s (22.730 %)
Hessian update/contruction      :      0.006 s (30.986 %)
Making the step                 :      0.006 s (28.020 %)
Converting the step to Cartesian:      0.000 s ( 2.107 %)
Storing new data                :      0.001 s ( 4.108 %)
Checking convergence            :      0.000 s ( 0.136 %)
Final printing                  :      0.002 s ( 8.023 %)
Total time                      :      0.020 s

Time for energy+gradient        :      0.287 s
Time for complete geometry iter :      0.319 s

         *************************************************************
         *                GEOMETRY OPTIMIZATION CYCLE   2            *
         *************************************************************
---------------------------------
CARTESIAN COORDINATES (ANGSTROEM)
---------------------------------
  O    -3.799032    0.070956   -0.306315
  C    -2.493181   -0.407567   -0.003784
  H    -1.901235   -0.331292   -0.927559
  C    -1.865443    0.423476    1.110961
  H    -2.565109    0.420368    1.959092
  O    -1.771724    1.773851    0.704067
  Si   -0.412121    2.376637   -0.051061
  C    -0.064582    4.159871    0.584917
  C    -1.341823    4.968434    0.775971
  C     0.742880    4.161394    1.881647
  C    -0.624178    2.343785   -1.975758
  C    -1.848496    3.107139   -2.473363
  C     0.624162    2.830425   -2.706930
  O     0.851185    1.380723    0.375355
  C     0.588637    0.012764    0.563048
  C    -0.544031   -0.199927    1.571843
  H    -0.245176    0.301735    2.499074
  O    -0.718013   -1.558445    1.916490
  C    -1.263293   -2.391424    0.907176
  H    -0.562375   -2.486693    0.061776
  O    -1.476044   -3.657391    1.469661
  C    -0.270865   -4.342270    1.756888
  C    -2.610681   -1.871317    0.409215
  O    -3.034837   -2.633502   -0.711786
  H    -3.747859    1.037462   -0.282005
  H     0.537386    4.647133   -0.184356
  H    -1.975076    4.520677    1.538135
  H    -1.918099    5.028194   -0.143557
  H    -1.104288    5.985491    1.088769
  H     0.195931    3.669252    2.683033
  H     0.960152    5.182389    2.197280
  H     1.689260    3.640692    1.751532
  H    -0.765285    1.287497   -2.243524
  H    -1.732278    4.176545   -2.315269
  H    -2.752256    2.784332   -1.961765
  H    -1.990966    2.943837   -3.542155
  H     0.810891    3.882720   -2.505702
  H     0.507864    2.710161   -3.784221
  H     1.503511    2.269245   -2.397261
  H     1.506449   -0.448168    0.945026
  H     0.369943   -0.456863   -0.402215
  H    -0.545279   -5.312219    2.168512
  H     0.322317   -3.797209    2.495425
  H     0.314799   -4.495726    0.844047
  H    -3.357852   -1.981952    1.205139
  H    -3.859940   -2.218971   -1.005232

----------------------------
CARTESIAN COORDINATES (A.U.)
----------------------------
  NO LB    ZA    FRAG    MASS        X           Y           Z
   0 O   8.0000    1    15.999   -7.179131    0.134088   -0.578852
   1 C   6.0000    1    12.011   -4.711429   -0.770189   -0.007150
   2 H   1.0000    1     1.008   -3.592813   -0.626052   -1.752833
   3 C   6.0000    1    12.011   -3.525177    0.800254    2.099412
   4 H   1.0000    1     1.008   -4.847353    0.794380    3.702148
   5 O   8.0000    1    15.999   -3.348073    3.352093    1.330494
   6 Si 14.0000    1    28.086   -0.778795    4.491193   -0.096490
   7 C   6.0000    1    12.011   -0.122043    7.861016    1.105332
   8 C   6.0000    1    12.011   -2.535678    9.388980    1.466372
   9 C   6.0000    1    12.011    1.403840    7.863896    3.555797
  10 C   6.0000    1    12.011   -1.179526    4.429111   -3.733642
  11 C   6.0000    1    12.011   -3.493151    5.871642   -4.673979
  12 C   6.0000    1    12.011    1.179496    5.348728   -5.115356
  13 O   8.0000    1    15.999    1.608506    2.609188    0.709317
  14 C   6.0000    1    12.011    1.112363    0.024120    1.064006
  15 C   6.0000    1    12.011   -1.028070   -0.377807    2.970354
  16 H   1.0000    1     1.008   -0.463315    0.570197    4.722565
  17 O   8.0000    1    15.999   -1.356848   -2.945034    3.621641
  18 C   6.0000    1    12.011   -2.387277   -4.519137    1.714315
  19 H   1.0000    1     1.008   -1.062734   -4.699169    0.116739
  20 O   8.0000    1    15.999   -2.789318   -6.911467    2.777257
  21 C   6.0000    1    12.011   -0.511860   -8.205702    3.320038
  22 C   6.0000    1    12.011   -4.933471   -3.536277    0.773305
  23 O   8.0000    1    15.999   -5.735010   -4.976598   -1.345081
  24 H   1.0000    1     1.008   -7.082427    1.960519   -0.532912
  25 H   1.0000    1     1.008    1.015512    8.781808   -0.348382
  26 H   1.0000    1     1.008   -3.732353    8.542842    2.906653
  27 H   1.0000    1     1.008   -3.624681    9.501909   -0.271283
  28 H   1.0000    1     1.008   -2.086802   11.310939    2.057476
  29 H   1.0000    1     1.008    0.370255    6.933882    5.070197
  30 H   1.0000    1     1.008    1.814424    9.793297    4.152257
  31 H   1.0000    1     1.008    3.192239    6.879912    3.309916
  32 H   1.0000    1     1.008   -1.446180    2.433017   -4.239647
  33 H   1.0000    1     1.008   -3.273531    7.892526   -4.375225
  34 H   1.0000    1     1.008   -5.201010    5.261625   -3.707199
  35 H   1.0000    1     1.008   -3.762381    5.563046   -6.693702
  36 H   1.0000    1     1.008    1.532362    7.337277   -4.735090
  37 H   1.0000    1     1.008    0.959724    5.121463   -7.151141
  38 H   1.0000    1     1.008    2.841223    4.288252   -4.530166
  39 H   1.0000    1     1.008    2.846777   -0.846916    1.785840
  40 H   1.0000    1     1.008    0.699091   -0.863346   -0.760077
  41 H   1.0000    1     1.008   -1.030429  -10.038638    4.097893
  42 H   1.0000    1     1.008    0.609091   -7.175686    4.715670
  43 H   1.0000    1     1.008    0.594884   -8.495690    1.595018
  44 H   1.0000    1     1.008   -6.345420   -3.745346    2.277383
  45 H   1.0000    1     1.008   -7.294230   -4.193248   -1.899613

      -----------------------------------------------------------      
     |                   =====================                   |     
     |                           x T B                           |     
     |                   =====================                   |     
     |                         S. Grimme                         |     
     |          Mulliken Center for Theoretical Chemistry        |     
     |                    University of Bonn                     |     
      -----------------------------------------------------------      

   * xtb version 6.7.1 (edcfbbe) compiled by 'albert@albert-system' on 2024-07-22

   xtb is free software: you can redistribute it and/or modify it under
   the terms of the GNU Lesser General Public License as published by
   the Free Software Foundation, either version 3 of the License, or
   (at your option) any later version.
   
   xtb is distributed in the hope that it will be useful,
   but WITHOUT ANY WARRANTY; without even the implied warranty of
   MERCHANTABILITY or FITNESS FOR A PARTICULAR PURPOSE.  See the
   GNU Lesser General Public License for more details.
   
   Cite this work as:
   * C. Bannwarth, E. Caldeweyher, S. Ehlert, A. Hansen, P. Pracht,
     J. Seibert, S. Spicher, S. Grimme, WIREs Comput. Mol. Sci., 2020, 11,
     e01493. DOI: 10.1002/wcms.1493
   
   for GFN2-xTB:
   * C. Bannwarth, S. Ehlert and S. Grimme., J. Chem. Theory Comput., 2019,
     15, 1652-1671. DOI: 10.1021/acs.jctc.8b01176
   for GFN1-xTB:
   * S. Grimme, C. Bannwarth, P. Shushkov, J. Chem. Theory Comput., 2017,
     13, 1989-2009. DOI: 10.1021/acs.jctc.7b00118
   for GFN0-xTB:
   * P. Pracht, E. Caldeweyher, S. Ehlert, S. Grimme, ChemRxiv, 2019, preprint.
     DOI: 10.26434/chemrxiv.8326202.v1
   for GFN-FF:
   * S. Spicher and S. Grimme, Angew. Chem. Int. Ed., 2020, 59, 15665-15673.
     DOI: 10.1002/anie.202004239
   
   for ALPB and GBSA implicit solvation:
   * S. Ehlert, M. Stahn, S. Spicher, S. Grimme, J. Chem. Theory Comput.,
     2021, 17, 4250-4261. DOI: 10.1021/acs.jctc.1c00471
   
   for ddCOSMO and CPCM-X implicit solvation:
   * M. Stahn, S. Ehlert, S. Grimme, J. Phys. Chem. A,
     2023, XX, XXXX-XXXX. DOI: 10.1021/acs.jpca.3c04382
   
   for DFT-D4:
   * E. Caldeweyher, C. Bannwarth and S. Grimme, J. Chem. Phys., 2017,
     147, 034112. DOI: 10.1063/1.4993215
   * E. Caldeweyher, S. Ehlert, A. Hansen, H. Neugebauer, S. Spicher,
     C. Bannwarth and S. Grimme, J. Chem. Phys., 2019, 150, 154122.
     DOI: 10.1063/1.5090222
   * E. Caldeweyher, J.-M. Mewes, S. Ehlert and S. Grimme, Phys. Chem. Chem. Phys.
     2020, 22, 8499-8512. DOI: 10.1039/D0CP00502A
   
   for sTDA-xTB:
   * S. Grimme and C. Bannwarth, J. Chem. Phys., 2016, 145, 054103.
     DOI: 10.1063/1.4959605
   
   in the mass-spec context:
   * V. Asgeirsson, C. Bauer and S. Grimme, Chem. Sci., 2017, 8, 4879.
     DOI: 10.1039/c7sc00601b
   * J. Koopman and S. Grimme, ACS Omega 2019, 4, 12, 15120-15133.
     DOI: 10.1021/acsomega.9b02011
   
   for metadynamics refer to:
   * S. Grimme, J. Chem. Theory Comput., 2019, 155, 2847-2862
     DOI: 10.1021/acs.jctc.9b00143
   
   for SPH calculations refer to:
   * S. Spicher and S. Grimme, J. Chem. Theory Comput., 2021, 17, 1701-1714
     DOI: 10.1021/acs.jctc.0c01306
   
   for ONIOM refer to:
   * C. Plett, A. Katbashev, S. Ehlert, S. Grimme, M. Bursch,
     Phys. Chem. Chem. Phys., 2023, 25, 17860-17868. DOI: 10.1039/D3CP02178E
   
   for DIPRO refer to:
   * J. Kohn, N. Gildemeister, S. Grimme, D. Fazzi, A. Hansen,
     J. Chem. Phys., 2023, just accepted.
   
   for PTB refer to:
   * S. Grimme, M. Mueller, A. Hansen, J. Chem. Phys., 2023, 158, 124111.
     DOI: 10.1063/5.0137838
   
   with help from (in alphabetical order)
   P. Atkinson, C. Bannwarth, F. Bohle, G. Brandenburg, E. Caldeweyher
   M. Checinski, S. Dohm, S. Ehlert, S. Ehrlich, I. Gerasimov, C. Hölzer
   A. Katbashev, J. Kohn, J. Koopman, C. Lavigne, S. Lehtola, F. März, M. Müller,
   F. Musil, H. Neugebauer, J. Pisarek, C. Plett, P. Pracht, F. Pultar,
   J. Seibert, P. Shushkov, S. Spicher, M. Stahn, M. Steiner, T. Strunk,
   J. Stückrath, T. Rose, and J. Unsleber
   
 * started run on 2025/09/10 at 11:29:46.160     
   ID    Z sym.   atoms
    1    8 O      1, 6, 14, 18, 21, 24
    2    6 C      2, 4, 8-13, 15, 16, 19, 22, 23
    3    1 H      3, 5, 17, 20, 25-46
    4   14 Si     7

           -------------------------------------------------
          |                Calculation Setup                |
           -------------------------------------------------

          program call               : /home/kmoult/orca_6_1/otool_xtb goat_0_XTB.xyz --grad -c 0 -u 0 -P 4 --namespace goat_0 --input goat_0_XTB.input.tmp --alpb ACETONE --acc 0.200000
          hostname                   : node2704
          calculation namespace      : goat_0
          coordinate file            : goat_0_XTB.xyz
          omp threads                :                     4


           -------------------------------------------------
          |                 G F N 2 - x T B                 |
           -------------------------------------------------

        Reference                      10.1021/acs.jctc.8b01176
      * Hamiltonian:
        H0-scaling (s, p, d)           1.850000    2.230000    2.230000
        zeta-weighting                 0.500000
      * Dispersion:
        s8                             2.700000
        a1                             0.520000
        a2                             5.000000
        s9                             5.000000
      * Repulsion:
        kExp                           1.500000    1.000000
        rExp                           1.000000
      * Coulomb:
        alpha                          2.000000
        third order                    shell-resolved
        anisotropic                    true
        a3                             3.000000
        a5                             4.000000
        cn-shift                       1.200000
        cn-exp                         4.000000
        max-rad                        5.000000

      * Solvation model:               ALPB
        Solvent                        ACETONE
        Parameter file                 internal GFN2-xTB/ALPB
        Dielectric constant                2.0700E+01
        Reference state                gsolv [1 M gas/solution]
        Free energy shift                  5.9241E-03 Eh       3.7175E+00 kcal/mol
        Temperature                        2.9815E+02 K
        Density                            7.9000E-01 kg/L
        Solvent mass                       5.8080E+01 g/mol
        Interaction kernel             P16
        Born radius scaling (c1)           1.8274E+00
        Born radii integrator          GBOBC
        Born offset                        0.0000E+00 a0       0.0000E+00 AA
        H-bond correction              true
        Ion screening                  false
        Surface tension                    1.0000E-05 Eh       1.5569E+01 dyn/cm
        Grid points                               230 per atom
q/qsh data taken from xtbrestart
CAMM data taken from xtbrestart

          ...................................................
          :                      SETUP                      :
          :.................................................:
          :  # basis functions                 112          :
          :  # atomic orbitals                 111          :
          :  # shells                           67          :
          :  # electrons                       118          :
          :  max. iterations                   250          :
          :  Hamiltonian                  GFN2-xTB          :
          :  restarted?                       true          :
          :  GBSA solvation                   true          :
          :  PC potential                    false          :
          :  electronic temp.          300.0000000     K    :
          :  accuracy                    0.2000000          :
          :  -> integral cutoff          0.3198970E+02      :
          :  -> integral neglect         0.2000000E-08      :
          :  -> SCF convergence          0.2000000E-06 Eh   :
          :  -> wf. convergence          0.2000000E-04 e    :
          :  Broyden damping             0.4000000          :
          :  net charge                          0          :
          :  unpaired electrons                  0          :
          ...................................................

 iter      E             dE          RMSdq      gap      omega  full diag
   1    -67.9977199 -0.679977E+02  0.266E-01    5.65       0.0  T
   2    -67.9978230 -0.103122E-03  0.176E-01    5.59       1.0  T
   3    -67.9977362  0.868543E-04  0.872E-02    5.64       1.0  T
   4    -67.9978471 -0.110982E-03  0.447E-02    5.59       1.0  T
   5    -67.9978619 -0.147480E-04  0.222E-02    5.60       1.0  T
   6    -67.9978625 -0.601183E-06  0.828E-03    5.60       1.8  T
   7    -67.9978628 -0.272707E-06  0.410E-03    5.60       3.6  T
   8    -67.9978629 -0.950659E-07  0.230E-03    5.60       6.4  T
   9    -67.9978629 -0.234661E-07  0.574E-04    5.61      25.7  T
  10    -67.9978629 -0.723261E-09  0.188E-04    5.61      78.4  T
  11    -67.9978629 -0.129873E-09  0.877E-05    5.61     168.1  T

   *** convergence criteria satisfied after 11 iterations ***

         #    Occupation            Energy/Eh            Energy/eV
      -------------------------------------------------------------
         1        2.0000           -0.8136501             -22.1405
       ...           ...                  ...                  ...
        53        2.0000           -0.4312110             -11.7338
        54        2.0000           -0.4263096             -11.6005
        55        2.0000           -0.4222944             -11.4912
        56        2.0000           -0.4187386             -11.3945
        57        2.0000           -0.4170407             -11.3483
        58        2.0000           -0.4122794             -11.2187
        59        2.0000           -0.3775367             -10.2733 (HOMO)
        60                         -0.1715502              -4.6681 (LUMO)
        61                         -0.1271721              -3.4605
        62                         -0.1130356              -3.0759
        63                         -0.0577529              -1.5715
        64                         -0.0191716              -0.5217
       ...                                ...                  ...
       111                          0.7471766              20.3317
      -------------------------------------------------------------
                  HL-Gap            0.2059865 Eh            5.6052 eV
             Fermi-level           -0.2745434 Eh           -7.4707 eV

 SCC (total)                   0 d,  0 h,  0 min,  0.032 sec
 SCC setup                      ...        0 min,  0.001 sec (  1.782%)
 Dispersion                     ...        0 min,  0.000 sec (  0.804%)
 classical contributions        ...        0 min,  0.000 sec (  0.124%)
 integral evaluation            ...        0 min,  0.004 sec ( 14.070%)
 iterations                     ...        0 min,  0.017 sec ( 55.007%)
 molecular gradient             ...        0 min,  0.009 sec ( 27.714%)
 printout                       ...        0 min,  0.000 sec (  0.446%)

         :::::::::::::::::::::::::::::::::::::::::::::::::::::
         ::                     SUMMARY                     ::
         :::::::::::::::::::::::::::::::::::::::::::::::::::::
         :: total energy             -67.350937844644 Eh    ::
         :: total w/o Gsasa/hb       -67.323705445103 Eh    ::
         :: gradient norm              0.038730160639 Eh/a0 ::
         :: HOMO-LUMO gap              5.605179165721 eV    ::
         ::.................................................::
         :: SCC energy               -67.996934306654 Eh    ::
         :: -> isotropic ES            0.155197404855 Eh    ::
         :: -> anisotropic ES          0.002272841056 Eh    ::
         :: -> anisotropic XC          0.002824001304 Eh    ::
         :: -> dispersion             -0.044828277247 Eh    ::
         :: -> Gsolv                  -0.030328705616 Eh    ::
         ::    -> Gelec               -0.003096306075 Eh    ::
         ::    -> Gsasa               -0.027937927695 Eh    ::
         ::    -> Ghb                 -0.005218613109 Eh    ::
         ::    -> Gshift               0.005924141264 Eh    ::
         :: repulsion energy           0.645996462010 Eh    ::
         :: add. restraining           0.000000000000 Eh    ::
         :: total charge              -0.000000000000 e     ::
         :::::::::::::::::::::::::::::::::::::::::::::::::::::


Property printout bound to 'properties.out'

           -------------------------------------------------
          | TOTAL ENERGY              -67.350937844644 Eh   |
          | GRADIENT NORM               0.038730160639 Eh/α |
          | HOMO-LUMO GAP               5.605179165721 eV   |
           -------------------------------------------------

------------------------------------------------------------------------
 * finished run on 2025/09/10 at 11:29:46.212     
------------------------------------------------------------------------
 total:
 * wall-time:     0 d,  0 h,  0 min,  0.052 sec
 *  cpu-time:     0 d,  0 h,  0 min,  0.189 sec
 * ratio c/w:     3.632 speedup
 SCF:
 * wall-time:     0 d,  0 h,  0 min,  0.032 sec
 *  cpu-time:     0 d,  0 h,  0 min,  0.126 sec
 * ratio c/w:     3.980 speedup


-------------------------   --------------------
FINAL SINGLE POINT ENERGY       -67.350937844640
-------------------------   --------------------


-------------
DIPOLE MOMENT
-------------
                                X             Y             Z
Total Dipole Moment    :      0.47800       0.92400      -0.30200
                        -----------------------------------------
Magnitude (a.u.)       :      1.08327
Magnitude (Debye)      :      2.75344


------------------
CARTESIAN GRADIENT
------------------

   1   O   :   -0.006633017    0.001035844   -0.003321447
   2   C   :    0.010011718   -0.006516677    0.003338013
   3   H   :   -0.004034897    0.001300001   -0.001620541
   4   C   :    0.003125257   -0.006039845    0.000958457
   5   H   :   -0.000179850    0.000955447   -0.000414821
   6   O   :   -0.010175285    0.003774524    0.002489176
   7   Si  :    0.000170477   -0.001834061   -0.002899073
   8   C   :   -0.000208271    0.009478899   -0.001345214
   9   C   :    0.002963596   -0.002042210    0.000492221
  10   C   :   -0.003227329   -0.000528222   -0.002101673
  11   C   :    0.000408155    0.003598234   -0.006371882
  12   C   :    0.003153933   -0.000572208    0.002405970
  13   C   :   -0.003249999    0.000036755    0.001910401
  14   O   :    0.008819362   -0.002276273    0.001976870
  15   C   :   -0.005610374   -0.002090284    0.002734867
  16   C   :   -0.000827963   -0.002068944    0.001130399
  17   H   :   -0.000858253    0.001408492   -0.000893248
  18   O   :    0.000737722   -0.001878016    0.001318460
  19   C   :    0.004310864    0.012796510   -0.006891943
  20   H   :   -0.001051635   -0.001517714    0.002281560
  21   O   :   -0.002540251   -0.009948624    0.002685281
  22   C   :   -0.002094763    0.003695901   -0.002194859
  23   C   :    0.006954695    0.005473661    0.011385736
  24   O   :   -0.004134747   -0.004075016   -0.006793964
  25   H   :    0.001679163    0.000822044    0.000132503
  26   H   :    0.000144254   -0.001050130   -0.000220911
  27   H   :   -0.000959000    0.000856403    0.000334322
  28   H   :   -0.000695950    0.000732674   -0.000008687
  29   H   :   -0.000559972    0.000432455   -0.000067145
  30   H   :    0.000887596   -0.000214754    0.000800706
  31   H   :    0.000704302    0.000134167    0.000483430
  32   H   :    0.000925008    0.000218854    0.000885251
  33   H   :    0.000299366   -0.000216040    0.002713936
  34   H   :   -0.001103375    0.000451263   -0.000670660
  35   H   :   -0.000835872   -0.000042301   -0.000373677
  36   H   :   -0.000549171    0.000078346   -0.000461084
  37   H   :    0.001014836    0.000202397   -0.000579558
  38   H   :    0.000534367   -0.000055674   -0.000545611
  39   H   :    0.000730736   -0.000158515   -0.000680381
  40   H   :    0.000422709   -0.001181656   -0.001617591
  41   H   :    0.002749273   -0.000791900   -0.000451904
  42   H   :    0.002464639   -0.000887368    0.000551895
  43   H   :   -0.000322617   -0.000724808    0.001104615
  44   H   :   -0.000471686   -0.001048481    0.000133629
  45   H   :   -0.002273997   -0.001733662   -0.003230416
  46   H   :   -0.000613756    0.002010512    0.001508592

Difference to translation invariance:
           :    0.0000000000    0.0000000000   -0.0000000000

Difference to rotation invariance:
           :   -0.0002054197    0.0004014289    0.0004353061

Norm of the Cartesian gradient     ...    0.0387301606
RMS gradient                       ...    0.0032969302
MAX gradient                       ...    0.0127965100
------------------------------------------------------------------------------
                         ORCA GEOMETRY RELAXATION STEP
------------------------------------------------------------------------------

Reading the OPT-File                    .... done
Getting information on internals        .... done
Copying old internal coords+grads       .... done
Making the new internal coordinates     .... (2022 redundants) done
Validating the new internal coordinates .... (2022 redundants) done
Calculating the B-matrix                .... done
Calculating the G,G- and P matrices     .... done
Transforming gradient to internals      .... done
Projecting the internal gradient        .... done
Number of atoms                         ....  46
Number of internal coordinates          .... 235
Current Energy                          ....   -67.350937845 Eh
Current gradient norm                   ....     0.038730161 Eh/bohr
Maximum allowed component of the step   ....  0.300
Current trust radius                    ....  0.300
Updating the Hessian (BFGS)             .... done
Forming the augmented Hessian           .... done
Diagonalizing the augmented Hessian     .... done
Last element of RFO vector              ....  0.973750371
Lowest eigenvalues of augmented Hessian:
 -0.004524182  0.010004099  0.010008184  0.010719635  0.010860062
Length of the computed step             ....  0.233754542
The final length of the internal step   ....  0.233754542
Converting the step to Cartesian space:
 Initial RMS(Int)=    0.0152484650
Transforming coordinates:
 Iter   0:  RMS(Cart)=    0.1027942107 RMS(Int)=    0.5789695302
 Iter   5:  RMS(Cart)=    0.0000000369 RMS(Int)=    0.0000000225
done
Storing new coordinates                 .... done
The predicted energy change is          ....    -0.002385694
Previously predicted energy change      ....    -0.006398021
Actually observed energy change         ....    -0.008382190
Ratio of predicted to observed change   ....     1.310122265
New trust radius                        ....     0.300000000

                                .--------------------.
          ----------------------|Geometry convergence|-------------------------
          Item                value                   Tolerance       Converged
          ---------------------------------------------------------------------
          Energy change      -0.0083821898            0.0000050000      NO
          RMS gradient        0.0018879781            0.0001000000      NO
          MAX gradient        0.0096874203            0.0003000000      NO
          RMS step            0.0152484650            0.0020000000      NO
          MAX step            0.0679224321            0.0040000000      NO
          -------------------------------------------------------------------------
          ........................................................
          Max(Bonds)      0.0359      Max(Angles)    1.78
          Max(Dihed)        3.44      Max(Improp)    0.00
          ---------------------------------------------------------------------

    ---------------------------------------------------------------------------
                         Redundant Internal Coordinates
                            (Angstroem and degrees)

        Definition                    Value    dE/dq     Step     New-Value
    ----------------------------------------------------------------------------
     1. B(C   1,O   0)                1.4233  0.007176 -0.0132    1.4101   
     2. B(H   2,C   1)                1.0998 -0.000719  0.0023    1.1021   
     3. B(C   3,C   1)                1.5256  0.000316  0.0001    1.5256   
     4. B(H   4,C   3)                1.0995 -0.000208  0.0006    1.1001   
     5. B(O   5,C   3)                1.4135  0.006999 -0.0147    1.3987   
     6. B(Si  6,O   5)                1.6680  0.008868 -0.0095    1.6585   
     7. B(C   7,Si  6)                1.9249  0.007177 -0.0194    1.9055   
     8. B(C   8,C   7)                1.5237 -0.000547 -0.0002    1.5235   
     9. B(C   9,C   7)                1.5276 -0.000313 -0.0005    1.5271   
    10. B(C  10,Si  6)                1.9366  0.002528 -0.0066    1.9300   
    11. B(C  11,C  10)                1.5262 -0.000877  0.0012    1.5274   
    12. B(C  12,C  10)                1.5264 -0.000829  0.0008    1.5272   
    13. B(O  13,Si  6)                1.6642  0.009687 -0.0106    1.6536   
    14. B(C  14,O  13)                1.4055  0.004501 -0.0101    1.3955   
    15. B(C  15,C   3)                1.5320 -0.000249 -0.0012    1.5309   
    16. B(C  15,C  14)                1.5316 -0.000428 -0.0001    1.5315   
    17. B(H  16,C  15)                1.0958 -0.000346  0.0005    1.0962   
    18. B(O  17,C  15)                1.4123  0.000974 -0.0046    1.4077   
    19. B(C  18,O  17)                1.4177  0.000435 -0.0026    1.4151   
    20. B(H  19,C  18)                1.1023 -0.002288  0.0060    1.1083   
    21. B(O  20,C  18)                1.4015  0.009420 -0.0205    1.3811   
    22. B(C  21,O  20)                1.4156 -0.000954  0.0010    1.4166   
    23. B(C  22,C  18)                1.5277 -0.000805  0.0006    1.5283   
    24. B(C  22,C   1)                1.5254 -0.001164  0.0053    1.5307   
    25. B(O  23,C  22)                1.4204  0.008039 -0.0153    1.4051   
    26. B(H  24,O   0)                0.9682  0.000472 -0.0028    0.9654   
    27. B(H  24,O   5)                2.3280 -0.001188  0.0159    2.3439   
    28. B(H  25,C   7)                1.0916 -0.000234 -0.0001    1.0915   
    29. B(H  26,C   8)                1.0874  0.000440 -0.0022    1.0851   
    30. B(H  27,C   8)                1.0868  0.000416 -0.0019    1.0849   
    31. B(H  28,C   8)                1.0903  0.000262 -0.0014    1.0889   
    32. B(H  29,C   9)                1.0879  0.000242 -0.0017    1.0862   
    33. B(H  30,C   9)                1.0905  0.000406 -0.0016    1.0889   
    34. B(H  31,C   9)                1.0880  0.000594 -0.0025    1.0855   
    35. B(H  32,C  10)                1.0988 -0.000493  0.0014    1.1002   
    36. B(H  33,C  11)                1.0873  0.000229 -0.0016    1.0857   
    37. B(H  34,C  11)                1.0875  0.000529 -0.0023    1.0852   
    38. B(H  35,C  11)                1.0905  0.000512 -0.0019    1.0886   
    39. B(H  36,C  12)                1.0875  0.000263 -0.0017    1.0858   
    40. B(H  37,C  12)                1.0902  0.000487 -0.0019    1.0883   
    41. B(H  38,C  12)                1.0882  0.000481 -0.0022    1.0860   
    42. B(H  39,C  14)                1.0958  0.000287 -0.0008    1.0950   
    43. B(H  40,C  14)                1.0955  0.000188 -0.0007    1.0948   
    44. B(H  41,C  21)                1.0888  0.000379 -0.0015    1.0873   
    45. B(H  42,C  21)                1.0929  0.000208 -0.0006    1.0923   
    46. B(H  43,C  21)                1.0954 -0.000218  0.0006    1.0960   
    47. B(H  44,C  22)                1.0973 -0.000620  0.0015    1.0987   
    48. B(H  45,O   0)                2.3950 -0.001782  0.0359    2.4309   
    49. B(H  45,O  23)                0.9689  0.000394 -0.0025    0.9664   
    50. A(C   1,O   0,H  24)          106.37 -0.000989    0.66    107.03   
    51. A(H   2,C   1,C   3)          110.76  0.001311   -0.86    109.90   
    52. A(O   0,C   1,C   3)          110.47 -0.000770    0.44    110.90   
    53. A(H   2,C   1,C  22)          109.60  0.000026   -0.42    109.18   
    54. A(O   0,C   1,H   2)          106.98 -0.002383    1.78    108.76   
    55. A(O   0,C   1,C  22)          108.03  0.001176   -0.43    107.60   
    56. A(C   3,C   1,C  22)          110.89  0.000539   -0.40    110.49   
    57. A(O   5,C   3,C  15)          114.72  0.002695   -0.98    113.74   
    58. A(C   1,C   3,H   4)          107.47  0.000031    0.40    107.87   
    59. A(H   4,C   3,C  15)          108.40 -0.001279    0.38    108.78   
    60. A(H   4,C   3,O   5)          105.48 -0.000595    0.54    106.02   
    61. A(C   1,C   3,C  15)          110.67  0.000028   -0.44    110.24   
    62. A(C   1,C   3,O   5)          109.72 -0.001061    0.26    109.98   
    63. A(C   3,O   5,Si  6)          121.98 -0.002459    0.91    122.90   
    64. A(C  10,Si  6,O  13)          109.12  0.001248   -0.22    108.91   
    65. A(O   5,Si  6,C   7)          109.41  0.002165   -0.81    108.60   
    66. A(C   7,Si  6,O  13)          109.43  0.002260   -1.02    108.41   
    67. A(O   5,Si  6,O  13)          106.65 -0.001474    0.17    106.82   
    68. A(O   5,Si  6,C  10)          110.77  0.000646    0.12    110.89   
    69. A(C   7,Si  6,C  10)          111.34 -0.004664    1.68    113.02   
    70. A(C   8,C   7,H  25)          108.29  0.000390   -0.22    108.07   
    71. A(Si  6,C   7,C   8)          112.44  0.001721   -0.62    111.82   
    72. A(Si  6,C   7,H  25)          106.28 -0.000905    0.39    106.67   
    73. A(C   8,C   7,C   9)          109.64 -0.001030    0.30    109.94   
    74. A(Si  6,C   7,C   9)          112.14 -0.000477    0.18    112.31   
    75. A(C   9,C   7,H  25)          107.84  0.000300   -0.03    107.81   
    76. A(H  27,C   8,H  28)          107.88 -0.001130    0.45    108.33   
    77. A(C   7,C   8,H  28)          110.39  0.000338   -0.07    110.32   
    78. A(C   7,C   8,H  27)          111.57  0.000704   -0.27    111.30   
    79. A(C   7,C   8,H  26)          110.95  0.001626   -0.56    110.39   
    80. A(H  26,C   8,H  27)          107.87 -0.000962    0.20    108.07   
    81. A(H  26,C   8,H  28)          108.05 -0.000720    0.31    108.36   
    82. A(H  30,C   9,H  31)          108.02 -0.001550    0.58    108.60   
    83. A(C   7,C   9,H  31)          110.96  0.001081   -0.32    110.64   
    84. A(C   7,C   9,H  30)          110.61  0.000208   -0.09    110.51   
    85. A(C   7,C   9,H  29)          111.05  0.001573   -0.53    110.51   
    86. A(H  29,C   9,H  31)          107.99 -0.000716    0.26    108.26   
    87. A(H  29,C   9,H  30)          108.09 -0.000744    0.16    108.25   
    88. A(Si  6,C  10,C  12)          112.40  0.001687   -0.64    111.76   
    89. A(Si  6,C  10,H  32)          105.82 -0.001942    1.25    107.06   
    90. A(Si  6,C  10,C  11)          113.79 -0.000348    0.06    113.85   
    91. A(C  11,C  10,C  12)          109.90 -0.000623   -0.21    109.69   
    92. A(C  12,C  10,H  32)          107.14  0.000430   -0.19    106.96   
    93. A(C  11,C  10,H  32)          107.36  0.000769   -0.19    107.17   
    94. A(C  10,C  11,H  35)          110.45  0.000135    0.02    110.47   
    95. A(H  34,C  11,H  35)          107.94 -0.001006    0.41    108.35   
    96. A(H  33,C  11,H  35)          107.68 -0.000614    0.27    107.96   
    97. A(H  33,C  11,H  34)          108.20 -0.000877    0.15    108.35   
    98. A(C  10,C  11,H  34)          111.40  0.000281   -0.14    111.25   
    99. A(C  10,C  11,H  33)          111.03  0.001953   -0.65    110.37   
   100. A(H  36,C  12,H  38)          107.91 -0.000292    0.11    108.03   
   101. A(C  10,C  12,H  38)          111.11  0.000638   -0.20    110.91   
   102. A(H  36,C  12,H  37)          107.93 -0.000795    0.21    108.14   
   103. A(C  10,C  12,H  37)          110.54 -0.000049   -0.01    110.54   
   104. A(C  10,C  12,H  36)          111.12  0.001808   -0.59    110.53   
   105. A(H  37,C  12,H  38)          108.09 -0.001440    0.53    108.62   
   106. A(Si  6,O  13,C  14)          118.35 -0.000608    0.43    118.78   
   107. A(O  13,C  14,C  15)          111.18  0.001828   -0.65    110.53   
   108. A(H  39,C  14,H  40)          107.10 -0.001958    1.38    108.48   
   109. A(O  13,C  14,H  40)          109.69 -0.001072    0.17    109.85   
   110. A(C  15,C  14,H  39)          109.35  0.000175   -0.01    109.34   
   111. A(O  13,C  14,H  39)          107.43 -0.000554   -0.04    107.39   
   112. A(C  15,C  14,H  40)          111.91  0.001365   -0.71    111.20   
   113. A(H  16,C  15,O  17)          105.51  0.001186   -0.81    104.71   
   114. A(C  14,C  15,O  17)          112.67 -0.002074    0.46    113.13   
   115. A(C   3,C  15,O  17)          111.01  0.001295   -0.59    110.42   
   116. A(C  14,C  15,H  16)          106.98  0.000177    0.14    107.12   
   117. A(C   3,C  15,H  16)          107.67 -0.001002    0.65    108.32   
   118. A(C   3,C  15,C  14)          112.53  0.000454    0.13    112.66   
   119. A(C  15,O  17,C  18)          116.03 -0.001447    0.67    116.70   
   120. A(O  20,C  18,C  22)          107.73 -0.000537    0.13    107.85   
   121. A(H  19,C  18,C  22)          109.89  0.001252   -0.53    109.36   
   122. A(O  17,C  18,C  22)          111.79 -0.000177    0.24    112.03   
   123. A(H  19,C  18,O  20)          109.04 -0.001528    0.83    109.87   
   124. A(O  17,C  18,O  20)          107.66  0.000394   -0.38    107.28   
   125. A(O  17,C  18,H  19)          110.62  0.000493   -0.25    110.37   
   126. A(C  18,O  20,C  21)          112.90 -0.005308    1.27    114.17   
   127. A(H  42,C  21,H  43)          110.05  0.000579   -0.27    109.78   
   128. A(H  41,C  21,H  43)          108.97 -0.001802    0.61    109.58   
   129. A(O  20,C  21,H  43)          110.72 -0.000055   -0.01    110.71   
   130. A(H  41,C  21,H  42)          109.00 -0.002080    0.75    109.75   
   131. A(O  20,C  21,H  42)          110.97 -0.000157    0.02    110.99   
   132. A(O  20,C  21,H  41)          107.04  0.003496   -1.07    105.98   
   133. A(O  23,C  22,H  44)          108.36 -0.005884    1.76    110.13   
   134. A(C  18,C  22,H  44)          109.26  0.003023   -1.12    108.13   
   135. A(C  18,C  22,O  23)          109.75  0.002071   -1.41    108.34   
   136. A(C   1,C  22,H  44)          110.22  0.002650   -0.59    109.63   
   137. A(C   1,C  22,O  23)          108.92 -0.002440    1.27    110.19   
   138. A(C   1,C  22,C  18)          110.30  0.000463    0.15    110.46   
   139. A(C  22,O  23,H  45)          105.29 -0.001614    0.86    106.15   
   140. D(C   3,C   1,O   0,H  24)     40.61 -0.000114   -0.39     40.21   
   141. D(C  22,C   1,O   0,H  24)    162.05  0.000828   -0.89    161.16   
   142. D(H   2,C   1,O   0,H  24)    -80.03  0.000204   -0.66    -80.69   
   143. D(H   4,C   3,C   1,H   2)    172.45 -0.002266    2.73    175.18   
   144. D(H   4,C   3,C   1,C  22)    -65.63 -0.000965    1.30    -64.34   
   145. D(O   5,C   3,C   1,O   0)    -60.11  0.001574   -0.18    -60.28   
   146. D(O   5,C   3,C   1,C  22)   -179.85  0.000256    0.33   -179.52   
   147. D(O   5,C   3,C   1,H   2)     58.24 -0.001045    1.77     60.00   
   148. D(H   4,C   3,C   1,O   0)     54.10  0.000353    0.79     54.89   
   149. D(Si  6,O   5,C   3,C  15)     33.66  0.000395   -0.82     32.85   
   150. D(Si  6,O   5,C   3,C   1)    -91.63 -0.000836    0.33    -91.31   
   151. D(Si  6,O   5,C   3,H   4)    152.88 -0.000050   -0.54    152.34   
   152. D(O  13,Si  6,O   5,C   3)    -23.21 -0.000124    1.89    -21.32   
   153. D(C  10,Si  6,O   5,C   3)     95.42  0.000852    1.79     97.21   
   154. D(C   7,Si  6,O   5,C   3)   -141.48 -0.003120    3.44   -138.04   
   155. D(C   9,C   7,Si  6,O  13)    -31.66 -0.000515    0.70    -30.96   
   156. D(C   8,C   7,Si  6,O   5)    -39.24  0.000643   -0.23    -39.47   
   157. D(C   8,C   7,Si  6,O  13)   -155.76 -0.000104    0.64   -155.11   
   158. D(C   8,C   7,Si  6,C  10)     83.53 -0.000170    0.49     84.02   
   159. D(C   9,C   7,Si  6,O   5)     84.86  0.000232   -0.17     84.69   
   160. D(C   9,C   7,Si  6,C  10)   -152.38 -0.000581    0.56   -151.82   
   161. D(H  26,C   8,C   7,C   9)    -62.44  0.000286   -0.43    -62.87   
   162. D(H  27,C   8,C   7,C   9)    177.25 -0.000076   -0.10    177.15   
   163. D(H  27,C   8,C   7,Si  6)    -57.28 -0.000222   -0.09    -57.38   
   164. D(H  26,C   8,C   7,H  25)   -179.86  0.000277   -0.43   -180.29   
   165. D(H  27,C   8,C   7,H  25)     59.84 -0.000085   -0.11     59.72   
   166. D(H  26,C   8,C   7,Si  6)     63.03  0.000140   -0.42     62.61   
   167. D(H  30,C   9,C   7,Si  6)    177.69 -0.000771   -0.10    177.59   
   168. D(H  29,C   9,C   7,H  25)   -178.97  0.000650   -0.87   -179.83   
   169. D(H  29,C   9,C   7,C   8)     63.34  0.000580   -0.75     62.58   
   170. D(H  29,C   9,C   7,Si  6)    -62.30 -0.000536   -0.31    -62.61   
   171. D(H  30,C   9,C   7,H  25)     61.03  0.000415   -0.66     60.37   
   172. D(H  30,C   9,C   7,C   8)    -56.67  0.000345   -0.55    -57.21   
   173. D(C  12,C  10,Si  6,C   7)     60.55  0.000258    0.01     60.56   
   174. D(C  12,C  10,Si  6,O   5)   -177.46  0.000249    0.21   -177.26   
   175. D(C  11,C  10,Si  6,O  13)    173.91 -0.000693    1.14    175.05   
   176. D(C  11,C  10,Si  6,C   7)    -65.19 -0.000018    0.80    -64.39   
   177. D(C  12,C  10,Si  6,O  13)    -60.35 -0.000417    0.36    -59.99   
   178. D(C  11,C  10,Si  6,O   5)     56.79 -0.000027    1.00     57.79   
   179. D(H  34,C  11,C  10,C  12)   -179.55 -0.000520    0.45   -179.10   
   180. D(H  34,C  11,C  10,Si  6)    -52.50  0.000963   -0.55    -53.05   
   181. D(H  33,C  11,C  10,H  32)   -175.10 -0.000719    0.52   -174.57   
   182. D(H  33,C  11,C  10,C  12)    -58.89 -0.000109    0.08    -58.81   
   183. D(H  33,C  11,C  10,Si  6)     68.17  0.001375   -0.92     67.25   
   184. D(H  34,C  11,C  10,H  32)     64.24 -0.001131    0.89     65.13   
   185. D(H  37,C  12,C  10,H  32)     58.76  0.000689   -0.90     57.87   
   186. D(H  37,C  12,C  10,C  11)    -57.58 -0.000135   -0.45    -58.03   
   187. D(H  37,C  12,C  10,Si  6)    174.59 -0.000484    0.15    174.75   
   188. D(H  36,C  12,C  10,H  32)    178.58  0.000841   -1.03    177.56   
   189. D(H  36,C  12,C  10,C  11)     62.24  0.000016   -0.58     61.66   
   190. D(H  36,C  12,C  10,Si  6)    -65.59 -0.000333    0.02    -65.56   
   191. D(C  14,O  13,Si  6,C  10)    -85.87 -0.000579   -1.95    -87.82   
   192. D(C  14,O  13,Si  6,C   7)    152.07  0.002959   -3.24    148.83   
   193. D(C  14,O  13,Si  6,O   5)     33.82  0.000026   -1.83     31.99   
   194. D(H  40,C  14,O  13,Si  6)     70.20  0.002110   -0.57     69.63   
   195. D(H  39,C  14,O  13,Si  6)   -173.72 -0.001077    1.12   -172.60   
   196. D(C  15,C  14,O  13,Si  6)    -54.11 -0.000147    0.70    -53.42   
   197. D(H  16,C  15,C   3,H   4)    -50.61 -0.000371   -0.59    -51.20   
   198. D(H  16,C  15,C   3,C   1)   -168.25  0.000343   -1.05   -169.30   
   199. D(C  14,C  15,C   3,O   5)    -50.69 -0.000192   -0.90    -51.58   
   200. D(C  14,C  15,C   3,H   4)   -168.26 -0.000214   -1.24   -169.50   
   201. D(H  16,C  15,C   3,O   5)     66.96 -0.000349   -0.24     66.71   
   202. D(C  14,C  15,C   3,C   1)     74.11  0.000500   -1.70     72.40   
   203. D(H  16,C  15,C  14,H  40)   -179.79 -0.000277    0.97   -178.81   
   204. D(H  16,C  15,C  14,H  39)     61.71  0.001198   -0.30     61.42   
   205. D(H  16,C  15,C  14,O  13)    -56.75  0.000658    0.16    -56.58   
   206. D(C   3,C  15,C  14,H  40)    -61.73 -0.001132    1.93    -59.81   
   207. D(C   3,C  15,C  14,H  39)    179.76  0.000343    0.66    180.42   
   208. D(C   3,C  15,C  14,O  13)     61.31 -0.000198    1.12     62.42   
   209. D(C  18,O  17,C  15,H  16)    172.76 -0.000153    0.58    173.34   
   210. D(C  18,O  17,C  15,C  14)    -70.85 -0.000296    0.50    -70.34   
   211. D(C  18,O  17,C  15,C   3)     56.40 -0.000287    0.58     56.98   
   212. D(C  22,C  18,O  17,C  15)    -56.44 -0.000994    1.20    -55.23   
   213. D(O  20,C  18,O  17,C  15)   -174.56 -0.000483    1.14   -173.42   
   214. D(H  19,C  18,O  17,C  15)     66.38  0.000848    0.51     66.89   
   215. D(C  21,O  20,C  18,C  22)    169.67  0.000317   -0.53    169.13   
   216. D(C  21,O  20,C  18,H  19)     50.44 -0.000018   -0.43     50.02   
   217. D(C  21,O  20,C  18,O  17)    -69.62  0.000027   -0.38    -70.00   
   218. D(H  43,C  21,O  20,C  18)    -60.30 -0.000212    0.08    -60.22   
   219. D(H  42,C  21,O  20,C  18)     62.21  0.000379   -0.27     61.95   
   220. D(H  41,C  21,O  20,C  18)   -178.95 -0.000103   -0.00   -178.96   
   221. D(O  23,C  22,C  18,O  20)    -69.35  0.000422   -1.18    -70.53   
   222. D(O  23,C  22,C  18,H  19)     49.33 -0.001027   -0.41     48.92   
   223. D(C   1,C  22,C  18,O  20)    170.64  0.001836   -1.97    168.67   
   224. D(C   1,C  22,C  18,H  19)    -70.68  0.000387   -1.19    -71.87   
   225. D(C   1,C  22,C  18,O  17)     52.55  0.001792   -1.72     50.83   
   226. D(O  23,C  22,C   1,C   3)   -172.52 -0.001001    0.87   -171.64   
   227. D(O  23,C  22,C   1,H   2)    -49.93  0.001029   -0.79    -50.72   
   228. D(O  23,C  22,C   1,O   0)     66.29 -0.001138    0.86     67.16   
   229. D(O  23,C  22,C  18,O  17)    172.56  0.000378   -0.94    171.63   
   230. D(C  18,C  22,C   1,C   3)    -52.01  0.000294    0.04    -51.96   
   231. D(C  18,C  22,C   1,H   2)     70.59  0.002323   -1.62     68.96   
   232. D(C  18,C  22,C   1,O   0)   -173.20  0.000157    0.03   -173.16   
   233. D(H  45,O  23,C  22,H  44)     64.08 -0.001451    1.30     65.38   
   234. D(H  45,O  23,C  22,C  18)   -176.68 -0.000100    0.21   -176.47   
   235. D(H  45,O  23,C  22,C   1)    -55.83  0.000220    0.35    -55.48   
    ----------------------------------------------------------------------------

Geometry step timings:
Preparation and reading OPT file:      0.001 s ( 4.052 %)
Internal coordinates            :      0.000 s ( 0.174 %)
B/P matrices and projection     :      0.004 s (25.164 %)
Hessian update/contruction      :      0.007 s (37.617 %)
Making the step                 :      0.003 s (16.421 %)
Converting the step to Cartesian:      0.000 s ( 2.323 %)
Storing new data                :      0.001 s ( 4.836 %)
Checking convergence            :      0.000 s ( 0.162 %)
Final printing                  :      0.002 s ( 9.240 %)
Total time                      :      0.018 s

Time for energy+gradient        :      0.076 s
Time for complete geometry iter :      0.105 s

         *************************************************************
         *                GEOMETRY OPTIMIZATION CYCLE   3            *
         *************************************************************
---------------------------------
CARTESIAN COORDINATES (ANGSTROEM)
---------------------------------
  O    -3.770324    0.038216   -0.371803
  C    -2.476067   -0.415548   -0.044019
  H    -1.844560   -0.367189   -0.945969
  C    -1.864508    0.436710    1.063744
  H    -2.561829    0.435531    1.914553
  O    -1.768901    1.767779    0.644836
  Si   -0.422952    2.380848   -0.105645
  C    -0.065120    4.111140    0.607747
  C    -1.345619    4.901527    0.845563
  C     0.755516    4.049593    1.894172
  C    -0.646089    2.386219   -2.022714
  C    -1.860076    3.180418   -2.500708
  C     0.608404    2.884238   -2.737214
  O     0.837557    1.384067    0.284567
  C     0.583230    0.026677    0.485151
  C    -0.531499   -0.163397    1.517956
  H    -0.215444    0.351929    2.432447
  O    -0.704319   -1.505665    1.905352
  C    -1.256397   -2.379840    0.939078
  H    -0.552749   -2.514216    0.093397
  O    -1.478729   -3.592233    1.561966
  C    -0.296935   -4.299924    1.892590
  C    -2.596650   -1.873260    0.407256
  O    -2.979495   -2.685479   -0.673495
  H    -3.742617    1.003163   -0.362014
  H     0.526327    4.642019   -0.140372
  H    -1.966522    4.402468    1.582415
  H    -1.922300    5.001611   -0.067908
  H    -1.111251    5.899170    1.213646
  H     0.206631    3.525155    2.671059
  H     0.978772    5.053250    2.252661
  H     1.691374    3.525794    1.726364
  H    -0.798784    1.341739   -2.332916
  H    -1.719832    4.239122   -2.305367
  H    -2.764986    2.857042   -1.996481
  H    -2.000690    3.052656   -3.572640
  H     0.789731    3.929108   -2.504191
  H     0.495401    2.792205   -3.815739
  H     1.480957    2.315200   -2.430305
  H     1.506471   -0.427285    0.860093
  H     0.325269   -0.447599   -0.467314
  H    -0.623508   -5.229373    2.352725
  H     0.313799   -3.733158    2.598850
  H     0.286982   -4.521441    0.991912
  H    -3.336141   -1.948048    1.216424
  H    -3.797579   -2.304692   -1.019447

----------------------------
CARTESIAN COORDINATES (A.U.)
----------------------------
  NO LB    ZA    FRAG    MASS        X           Y           Z
   0 O   8.0000    1    15.999   -7.124879    0.072219   -0.702606
   1 C   6.0000    1    12.011   -4.679089   -0.785273   -0.083184
   2 H   1.0000    1     1.008   -3.485713   -0.693887   -1.787622
   3 C   6.0000    1    12.011   -3.523409    0.825263    2.010185
   4 H   1.0000    1     1.008   -4.841156    0.823034    3.617981
   5 O   8.0000    1    15.999   -3.342738    3.340619    1.218563
   6 Si 14.0000    1    28.086   -0.799264    4.499151   -0.199640
   7 C   6.0000    1    12.011   -0.123058    7.768929    1.148476
   8 C   6.0000    1    12.011   -2.542851    9.262543    1.597882
   9 C   6.0000    1    12.011    1.427718    7.652621    3.579467
  10 C   6.0000    1    12.011   -1.220931    4.509301   -3.822376
  11 C   6.0000    1    12.011   -3.515035    6.010119   -4.725654
  12 C   6.0000    1    12.011    1.149717    5.450420   -5.172586
  13 O   8.0000    1    15.999    1.582753    2.615508    0.537754
  14 C   6.0000    1    12.011    1.102146    0.050413    0.916802
  15 C   6.0000    1    12.011   -1.004387   -0.308776    2.868521
  16 H   1.0000    1     1.008   -0.407130    0.665050    4.596658
  17 O   8.0000    1    15.999   -1.330970   -2.845294    3.600593
  18 C   6.0000    1    12.011   -2.374246   -4.497245    1.774600
  19 H   1.0000    1     1.008   -1.044544   -4.751179    0.176494
  20 O   8.0000    1    15.999   -2.794392   -6.788336    2.951688
  21 C   6.0000    1    12.011   -0.561125   -8.125680    3.576477
  22 C   6.0000    1    12.011   -4.906957   -3.539949    0.769602
  23 O   8.0000    1    15.999   -5.630430   -5.074819   -1.272721
  24 H   1.0000    1     1.008   -7.072522    1.895703   -0.684106
  25 H   1.0000    1     1.008    0.994614    8.772146   -0.265265
  26 H   1.0000    1     1.008   -3.716187    8.319459    2.990331
  27 H   1.0000    1     1.008   -3.632621    9.451675   -0.128328
  28 H   1.0000    1     1.008   -2.099960   11.147817    2.293459
  29 H   1.0000    1     1.008    0.390476    6.661577    5.047569
  30 H   1.0000    1     1.008    1.849611    9.549258    4.256912
  31 H   1.0000    1     1.008    3.196234    6.662784    3.262355
  32 H   1.0000    1     1.008   -1.509484    2.535519   -4.408573
  33 H   1.0000    1     1.008   -3.250011    8.010780   -4.356512
  34 H   1.0000    1     1.008   -5.225067    5.399026   -3.772802
  35 H   1.0000    1     1.008   -3.780756    5.768684   -6.751311
  36 H   1.0000    1     1.008    1.492375    7.424938   -4.732235
  37 H   1.0000    1     1.008    0.936173    5.276503   -7.210703
  38 H   1.0000    1     1.008    2.798603    4.375094   -4.592610
  39 H   1.0000    1     1.008    2.846818   -0.807451    1.625340
  40 H   1.0000    1     1.008    0.614669   -0.845839   -0.883096
  41 H   1.0000    1     1.008   -1.178259   -9.882084    4.446006
  42 H   1.0000    1     1.008    0.592994   -7.054646    4.911115
  43 H   1.0000    1     1.008    0.542318   -8.544284    1.874441
  44 H   1.0000    1     1.008   -6.304393   -3.681278    2.298708
  45 H   1.0000    1     1.008   -7.176384   -4.355237   -1.926475

      -----------------------------------------------------------      
     |                   =====================                   |     
     |                           x T B                           |     
     |                   =====================                   |     
     |                         S. Grimme                         |     
     |          Mulliken Center for Theoretical Chemistry        |     
     |                    University of Bonn                     |     
      -----------------------------------------------------------      

   * xtb version 6.7.1 (edcfbbe) compiled by 'albert@albert-system' on 2024-07-22

   xtb is free software: you can redistribute it and/or modify it under
   the terms of the GNU Lesser General Public License as published by
   the Free Software Foundation, either version 3 of the License, or
   (at your option) any later version.
   
   xtb is distributed in the hope that it will be useful,
   but WITHOUT ANY WARRANTY; without even the implied warranty of
   MERCHANTABILITY or FITNESS FOR A PARTICULAR PURPOSE.  See the
   GNU Lesser General Public License for more details.
   
   Cite this work as:
   * C. Bannwarth, E. Caldeweyher, S. Ehlert, A. Hansen, P. Pracht,
     J. Seibert, S. Spicher, S. Grimme, WIREs Comput. Mol. Sci., 2020, 11,
     e01493. DOI: 10.1002/wcms.1493
   
   for GFN2-xTB:
   * C. Bannwarth, S. Ehlert and S. Grimme., J. Chem. Theory Comput., 2019,
     15, 1652-1671. DOI: 10.1021/acs.jctc.8b01176
   for GFN1-xTB:
   * S. Grimme, C. Bannwarth, P. Shushkov, J. Chem. Theory Comput., 2017,
     13, 1989-2009. DOI: 10.1021/acs.jctc.7b00118
   for GFN0-xTB:
   * P. Pracht, E. Caldeweyher, S. Ehlert, S. Grimme, ChemRxiv, 2019, preprint.
     DOI: 10.26434/chemrxiv.8326202.v1
   for GFN-FF:
   * S. Spicher and S. Grimme, Angew. Chem. Int. Ed., 2020, 59, 15665-15673.
     DOI: 10.1002/anie.202004239
   
   for ALPB and GBSA implicit solvation:
   * S. Ehlert, M. Stahn, S. Spicher, S. Grimme, J. Chem. Theory Comput.,
     2021, 17, 4250-4261. DOI: 10.1021/acs.jctc.1c00471
   
   for ddCOSMO and CPCM-X implicit solvation:
   * M. Stahn, S. Ehlert, S. Grimme, J. Phys. Chem. A,
     2023, XX, XXXX-XXXX. DOI: 10.1021/acs.jpca.3c04382
   
   for DFT-D4:
   * E. Caldeweyher, C. Bannwarth and S. Grimme, J. Chem. Phys., 2017,
     147, 034112. DOI: 10.1063/1.4993215
   * E. Caldeweyher, S. Ehlert, A. Hansen, H. Neugebauer, S. Spicher,
     C. Bannwarth and S. Grimme, J. Chem. Phys., 2019, 150, 154122.
     DOI: 10.1063/1.5090222
   * E. Caldeweyher, J.-M. Mewes, S. Ehlert and S. Grimme, Phys. Chem. Chem. Phys.
     2020, 22, 8499-8512. DOI: 10.1039/D0CP00502A
   
   for sTDA-xTB:
   * S. Grimme and C. Bannwarth, J. Chem. Phys., 2016, 145, 054103.
     DOI: 10.1063/1.4959605
   
   in the mass-spec context:
   * V. Asgeirsson, C. Bauer and S. Grimme, Chem. Sci., 2017, 8, 4879.
     DOI: 10.1039/c7sc00601b
   * J. Koopman and S. Grimme, ACS Omega 2019, 4, 12, 15120-15133.
     DOI: 10.1021/acsomega.9b02011
   
   for metadynamics refer to:
   * S. Grimme, J. Chem. Theory Comput., 2019, 155, 2847-2862
     DOI: 10.1021/acs.jctc.9b00143
   
   for SPH calculations refer to:
   * S. Spicher and S. Grimme, J. Chem. Theory Comput., 2021, 17, 1701-1714
     DOI: 10.1021/acs.jctc.0c01306
   
   for ONIOM refer to:
   * C. Plett, A. Katbashev, S. Ehlert, S. Grimme, M. Bursch,
     Phys. Chem. Chem. Phys., 2023, 25, 17860-17868. DOI: 10.1039/D3CP02178E
   
   for DIPRO refer to:
   * J. Kohn, N. Gildemeister, S. Grimme, D. Fazzi, A. Hansen,
     J. Chem. Phys., 2023, just accepted.
   
   for PTB refer to:
   * S. Grimme, M. Mueller, A. Hansen, J. Chem. Phys., 2023, 158, 124111.
     DOI: 10.1063/5.0137838
   
   with help from (in alphabetical order)
   P. Atkinson, C. Bannwarth, F. Bohle, G. Brandenburg, E. Caldeweyher
   M. Checinski, S. Dohm, S. Ehlert, S. Ehrlich, I. Gerasimov, C. Hölzer
   A. Katbashev, J. Kohn, J. Koopman, C. Lavigne, S. Lehtola, F. März, M. Müller,
   F. Musil, H. Neugebauer, J. Pisarek, C. Plett, P. Pracht, F. Pultar,
   J. Seibert, P. Shushkov, S. Spicher, M. Stahn, M. Steiner, T. Strunk,
   J. Stückrath, T. Rose, and J. Unsleber
   
 * started run on 2025/09/10 at 11:29:46.265     
   ID    Z sym.   atoms
    1    8 O      1, 6, 14, 18, 21, 24
    2    6 C      2, 4, 8-13, 15, 16, 19, 22, 23
    3    1 H      3, 5, 17, 20, 25-46
    4   14 Si     7

           -------------------------------------------------
          |                Calculation Setup                |
           -------------------------------------------------

          program call               : /home/kmoult/orca_6_1/otool_xtb goat_0_XTB.xyz --grad -c 0 -u 0 -P 4 --namespace goat_0 --input goat_0_XTB.input.tmp --alpb ACETONE --acc 0.200000
          hostname                   : node2704
          calculation namespace      : goat_0
          coordinate file            : goat_0_XTB.xyz
          omp threads                :                     4


           -------------------------------------------------
          |                 G F N 2 - x T B                 |
           -------------------------------------------------

        Reference                      10.1021/acs.jctc.8b01176
      * Hamiltonian:
        H0-scaling (s, p, d)           1.850000    2.230000    2.230000
        zeta-weighting                 0.500000
      * Dispersion:
        s8                             2.700000
        a1                             0.520000
        a2                             5.000000
        s9                             5.000000
      * Repulsion:
        kExp                           1.500000    1.000000
        rExp                           1.000000
      * Coulomb:
        alpha                          2.000000
        third order                    shell-resolved
        anisotropic                    true
        a3                             3.000000
        a5                             4.000000
        cn-shift                       1.200000
        cn-exp                         4.000000
        max-rad                        5.000000

      * Solvation model:               ALPB
        Solvent                        ACETONE
        Parameter file                 internal GFN2-xTB/ALPB
        Dielectric constant                2.0700E+01
        Reference state                gsolv [1 M gas/solution]
        Free energy shift                  5.9241E-03 Eh       3.7175E+00 kcal/mol
        Temperature                        2.9815E+02 K
        Density                            7.9000E-01 kg/L
        Solvent mass                       5.8080E+01 g/mol
        Interaction kernel             P16
        Born radius scaling (c1)           1.8274E+00
        Born radii integrator          GBOBC
        Born offset                        0.0000E+00 a0       0.0000E+00 AA
        H-bond correction              true
        Ion screening                  false
        Surface tension                    1.0000E-05 Eh       1.5569E+01 dyn/cm
        Grid points                               230 per atom
q/qsh data taken from xtbrestart
CAMM data taken from xtbrestart

          ...................................................
          :                      SETUP                      :
          :.................................................:
          :  # basis functions                 112          :
          :  # atomic orbitals                 111          :
          :  # shells                           67          :
          :  # electrons                       118          :
          :  max. iterations                   250          :
          :  Hamiltonian                  GFN2-xTB          :
          :  restarted?                       true          :
          :  GBSA solvation                   true          :
          :  PC potential                    false          :
          :  electronic temp.          300.0000000     K    :
          :  accuracy                    0.2000000          :
          :  -> integral cutoff          0.3198970E+02      :
          :  -> integral neglect         0.2000000E-08      :
          :  -> SCF convergence          0.2000000E-06 Eh   :
          :  -> wf. convergence          0.2000000E-04 e    :
          :  Broyden damping             0.4000000          :
          :  net charge                          0          :
          :  unpaired electrons                  0          :
          ...................................................

 iter      E             dE          RMSdq      gap      omega  full diag
   1    -68.0112557 -0.680113E+02  0.215E-01    5.72       0.0  T
   2    -68.0113196 -0.639015E-04  0.141E-01    5.67       1.0  T
   3    -68.0112574  0.622095E-04  0.661E-02    5.72       1.0  T
   4    -68.0113401 -0.826467E-04  0.340E-02    5.68       1.0  T
   5    -68.0113471 -0.701151E-05  0.159E-02    5.69       1.0  T
   6    -68.0113473 -0.242189E-06  0.633E-03    5.69       2.3  T
   7    -68.0113476 -0.227386E-06  0.297E-03    5.69       5.0  T
   8    -68.0113476 -0.463681E-07  0.179E-03    5.69       8.2  T
   9    -68.0113476 -0.138441E-07  0.377E-04    5.69      39.1  T
  10    -68.0113476 -0.293383E-09  0.161E-04    5.69      91.6  T
  11    -68.0113476 -0.956106E-10  0.605E-05    5.69     243.8  T

   *** convergence criteria satisfied after 11 iterations ***

         #    Occupation            Energy/Eh            Energy/eV
      -------------------------------------------------------------
         1        2.0000           -0.8165741             -22.2201
       ...           ...                  ...                  ...
        53        2.0000           -0.4307515             -11.7213
        54        2.0000           -0.4257706             -11.5858
        55        2.0000           -0.4214713             -11.4688
        56        2.0000           -0.4178437             -11.3701
        57        2.0000           -0.4162217             -11.3260
        58        2.0000           -0.4097593             -11.1501
        59        2.0000           -0.3780972             -10.2885 (HOMO)
        60                         -0.1691164              -4.6019 (LUMO)
        61                         -0.1281682              -3.4876
        62                         -0.1043350              -2.8391
        63                         -0.0491780              -1.3382
        64                         -0.0100890              -0.2745
       ...                                ...                  ...
       111                          0.7710694              20.9819
      -------------------------------------------------------------
                  HL-Gap            0.2089808 Eh            5.6867 eV
             Fermi-level           -0.2736068 Eh           -7.4452 eV

 SCC (total)                   0 d,  0 h,  0 min,  0.032 sec
 SCC setup                      ...        0 min,  0.001 sec (  1.763%)
 Dispersion                     ...        0 min,  0.000 sec (  0.852%)
 classical contributions        ...        0 min,  0.000 sec (  0.125%)
 integral evaluation            ...        0 min,  0.004 sec ( 13.910%)
 iterations                     ...        0 min,  0.018 sec ( 54.910%)
 molecular gradient             ...        0 min,  0.009 sec ( 27.934%)
 printout                       ...        0 min,  0.000 sec (  0.457%)

         :::::::::::::::::::::::::::::::::::::::::::::::::::::
         ::                     SUMMARY                     ::
         :::::::::::::::::::::::::::::::::::::::::::::::::::::
         :: total energy             -67.353636348891 Eh    ::
         :: total w/o Gsasa/hb       -67.326430840483 Eh    ::
         :: gradient norm              0.016474854764 Eh/a0 ::
         :: HOMO-LUMO gap              5.686657721305 eV    ::
         ::.................................................::
         :: SCC energy               -68.010427761937 Eh    ::
         :: -> isotropic ES            0.154491588842 Eh    ::
         :: -> anisotropic ES          0.001044173875 Eh    ::
         :: -> anisotropic XC          0.001777561887 Eh    ::
         :: -> dispersion             -0.045103254682 Eh    ::
         :: -> Gsolv                  -0.030222110463 Eh    ::
         ::    -> Gelec               -0.003016602054 Eh    ::
         ::    -> Gsasa               -0.027824337467 Eh    ::
         ::    -> Ghb                 -0.005305312206 Eh    ::
         ::    -> Gshift               0.005924141264 Eh    ::
         :: repulsion energy           0.656791413045 Eh    ::
         :: add. restraining           0.000000000000 Eh    ::
         :: total charge               0.000000000000 e     ::
         :::::::::::::::::::::::::::::::::::::::::::::::::::::


Property printout bound to 'properties.out'

           -------------------------------------------------
          | TOTAL ENERGY              -67.353636348891 Eh   |
          | GRADIENT NORM               0.016474854764 Eh/α |
          | HOMO-LUMO GAP               5.686657721305 eV   |
           -------------------------------------------------

------------------------------------------------------------------------
 * finished run on 2025/09/10 at 11:29:46.318     
------------------------------------------------------------------------
 total:
 * wall-time:     0 d,  0 h,  0 min,  0.053 sec
 *  cpu-time:     0 d,  0 h,  0 min,  0.193 sec
 * ratio c/w:     3.630 speedup
 SCF:
 * wall-time:     0 d,  0 h,  0 min,  0.032 sec
 *  cpu-time:     0 d,  0 h,  0 min,  0.128 sec
 * ratio c/w:     3.980 speedup


-------------------------   --------------------
FINAL SINGLE POINT ENERGY       -67.353636348890
-------------------------   --------------------


-------------
DIPOLE MOMENT
-------------
                                X             Y             Z
Total Dipole Moment    :      0.40300       0.87900      -0.35800
                        -----------------------------------------
Magnitude (a.u.)       :      1.03112
Magnitude (Debye)      :      2.62091


------------------
CARTESIAN GRADIENT
------------------

   1   O   :   -0.001573930    0.000751229   -0.000368862
   2   C   :    0.004705848   -0.000336890    0.001146623
   3   H   :   -0.001000931    0.000319116   -0.000927199
   4   C   :    0.000515729   -0.001613657   -0.000333174
   5   H   :   -0.000483718    0.001262863   -0.000299176
   6   O   :   -0.004758343   -0.003457200    0.003362823
   7   Si  :    0.001059901    0.002009715   -0.000807996
   8   C   :   -0.001144514    0.003410880    0.000024401
   9   C   :    0.001306869   -0.001792799   -0.000317216
  10   C   :   -0.001219082   -0.000621355   -0.001071041
  11   C   :    0.000968736    0.003741483   -0.002911508
  12   C   :    0.000889183   -0.000389070    0.001084390
  13   C   :   -0.001474094   -0.000187683    0.000695629
  14   O   :    0.002992787   -0.004857514    0.002313622
  15   C   :   -0.002033559    0.000681120    0.000610145
  16   C   :    0.000069896   -0.000314770   -0.001531985
  17   H   :   -0.000456512   -0.000139018   -0.000057505
  18   O   :   -0.001750973   -0.000262889   -0.001456498
  19   C   :   -0.000843317    0.003689257   -0.001466283
  20   H   :    0.000030757   -0.001282423    0.000521514
  21   O   :    0.001464063    0.000683589   -0.000420129
  22   C   :   -0.001629723    0.002145597   -0.000858402
  23   C   :    0.001744548    0.001861206    0.004352787
  24   O   :   -0.001485097   -0.001127115   -0.001575398
  25   H   :    0.001229844   -0.001663449    0.000079465
  26   H   :   -0.000325180   -0.001396629   -0.000082507
  27   H   :    0.000404300    0.000721749   -0.000552592
  28   H   :    0.000066101    0.000071335    0.000730938
  29   H   :   -0.000078847   -0.000427980   -0.000173796
  30   H   :    0.000885161    0.000286546   -0.000617714
  31   H   :    0.000019072   -0.000410155    0.000080243
  32   H   :   -0.000542379    0.000288587    0.000425011
  33   H   :    0.000142050   -0.000774163    0.000937529
  34   H   :   -0.000420112   -0.000777160   -0.000444008
  35   H   :    0.000419585    0.000264744   -0.000470679
  36   H   :   -0.000142750    0.000148457    0.000334805
  37   H   :    0.000169958   -0.000933116   -0.000300579
  38   H   :    0.000137583    0.000144901    0.000360226
  39   H   :   -0.000428924    0.000446217   -0.000319763
  40   H   :    0.000506528    0.000299770   -0.000438055
  41   H   :    0.000507184    0.000448041   -0.000313987
  42   H   :    0.000725477    0.000017230    0.000046756
  43   H   :   -0.000197204   -0.000349090    0.000426612
  44   H   :    0.000011513   -0.000604285   -0.000055013
  45   H   :   -0.000432714   -0.000946308   -0.001093514
  46   H   :    0.001449231    0.000971085    0.001731059

Difference to translation invariance:
           :    0.0000000000    0.0000000000    0.0000000000

Difference to rotation invariance:
           :   -0.0000045026    0.0002803745    0.0006457669

Norm of the Cartesian gradient     ...    0.0164748548
RMS gradient                       ...    0.0014024328
MAX gradient                       ...    0.0048575138
------------------------------------------------------------------------------
                         ORCA GEOMETRY RELAXATION STEP
------------------------------------------------------------------------------

Reading the OPT-File                    .... done
Getting information on internals        .... done
Copying old internal coords+grads       .... done
Making the new internal coordinates     .... (2022 redundants) done
Validating the new internal coordinates .... (2022 redundants) done
Calculating the B-matrix                .... done
Calculating the G,G- and P matrices     .... done
Transforming gradient to internals      .... done
Projecting the internal gradient        .... done
Number of atoms                         ....  46
Number of internal coordinates          .... 235
Current Energy                          ....   -67.353636349 Eh
Current gradient norm                   ....     0.016474855 Eh/bohr
Maximum allowed component of the step   ....  0.300
Current trust radius                    ....  0.300
Updating the Hessian (BFGS)             .... done
Forming the augmented Hessian           .... done
Diagonalizing the augmented Hessian     .... done
Last element of RFO vector              ....  0.989882687
Lowest eigenvalues of augmented Hessian:
 -0.000824656  0.009974082  0.010016397  0.010704147  0.010850750
Length of the computed step             ....  0.143338415
The final length of the internal step   ....  0.143338415
Converting the step to Cartesian space:
 Initial RMS(Int)=    0.0093503672
Transforming coordinates:
 Iter   0:  RMS(Cart)=    0.0510061119 RMS(Int)=    0.4090467146
done
Storing new coordinates                 .... done
The predicted energy change is          ....    -0.000420800
Previously predicted energy change      ....    -0.002385694
Actually observed energy change         ....    -0.002698504
Ratio of predicted to observed change   ....     1.131119121
New trust radius                        ....     0.450000000

                                .--------------------.
          ----------------------|Geometry convergence|-------------------------
          Item                value                   Tolerance       Converged
          ---------------------------------------------------------------------
          Energy change      -0.0026985043            0.0000050000      NO
          RMS gradient        0.0008479622            0.0001000000      NO
          MAX gradient        0.0041452583            0.0003000000      NO
          RMS step            0.0093503672            0.0020000000      NO
          MAX step            0.0516673995            0.0040000000      NO
          -------------------------------------------------------------------------
          ........................................................
          Max(Bonds)      0.0273      Max(Angles)    0.85
          Max(Dihed)        2.25      Max(Improp)    0.00
          ---------------------------------------------------------------------

    ---------------------------------------------------------------------------
                         Redundant Internal Coordinates
                            (Angstroem and degrees)

        Definition                    Value    dE/dq     Step     New-Value
    ----------------------------------------------------------------------------
     1. B(C   1,O   0)                1.4101  0.001118 -0.0034    1.4067   
     2. B(H   2,C   1)                1.1021  0.000199  0.0003    1.1024   
     3. B(C   3,C   1)                1.5256 -0.001359  0.0029    1.5285   
     4. B(H   4,C   3)                1.1001  0.000074 -0.0000    1.1000   
     5. B(O   5,C   3)                1.3987 -0.002182 -0.0005    1.3982   
     6. B(Si  6,O   5)                1.6585  0.004145 -0.0048    1.6537   
     7. B(C   7,Si  6)                1.9055 -0.000581 -0.0030    1.9025   
     8. B(C   8,C   7)                1.5235 -0.002224  0.0029    1.5263   
     9. B(C   9,C   7)                1.5271 -0.001435  0.0017    1.5288   
    10. B(C  10,Si  6)                1.9300  0.000998 -0.0031    1.9269   
    11. B(C  11,C  10)                1.5274 -0.001149  0.0016    1.5290   
    12. B(C  12,C  10)                1.5272 -0.001681  0.0023    1.5295   
    13. B(O  13,Si  6)                1.6537  0.003671 -0.0047    1.6490   
    14. B(C  14,O  13)                1.3955 -0.002448  0.0005    1.3960   
    15. B(C  15,C   3)                1.5308 -0.001542  0.0017    1.5325   
    16. B(C  15,C  14)                1.5315 -0.001169  0.0014    1.5329   
    17. B(H  16,C  15)                1.0962 -0.000245  0.0003    1.0965   
    18. B(O  17,C  15)                1.4077 -0.002509  0.0011    1.4088   
    19. B(C  18,O  17)                1.4152 -0.003031  0.0025    1.4176   
    20. B(H  19,C  18)                1.1083 -0.000224  0.0015    1.1098   
    21. B(O  20,C  18)                1.3811 -0.002105 -0.0023    1.3787   
    22. B(C  21,O  20)                1.4166 -0.001629  0.0018    1.4184   
    23. B(C  22,C  18)                1.5283 -0.003434  0.0052    1.5335   
    24. B(C  22,C   1)                1.5307 -0.000947  0.0034    1.5342   
    25. B(O  23,C  22)                1.4051  0.000881 -0.0038    1.4013   
    26. B(H  24,O   0)                0.9654 -0.001970  0.0010    0.9664   
    27. B(H  24,O   5)                2.3439 -0.000973  0.0137    2.3576   
    28. B(H  25,C   7)                1.0915 -0.000798  0.0010    1.0925   
    29. B(H  26,C   8)                1.0851 -0.000940  0.0006    1.0858   
    30. B(H  27,C   8)                1.0849 -0.000645  0.0003    1.0852   
    31. B(H  28,C   8)                1.0889 -0.000467  0.0002    1.0891   
    32. B(H  29,C   9)                1.0862 -0.001027  0.0009    1.0871   
    33. B(H  30,C   9)                1.0889 -0.000348 -0.0000    1.0889   
    34. B(H  31,C   9)                1.0855 -0.000671  0.0002    1.0857   
    35. B(H  32,C  10)                1.1002  0.000451 -0.0005    1.0997   
    36. B(H  33,C  11)                1.0857 -0.000891  0.0007    1.0864   
    37. B(H  34,C  11)                1.0852 -0.000650  0.0002    1.0854   
    38. B(H  35,C  11)                1.0886 -0.000329 -0.0001    1.0885   
    39. B(H  36,C  12)                1.0858 -0.000935  0.0007    1.0865   
    40. B(H  37,C  12)                1.0883 -0.000384 -0.0000    1.0883   
    41. B(H  38,C  12)                1.0860 -0.000666  0.0002    1.0862   
    42. B(H  39,C  14)                1.0950  0.000153 -0.0004    1.0946   
    43. B(H  40,C  14)                1.0948 -0.000040 -0.0001    1.0947   
    44. B(H  41,C  21)                1.0873 -0.000211 -0.0002    1.0871   
    45. B(H  42,C  21)                1.0923 -0.000018 -0.0001    1.0921   
    46. B(H  43,C  21)                1.0960  0.000171 -0.0001    1.0959   
    47. B(H  44,C  22)                1.0987 -0.000449  0.0010    1.0997   
    48. B(H  45,O   0)                2.4309 -0.001177  0.0273    2.4583   
    49. B(H  45,O  23)                0.9664 -0.001785  0.0009    0.9673   
    50. A(C   1,O   0,H  24)          107.03 -0.000683    0.48    107.51   
    51. A(H   2,C   1,C   3)          109.88  0.000845   -0.56    109.32   
    52. A(O   0,C   1,C   3)          110.91  0.000049    0.21    111.13   
    53. A(H   2,C   1,C  22)          109.16  0.000315   -0.31    108.85   
    54. A(O   0,C   1,H   2)          108.76 -0.000645    0.62    109.38   
    55. A(O   0,C   1,C  22)          107.62 -0.000090    0.00    107.62   
    56. A(C   3,C   1,C  22)          110.46 -0.000494    0.04    110.50   
    57. A(O   5,C   3,C  15)          113.73  0.000465   -0.28    113.45   
    58. A(C   1,C   3,H   4)          107.87  0.000353   -0.05    107.82   
    59. A(H   4,C   3,C  15)          108.79  0.000430   -0.18    108.61   
    60. A(H   4,C   3,O   5)          106.02 -0.000700    0.38    106.40   
    61. A(C   1,C   3,C  15)          110.21 -0.000549   -0.00    110.21   
    62. A(C   1,C   3,O   5)          109.97  0.000012    0.14    110.11   
    63. A(C   3,O   5,Si  6)          122.87 -0.000760    0.47    123.34   
    64. A(C  10,Si  6,O  13)          108.92  0.000790   -0.17    108.75   
    65. A(O   5,Si  6,C   7)          108.58  0.001084   -0.45    108.13   
    66. A(C   7,Si  6,O  13)          108.41  0.000905   -0.50    107.91   
    67. A(O   5,Si  6,O  13)          106.80 -0.000780    0.16    106.96   
    68. A(O   5,Si  6,C  10)          110.90  0.000305    0.06    110.96   
    69. A(C   7,Si  6,C  10)          113.02 -0.002223    0.85    113.87   
    70. A(C   8,C   7,H  25)          108.07  0.000344   -0.22    107.85   
    71. A(Si  6,C   7,C   8)          111.82  0.000487   -0.20    111.62   
    72. A(Si  6,C   7,H  25)          106.67 -0.000666    0.38    107.04   
    73. A(C   8,C   7,C   9)          109.94 -0.000029   -0.01    109.93   
    74. A(Si  6,C   7,C   9)          112.31 -0.000459    0.18    112.50   
    75. A(C   9,C   7,H  25)          107.81  0.000335   -0.14    107.67   
    76. A(H  27,C   8,H  28)          108.33 -0.000178    0.16    108.49   
    77. A(C   7,C   8,H  28)          110.32 -0.000216    0.04    110.35   
    78. A(C   7,C   8,H  27)          111.30  0.000462   -0.16    111.13   
    79. A(C   7,C   8,H  26)          110.39  0.000362   -0.20    110.18   
    80. A(H  26,C   8,H  27)          108.06 -0.000318    0.08    108.14   
    81. A(H  26,C   8,H  28)          108.36 -0.000138    0.11    108.47   
    82. A(H  30,C   9,H  31)          108.60 -0.000229    0.18    108.78   
    83. A(C   7,C   9,H  31)          110.64  0.000289   -0.12    110.52   
    84. A(C   7,C   9,H  30)          110.51  0.000249   -0.08    110.43   
    85. A(C   7,C   9,H  29)          110.51  0.000322   -0.19    110.33   
    86. A(H  29,C   9,H  31)          108.25 -0.000451    0.16    108.42   
    87. A(H  29,C   9,H  30)          108.25 -0.000213    0.05    108.30   
    88. A(Si  6,C  10,C  12)          111.76  0.000926   -0.39    111.37   
    89. A(Si  6,C  10,H  32)          107.07 -0.000903    0.66    107.73   
    90. A(Si  6,C  10,C  11)          113.84 -0.000154   -0.00    113.84   
    91. A(C  11,C  10,C  12)          109.69 -0.000326   -0.14    109.55   
    92. A(C  12,C  10,H  32)          106.96  0.000061   -0.02    106.94   
    93. A(C  11,C  10,H  32)          107.16  0.000373   -0.07    107.10   
    94. A(C  10,C  11,H  35)          110.47  0.000133   -0.01    110.47   
    95. A(H  34,C  11,H  35)          108.35 -0.000318    0.17    108.52   
    96. A(H  33,C  11,H  35)          107.96 -0.000263    0.13    108.09   
    97. A(H  33,C  11,H  34)          108.34 -0.000253    0.05    108.39   
    98. A(C  10,C  11,H  34)          111.25  0.000111   -0.07    111.18   
    99. A(C  10,C  11,H  33)          110.37  0.000556   -0.26    110.11   
   100. A(H  36,C  12,H  38)          108.02 -0.000204    0.07    108.09   
   101. A(C  10,C  12,H  38)          110.91  0.000164   -0.08    110.83   
   102. A(H  36,C  12,H  37)          108.14 -0.000224    0.09    108.23   
   103. A(C  10,C  12,H  37)          110.53  0.000037   -0.01    110.52   
   104. A(C  10,C  12,H  36)          110.52  0.000447   -0.22    110.31   
   105. A(H  37,C  12,H  38)          108.61 -0.000245    0.17    108.78   
   106. A(Si  6,O  13,C  14)          118.77 -0.000673    0.40    119.17   
   107. A(O  13,C  14,C  15)          110.51  0.000432   -0.09    110.41   
   108. A(H  39,C  14,H  40)          108.48 -0.000237    0.34    108.82   
   109. A(O  13,C  14,H  40)          109.83 -0.000409    0.16    109.99   
   110. A(C  15,C  14,H  39)          109.35  0.000554   -0.15    109.20   
   111. A(O  13,C  14,H  39)          107.39 -0.000888    0.11    107.50   
   112. A(C  15,C  14,H  40)          111.19  0.000493   -0.35    110.84   
   113. A(H  16,C  15,O  17)          104.72 -0.000134   -0.18    104.54   
   114. A(C  14,C  15,O  17)          113.16 -0.000682    0.18    113.34   
   115. A(C   3,C  15,O  17)          110.40 -0.000147   -0.01    110.39   
   116. A(C  14,C  15,H  16)          107.12 -0.000040   -0.06    107.06   
   117. A(C   3,C  15,H  16)          108.32 -0.000347    0.22    108.53   
   118. A(C   3,C  15,C  14)          112.65  0.001251   -0.15    112.50   
   119. A(C  15,O  17,C  18)          116.68 -0.000005    0.23    116.91   
   120. A(O  20,C  18,C  22)          107.86  0.000058    0.00    107.87   
   121. A(H  19,C  18,C  22)          109.36  0.000849   -0.47    108.89   
   122. A(O  17,C  18,C  22)          112.02  0.000268    0.19    112.21   
   123. A(H  19,C  18,O  20)          109.87 -0.000746    0.43    110.31   
   124. A(O  17,C  18,O  20)          107.29 -0.001017    0.18    107.47   
   125. A(O  17,C  18,H  19)          110.38  0.000512   -0.31    110.07   
   126. A(C  18,O  20,C  21)          114.17 -0.001538    0.46    114.64   
   127. A(H  42,C  21,H  43)          109.78  0.000240   -0.15    109.62   
   128. A(H  41,C  21,H  43)          109.57 -0.000672    0.29    109.86   
   129. A(O  20,C  21,H  43)          110.71  0.000352   -0.09    110.62   
   130. A(H  41,C  21,H  42)          109.75 -0.000719    0.34    110.09   
   131. A(O  20,C  21,H  42)          110.99  0.000055   -0.02    110.96   
   132. A(O  20,C  21,H  41)          105.98  0.000725   -0.36    105.62   
   133. A(O  23,C  22,H  44)          110.10 -0.001883    0.66    110.76   
   134. A(C  18,C  22,H  44)          108.14  0.001025   -0.51    107.64   
   135. A(C  18,C  22,O  23)          108.36 -0.000249   -0.46    107.90   
   136. A(C   1,C  22,H  44)          109.57  0.001196   -0.43    109.14   
   137. A(C   1,C  22,O  23)          110.19  0.000290    0.42    110.62   
   138. A(C   1,C  22,C  18)          110.44 -0.000401    0.31    110.74   
   139. A(C  22,O  23,H  45)          106.15 -0.001693    0.69    106.85   
   140. D(C   3,C   1,O   0,H  24)     40.24  0.000678   -0.75     39.49   
   141. D(C  22,C   1,O   0,H  24)    161.16  0.000044   -0.56    160.60   
   142. D(H   2,C   1,O   0,H  24)    -80.71  0.000019   -0.59    -81.30   
   143. D(H   4,C   3,C   1,H   2)    175.18 -0.000737    0.96    176.14   
   144. D(H   4,C   3,C   1,C  22)    -64.33 -0.000116    0.22    -64.11   
   145. D(O   5,C   3,C   1,O   0)    -60.30  0.000114   -0.09    -60.39   
   146. D(O   5,C   3,C   1,C  22)   -179.53  0.000514   -0.27   -179.80   
   147. D(O   5,C   3,C   1,H   2)     59.98 -0.000108    0.47     60.46   
   148. D(H   4,C   3,C   1,O   0)     54.90 -0.000516    0.40     55.30   
   149. D(Si  6,O   5,C   3,C  15)     32.85 -0.000020   -0.71     32.14   
   150. D(Si  6,O   5,C   3,C   1)    -91.30  0.000351   -0.63    -91.92   
   151. D(Si  6,O   5,C   3,H   4)    152.34  0.000313   -0.84    151.50   
   152. D(O  13,Si  6,O   5,C   3)    -21.31 -0.000209    1.52    -19.80   
   153. D(C  10,Si  6,O   5,C   3)     97.22  0.000443    1.45     98.67   
   154. D(C   7,Si  6,O   5,C   3)   -138.03 -0.001406    2.25   -135.78   
   155. D(C   9,C   7,Si  6,O  13)    -30.97  0.000056   -0.11    -31.09   
   156. D(C   8,C   7,Si  6,O   5)    -39.46  0.000207   -0.43    -39.89   
   157. D(C   8,C   7,Si  6,O  13)   -155.13  0.000071   -0.09   -155.22   
   158. D(C   8,C   7,Si  6,C  10)     84.03 -0.000128   -0.09     83.93   
   159. D(C   9,C   7,Si  6,O   5)     84.70  0.000193   -0.46     84.24   
   160. D(C   9,C   7,Si  6,C  10)   -151.82 -0.000143   -0.12   -151.93   
   161. D(H  26,C   8,C   7,C   9)    -62.87  0.000427   -0.66    -63.52   
   162. D(H  27,C   8,C   7,C   9)    177.15  0.000285   -0.50    176.64   
   163. D(H  27,C   8,C   7,Si  6)    -57.38  0.000021   -0.42    -57.80   
   164. D(H  26,C   8,C   7,H  25)    179.71 -0.000158   -0.36    179.35   
   165. D(H  27,C   8,C   7,H  25)     59.72 -0.000300   -0.21     59.51   
   166. D(H  26,C   8,C   7,Si  6)     62.61  0.000164   -0.57     62.04   
   167. D(H  30,C   9,C   7,Si  6)    177.59 -0.000359   -0.24    177.35   
   168. D(H  29,C   9,C   7,H  25)   -179.83  0.000611   -0.82   -180.65   
   169. D(H  29,C   9,C   7,C   8)     62.58  0.000021   -0.48     62.11   
   170. D(H  29,C   9,C   7,Si  6)    -62.61 -0.000256   -0.34    -62.95   
   171. D(H  30,C   9,C   7,H  25)     60.37  0.000508   -0.71     59.65   
   172. D(H  30,C   9,C   7,C   8)    -57.21 -0.000082   -0.37    -57.59   
   173. D(C  12,C  10,Si  6,C   7)     60.56  0.000010    0.70     61.26   
   174. D(C  12,C  10,Si  6,O   5)   -177.25  0.000051    0.76   -176.48   
   175. D(C  11,C  10,Si  6,O  13)    175.05 -0.000438    1.41    176.46   
   176. D(C  11,C  10,Si  6,C   7)    -64.40 -0.000185    1.22    -63.18   
   177. D(C  12,C  10,Si  6,O  13)    -60.00 -0.000243    0.89    -59.11   
   178. D(C  11,C  10,Si  6,O   5)     57.80 -0.000144    1.28     59.08   
   179. D(H  34,C  11,C  10,C  12)   -179.10 -0.000291    0.14   -178.96   
   180. D(H  34,C  11,C  10,Si  6)    -53.05  0.000564   -0.50    -53.55   
   181. D(H  33,C  11,C  10,H  32)   -174.57 -0.000272    0.12   -174.45   
   182. D(H  33,C  11,C  10,C  12)    -58.80 -0.000165   -0.02    -58.82   
   183. D(H  33,C  11,C  10,Si  6)     67.25  0.000690   -0.65     66.59   
   184. D(H  34,C  11,C  10,H  32)     65.13 -0.000398    0.28     65.40   
   185. D(H  37,C  12,C  10,H  32)     57.87  0.000331   -0.64     57.23   
   186. D(H  37,C  12,C  10,C  11)    -58.03  0.000026   -0.48    -58.51   
   187. D(H  37,C  12,C  10,Si  6)    174.74 -0.000217   -0.06    174.68   
   188. D(H  36,C  12,C  10,H  32)    177.56  0.000363   -0.68    176.87   
   189. D(H  36,C  12,C  10,C  11)     61.66  0.000058   -0.52     61.14   
   190. D(H  36,C  12,C  10,Si  6)    -65.57 -0.000185   -0.10    -65.67   
   191. D(C  14,O  13,Si  6,C  10)    -87.81 -0.000125   -1.61    -89.43   
   192. D(C  14,O  13,Si  6,C   7)    148.83  0.001541   -2.24    146.59   
   193. D(C  14,O  13,Si  6,O   5)     32.01  0.000225   -1.54     30.47   
   194. D(H  40,C  14,O  13,Si  6)     69.63  0.000681    0.35     69.97   
   195. D(H  39,C  14,O  13,Si  6)   -172.60 -0.000333    0.89   -171.70   
   196. D(C  15,C  14,O  13,Si  6)    -53.40  0.000046    0.74    -52.67   
   197. D(H  16,C  15,C   3,H   4)    -51.20  0.000462   -0.44    -51.64   
   198. D(H  16,C  15,C   3,C   1)   -169.28  0.000096   -0.28   -169.55   
   199. D(C  14,C  15,C   3,O   5)    -51.60 -0.000313   -0.25    -51.85   
   200. D(C  14,C  15,C   3,H   4)   -169.50 -0.000013   -0.43   -169.93   
   201. D(H  16,C  15,C   3,O   5)     66.70  0.000162   -0.26     66.44   
   202. D(C  14,C  15,C   3,C   1)     72.42 -0.000380   -0.26     72.15   
   203. D(H  16,C  15,C  14,H  40)   -178.82  0.000228    0.21   -178.60   
   204. D(H  16,C  15,C  14,H  39)     61.42 -0.000146    0.10     61.52   
   205. D(H  16,C  15,C  14,O  13)    -56.58  0.000345    0.11    -56.47   
   206. D(C   3,C  15,C  14,H  40)    -59.81  0.000505    0.37    -59.45   
   207. D(C   3,C  15,C  14,H  39)   -179.58  0.000132    0.25   -179.33   
   208. D(C   3,C  15,C  14,O  13)     62.42  0.000622    0.26     62.68   
   209. D(C  18,O  17,C  15,H  16)    173.34  0.000025    0.17    173.51   
   210. D(C  18,O  17,C  15,C  14)    -70.34 -0.000448    0.09    -70.25   
   211. D(C  18,O  17,C  15,C   3)     56.96  0.000574    0.02     56.97   
   212. D(C  22,C  18,O  17,C  15)    -55.22 -0.001066    0.80    -54.41   
   213. D(O  20,C  18,O  17,C  15)   -173.41 -0.000654    0.57   -172.84   
   214. D(H  19,C  18,O  17,C  15)     66.90  0.000571    0.12     67.01   
   215. D(C  21,O  20,C  18,C  22)    169.14  0.000480   -0.94    168.20   
   216. D(C  21,O  20,C  18,H  19)     50.01 -0.000153   -0.63     49.38   
   217. D(C  21,O  20,C  18,O  17)    -70.00  0.000261   -0.61    -70.61   
   218. D(H  43,C  21,O  20,C  18)    -60.22 -0.000267    0.13    -60.09   
   219. D(H  42,C  21,O  20,C  18)     61.95  0.000320   -0.13     61.81   
   220. D(H  41,C  21,O  20,C  18)   -178.96 -0.000079    0.05   -178.91   
   221. D(O  23,C  22,C  18,O  20)    -70.53 -0.000138   -0.38    -70.91   
   222. D(O  23,C  22,C  18,H  19)     48.92 -0.000518   -0.11     48.81   
   223. D(C   1,C  22,C  18,O  20)    168.68 -0.000093   -0.81    167.87   
   224. D(C   1,C  22,C  18,H  19)    -71.86 -0.000473   -0.55    -72.41   
   225. D(C   1,C  22,C  18,O  17)     50.84  0.000959   -1.15     49.69   
   226. D(O  23,C  22,C   1,C   3)   -171.64 -0.000288    0.85   -170.79   
   227. D(O  23,C  22,C   1,H   2)    -50.72  0.000650   -0.04    -50.76   
   228. D(O  23,C  22,C   1,O   0)     67.15  0.000003    0.54     67.69   
   229. D(O  23,C  22,C  18,O  17)    171.62  0.000914   -0.72    170.90   
   230. D(C  18,C  22,C   1,C   3)    -51.96 -0.000668    0.74    -51.22   
   231. D(C  18,C  22,C   1,H   2)     68.96  0.000270   -0.14     68.82   
   232. D(C  18,C  22,C   1,O   0)   -173.17 -0.000376    0.44   -172.73   
   233. D(H  45,O  23,C  22,H  44)     65.44  0.000024    0.04     65.48   
   234. D(H  45,O  23,C  22,C  18)   -176.47  0.000039   -0.45   -176.93   
   235. D(H  45,O  23,C  22,C   1)    -55.54 -0.000434   -0.10    -55.64   
    ----------------------------------------------------------------------------

Geometry step timings:
Preparation and reading OPT file:      0.001 s ( 4.667 %)
Internal coordinates            :      0.000 s ( 0.151 %)
B/P matrices and projection     :      0.004 s (22.615 %)
Hessian update/contruction      :      0.009 s (43.931 %)
Making the step                 :      0.003 s (14.892 %)
Converting the step to Cartesian:      0.000 s ( 1.999 %)
Storing new data                :      0.001 s ( 4.012 %)
Checking convergence            :      0.000 s ( 0.146 %)
Final printing                  :      0.002 s ( 7.572 %)
Total time                      :      0.020 s

Time for energy+gradient        :      0.076 s
Time for complete geometry iter :      0.106 s

         *************************************************************
         *                GEOMETRY OPTIMIZATION CYCLE   4            *
         *************************************************************
---------------------------------
CARTESIAN COORDINATES (ANGSTROEM)
---------------------------------
  O    -3.772805    0.013422   -0.386513
  C    -2.479009   -0.427819   -0.054836
  H    -1.838754   -0.391161   -0.951561
  C    -1.864235    0.442282    1.041212
  H    -2.555573    0.444251    1.896871
  O    -1.770276    1.767857    0.606627
  Si   -0.430388    2.386285   -0.139624
  C    -0.066368    4.093474    0.617081
  C    -1.348921    4.880735    0.871974
  C     0.752469    4.000045    1.904720
  C    -0.657787    2.413797   -2.052902
  C    -1.855545    3.241058   -2.520867
  C     0.608563    2.902833   -2.757579
  O     0.829128    1.388386    0.230355
  C     0.580493    0.032158    0.448850
  C    -0.524532   -0.146697    1.496110
  H    -0.199994    0.382436    2.399994
  O    -0.691168   -1.483202    1.909381
  C    -1.248975   -2.381586    0.965292
  H    -0.546150   -2.529705    0.119207
  O    -1.474889   -3.576752    1.614502
  C    -0.300749   -4.297183    1.952545
  C    -2.590926   -1.884003    0.414739
  O    -2.956250   -2.719044   -0.649548
  H    -3.760604    0.979742   -0.381345
  H     0.527046    4.647714   -0.113786
  H    -1.974680    4.355848    1.587387
  H    -1.917399    5.009504   -0.043382
  H    -1.115377    5.865240    1.274849
  H     0.194964    3.464014    2.668699
  H     0.980795    4.995225    2.283008
  H     1.684046    3.471866    1.725843
  H    -0.829859    1.379490   -2.384599
  H    -1.690768    4.292748   -2.304004
  H    -2.767380    2.927439   -2.022619
  H    -1.994670    3.135312   -3.595280
  H     0.799870    3.943345   -2.510041
  H     0.498699    2.824441   -3.837481
  H     1.471465    2.318887   -2.450520
  H     1.506534   -0.416299    0.822217
  H     0.307096   -0.454585   -0.492788
  H    -0.645314   -5.209635    2.432613
  H     0.324625   -3.724390    2.640684
  H     0.273272   -4.544038    1.052264
  H    -3.328137   -1.944559    1.228507
  H    -3.777631   -2.362925   -1.015995

----------------------------
CARTESIAN COORDINATES (A.U.)
----------------------------
  NO LB    ZA    FRAG    MASS        X           Y           Z
   0 O   8.0000    1    15.999   -7.129568    0.025364   -0.730403
   1 C   6.0000    1    12.011   -4.684648   -0.808461   -0.103626
   2 H   1.0000    1     1.008   -3.474741   -0.739188   -1.798190
   3 C   6.0000    1    12.011   -3.522893    0.835792    1.967605
   4 H   1.0000    1     1.008   -4.829333    0.839512    3.584566
   5 O   8.0000    1    15.999   -3.345336    3.340766    1.146359
   6 Si 14.0000    1    28.086   -0.813316    4.509426   -0.263852
   7 C   6.0000    1    12.011   -0.125418    7.735546    1.166114
   8 C   6.0000    1    12.011   -2.549092    9.223252    1.647792
   9 C   6.0000    1    12.011    1.421961    7.558989    3.599399
  10 C   6.0000    1    12.011   -1.243038    4.561416   -3.879422
  11 C   6.0000    1    12.011   -3.506472    6.124712   -4.763748
  12 C   6.0000    1    12.011    1.150018    5.485559   -5.211070
  13 O   8.0000    1    15.999    1.566824    2.623668    0.435308
  14 C   6.0000    1    12.011    1.096974    0.060771    0.848203
  15 C   6.0000    1    12.011   -0.991222   -0.277217    2.827238
  16 H   1.0000    1     1.008   -0.377934    0.722700    4.535332
  17 O   8.0000    1    15.999   -1.306119   -2.802846    3.608206
  18 C   6.0000    1    12.011   -2.360221   -4.500545    1.824137
  19 H   1.0000    1     1.008   -1.032075   -4.780450    0.225269
  20 O   8.0000    1    15.999   -2.787136   -6.759081    3.050967
  21 C   6.0000    1    12.011   -0.568333   -8.120499    3.689776
  22 C   6.0000    1    12.011   -4.896141   -3.560249    0.783743
  23 O   8.0000    1    15.999   -5.586503   -5.138249   -1.227468
  24 H   1.0000    1     1.008   -7.106512    1.851444   -0.720638
  25 H   1.0000    1     1.008    0.995973    8.782907   -0.215025
  26 H   1.0000    1     1.008   -3.731605    8.231359    2.999726
  27 H   1.0000    1     1.008   -3.623358    9.466591   -0.081980
  28 H   1.0000    1     1.008   -2.107757   11.083697    2.409116
  29 H   1.0000    1     1.008    0.368428    6.546038    5.043109
  30 H   1.0000    1     1.008    1.853434    9.439607    4.314259
  31 H   1.0000    1     1.008    3.182386    6.560876    3.261371
  32 H   1.0000    1     1.008   -1.568207    2.606859   -4.506238
  33 H   1.0000    1     1.008   -3.195089    8.112118   -4.353937
  34 H   1.0000    1     1.008   -5.229590    5.532058   -3.822196
  35 H   1.0000    1     1.008   -3.769380    5.924880   -6.794094
  36 H   1.0000    1     1.008    1.511536    7.451842   -4.743289
  37 H   1.0000    1     1.008    0.942404    5.337420   -7.251789
  38 H   1.0000    1     1.008    2.780666    4.382062   -4.630812
  39 H   1.0000    1     1.008    2.846936   -0.786691    1.553765
  40 H   1.0000    1     1.008    0.580327   -0.859041   -0.931233
  41 H   1.0000    1     1.008   -1.219466   -9.844783    4.596972
  42 H   1.0000    1     1.008    0.613452   -7.038078    4.990170
  43 H   1.0000    1     1.008    0.516409   -8.586987    1.988491
  44 H   1.0000    1     1.008   -6.289268   -3.674684    2.321543
  45 H   1.0000    1     1.008   -7.138688   -4.465282   -1.919952

      -----------------------------------------------------------      
     |                   =====================                   |     
     |                           x T B                           |     
     |                   =====================                   |     
     |                         S. Grimme                         |     
     |          Mulliken Center for Theoretical Chemistry        |     
     |                    University of Bonn                     |     
      -----------------------------------------------------------      

   * xtb version 6.7.1 (edcfbbe) compiled by 'albert@albert-system' on 2024-07-22

   xtb is free software: you can redistribute it and/or modify it under
   the terms of the GNU Lesser General Public License as published by
   the Free Software Foundation, either version 3 of the License, or
   (at your option) any later version.
   
   xtb is distributed in the hope that it will be useful,
   but WITHOUT ANY WARRANTY; without even the implied warranty of
   MERCHANTABILITY or FITNESS FOR A PARTICULAR PURPOSE.  See the
   GNU Lesser General Public License for more details.
   
   Cite this work as:
   * C. Bannwarth, E. Caldeweyher, S. Ehlert, A. Hansen, P. Pracht,
     J. Seibert, S. Spicher, S. Grimme, WIREs Comput. Mol. Sci., 2020, 11,
     e01493. DOI: 10.1002/wcms.1493
   
   for GFN2-xTB:
   * C. Bannwarth, S. Ehlert and S. Grimme., J. Chem. Theory Comput., 2019,
     15, 1652-1671. DOI: 10.1021/acs.jctc.8b01176
   for GFN1-xTB:
   * S. Grimme, C. Bannwarth, P. Shushkov, J. Chem. Theory Comput., 2017,
     13, 1989-2009. DOI: 10.1021/acs.jctc.7b00118
   for GFN0-xTB:
   * P. Pracht, E. Caldeweyher, S. Ehlert, S. Grimme, ChemRxiv, 2019, preprint.
     DOI: 10.26434/chemrxiv.8326202.v1
   for GFN-FF:
   * S. Spicher and S. Grimme, Angew. Chem. Int. Ed., 2020, 59, 15665-15673.
     DOI: 10.1002/anie.202004239
   
   for ALPB and GBSA implicit solvation:
   * S. Ehlert, M. Stahn, S. Spicher, S. Grimme, J. Chem. Theory Comput.,
     2021, 17, 4250-4261. DOI: 10.1021/acs.jctc.1c00471
   
   for ddCOSMO and CPCM-X implicit solvation:
   * M. Stahn, S. Ehlert, S. Grimme, J. Phys. Chem. A,
     2023, XX, XXXX-XXXX. DOI: 10.1021/acs.jpca.3c04382
   
   for DFT-D4:
   * E. Caldeweyher, C. Bannwarth and S. Grimme, J. Chem. Phys., 2017,
     147, 034112. DOI: 10.1063/1.4993215
   * E. Caldeweyher, S. Ehlert, A. Hansen, H. Neugebauer, S. Spicher,
     C. Bannwarth and S. Grimme, J. Chem. Phys., 2019, 150, 154122.
     DOI: 10.1063/1.5090222
   * E. Caldeweyher, J.-M. Mewes, S. Ehlert and S. Grimme, Phys. Chem. Chem. Phys.
     2020, 22, 8499-8512. DOI: 10.1039/D0CP00502A
   
   for sTDA-xTB:
   * S. Grimme and C. Bannwarth, J. Chem. Phys., 2016, 145, 054103.
     DOI: 10.1063/1.4959605
   
   in the mass-spec context:
   * V. Asgeirsson, C. Bauer and S. Grimme, Chem. Sci., 2017, 8, 4879.
     DOI: 10.1039/c7sc00601b
   * J. Koopman and S. Grimme, ACS Omega 2019, 4, 12, 15120-15133.
     DOI: 10.1021/acsomega.9b02011
   
   for metadynamics refer to:
   * S. Grimme, J. Chem. Theory Comput., 2019, 155, 2847-2862
     DOI: 10.1021/acs.jctc.9b00143
   
   for SPH calculations refer to:
   * S. Spicher and S. Grimme, J. Chem. Theory Comput., 2021, 17, 1701-1714
     DOI: 10.1021/acs.jctc.0c01306
   
   for ONIOM refer to:
   * C. Plett, A. Katbashev, S. Ehlert, S. Grimme, M. Bursch,
     Phys. Chem. Chem. Phys., 2023, 25, 17860-17868. DOI: 10.1039/D3CP02178E
   
   for DIPRO refer to:
   * J. Kohn, N. Gildemeister, S. Grimme, D. Fazzi, A. Hansen,
     J. Chem. Phys., 2023, just accepted.
   
   for PTB refer to:
   * S. Grimme, M. Mueller, A. Hansen, J. Chem. Phys., 2023, 158, 124111.
     DOI: 10.1063/5.0137838
   
   with help from (in alphabetical order)
   P. Atkinson, C. Bannwarth, F. Bohle, G. Brandenburg, E. Caldeweyher
   M. Checinski, S. Dohm, S. Ehlert, S. Ehrlich, I. Gerasimov, C. Hölzer
   A. Katbashev, J. Kohn, J. Koopman, C. Lavigne, S. Lehtola, F. März, M. Müller,
   F. Musil, H. Neugebauer, J. Pisarek, C. Plett, P. Pracht, F. Pultar,
   J. Seibert, P. Shushkov, S. Spicher, M. Stahn, M. Steiner, T. Strunk,
   J. Stückrath, T. Rose, and J. Unsleber
   
 * started run on 2025/09/10 at 11:29:46.372     
   ID    Z sym.   atoms
    1    8 O      1, 6, 14, 18, 21, 24
    2    6 C      2, 4, 8-13, 15, 16, 19, 22, 23
    3    1 H      3, 5, 17, 20, 25-46
    4   14 Si     7

           -------------------------------------------------
          |                Calculation Setup                |
           -------------------------------------------------

          program call               : /home/kmoult/orca_6_1/otool_xtb goat_0_XTB.xyz --grad -c 0 -u 0 -P 4 --namespace goat_0 --input goat_0_XTB.input.tmp --alpb ACETONE --acc 0.200000
          hostname                   : node2704
          calculation namespace      : goat_0
          coordinate file            : goat_0_XTB.xyz
          omp threads                :                     4


           -------------------------------------------------
          |                 G F N 2 - x T B                 |
           -------------------------------------------------

        Reference                      10.1021/acs.jctc.8b01176
      * Hamiltonian:
        H0-scaling (s, p, d)           1.850000    2.230000    2.230000
        zeta-weighting                 0.500000
      * Dispersion:
        s8                             2.700000
        a1                             0.520000
        a2                             5.000000
        s9                             5.000000
      * Repulsion:
        kExp                           1.500000    1.000000
        rExp                           1.000000
      * Coulomb:
        alpha                          2.000000
        third order                    shell-resolved
        anisotropic                    true
        a3                             3.000000
        a5                             4.000000
        cn-shift                       1.200000
        cn-exp                         4.000000
        max-rad                        5.000000

      * Solvation model:               ALPB
        Solvent                        ACETONE
        Parameter file                 internal GFN2-xTB/ALPB
        Dielectric constant                2.0700E+01
        Reference state                gsolv [1 M gas/solution]
        Free energy shift                  5.9241E-03 Eh       3.7175E+00 kcal/mol
        Temperature                        2.9815E+02 K
        Density                            7.9000E-01 kg/L
        Solvent mass                       5.8080E+01 g/mol
        Interaction kernel             P16
        Born radius scaling (c1)           1.8274E+00
        Born radii integrator          GBOBC
        Born offset                        0.0000E+00 a0       0.0000E+00 AA
        H-bond correction              true
        Ion screening                  false
        Surface tension                    1.0000E-05 Eh       1.5569E+01 dyn/cm
        Grid points                               230 per atom
q/qsh data taken from xtbrestart
CAMM data taken from xtbrestart

          ...................................................
          :                      SETUP                      :
          :.................................................:
          :  # basis functions                 112          :
          :  # atomic orbitals                 111          :
          :  # shells                           67          :
          :  # electrons                       118          :
          :  max. iterations                   250          :
          :  Hamiltonian                  GFN2-xTB          :
          :  restarted?                       true          :
          :  GBSA solvation                   true          :
          :  PC potential                    false          :
          :  electronic temp.          300.0000000     K    :
          :  accuracy                    0.2000000          :
          :  -> integral cutoff          0.3198970E+02      :
          :  -> integral neglect         0.2000000E-08      :
          :  -> SCF convergence          0.2000000E-06 Eh   :
          :  -> wf. convergence          0.2000000E-04 e    :
          :  Broyden damping             0.4000000          :
          :  net charge                          0          :
          :  unpaired electrons                  0          :
          ...................................................

 iter      E             dE          RMSdq      gap      omega  full diag
   1    -68.0103444 -0.680103E+02  0.924E-02    5.71       0.0  T
   2    -68.0103494 -0.499686E-05  0.602E-02    5.70       1.0  T
   3    -68.0103423  0.711142E-05  0.183E-02    5.71       1.0  T
   4    -68.0103512 -0.885312E-05  0.106E-02    5.70       1.4  T
   5    -68.0103517 -0.507823E-06  0.500E-03    5.71       2.9  T
   6    -68.0103518 -0.893039E-07  0.135E-03    5.70      10.9  T
   7    -68.0103518 -0.132743E-07  0.894E-04    5.71      16.5  T
   8    -68.0103518 -0.188447E-08  0.407E-04    5.71      36.3  T
   9    -68.0103518 -0.242409E-09  0.166E-04    5.71      89.0  T
  10    -68.0103518 -0.741380E-10  0.750E-05    5.71     196.6  T

   *** convergence criteria satisfied after 10 iterations ***

         #    Occupation            Energy/Eh            Energy/eV
      -------------------------------------------------------------
         1        2.0000           -0.8166848             -22.2231
       ...           ...                  ...                  ...
        53        2.0000           -0.4304391             -11.7128
        54        2.0000           -0.4255053             -11.5786
        55        2.0000           -0.4210094             -11.4562
        56        2.0000           -0.4175775             -11.3629
        57        2.0000           -0.4159630             -11.3189
        58        2.0000           -0.4091484             -11.1335
        59        2.0000           -0.3781161             -10.2891 (HOMO)
        60                         -0.1684544              -4.5839 (LUMO)
        61                         -0.1292004              -3.5157
        62                         -0.1005919              -2.7372
        63                         -0.0488852              -1.3302
        64                         -0.0093043              -0.2532
       ...                                ...                  ...
       111                          0.7823637              21.2892
      -------------------------------------------------------------
                  HL-Gap            0.2096617 Eh            5.7052 eV
             Fermi-level           -0.2732852 Eh           -7.4365 eV

 SCC (total)                   0 d,  0 h,  0 min,  0.043 sec
 SCC setup                      ...        0 min,  0.001 sec (  1.331%)
 Dispersion                     ...        0 min,  0.000 sec (  0.637%)
 classical contributions        ...        0 min,  0.000 sec (  0.094%)
 integral evaluation            ...        0 min,  0.017 sec ( 39.325%)
 iterations                     ...        0 min,  0.016 sec ( 37.583%)
 molecular gradient             ...        0 min,  0.009 sec ( 20.673%)
 printout                       ...        0 min,  0.000 sec (  0.317%)

         :::::::::::::::::::::::::::::::::::::::::::::::::::::
         ::                     SUMMARY                     ::
         :::::::::::::::::::::::::::::::::::::::::::::::::::::
         :: total energy             -67.354211035006 Eh    ::
         :: total w/o Gsasa/hb       -67.326867686876 Eh    ::
         :: gradient norm              0.007997393500 Eh/a0 ::
         :: HOMO-LUMO gap              5.705184555601 eV    ::
         ::.................................................::
         :: SCC energy               -68.009439829255 Eh    ::
         :: -> isotropic ES            0.154282340511 Eh    ::
         :: -> anisotropic ES          0.001069464229 Eh    ::
         :: -> anisotropic XC          0.001880630719 Eh    ::
         :: -> dispersion             -0.045060170065 Eh    ::
         :: -> Gsolv                  -0.030362991063 Eh    ::
         ::    -> Gelec               -0.003019642933 Eh    ::
         ::    -> Gsasa               -0.027859690462 Eh    ::
         ::    -> Ghb                 -0.005407798931 Eh    ::
         ::    -> Gshift               0.005924141264 Eh    ::
         :: repulsion energy           0.655228794249 Eh    ::
         :: add. restraining           0.000000000000 Eh    ::
         :: total charge              -0.000000000000 e     ::
         :::::::::::::::::::::::::::::::::::::::::::::::::::::


Property printout bound to 'properties.out'

           -------------------------------------------------
          | TOTAL ENERGY              -67.354211035006 Eh   |
          | GRADIENT NORM               0.007997393500 Eh/α |
          | HOMO-LUMO GAP               5.705184555601 eV   |
           -------------------------------------------------

------------------------------------------------------------------------
 * finished run on 2025/09/10 at 11:29:46.436     
------------------------------------------------------------------------
 total:
 * wall-time:     0 d,  0 h,  0 min,  0.063 sec
 *  cpu-time:     0 d,  0 h,  0 min,  0.222 sec
 * ratio c/w:     3.500 speedup
 SCF:
 * wall-time:     0 d,  0 h,  0 min,  0.043 sec
 *  cpu-time:     0 d,  0 h,  0 min,  0.158 sec
 * ratio c/w:     3.699 speedup


-------------------------   --------------------
FINAL SINGLE POINT ENERGY       -67.354211035010
-------------------------   --------------------


-------------
DIPOLE MOMENT
-------------
                                X             Y             Z
Total Dipole Moment    :      0.36600       0.84000      -0.37900
                        -----------------------------------------
Magnitude (a.u.)       :      0.99156
Magnitude (Debye)      :      2.52035


------------------
CARTESIAN GRADIENT
------------------

   1   O   :   -0.000352765   -0.000225288    0.000160566
   2   C   :    0.001465213    0.000848757   -0.000114428
   3   H   :    0.000025298   -0.000105353   -0.000106890
   4   C   :   -0.000156536   -0.000140190   -0.000511149
   5   H   :   -0.000375205    0.000646547   -0.000196547
   6   O   :   -0.001807069   -0.002358065    0.002391200
   7   Si  :    0.001019676    0.002139136   -0.000218348
   8   C   :   -0.000915861    0.000312653   -0.000041787
   9   C   :    0.000375615   -0.000793513   -0.000466413
  10   C   :   -0.000106210   -0.000168578   -0.000456769
  11   C   :    0.000783111    0.002169308   -0.001050910
  12   C   :   -0.000071032   -0.000408842    0.000299244
  13   C   :   -0.000543039   -0.000215586   -0.000022846
  14   O   :    0.000938219   -0.002352718    0.001772893
  15   C   :   -0.000693870    0.000582298   -0.000274659
  16   C   :    0.000610916    0.000424291   -0.001182803
  17   H   :   -0.000042015   -0.000337596    0.000232806
  18   O   :   -0.001350527    0.000072918   -0.000834441
  19   C   :   -0.001162679    0.000492609    0.000469272
  20   H   :    0.000328266   -0.000610915   -0.000267037
  21   O   :    0.001562769    0.001082882   -0.000694547
  22   C   :   -0.000830008    0.000749461   -0.000040165
  23   C   :   -0.000302260    0.000417550    0.000707693
  24   O   :   -0.000264647   -0.000708920   -0.000019613
  25   H   :    0.000640141   -0.000664596    0.000116888
  26   H   :   -0.000131369   -0.000890186   -0.000240149
  27   H   :    0.000314595    0.000237936   -0.000272962
  28   H   :    0.000028041   -0.000075765    0.000401802
  29   H   :    0.000027680   -0.000164554    0.000013637
  30   H   :    0.000336796    0.000116002   -0.000381047
  31   H   :   -0.000079941   -0.000223469    0.000032381
  32   H   :   -0.000401926    0.000068643    0.000117274
  33   H   :    0.000059210   -0.000534992    0.000233144
  34   H   :   -0.000053315   -0.000407538   -0.000161134
  35   H   :    0.000330761    0.000143868   -0.000249470
  36   H   :   -0.000017463    0.000080010    0.000218287
  37   H   :   -0.000005197   -0.000433890   -0.000065604
  38   H   :   -0.000024298    0.000130817    0.000245914
  39   H   :   -0.000261808    0.000259665   -0.000041822
  40   H   :    0.000273573    0.000335601   -0.000031635
  41   H   :   -0.000239937    0.000338035   -0.000122663
  42   H   :    0.000099279    0.000101013   -0.000059350
  43   H   :   -0.000031537   -0.000166159    0.000077737
  44   H   :    0.000125060   -0.000255088   -0.000061704
  45   H   :    0.000140110   -0.000334818   -0.000101195
  46   H   :    0.000736185    0.000826619    0.000797348

Difference to translation invariance:
           :   -0.0000000000   -0.0000000000    0.0000000000

Difference to rotation invariance:
           :    0.0000361082    0.0003903703    0.0005283769

Norm of the Cartesian gradient     ...    0.0079973935
RMS gradient                       ...    0.0006807833
MAX gradient                       ...    0.0023912005
------------------------------------------------------------------------------
                         ORCA GEOMETRY RELAXATION STEP
------------------------------------------------------------------------------

Reading the OPT-File                    .... done
Getting information on internals        .... done
Copying old internal coords+grads       .... done
Making the new internal coordinates     .... (2022 redundants) done
Validating the new internal coordinates .... (2022 redundants) done
Calculating the B-matrix                .... done
Calculating the G,G- and P matrices     .... done
Transforming gradient to internals      .... done
Projecting the internal gradient        .... done
Number of atoms                         ....  46
Number of internal coordinates          .... 235
Current Energy                          ....   -67.354211035 Eh
Current gradient norm                   ....     0.007997394 Eh/bohr
Maximum allowed component of the step   ....  0.300
Current trust radius                    ....  0.450
Updating the Hessian (BFGS)             .... done
Forming the augmented Hessian           .... done
Diagonalizing the augmented Hessian     .... done
Last element of RFO vector              ....  0.986766089
Lowest eigenvalues of augmented Hessian:
 -0.000407355  0.008592653  0.010016235  0.010694446  0.010824620
Length of the computed step             ....  0.164324857
The final length of the internal step   ....  0.164324857
Converting the step to Cartesian space:
 Initial RMS(Int)=    0.0107193717
Transforming coordinates:
 Iter   0:  RMS(Cart)=    0.0509435037 RMS(Int)=    0.4095223107
done
Storing new coordinates                 .... done
The predicted energy change is          ....    -0.000209177
Previously predicted energy change      ....    -0.000420800
Actually observed energy change         ....    -0.000574686
Ratio of predicted to observed change   ....     1.365699918
New trust radius                        ....     0.450000000

                                .--------------------.
          ----------------------|Geometry convergence|-------------------------
          Item                value                   Tolerance       Converged
          ---------------------------------------------------------------------
          Energy change      -0.0005746861            0.0000050000      NO
          RMS gradient        0.0004467426            0.0001000000      NO
          MAX gradient        0.0020386315            0.0003000000      NO
          RMS step            0.0107193717            0.0020000000      NO
          MAX step            0.0535828325            0.0040000000      NO
          -------------------------------------------------------------------------
          ........................................................
          Max(Bonds)      0.0284      Max(Angles)    0.65
          Max(Dihed)        2.38      Max(Improp)    0.00
          ---------------------------------------------------------------------

    ---------------------------------------------------------------------------
                         Redundant Internal Coordinates
                            (Angstroem and degrees)

        Definition                    Value    dE/dq     Step     New-Value
    ----------------------------------------------------------------------------
     1. B(C   1,O   0)                1.4066 -0.000111 -0.0013    1.4054   
     2. B(H   2,C   1)                1.1024  0.000099  0.0002    1.1026   
     3. B(C   3,C   1)                1.5285 -0.000502  0.0023    1.5308   
     4. B(H   4,C   3)                1.1000  0.000084 -0.0002    1.0999   
     5. B(O   5,C   3)                1.3982 -0.001936  0.0017    1.3999   
     6. B(Si  6,O   5)                1.6537  0.001909 -0.0037    1.6499   
     7. B(C   7,Si  6)                1.9025 -0.002039  0.0026    1.9051   
     8. B(C   8,C   7)                1.5263 -0.001096  0.0027    1.5290   
     9. B(C   9,C   7)                1.5288 -0.000698  0.0016    1.5304   
    10. B(C  10,Si  6)                1.9269  0.000575 -0.0026    1.9243   
    11. B(C  11,C  10)                1.5290 -0.000509  0.0013    1.5304   
    12. B(C  12,C  10)                1.5295 -0.000820  0.0021    1.5316   
    13. B(O  13,Si  6)                1.6490  0.001142 -0.0030    1.6460   
    14. B(C  14,O  13)                1.3960 -0.001666  0.0020    1.3980   
    15. B(C  15,C   3)                1.5325 -0.000680  0.0012    1.5337   
    16. B(C  15,C  14)                1.5329 -0.000682  0.0016    1.5345   
    17. B(H  16,C  15)                1.0965  0.000016 -0.0001    1.0964   
    18. B(O  17,C  15)                1.4088 -0.001072  0.0010    1.4099   
    19. B(C  18,O  17)                1.4176 -0.001456  0.0023    1.4199   
    20. B(H  19,C  18)                1.1098  0.000492 -0.0004    1.1095   
    21. B(O  20,C  18)                1.3787 -0.001823  0.0005    1.3792   
    22. B(C  21,O  20)                1.4184 -0.000777  0.0016    1.4200   
    23. B(C  22,C  18)                1.5335 -0.001344  0.0040    1.5375   
    24. B(C  22,C   1)                1.5341  0.000076  0.0016    1.5358   
    25. B(O  23,C  22)                1.4012 -0.000317 -0.0013    1.3999   
    26. B(H  24,O   0)                0.9664 -0.000813  0.0009    0.9673   
    27. B(H  24,O   5)                2.3577 -0.000456  0.0119    2.3696   
    28. B(H  25,C   7)                1.0925 -0.000362  0.0009    1.0933   
    29. B(H  26,C   8)                1.0858 -0.000478  0.0008    1.0866   
    30. B(H  27,C   8)                1.0852 -0.000363  0.0005    1.0857   
    31. B(H  28,C   8)                1.0891 -0.000138  0.0001    1.0891   
    32. B(H  29,C   9)                1.0871 -0.000497  0.0009    1.0880   
    33. B(H  30,C   9)                1.0889 -0.000210  0.0002    1.0890   
    34. B(H  31,C   9)                1.0857 -0.000397  0.0005    1.0863   
    35. B(H  32,C  10)                1.0997  0.000424 -0.0010    1.0987   
    36. B(H  33,C  11)                1.0864 -0.000434  0.0008    1.0872   
    37. B(H  34,C  11)                1.0854 -0.000437  0.0006    1.0860   
    38. B(H  35,C  11)                1.0885 -0.000220  0.0002    1.0887   
    39. B(H  36,C  12)                1.0865 -0.000432  0.0008    1.0873   
    40. B(H  37,C  12)                1.0883 -0.000252  0.0003    1.0886   
    41. B(H  38,C  12)                1.0862 -0.000356  0.0005    1.0867   
    42. B(H  39,C  14)                1.0946  0.000083 -0.0004    1.0942   
    43. B(H  40,C  14)                1.0947  0.000015 -0.0002    1.0945   
    44. B(H  41,C  21)                1.0871 -0.000141  0.0000    1.0871   
    45. B(H  42,C  21)                1.0921 -0.000058  0.0000    1.0921   
    46. B(H  43,C  21)                1.0959  0.000171 -0.0004    1.0955   
    47. B(H  44,C  22)                1.0997 -0.000150  0.0007    1.1004   
    48. B(H  45,O   0)                2.4583 -0.000604  0.0284    2.4867   
    49. B(H  45,O  23)                0.9674 -0.000776  0.0009    0.9682   
    50. A(C   1,O   0,H  24)          107.50 -0.000438    0.41    107.91   
    51. A(H   2,C   1,C   3)          109.31  0.000301   -0.38    108.93   
    52. A(O   0,C   1,C   3)          111.13 -0.000004    0.15    111.28   
    53. A(H   2,C   1,C  22)          108.84  0.000096   -0.19    108.65   
    54. A(O   0,C   1,H   2)          109.39  0.000071    0.22    109.61   
    55. A(O   0,C   1,C  22)          107.63 -0.000269    0.09    107.72   
    56. A(C   3,C   1,C  22)          110.50 -0.000200    0.11    110.61   
    57. A(O   5,C   3,C  15)          113.45 -0.000151   -0.09    113.35   
    58. A(C   1,C   3,H   4)          107.82  0.000053   -0.08    107.74   
    59. A(H   4,C   3,C  15)          108.61  0.000537   -0.28    108.33   
    60. A(H   4,C   3,O   5)          106.40 -0.000386    0.32    106.71   
    61. A(C   1,C   3,C  15)          110.22 -0.000364    0.11    110.33   
    62. A(C   1,C   3,O   5)          110.11  0.000328    0.03    110.14   
    63. A(C   3,O   5,Si  6)          123.32 -0.000022    0.32    123.64   
    64. A(C  10,Si  6,O  13)          108.76  0.000403   -0.16    108.60   
    65. A(O   5,Si  6,C   7)          108.13  0.000426   -0.34    107.79   
    66. A(C   7,Si  6,O  13)          107.92  0.000363   -0.37    107.55   
    67. A(O   5,Si  6,O  13)          106.94 -0.000423    0.23    107.17   
    68. A(O   5,Si  6,C  10)          110.96  0.000260   -0.02    110.95   
    69. A(C   7,Si  6,C  10)          113.87 -0.001002    0.62    114.49   
    70. A(C   8,C   7,H  25)          107.85  0.000263   -0.24    107.61   
    71. A(Si  6,C   7,C   8)          111.62  0.000021   -0.07    111.55   
    72. A(Si  6,C   7,H  25)          107.04 -0.000430    0.42    107.46   
    73. A(C   8,C   7,C   9)          109.93  0.000173   -0.12    109.81   
    74. A(Si  6,C   7,C   9)          112.50 -0.000193    0.15    112.65   
    75. A(C   9,C   7,H  25)          107.67  0.000176   -0.15    107.52   
    76. A(H  27,C   8,H  28)          108.49  0.000098    0.05    108.53   
    77. A(C   7,C   8,H  28)          110.36 -0.000116    0.03    110.39   
    78. A(C   7,C   8,H  27)          111.13  0.000302   -0.15    110.98   
    79. A(C   7,C   8,H  26)          110.18 -0.000131   -0.06    110.12   
    80. A(H  26,C   8,H  27)          108.13 -0.000083    0.06    108.19   
    81. A(H  26,C   8,H  28)          108.47 -0.000074    0.08    108.55   
    82. A(H  30,C   9,H  31)          108.78  0.000131    0.06    108.84   
    83. A(C   7,C   9,H  31)          110.52 -0.000004   -0.05    110.47   
    84. A(C   7,C   9,H  30)          110.43  0.000208   -0.09    110.34   
    85. A(C   7,C   9,H  29)          110.33 -0.000080   -0.07    110.26   
    86. A(H  29,C   9,H  31)          108.42 -0.000224    0.13    108.55   
    87. A(H  29,C   9,H  30)          108.30 -0.000036    0.02    108.33   
    88. A(Si  6,C  10,C  12)          111.37  0.000425   -0.33    111.04   
    89. A(Si  6,C  10,H  32)          107.73 -0.000374    0.50    108.23   
    90. A(Si  6,C  10,C  11)          113.83  0.000015   -0.06    113.77   
    91. A(C  11,C  10,C  12)          109.55 -0.000177   -0.11    109.44   
    92. A(C  12,C  10,H  32)          106.94 -0.000053    0.05    106.99   
    93. A(C  11,C  10,H  32)          107.10  0.000144   -0.01    107.08   
    94. A(C  10,C  11,H  35)          110.47  0.000070   -0.01    110.45   
    95. A(H  34,C  11,H  35)          108.52 -0.000045    0.09    108.62   
    96. A(H  33,C  11,H  35)          108.09 -0.000094    0.09    108.18   
    97. A(H  33,C  11,H  34)          108.39 -0.000009    0.01    108.40   
    98. A(C  10,C  11,H  34)          111.18  0.000086   -0.06    111.12   
    99. A(C  10,C  11,H  33)          110.11 -0.000014   -0.11    110.00   
   100. A(H  36,C  12,H  38)          108.09 -0.000123    0.06    108.15   
   101. A(C  10,C  12,H  38)          110.83  0.000018   -0.05    110.78   
   102. A(H  36,C  12,H  37)          108.23 -0.000034    0.06    108.28   
   103. A(C  10,C  12,H  37)          110.52  0.000033   -0.01    110.51   
   104. A(C  10,C  12,H  36)          110.30  0.000004   -0.10    110.20   
   105. A(H  37,C  12,H  38)          108.78  0.000099    0.05    108.83   
   106. A(Si  6,O  13,C  14)          119.14 -0.000458    0.47    119.61   
   107. A(O  13,C  14,C  15)          110.41  0.000203    0.04    110.45   
   108. A(H  39,C  14,H  40)          108.82  0.000203    0.04    108.85   
   109. A(O  13,C  14,H  40)          109.99 -0.000055    0.11    110.10   
   110. A(C  15,C  14,H  39)          109.21  0.000171   -0.13    109.08   
   111. A(O  13,C  14,H  39)          107.50 -0.000549    0.12    107.62   
   112. A(C  15,C  14,H  40)          110.84  0.000012   -0.18    110.66   
   113. A(H  16,C  15,O  17)          104.54 -0.000273    0.02    104.55   
   114. A(C  14,C  15,O  17)          113.35 -0.000014    0.03    113.38   
   115. A(C   3,C  15,O  17)          110.38 -0.000329    0.11    110.49   
   116. A(C  14,C  15,H  16)          107.07 -0.000120   -0.06    107.01   
   117. A(C   3,C  15,H  16)          108.54  0.000061    0.05    108.59   
   118. A(C   3,C  15,C  14)          112.49  0.000618   -0.14    112.35   
   119. A(C  15,O  17,C  18)          116.90  0.000490   -0.01    116.89   
   120. A(O  20,C  18,C  22)          107.88  0.000311   -0.12    107.76   
   121. A(H  19,C  18,C  22)          108.89  0.000305   -0.34    108.55   
   122. A(O  17,C  18,C  22)          112.20 -0.000042    0.25    112.45   
   123. A(H  19,C  18,O  20)          110.31 -0.000383    0.32    110.63   
   124. A(O  17,C  18,O  20)          107.47 -0.000468    0.17    107.64   
   125. A(O  17,C  18,H  19)          110.07  0.000256   -0.27    109.80   
   126. A(C  18,O  20,C  21)          114.64  0.000427    0.08    114.72   
   127. A(H  42,C  21,H  43)          109.62  0.000009   -0.09    109.54   
   128. A(H  41,C  21,H  43)          109.86 -0.000193    0.19    110.05   
   129. A(O  20,C  21,H  43)          110.62  0.000265   -0.10    110.52   
   130. A(H  41,C  21,H  42)          110.09 -0.000163    0.21    110.29   
   131. A(O  20,C  21,H  42)          110.96  0.000141   -0.05    110.91   
   132. A(O  20,C  21,H  41)          105.62 -0.000067   -0.15    105.47   
   133. A(O  23,C  22,H  44)          110.76 -0.000239    0.31    111.07   
   134. A(C  18,C  22,H  44)          107.64  0.000056   -0.23    107.42   
   135. A(C  18,C  22,O  23)          107.91 -0.000365   -0.28    107.62   
   136. A(C   1,C  22,H  44)          109.13  0.000287   -0.31    108.82   
   137. A(C   1,C  22,O  23)          110.62  0.000569    0.14    110.76   
   138. A(C   1,C  22,C  18)          110.74 -0.000336    0.35    111.08   
   139. A(C  22,O  23,H  45)          106.84 -0.001144    0.65    107.49   
   140. D(C   3,C   1,O   0,H  24)     39.49  0.000359   -0.53     38.96   
   141. D(C  22,C   1,O   0,H  24)    160.60 -0.000062   -0.25    160.35   
   142. D(H   2,C   1,O   0,H  24)    -81.30 -0.000061   -0.30    -81.60   
   143. D(H   4,C   3,C   1,H   2)    176.13 -0.000092    0.33    176.46   
   144. D(H   4,C   3,C   1,C  22)    -64.11  0.000092   -0.08    -64.19   
   145. D(O   5,C   3,C   1,O   0)    -60.39 -0.000123   -0.14    -60.53   
   146. D(O   5,C   3,C   1,C  22)   -179.80  0.000347   -0.43   -180.22   
   147. D(O   5,C   3,C   1,H   2)     60.45  0.000163   -0.02     60.42   
   148. D(H   4,C   3,C   1,O   0)     55.30 -0.000377    0.20     55.51   
   149. D(Si  6,O   5,C   3,C  15)     32.14 -0.000008   -0.80     31.33   
   150. D(Si  6,O   5,C   3,C   1)    -91.92  0.000329   -0.90    -92.82   
   151. D(Si  6,O   5,C   3,H   4)    151.50  0.000312   -1.00    150.50   
   152. D(O  13,Si  6,O   5,C   3)    -19.79 -0.000254    1.80    -18.00   
   153. D(C  10,Si  6,O   5,C   3)     98.68  0.000121    1.73    100.41   
   154. D(C   7,Si  6,O   5,C   3)   -135.77 -0.000672    2.27   -133.50   
   155. D(C   9,C   7,Si  6,O  13)    -31.09  0.000208   -0.79    -31.88   
   156. D(C   8,C   7,Si  6,O   5)    -39.88  0.000019   -0.78    -40.66   
   157. D(C   8,C   7,Si  6,O  13)   -155.23  0.000109   -0.69   -155.91   
   158. D(C   8,C   7,Si  6,C  10)     83.93 -0.000017   -0.63     83.31   
   159. D(C   9,C   7,Si  6,O   5)     84.25  0.000118   -0.88     83.37   
   160. D(C   9,C   7,Si  6,C  10)   -151.93  0.000082   -0.73   -152.66   
   161. D(H  26,C   8,C   7,C   9)    -63.52  0.000223   -0.55    -64.07   
   162. D(H  27,C   8,C   7,C   9)    176.64  0.000218   -0.49    176.15   
   163. D(H  27,C   8,C   7,Si  6)    -57.80  0.000111   -0.43    -58.23   
   164. D(H  26,C   8,C   7,H  25)    179.35 -0.000233   -0.16    179.19   
   165. D(H  27,C   8,C   7,H  25)     59.51 -0.000238   -0.10     59.41   
   166. D(H  26,C   8,C   7,Si  6)     62.04  0.000117   -0.50     61.54   
   167. D(H  30,C   9,C   7,Si  6)    177.35 -0.000170   -0.16    177.19   
   168. D(H  29,C   9,C   7,H  25)    179.35  0.000394   -0.74    178.60   
   169. D(H  29,C   9,C   7,C   8)     62.11 -0.000116   -0.31     61.80   
   170. D(H  29,C   9,C   7,Si  6)    -62.95 -0.000133   -0.23    -63.19   
   171. D(H  30,C   9,C   7,H  25)     59.65  0.000357   -0.67     58.98   
   172. D(H  30,C   9,C   7,C   8)    -57.58 -0.000152   -0.23    -57.82   
   173. D(C  12,C  10,Si  6,C   7)     61.26 -0.000107    1.61     62.87   
   174. D(C  12,C  10,Si  6,O   5)   -176.47 -0.000082    1.61   -174.86   
   175. D(C  11,C  10,Si  6,O  13)    176.45 -0.000317    2.25    178.70   
   176. D(C  11,C  10,Si  6,C   7)    -63.18 -0.000223    2.08    -61.10   
   177. D(C  12,C  10,Si  6,O  13)    -59.11 -0.000202    1.78    -57.33   
   178. D(C  11,C  10,Si  6,O   5)     59.09 -0.000198    2.08     61.16   
   179. D(H  34,C  11,C  10,C  12)   -178.96 -0.000180    0.18   -178.78   
   180. D(H  34,C  11,C  10,Si  6)    -53.55  0.000255   -0.39    -53.94   
   181. D(H  33,C  11,C  10,H  32)   -174.45 -0.000069    0.08   -174.37   
   182. D(H  33,C  11,C  10,C  12)    -58.82 -0.000144    0.08    -58.74   
   183. D(H  33,C  11,C  10,Si  6)     66.59  0.000290   -0.49     66.10   
   184. D(H  34,C  11,C  10,H  32)     65.40 -0.000104    0.18     65.59   
   185. D(H  37,C  12,C  10,H  32)     57.23  0.000142   -0.55     56.68   
   186. D(H  37,C  12,C  10,C  11)    -58.50  0.000092   -0.51    -59.02   
   187. D(H  37,C  12,C  10,Si  6)    174.68 -0.000107   -0.10    174.57   
   188. D(H  36,C  12,C  10,H  32)    176.88  0.000124   -0.56    176.32   
   189. D(H  36,C  12,C  10,C  11)     61.14  0.000073   -0.51     60.63   
   190. D(H  36,C  12,C  10,Si  6)    -65.68 -0.000126   -0.10    -65.78   
   191. D(C  14,O  13,Si  6,C  10)    -89.42 -0.000060   -1.95    -91.37   
   192. D(C  14,O  13,Si  6,C   7)    146.59  0.000690   -2.38    144.21   
   193. D(C  14,O  13,Si  6,O   5)     30.47  0.000230   -1.93     28.54   
   194. D(H  40,C  14,O  13,Si  6)     69.97 -0.000070    1.02     70.99   
   195. D(H  39,C  14,O  13,Si  6)   -171.70 -0.000177    1.20   -170.50   
   196. D(C  15,C  14,O  13,Si  6)    -52.66 -0.000185    1.14    -51.52   
   197. D(H  16,C  15,C   3,H   4)    -51.65  0.000363   -0.48    -52.13   
   198. D(H  16,C  15,C   3,C   1)   -169.56  0.000188   -0.28   -169.84   
   199. D(C  14,C  15,C   3,O   5)    -51.85 -0.000115   -0.21    -52.06   
   200. D(C  14,C  15,C   3,H   4)   -169.93  0.000099   -0.36   -170.29   
   201. D(H  16,C  15,C   3,O   5)     66.44  0.000149   -0.34     66.10   
   202. D(C  14,C  15,C   3,C   1)     72.15 -0.000076   -0.15     71.99   
   203. D(H  16,C  15,C  14,H  40)   -178.60  0.000112    0.01   -178.59   
   204. D(H  16,C  15,C  14,H  39)     61.52 -0.000256    0.17     61.69   
   205. D(H  16,C  15,C  14,O  13)    -56.48  0.000189    0.07    -56.41   
   206. D(C   3,C  15,C  14,H  40)    -59.45  0.000469   -0.05    -59.51   
   207. D(C   3,C  15,C  14,H  39)   -179.33  0.000101    0.10   -179.23   
   208. D(C   3,C  15,C  14,O  13)     62.68  0.000547    0.01     62.68   
   209. D(C  18,O  17,C  15,H  16)    173.51  0.000140    0.12    173.63   
   210. D(C  18,O  17,C  15,C  14)    -70.25 -0.000177    0.07    -70.18   
   211. D(C  18,O  17,C  15,C   3)     56.97  0.000374   -0.01     56.97   
   212. D(C  22,C  18,O  17,C  15)    -54.41 -0.000419    0.65    -53.76   
   213. D(O  20,C  18,O  17,C  15)   -172.83 -0.000479    0.54   -172.30   
   214. D(H  19,C  18,O  17,C  15)     67.01  0.000121    0.20     67.21   
   215. D(C  21,O  20,C  18,C  22)    168.20  0.000276   -0.94    167.27   
   216. D(C  21,O  20,C  18,H  19)     49.38 -0.000060   -0.65     48.73   
   217. D(C  21,O  20,C  18,O  17)    -70.62  0.000136   -0.61    -71.23   
   218. D(H  43,C  21,O  20,C  18)    -60.09 -0.000148    0.14    -59.95   
   219. D(H  42,C  21,O  20,C  18)     61.81  0.000140   -0.08     61.73   
   220. D(H  41,C  21,O  20,C  18)   -178.91 -0.000019    0.05   -178.86   
   221. D(O  23,C  22,C  18,O  20)    -70.92  0.000022   -0.51    -71.43   
   222. D(O  23,C  22,C  18,H  19)     48.80 -0.000085   -0.38     48.42   
   223. D(C   1,C  22,C  18,O  20)    167.88 -0.000241   -0.71    167.16   
   224. D(C   1,C  22,C  18,H  19)    -72.40 -0.000348   -0.58    -72.99   
   225. D(C   1,C  22,C  18,O  17)     49.69  0.000161   -0.99     48.70   
   226. D(O  23,C  22,C   1,C   3)   -170.80 -0.000191    1.00   -169.80   
   227. D(O  23,C  22,C   1,H   2)    -50.76  0.000117    0.48    -50.28   
   228. D(O  23,C  22,C   1,O   0)     67.69  0.000104    0.69     68.38   
   229. D(O  23,C  22,C  18,O  17)    170.89  0.000424   -0.79    170.11   
   230. D(C  18,C  22,C   1,C   3)    -51.22 -0.000496    0.96    -50.26   
   231. D(C  18,C  22,C   1,H   2)     68.82 -0.000187    0.44     69.26   
   232. D(C  18,C  22,C   1,O   0)   -172.72 -0.000201    0.65   -172.07   
   233. D(H  45,O  23,C  22,H  44)     65.49  0.000362   -0.75     64.74   
   234. D(H  45,O  23,C  22,C  18)   -176.92  0.000077   -1.02   -177.94   
   235. D(H  45,O  23,C  22,C   1)    -55.65 -0.000222   -0.69    -56.34   
    ----------------------------------------------------------------------------

Geometry step timings:
Preparation and reading OPT file:      0.001 s ( 4.817 %)
Internal coordinates            :      0.000 s ( 0.155 %)
B/P matrices and projection     :      0.004 s (21.765 %)
Hessian update/contruction      :      0.009 s (44.700 %)
Making the step                 :      0.003 s (14.384 %)
Converting the step to Cartesian:      0.000 s ( 1.967 %)
Storing new data                :      0.001 s ( 3.997 %)
Checking convergence            :      0.000 s ( 0.136 %)
Final printing                  :      0.002 s ( 8.071 %)
Total time                      :      0.021 s

Time for energy+gradient        :      0.089 s
Time for complete geometry iter :      0.119 s

         *************************************************************
         *                GEOMETRY OPTIMIZATION CYCLE   5            *
         *************************************************************
---------------------------------
CARTESIAN COORDINATES (ANGSTROEM)
---------------------------------
  O    -3.782206   -0.014299   -0.389331
  C    -2.485151   -0.443386   -0.059832
  H    -1.845835   -0.412210   -0.957622
  C    -1.865000    0.443592    1.022731
  H    -2.549164    0.449241    1.883919
  O    -1.776198    1.765406    0.570377
  Si   -0.440708    2.388970   -0.171097
  C    -0.068503    4.079214    0.625165
  C    -1.349949    4.871340    0.886618
  C     0.738258    3.955929    1.919790
  C    -0.674952    2.440999   -2.080382
  C    -1.843620    3.318414   -2.534735
  C     0.608357    2.899541   -2.779443
  O     0.819036    1.388249    0.176400
  C     0.576994    0.032857    0.418915
  C    -0.519617   -0.134331    1.479235
  H    -0.189350    0.411336    2.371020
  O    -0.677132   -1.465408    1.916455
  C    -1.238151   -2.383392    0.989811
  H    -0.535850   -2.541693    0.145648
  O    -1.466905   -3.566896    1.660104
  C    -0.294802   -4.292930    1.999876
  C    -2.582470   -1.897868    0.423388
  O    -2.929990   -2.749421   -0.632034
  H    -3.784291    0.952989   -0.390158
  H     0.534662    4.650930   -0.085275
  H    -1.988746    4.330702    1.579622
  H    -1.904516    5.028377   -0.033463
  H    -1.113996    5.842839    1.318743
  H     0.166564    3.413081    2.669678
  H     0.971886    4.943185    2.315734
  H     1.666691    3.421663    1.739406
  H    -0.883240    1.420067   -2.429006
  H    -1.639324    4.360243   -2.300683
  H    -2.765507    3.029960   -2.038430
  H    -1.986991    3.233852   -3.610650
  H     0.828600    3.932298   -2.520440
  H     0.497882    2.834643   -3.860447
  H     1.452907    2.286861   -2.475736
  H     1.506107   -0.408022    0.792574
  H     0.295263   -0.471235   -0.510861
  H    -0.645730   -5.194222    2.496143
  H     0.341443   -3.713487    2.672353
  H     0.268986   -4.555916    1.098151
  H    -3.321786   -1.953256    1.236496
  H    -3.760005   -2.422556   -1.008469

----------------------------
CARTESIAN COORDINATES (A.U.)
----------------------------
  NO LB    ZA    FRAG    MASS        X           Y           Z
   0 O   8.0000    1    15.999   -7.147333   -0.027021   -0.735730
   1 C   6.0000    1    12.011   -4.696256   -0.837879   -0.113066
   2 H   1.0000    1     1.008   -3.488122   -0.778963   -1.809643
   3 C   6.0000    1    12.011   -3.524340    0.838268    1.932682
   4 H   1.0000    1     1.008   -4.817222    0.848942    3.560091
   5 O   8.0000    1    15.999   -3.356528    3.336133    1.077857
   6 Si 14.0000    1    28.086   -0.832818    4.514499   -0.323326
   7 C   6.0000    1    12.011   -0.129452    7.708598    1.181390
   8 C   6.0000    1    12.011   -2.551034    9.205499    1.675465
   9 C   6.0000    1    12.011    1.395105    7.475622    3.627877
  10 C   6.0000    1    12.011   -1.275474    4.612820   -3.931353
  11 C   6.0000    1    12.011   -3.483937    6.270894   -4.789955
  12 C   6.0000    1    12.011    1.149628    5.479339   -5.252386
  13 O   8.0000    1    15.999    1.547755    2.623410    0.333347
  14 C   6.0000    1    12.011    1.090361    0.062091    0.791635
  15 C   6.0000    1    12.011   -0.981934   -0.253848    2.795349
  16 H   1.0000    1     1.008   -0.357819    0.777312    4.480578
  17 O   8.0000    1    15.999   -1.279594   -2.769219    3.621575
  18 C   6.0000    1    12.011   -2.339767   -4.503958    1.870471
  19 H   1.0000    1     1.008   -1.012610   -4.803104    0.275234
  20 O   8.0000    1    15.999   -2.772048   -6.740456    3.137142
  21 C   6.0000    1    12.011   -0.557095   -8.112463    3.779219
  22 C   6.0000    1    12.011   -4.880160   -3.586451    0.800088
  23 O   8.0000    1    15.999   -5.536879   -5.195653   -1.194370
  24 H   1.0000    1     1.008   -7.151274    1.800888   -0.737291
  25 H   1.0000    1     1.008    1.010365    8.788985   -0.161147
  26 H   1.0000    1     1.008   -3.758185    8.183840    2.985054
  27 H   1.0000    1     1.008   -3.599014    9.502256   -0.063236
  28 H   1.0000    1     1.008   -2.105148   11.041366    2.492063
  29 H   1.0000    1     1.008    0.314761    6.449788    5.044960
  30 H   1.0000    1     1.008    1.836599    9.341267    4.376103
  31 H   1.0000    1     1.008    3.149590    6.466005    3.287002
  32 H   1.0000    1     1.008   -1.669082    2.683538   -4.590156
  33 H   1.0000    1     1.008   -3.097874    8.239665   -4.347660
  34 H   1.0000    1     1.008   -5.226050    5.725795   -3.852074
  35 H   1.0000    1     1.008   -3.754869    6.111094   -6.823139
  36 H   1.0000    1     1.008    1.565827    7.430966   -4.762941
  37 H   1.0000    1     1.008    0.940860    5.356699   -7.295187
  38 H   1.0000    1     1.008    2.745596    4.321541   -4.678463
  39 H   1.0000    1     1.008    2.846129   -0.771051    1.497748
  40 H   1.0000    1     1.008    0.557967   -0.890506   -0.965387
  41 H   1.0000    1     1.008   -1.220253   -9.815658    4.717026
  42 H   1.0000    1     1.008    0.645234   -7.017474    5.050016
  43 H   1.0000    1     1.008    0.508310   -8.609434    2.075204
  44 H   1.0000    1     1.008   -6.277267   -3.691119    2.336640
  45 H   1.0000    1     1.008   -7.105380   -4.577967   -1.905731

      -----------------------------------------------------------      
     |                   =====================                   |     
     |                           x T B                           |     
     |                   =====================                   |     
     |                         S. Grimme                         |     
     |          Mulliken Center for Theoretical Chemistry        |     
     |                    University of Bonn                     |     
      -----------------------------------------------------------      

   * xtb version 6.7.1 (edcfbbe) compiled by 'albert@albert-system' on 2024-07-22

   xtb is free software: you can redistribute it and/or modify it under
   the terms of the GNU Lesser General Public License as published by
   the Free Software Foundation, either version 3 of the License, or
   (at your option) any later version.
   
   xtb is distributed in the hope that it will be useful,
   but WITHOUT ANY WARRANTY; without even the implied warranty of
   MERCHANTABILITY or FITNESS FOR A PARTICULAR PURPOSE.  See the
   GNU Lesser General Public License for more details.
   
   Cite this work as:
   * C. Bannwarth, E. Caldeweyher, S. Ehlert, A. Hansen, P. Pracht,
     J. Seibert, S. Spicher, S. Grimme, WIREs Comput. Mol. Sci., 2020, 11,
     e01493. DOI: 10.1002/wcms.1493
   
   for GFN2-xTB:
   * C. Bannwarth, S. Ehlert and S. Grimme., J. Chem. Theory Comput., 2019,
     15, 1652-1671. DOI: 10.1021/acs.jctc.8b01176
   for GFN1-xTB:
   * S. Grimme, C. Bannwarth, P. Shushkov, J. Chem. Theory Comput., 2017,
     13, 1989-2009. DOI: 10.1021/acs.jctc.7b00118
   for GFN0-xTB:
   * P. Pracht, E. Caldeweyher, S. Ehlert, S. Grimme, ChemRxiv, 2019, preprint.
     DOI: 10.26434/chemrxiv.8326202.v1
   for GFN-FF:
   * S. Spicher and S. Grimme, Angew. Chem. Int. Ed., 2020, 59, 15665-15673.
     DOI: 10.1002/anie.202004239
   
   for ALPB and GBSA implicit solvation:
   * S. Ehlert, M. Stahn, S. Spicher, S. Grimme, J. Chem. Theory Comput.,
     2021, 17, 4250-4261. DOI: 10.1021/acs.jctc.1c00471
   
   for ddCOSMO and CPCM-X implicit solvation:
   * M. Stahn, S. Ehlert, S. Grimme, J. Phys. Chem. A,
     2023, XX, XXXX-XXXX. DOI: 10.1021/acs.jpca.3c04382
   
   for DFT-D4:
   * E. Caldeweyher, C. Bannwarth and S. Grimme, J. Chem. Phys., 2017,
     147, 034112. DOI: 10.1063/1.4993215
   * E. Caldeweyher, S. Ehlert, A. Hansen, H. Neugebauer, S. Spicher,
     C. Bannwarth and S. Grimme, J. Chem. Phys., 2019, 150, 154122.
     DOI: 10.1063/1.5090222
   * E. Caldeweyher, J.-M. Mewes, S. Ehlert and S. Grimme, Phys. Chem. Chem. Phys.
     2020, 22, 8499-8512. DOI: 10.1039/D0CP00502A
   
   for sTDA-xTB:
   * S. Grimme and C. Bannwarth, J. Chem. Phys., 2016, 145, 054103.
     DOI: 10.1063/1.4959605
   
   in the mass-spec context:
   * V. Asgeirsson, C. Bauer and S. Grimme, Chem. Sci., 2017, 8, 4879.
     DOI: 10.1039/c7sc00601b
   * J. Koopman and S. Grimme, ACS Omega 2019, 4, 12, 15120-15133.
     DOI: 10.1021/acsomega.9b02011
   
   for metadynamics refer to:
   * S. Grimme, J. Chem. Theory Comput., 2019, 155, 2847-2862
     DOI: 10.1021/acs.jctc.9b00143
   
   for SPH calculations refer to:
   * S. Spicher and S. Grimme, J. Chem. Theory Comput., 2021, 17, 1701-1714
     DOI: 10.1021/acs.jctc.0c01306
   
   for ONIOM refer to:
   * C. Plett, A. Katbashev, S. Ehlert, S. Grimme, M. Bursch,
     Phys. Chem. Chem. Phys., 2023, 25, 17860-17868. DOI: 10.1039/D3CP02178E
   
   for DIPRO refer to:
   * J. Kohn, N. Gildemeister, S. Grimme, D. Fazzi, A. Hansen,
     J. Chem. Phys., 2023, just accepted.
   
   for PTB refer to:
   * S. Grimme, M. Mueller, A. Hansen, J. Chem. Phys., 2023, 158, 124111.
     DOI: 10.1063/5.0137838
   
   with help from (in alphabetical order)
   P. Atkinson, C. Bannwarth, F. Bohle, G. Brandenburg, E. Caldeweyher
   M. Checinski, S. Dohm, S. Ehlert, S. Ehrlich, I. Gerasimov, C. Hölzer
   A. Katbashev, J. Kohn, J. Koopman, C. Lavigne, S. Lehtola, F. März, M. Müller,
   F. Musil, H. Neugebauer, J. Pisarek, C. Plett, P. Pracht, F. Pultar,
   J. Seibert, P. Shushkov, S. Spicher, M. Stahn, M. Steiner, T. Strunk,
   J. Stückrath, T. Rose, and J. Unsleber
   
 * started run on 2025/09/10 at 11:29:46.491     
   ID    Z sym.   atoms
    1    8 O      1, 6, 14, 18, 21, 24
    2    6 C      2, 4, 8-13, 15, 16, 19, 22, 23
    3    1 H      3, 5, 17, 20, 25-46
    4   14 Si     7

           -------------------------------------------------
          |                Calculation Setup                |
           -------------------------------------------------

          program call               : /home/kmoult/orca_6_1/otool_xtb goat_0_XTB.xyz --grad -c 0 -u 0 -P 4 --namespace goat_0 --input goat_0_XTB.input.tmp --alpb ACETONE --acc 0.200000
          hostname                   : node2704
          calculation namespace      : goat_0
          coordinate file            : goat_0_XTB.xyz
          omp threads                :                     4


           -------------------------------------------------
          |                 G F N 2 - x T B                 |
           -------------------------------------------------

        Reference                      10.1021/acs.jctc.8b01176
      * Hamiltonian:
        H0-scaling (s, p, d)           1.850000    2.230000    2.230000
        zeta-weighting                 0.500000
      * Dispersion:
        s8                             2.700000
        a1                             0.520000
        a2                             5.000000
        s9                             5.000000
      * Repulsion:
        kExp                           1.500000    1.000000
        rExp                           1.000000
      * Coulomb:
        alpha                          2.000000
        third order                    shell-resolved
        anisotropic                    true
        a3                             3.000000
        a5                             4.000000
        cn-shift                       1.200000
        cn-exp                         4.000000
        max-rad                        5.000000

      * Solvation model:               ALPB
        Solvent                        ACETONE
        Parameter file                 internal GFN2-xTB/ALPB
        Dielectric constant                2.0700E+01
        Reference state                gsolv [1 M gas/solution]
        Free energy shift                  5.9241E-03 Eh       3.7175E+00 kcal/mol
        Temperature                        2.9815E+02 K
        Density                            7.9000E-01 kg/L
        Solvent mass                       5.8080E+01 g/mol
        Interaction kernel             P16
        Born radius scaling (c1)           1.8274E+00
        Born radii integrator          GBOBC
        Born offset                        0.0000E+00 a0       0.0000E+00 AA
        H-bond correction              true
        Ion screening                  false
        Surface tension                    1.0000E-05 Eh       1.5569E+01 dyn/cm
        Grid points                               230 per atom
q/qsh data taken from xtbrestart
CAMM data taken from xtbrestart

          ...................................................
          :                      SETUP                      :
          :.................................................:
          :  # basis functions                 112          :
          :  # atomic orbitals                 111          :
          :  # shells                           67          :
          :  # electrons                       118          :
          :  max. iterations                   250          :
          :  Hamiltonian                  GFN2-xTB          :
          :  restarted?                       true          :
          :  GBSA solvation                   true          :
          :  PC potential                    false          :
          :  electronic temp.          300.0000000     K    :
          :  accuracy                    0.2000000          :
          :  -> integral cutoff          0.3198970E+02      :
          :  -> integral neglect         0.2000000E-08      :
          :  -> SCF convergence          0.2000000E-06 Eh   :
          :  -> wf. convergence          0.2000000E-04 e    :
          :  Broyden damping             0.4000000          :
          :  net charge                          0          :
          :  unpaired electrons                  0          :
          ...................................................

 iter      E             dE          RMSdq      gap      omega  full diag
   1    -68.0081794 -0.680082E+02  0.104E-01    5.70       0.0  T
   2    -68.0081822 -0.277863E-05  0.712E-02    5.70       1.0  T
   3    -68.0081830 -0.801425E-06  0.162E-02    5.71       1.0  T
   4    -68.0081834 -0.447880E-06  0.129E-02    5.71       1.1  T
   5    -68.0081838 -0.362594E-06  0.237E-03    5.71       6.2  T
   6    -68.0081838 -0.615478E-07  0.142E-03    5.71      10.4  T
   7    -68.0081839 -0.308476E-07  0.813E-04    5.71      18.1  T
   8    -68.0081839 -0.197161E-08  0.364E-04    5.71      40.5  T
   9    -68.0081839 -0.275122E-09  0.161E-04    5.71      91.7  T
  10    -68.0081839 -0.687379E-10  0.596E-05    5.71     247.4  T

   *** convergence criteria satisfied after 10 iterations ***

         #    Occupation            Energy/Eh            Energy/eV
      -------------------------------------------------------------
         1        2.0000           -0.8161942             -22.2098
       ...           ...                  ...                  ...
        53        2.0000           -0.4301780             -11.7057
        54        2.0000           -0.4251851             -11.5699
        55        2.0000           -0.4207207             -11.4484
        56        2.0000           -0.4174694             -11.3599
        57        2.0000           -0.4158658             -11.3163
        58        2.0000           -0.4089770             -11.1288
        59        2.0000           -0.3778741             -10.2825 (HOMO)
        60                         -0.1681282              -4.5750 (LUMO)
        61                         -0.1303357              -3.5466
        62                         -0.0979835              -2.6663
        63                         -0.0495892              -1.3494
        64                         -0.0094487              -0.2571
       ...                                ...                  ...
       111                          0.7902081              21.5027
      -------------------------------------------------------------
                  HL-Gap            0.2097459 Eh            5.7075 eV
             Fermi-level           -0.2730012 Eh           -7.4287 eV

 SCC (total)                   0 d,  0 h,  0 min,  0.030 sec
 SCC setup                      ...        0 min,  0.001 sec (  1.870%)
 Dispersion                     ...        0 min,  0.000 sec (  0.913%)
 classical contributions        ...        0 min,  0.000 sec (  0.130%)
 integral evaluation            ...        0 min,  0.004 sec ( 14.741%)
 iterations                     ...        0 min,  0.016 sec ( 52.724%)
 molecular gradient             ...        0 min,  0.009 sec ( 29.131%)
 printout                       ...        0 min,  0.000 sec (  0.430%)

         :::::::::::::::::::::::::::::::::::::::::::::::::::::
         ::                     SUMMARY                     ::
         :::::::::::::::::::::::::::::::::::::::::::::::::::::
         :: total energy             -67.354469807773 Eh    ::
         :: total w/o Gsasa/hb       -67.326964382123 Eh    ::
         :: gradient norm              0.004166462971 Eh/a0 ::
         :: HOMO-LUMO gap              5.707475222872 eV    ::
         ::.................................................::
         :: SCC energy               -68.007279268043 Eh    ::
         :: -> isotropic ES            0.154199681437 Eh    ::
         :: -> anisotropic ES          0.001226934431 Eh    ::
         :: -> anisotropic XC          0.002129468900 Eh    ::
         :: -> dispersion             -0.044977273257 Eh    ::
         :: -> Gsolv                  -0.030525931454 Eh    ::
         ::    -> Gelec               -0.003020505803 Eh    ::
         ::    -> Gsasa               -0.027906021025 Eh    ::
         ::    -> Ghb                 -0.005523545889 Eh    ::
         ::    -> Gshift               0.005924141264 Eh    ::
         :: repulsion energy           0.652809460269 Eh    ::
         :: add. restraining           0.000000000000 Eh    ::
         :: total charge               0.000000000000 e     ::
         :::::::::::::::::::::::::::::::::::::::::::::::::::::


Property printout bound to 'properties.out'

           -------------------------------------------------
          | TOTAL ENERGY              -67.354469807773 Eh   |
          | GRADIENT NORM               0.004166462971 Eh/α |
          | HOMO-LUMO GAP               5.707475222872 eV   |
           -------------------------------------------------

------------------------------------------------------------------------
 * finished run on 2025/09/10 at 11:29:46.542     
------------------------------------------------------------------------
 total:
 * wall-time:     0 d,  0 h,  0 min,  0.051 sec
 *  cpu-time:     0 d,  0 h,  0 min,  0.185 sec
 * ratio c/w:     3.607 speedup
 SCF:
 * wall-time:     0 d,  0 h,  0 min,  0.030 sec
 *  cpu-time:     0 d,  0 h,  0 min,  0.120 sec
 * ratio c/w:     3.979 speedup


-------------------------   --------------------
FINAL SINGLE POINT ENERGY       -67.354469807770
-------------------------   --------------------


-------------
DIPOLE MOMENT
-------------
                                X             Y             Z
Total Dipole Moment    :      0.33400       0.80000      -0.38700
                        -----------------------------------------
Magnitude (a.u.)       :      0.94938
Magnitude (Debye)      :      2.41314


------------------
CARTESIAN GRADIENT
------------------

   1   O   :    0.000238951   -0.000624664    0.000102090
   2   C   :   -0.000697969    0.000636190   -0.000559898
   3   H   :    0.000413727   -0.000256385    0.000354755
   4   C   :   -0.000280236    0.000345912   -0.000442716
   5   H   :   -0.000121738   -0.000025006   -0.000076000
   6   O   :    0.000279368   -0.000152114    0.000996474
   7   Si  :    0.000450480    0.000791363   -0.000371432
   8   C   :   -0.000382197   -0.001112203   -0.000181210
   9   C   :   -0.000150715    0.000203524   -0.000189257
  10   C   :    0.000483399    0.000256432    0.000043388
  11   C   :    0.000402845    0.000296600    0.000130223
  12   C   :   -0.000466376   -0.000194725   -0.000207842
  13   C   :    0.000116514   -0.000033909   -0.000356724
  14   O   :   -0.000168471    0.000438575    0.001063915
  15   C   :    0.000062737   -0.000109952   -0.000802717
  16   C   :    0.000554275    0.000572151   -0.000199863
  17   H   :    0.000141648   -0.000317575    0.000217901
  18   O   :   -0.000435074    0.000121847    0.000044566
  19   C   :   -0.000329267   -0.000989686    0.000986550
  20   H   :    0.000216214    0.000101824   -0.000394732
  21   O   :    0.000666152    0.000304497   -0.000337797
  22   C   :   -0.000078072   -0.000182175    0.000294042
  23   C   :   -0.000880560   -0.000432038   -0.001235990
  24   O   :    0.000276481   -0.000160820    0.000694602
  25   H   :    0.000024052    0.000188569    0.000097343
  26   H   :    0.000075396   -0.000187326   -0.000201733
  27   H   :    0.000047960   -0.000151281    0.000068598
  28   H   :   -0.000039184   -0.000090403   -0.000022726
  29   H   :    0.000027954    0.000027210    0.000077834
  30   H   :   -0.000122376   -0.000071472   -0.000009649
  31   H   :   -0.000079758    0.000035816    0.000043565
  32   H   :   -0.000059453   -0.000088355   -0.000115569
  33   H   :    0.000026346   -0.000128773   -0.000092278
  34   H   :    0.000139254    0.000063618    0.000092808
  35   H   :    0.000022376    0.000002166    0.000032755
  36   H   :    0.000035830   -0.000011918   -0.000006463
  37   H   :   -0.000039156    0.000109549    0.000062376
  38   H   :   -0.000085527    0.000078516    0.000031060
  39   H   :    0.000005586   -0.000019041    0.000126026
  40   H   :   -0.000023506    0.000129052    0.000073647
  41   H   :   -0.000433599    0.000024505    0.000121925
  42   H   :   -0.000238612    0.000061925   -0.000075726
  43   H   :    0.000104525    0.000004760   -0.000117895
  44   H   :    0.000119230    0.000041195   -0.000010758
  45   H   :    0.000282667    0.000084125    0.000415693
  46   H   :   -0.000102122    0.000419899   -0.000163160

Difference to translation invariance:
           :   -0.0000000000    0.0000000000    0.0000000000

Difference to rotation invariance:
           :    0.0004416970    0.0002126756    0.0007695780

Norm of the Cartesian gradient     ...    0.0041664630
RMS gradient                       ...    0.0003546729
MAX gradient                       ...    0.0012359898
------------------------------------------------------------------------------
                         ORCA GEOMETRY RELAXATION STEP
------------------------------------------------------------------------------

Reading the OPT-File                    .... done
Getting information on internals        .... done
Copying old internal coords+grads       .... done
Making the new internal coordinates     .... (2022 redundants) done
Validating the new internal coordinates .... (2022 redundants) done
Calculating the B-matrix                .... done
Calculating the G,G- and P matrices     .... done
Transforming gradient to internals      .... done
Projecting the internal gradient        .... done
Number of atoms                         ....  46
Number of internal coordinates          .... 235
Current Energy                          ....   -67.354469808 Eh
Current gradient norm                   ....     0.004166463 Eh/bohr
Maximum allowed component of the step   ....  0.300
Current trust radius                    ....  0.450
Updating the Hessian (BFGS)             .... done
Forming the augmented Hessian           .... done
Diagonalizing the augmented Hessian     .... done
Last element of RFO vector              ....  0.992181439
Lowest eigenvalues of augmented Hessian:
 -0.000130106  0.005832685  0.010019806  0.010714950  0.010847147
Length of the computed step             ....  0.125787286
The final length of the internal step   ....  0.125787286
Converting the step to Cartesian space:
 Initial RMS(Int)=    0.0082054578
Transforming coordinates:
 Iter   0:  RMS(Cart)=    0.0365006482 RMS(Int)=    0.4078222483
done
Storing new coordinates                 .... done
The predicted energy change is          ....    -0.000066082
Previously predicted energy change      ....    -0.000209177
Actually observed energy change         ....    -0.000258773
Ratio of predicted to observed change   ....     1.237097462
New trust radius                        ....     0.675000000

                                .--------------------.
          ----------------------|Geometry convergence|-------------------------
          Item                value                   Tolerance       Converged
          ---------------------------------------------------------------------
          Energy change      -0.0002587728            0.0000050000      NO
          RMS gradient        0.0001982458            0.0001000000      NO
          MAX gradient        0.0012886484            0.0003000000      NO
          RMS step            0.0082054578            0.0020000000      NO
          MAX step            0.0326971230            0.0040000000      NO
          -------------------------------------------------------------------------
          ........................................................
          Max(Bonds)      0.0170      Max(Angles)    0.33
          Max(Dihed)        1.87      Max(Improp)    0.00
          ---------------------------------------------------------------------

    ---------------------------------------------------------------------------
                         Redundant Internal Coordinates
                            (Angstroem and degrees)

        Definition                    Value    dE/dq     Step     New-Value
    ----------------------------------------------------------------------------
     1. B(C   1,O   0)                1.4054 -0.000434  0.0001    1.4055   
     2. B(H   2,C   1)                1.1026 -0.000057  0.0001    1.1027   
     3. B(C   3,C   1)                1.5308  0.000282  0.0002    1.5310   
     4. B(H   4,C   3)                1.0999  0.000016 -0.0001    1.0998   
     5. B(O   5,C   3)                1.3999 -0.000293  0.0008    1.4007   
     6. B(Si  6,O   5)                1.6499  0.000278 -0.0015    1.6484   
     7. B(C   7,Si  6)                1.9051 -0.001289  0.0030    1.9082   
     8. B(C   8,C   7)                1.5290  0.000069  0.0009    1.5299   
     9. B(C   9,C   7)                1.5304  0.000075  0.0005    1.5309   
    10. B(C  10,Si  6)                1.9243  0.000177 -0.0012    1.9231   
    11. B(C  11,C  10)                1.5304  0.000143  0.0002    1.5306   
    12. B(C  12,C  10)                1.5316  0.000107  0.0006    1.5322   
    13. B(O  13,Si  6)                1.6460 -0.000334 -0.0007    1.6453   
    14. B(C  14,O  13)                1.3980  0.000145  0.0006    1.3987   
    15. B(C  15,C   3)                1.5338  0.000076 -0.0001    1.5336   
    16. B(C  15,C  14)                1.5345 -0.000026  0.0005    1.5351   
    17. B(H  16,C  15)                1.0964  0.000062 -0.0001    1.0963   
    18. B(O  17,C  15)                1.4099  0.000280 -0.0000    1.4098   
    19. B(C  18,O  17)                1.4199  0.000118  0.0007    1.4206   
    20. B(H  19,C  18)                1.1095  0.000420 -0.0008    1.1086   
    21. B(O  20,C  18)                1.3792 -0.000405  0.0008    1.3800   
    22. B(C  21,O  20)                1.4200 -0.000031  0.0006    1.4206   
    23. B(C  22,C  18)                1.5375  0.000493  0.0008    1.5382   
    24. B(C  22,C   1)                1.5357  0.000486  0.0000    1.5357   
    25. B(O  23,C  22)                1.3999 -0.000509  0.0003    1.4002   
    26. B(H  24,O   0)                0.9673  0.000210  0.0001    0.9674   
    27. B(H  24,O   5)                2.3696  0.000057  0.0033    2.3729   
    28. B(H  25,C   7)                1.0933  0.000077  0.0002    1.0935   
    29. B(H  26,C   8)                1.0866  0.000088  0.0001    1.0867   
    30. B(H  27,C   8)                1.0857  0.000027  0.0002    1.0859   
    31. B(H  28,C   8)                1.0891  0.000062 -0.0000    1.0891   
    32. B(H  29,C   9)                1.0880  0.000092  0.0002    1.0882   
    33. B(H  30,C   9)                1.0890  0.000031  0.0000    1.0891   
    34. B(H  31,C   9)                1.0863  0.000014  0.0002    1.0864   
    35. B(H  32,C  10)                1.0987  0.000145 -0.0006    1.0982   
    36. B(H  33,C  11)                1.0872  0.000107  0.0001    1.0873   
    37. B(H  34,C  11)                1.0860 -0.000007  0.0002    1.0862   
    38. B(H  35,C  11)                1.0887  0.000004  0.0001    1.0888   
    39. B(H  36,C  12)                1.0873  0.000109  0.0001    1.0874   
    40. B(H  37,C  12)                1.0886 -0.000026  0.0002    1.0887   
    41. B(H  38,C  12)                1.0867  0.000053  0.0001    1.0868   
    42. B(H  39,C  14)                1.0942 -0.000047 -0.0000    1.0942   
    43. B(H  40,C  14)                1.0945 -0.000003 -0.0000    1.0945   
    44. B(H  41,C  21)                1.0871 -0.000007  0.0000    1.0871   
    45. B(H  42,C  21)                1.0921 -0.000010  0.0000    1.0922   
    46. B(H  43,C  21)                1.0955  0.000056 -0.0002    1.0953   
    47. B(H  44,C  22)                1.1004  0.000115  0.0000    1.1004   
    48. B(H  45,O   0)                2.4867 -0.000123  0.0170    2.5037   
    49. B(H  45,O  23)                0.9682  0.000266 -0.0000    0.9682   
    50. A(C   1,O   0,H  24)          107.91 -0.000183    0.16    108.07   
    51. A(H   2,C   1,C   3)          108.94 -0.000091   -0.08    108.86   
    52. A(O   0,C   1,C   3)          111.27 -0.000070    0.00    111.27   
    53. A(H   2,C   1,C  22)          108.65 -0.000103    0.00    108.65   
    54. A(O   0,C   1,H   2)          109.61  0.000314   -0.07    109.54   
    55. A(O   0,C   1,C  22)          107.73 -0.000166    0.06    107.79   
    56. A(C   3,C   1,C  22)          110.61  0.000119    0.07    110.67   
    57. A(O   5,C   3,C  15)          113.35 -0.000280    0.02    113.37   
    58. A(C   1,C   3,H   4)          107.74 -0.000173   -0.00    107.74   
    59. A(H   4,C   3,C  15)          108.33  0.000248   -0.14    108.19   
    60. A(H   4,C   3,O   5)          106.72 -0.000043    0.11    106.83   
    61. A(C   1,C   3,C  15)          110.34 -0.000088    0.09    110.42   
    62. A(C   1,C   3,O   5)          110.14  0.000338   -0.08    110.06   
    63. A(C   3,O   5,Si  6)          123.60  0.000342    0.10    123.70   
    64. A(C  10,Si  6,O  13)          108.61  0.000147   -0.11    108.50   
    65. A(O   5,Si  6,C   7)          107.80  0.000002   -0.12    107.67   
    66. A(C   7,Si  6,O  13)          107.56  0.000052   -0.15    107.41   
    67. A(O   5,Si  6,O  13)          107.15 -0.000168    0.20    107.35   
    68. A(O   5,Si  6,C  10)          110.95  0.000228   -0.08    110.87   
    69. A(C   7,Si  6,C  10)          114.49 -0.000265    0.25    114.74   
    70. A(C   8,C   7,H  25)          107.61  0.000108   -0.10    107.51   
    71. A(Si  6,C   7,C   8)          111.55 -0.000194    0.01    111.57   
    72. A(Si  6,C   7,H  25)          107.47 -0.000168    0.24    107.70   
    73. A(C   8,C   7,C   9)          109.81  0.000078   -0.10    109.71   
    74. A(Si  6,C   7,C   9)          112.65  0.000193   -0.01    112.64   
    75. A(C   9,C   7,H  25)          107.52 -0.000018   -0.05    107.47   
    76. A(H  27,C   8,H  28)          108.53  0.000135   -0.02    108.51   
    77. A(C   7,C   8,H  28)          110.39  0.000026   -0.00    110.39   
    78. A(C   7,C   8,H  27)          110.98  0.000041   -0.05    110.93   
    79. A(C   7,C   8,H  26)          110.12 -0.000266    0.04    110.16   
    80. A(H  26,C   8,H  27)          108.19  0.000071    0.02    108.21   
    81. A(H  26,C   8,H  28)          108.55 -0.000002    0.02    108.57   
    82. A(H  30,C   9,H  31)          108.84  0.000208   -0.03    108.81   
    83. A(C   7,C   9,H  31)          110.47 -0.000161    0.02    110.49   
    84. A(C   7,C   9,H  30)          110.34  0.000090   -0.05    110.29   
    85. A(C   7,C   9,H  29)          110.26 -0.000187    0.02    110.27   
    86. A(H  29,C   9,H  31)          108.55  0.000015    0.04    108.59   
    87. A(H  29,C   9,H  30)          108.33  0.000043    0.00    108.33   
    88. A(Si  6,C  10,C  12)          111.04  0.000073   -0.14    110.90   
    89. A(Si  6,C  10,H  32)          108.23 -0.000002    0.17    108.40   
    90. A(Si  6,C  10,C  11)          113.77  0.000006   -0.03    113.74   
    91. A(C  11,C  10,C  12)          109.43 -0.000043   -0.03    109.40   
    92. A(C  12,C  10,H  32)          106.99 -0.000069    0.05    107.04   
    93. A(C  11,C  10,H  32)          107.08  0.000028   -0.00    107.08   
    94. A(C  10,C  11,H  35)          110.45 -0.000008   -0.01    110.45   
    95. A(H  34,C  11,H  35)          108.62  0.000087    0.01    108.62   
    96. A(H  33,C  11,H  35)          108.18  0.000048    0.01    108.19   
    97. A(H  33,C  11,H  34)          108.40  0.000079   -0.00    108.40   
    98. A(C  10,C  11,H  34)          111.12  0.000033   -0.02    111.09   
    99. A(C  10,C  11,H  33)          110.00 -0.000232    0.01    110.01   
   100. A(H  36,C  12,H  38)          108.15 -0.000012    0.02    108.17   
   101. A(C  10,C  12,H  38)          110.78 -0.000077   -0.00    110.78   
   102. A(H  36,C  12,H  37)          108.28  0.000034    0.02    108.31   
   103. A(C  10,C  12,H  37)          110.51  0.000003   -0.00    110.51   
   104. A(C  10,C  12,H  36)          110.20 -0.000129   -0.01    110.20   
   105. A(H  37,C  12,H  38)          108.83  0.000187   -0.03    108.80   
   106. A(Si  6,O  13,C  14)          119.58 -0.000188    0.33    119.90   
   107. A(O  13,C  14,C  15)          110.44  0.000097    0.08    110.52   
   108. A(H  39,C  14,H  40)          108.85  0.000235   -0.09    108.76   
   109. A(O  13,C  14,H  40)          110.10  0.000199   -0.01    110.10   
   110. A(C  15,C  14,H  39)          109.08 -0.000163   -0.04    109.04   
   111. A(O  13,C  14,H  39)          107.63 -0.000134    0.04    107.67   
   112. A(C  15,C  14,H  40)          110.66 -0.000232    0.01    110.67   
   113. A(H  16,C  15,O  17)          104.55 -0.000222    0.11    104.66   
   114. A(C  14,C  15,O  17)          113.39  0.000274   -0.06    113.33   
   115. A(C   3,C  15,O  17)          110.49 -0.000142    0.06    110.55   
   116. A(C  14,C  15,H  16)          107.01 -0.000066   -0.03    106.98   
   117. A(C   3,C  15,H  16)          108.59  0.000250   -0.07    108.52   
   118. A(C   3,C  15,C  14)          112.34 -0.000094   -0.01    112.33   
   119. A(C  15,O  17,C  18)          116.88  0.000389   -0.10    116.78   
   120. A(O  20,C  18,C  22)          107.76  0.000221   -0.12    107.64   
   121. A(H  19,C  18,C  22)          108.56 -0.000102   -0.08    108.48   
   122. A(O  17,C  18,C  22)          112.44 -0.000160    0.19    112.63   
   123. A(H  19,C  18,O  20)          110.63 -0.000011    0.08    110.71   
   124. A(O  17,C  18,O  20)          107.65  0.000076    0.02    107.66   
   125. A(O  17,C  18,H  19)          109.80 -0.000018   -0.08    109.71   
   126. A(C  18,O  20,C  21)          114.72  0.000922   -0.12    114.60   
   127. A(H  42,C  21,H  43)          109.53 -0.000128    0.00    109.54   
   128. A(H  41,C  21,H  43)          110.05  0.000110    0.04    110.09   
   129. A(O  20,C  21,H  43)          110.52  0.000095   -0.05    110.47   
   130. A(H  41,C  21,H  42)          110.29  0.000177    0.02    110.32   
   131. A(O  20,C  21,H  42)          110.91  0.000134   -0.05    110.87   
   132. A(O  20,C  21,H  41)          105.47 -0.000390    0.03    105.50   
   133. A(O  23,C  22,H  44)          111.08  0.000571   -0.00    111.08   
   134. A(C  18,C  22,H  44)          107.42 -0.000425    0.03    107.45   
   135. A(C  18,C  22,O  23)          107.62 -0.000049   -0.14    107.48   
   136. A(C   1,C  22,H  44)          108.83 -0.000210   -0.08    108.75   
   137. A(C   1,C  22,O  23)          110.77  0.000265   -0.04    110.73   
   138. A(C   1,C  22,C  18)          111.08 -0.000165    0.22    111.30   
   139. A(C  22,O  23,H  45)          107.49 -0.000179    0.25    107.75   
   140. D(C   3,C   1,O   0,H  24)     38.96 -0.000039   -0.03     38.93   
   141. D(C  22,C   1,O   0,H  24)    160.35 -0.000043    0.10    160.45   
   142. D(H   2,C   1,O   0,H  24)    -81.60 -0.000088    0.10    -81.50   
   143. D(H   4,C   3,C   1,H   2)    176.46  0.000234   -0.19    176.27   
   144. D(H   4,C   3,C   1,C  22)    -64.19  0.000121   -0.19    -64.38   
   145. D(O   5,C   3,C   1,O   0)    -60.53 -0.000086   -0.16    -60.69   
   146. D(O   5,C   3,C   1,C  22)    179.77  0.000089   -0.28    179.49   
   147. D(O   5,C   3,C   1,H   2)     60.42  0.000202   -0.29     60.14   
   148. D(H   4,C   3,C   1,O   0)     55.51 -0.000054   -0.06     55.44   
   149. D(Si  6,O   5,C   3,C  15)     31.33  0.000083   -0.56     30.77   
   150. D(Si  6,O   5,C   3,C   1)    -92.83  0.000145   -0.62    -93.45   
   151. D(Si  6,O   5,C   3,H   4)    150.50  0.000198   -0.65    149.85   
   152. D(O  13,Si  6,O   5,C   3)    -18.00 -0.000226    1.29    -16.70   
   153. D(C  10,Si  6,O   5,C   3)    100.41 -0.000023    1.24    101.65   
   154. D(C   7,Si  6,O   5,C   3)   -133.50 -0.000203    1.42   -132.09   
   155. D(C   9,C   7,Si  6,O  13)    -31.88  0.000225   -1.05    -32.92   
   156. D(C   8,C   7,Si  6,O   5)    -40.67 -0.000044   -0.82    -41.49   
   157. D(C   8,C   7,Si  6,O  13)   -155.91  0.000125   -0.92   -156.83   
   158. D(C   8,C   7,Si  6,C  10)     83.31  0.000071   -0.84     82.46   
   159. D(C   9,C   7,Si  6,O   5)     83.36  0.000056   -0.94     82.42   
   160. D(C   9,C   7,Si  6,C  10)   -152.66  0.000171   -0.97   -153.63   
   161. D(H  26,C   8,C   7,C   9)    -64.07 -0.000045   -0.24    -64.31   
   162. D(H  27,C   8,C   7,C   9)    176.15  0.000013   -0.25    175.90   
   163. D(H  27,C   8,C   7,Si  6)    -58.23  0.000179   -0.33    -58.56   
   164. D(H  26,C   8,C   7,H  25)    179.19 -0.000127   -0.07    179.11   
   165. D(H  27,C   8,C   7,H  25)     59.41 -0.000069   -0.09     59.33   
   166. D(H  26,C   8,C   7,Si  6)     61.54  0.000122   -0.31     61.23   
   167. D(H  30,C   9,C   7,Si  6)    177.19 -0.000005   -0.08    177.11   
   168. D(H  29,C   9,C   7,H  25)    178.60  0.000092   -0.36    178.24   
   169. D(H  29,C   9,C   7,C   8)     61.80 -0.000068   -0.17     61.64   
   170. D(H  29,C   9,C   7,Si  6)    -63.19 -0.000014   -0.10    -63.29   
   171. D(H  30,C   9,C   7,H  25)     58.98  0.000101   -0.34     58.64   
   172. D(H  30,C   9,C   7,C   8)    -57.82 -0.000059   -0.15    -57.97   
   173. D(C  12,C  10,Si  6,C   7)     62.87 -0.000152    1.60     64.47   
   174. D(C  12,C  10,Si  6,O   5)   -174.85 -0.000167    1.56   -173.29   
   175. D(C  11,C  10,Si  6,O  13)    178.69 -0.000157    1.87    180.56   
   176. D(C  11,C  10,Si  6,C   7)    -61.11 -0.000158    1.78    -59.33   
   177. D(C  12,C  10,Si  6,O  13)    -57.33 -0.000151    1.70    -55.64   
   178. D(C  11,C  10,Si  6,O   5)     61.17 -0.000173    1.74     62.91   
   179. D(H  34,C  11,C  10,C  12)   -178.78 -0.000035    0.07   -178.71   
   180. D(H  34,C  11,C  10,Si  6)    -53.94  0.000033   -0.16    -54.10   
   181. D(H  33,C  11,C  10,H  32)   -174.37  0.000020    0.02   -174.35   
   182. D(H  33,C  11,C  10,C  12)    -58.74 -0.000068    0.06    -58.68   
   183. D(H  33,C  11,C  10,Si  6)     66.10  0.000000   -0.17     65.93   
   184. D(H  34,C  11,C  10,H  32)     65.59  0.000053    0.03     65.62   
   185. D(H  37,C  12,C  10,H  32)     56.68  0.000016   -0.22     56.45   
   186. D(H  37,C  12,C  10,C  11)    -59.02  0.000041   -0.23    -59.24   
   187. D(H  37,C  12,C  10,Si  6)    174.57  0.000012   -0.07    174.51   
   188. D(H  36,C  12,C  10,H  32)    176.32 -0.000022   -0.20    176.12   
   189. D(H  36,C  12,C  10,C  11)     60.63  0.000003   -0.20     60.42   
   190. D(H  36,C  12,C  10,Si  6)    -65.78 -0.000026   -0.04    -65.82   
   191. D(C  14,O  13,Si  6,C  10)    -91.37 -0.000061   -1.43    -92.81   
   192. D(C  14,O  13,Si  6,C   7)    144.21  0.000140   -1.58    142.63   
   193. D(C  14,O  13,Si  6,O   5)     28.54  0.000196   -1.47     27.07   
   194. D(H  40,C  14,O  13,Si  6)     70.99 -0.000456    1.07     72.07   
   195. D(H  39,C  14,O  13,Si  6)   -170.50 -0.000141    0.99   -169.50   
   196. D(C  15,C  14,O  13,Si  6)    -51.51 -0.000363    1.01    -50.50   
   197. D(H  16,C  15,C   3,H   4)    -52.13  0.000116   -0.30    -52.43   
   198. D(H  16,C  15,C   3,C   1)   -169.85  0.000228   -0.27   -170.12   
   199. D(C  14,C  15,C   3,O   5)    -52.06  0.000034   -0.15    -52.20   
   200. D(C  14,C  15,C   3,H   4)   -170.29  0.000092   -0.21   -170.50   
   201. D(H  16,C  15,C   3,O   5)     66.10  0.000058   -0.24     65.86   
   202. D(C  14,C  15,C   3,C   1)     71.99  0.000204   -0.17     71.82   
   203. D(H  16,C  15,C  14,H  40)   -178.59 -0.000078   -0.07   -178.66   
   204. D(H  16,C  15,C  14,H  39)     61.68 -0.000122    0.07     61.75   
   205. D(H  16,C  15,C  14,O  13)    -56.41  0.000083   -0.01    -56.42   
   206. D(C   3,C  15,C  14,H  40)    -59.50  0.000132   -0.18    -59.68   
   207. D(C   3,C  15,C  14,H  39)   -179.23  0.000088   -0.05   -179.27   
   208. D(C   3,C  15,C  14,O  13)     62.68  0.000293   -0.13     62.55   
   209. D(C  18,O  17,C  15,H  16)    173.62  0.000149    0.07    173.69   
   210. D(C  18,O  17,C  15,C  14)    -70.18  0.000073    0.06    -70.11   
   211. D(C  18,O  17,C  15,C   3)     56.96  0.000046    0.06     57.02   
   212. D(C  22,C  18,O  17,C  15)    -53.76  0.000066    0.31    -53.45   
   213. D(O  20,C  18,O  17,C  15)   -172.30 -0.000161    0.34   -171.96   
   214. D(H  19,C  18,O  17,C  15)     67.21 -0.000183    0.28     67.49   
   215. D(C  21,O  20,C  18,C  22)    167.26  0.000029   -0.41    166.85   
   216. D(C  21,O  20,C  18,H  19)     48.73  0.000025   -0.29     48.44   
   217. D(C  21,O  20,C  18,O  17)    -71.23  0.000006   -0.25    -71.48   
   218. D(H  43,C  21,O  20,C  18)    -59.95 -0.000014    0.05    -59.90   
   219. D(H  42,C  21,O  20,C  18)     61.73 -0.000021   -0.02     61.72   
   220. D(H  41,C  21,O  20,C  18)   -178.86  0.000031    0.01   -178.86   
   221. D(O  23,C  22,C  18,O  20)    -71.43  0.000125   -0.52    -71.95   
   222. D(O  23,C  22,C  18,H  19)     48.42  0.000180   -0.54     47.88   
   223. D(C   1,C  22,C  18,O  20)    167.16 -0.000069   -0.52    166.64   
   224. D(C   1,C  22,C  18,H  19)    -72.99 -0.000014   -0.54    -73.52   
   225. D(C   1,C  22,C  18,O  17)     48.69 -0.000211   -0.57     48.12   
   226. D(O  23,C  22,C   1,C   3)   -169.81 -0.000133    0.71   -169.10   
   227. D(O  23,C  22,C   1,H   2)    -50.28 -0.000238    0.67    -49.62   
   228. D(O  23,C  22,C   1,O   0)     68.38 -0.000014    0.62     69.01   
   229. D(O  23,C  22,C  18,O  17)    170.10 -0.000017   -0.58    169.52   
   230. D(C  18,C  22,C   1,C   3)    -50.26 -0.000129    0.65    -49.62   
   231. D(C  18,C  22,C   1,H   2)     69.26 -0.000234    0.61     69.87   
   232. D(C  18,C  22,C   1,O   0)   -172.07 -0.000009    0.56   -171.51   
   233. D(H  45,O  23,C  22,H  44)     64.74  0.000316   -0.84     63.90   
   234. D(H  45,O  23,C  22,C  18)   -177.94  0.000091   -0.89   -178.82   
   235. D(H  45,O  23,C  22,C   1)    -56.34  0.000018   -0.73    -57.07   
    ----------------------------------------------------------------------------

Geometry step timings:
Preparation and reading OPT file:      0.001 s ( 5.454 %)
Internal coordinates            :      0.000 s ( 0.151 %)
B/P matrices and projection     :      0.004 s (21.747 %)
Hessian update/contruction      :      0.009 s (43.441 %)
Making the step                 :      0.003 s (14.298 %)
Converting the step to Cartesian:      0.000 s ( 2.005 %)
Storing new data                :      0.001 s ( 4.527 %)
Checking convergence            :      0.000 s ( 0.156 %)
Final printing                  :      0.002 s ( 8.215 %)
Total time                      :      0.020 s

Time for energy+gradient        :      0.074 s
Time for complete geometry iter :      0.107 s

         *************************************************************
         *                GEOMETRY OPTIMIZATION CYCLE   6            *
         *************************************************************
---------------------------------
CARTESIAN COORDINATES (ANGSTROEM)
---------------------------------
  O    -3.788986   -0.031658   -0.385367
  C    -2.488034   -0.453328   -0.061252
  H    -1.854462   -0.421365   -0.963248
  C    -1.865355    0.442115    1.013193
  H    -2.544973    0.450180    1.877856
  O    -1.782512    1.761430    0.550166
  Si   -0.448996    2.388697   -0.188322
  C    -0.070013    4.070018    0.630577
  C    -1.347877    4.870735    0.888357
  C     0.720692    3.925993    1.933477
  C    -0.690735    2.458650   -2.094897
  C    -1.833063    3.376058   -2.537887
  C     0.604173    2.884041   -2.794761
  O     0.811990    1.384832    0.141768
  C     0.575018    0.031192    0.402012
  C    -0.516719   -0.128237    1.469368
  H    -0.184124    0.428720    2.353153
  O    -0.667674   -1.455582    1.919953
  C    -1.229067   -2.383175    1.002059
  H    -0.526322   -2.548724    0.160730
  O    -1.459432   -3.560374    1.684384
  C    -0.286299   -4.284964    2.026264
  C    -2.573962   -1.906731    0.427323
  O    -2.908540   -2.765174   -0.627057
  H    -3.798035    0.935693   -0.391415
  H     0.545502    4.647401   -0.064808
  H    -2.000854    4.326318    1.565221
  H    -1.888709    5.046615   -0.036658
  H    -1.108203    5.833636    1.337247
  H     0.134746    3.382429    2.672034
  H     0.959677    4.907362    2.340756
  H     1.646174    3.384411    1.758740
  H    -0.931958    1.448217   -2.450966
  H    -1.595498    4.409211   -2.296440
  H    -2.761724    3.112439   -2.039882
  H    -1.983031    3.304320   -3.613903
  H     0.854840    3.908525   -2.530215
  H     0.489422    2.828337   -3.875992
  H     1.431269    2.245074   -2.496934
  H     1.506758   -0.403234    0.776608
  H     0.291755   -0.485209   -0.520478
  H    -0.635753   -5.181496    2.532163
  H     0.352876   -3.699353    2.690605
  H     0.273225   -4.555645    1.124423
  H    -3.317667   -1.964780    1.236250
  H    -3.745592   -2.457372   -1.003943

----------------------------
CARTESIAN COORDINATES (A.U.)
----------------------------
  NO LB    ZA    FRAG    MASS        X           Y           Z
   0 O   8.0000    1    15.999   -7.160145   -0.059824   -0.728237
   1 C   6.0000    1    12.011   -4.701702   -0.856666   -0.115749
   2 H   1.0000    1     1.008   -3.504426   -0.796264   -1.820275
   3 C   6.0000    1    12.011   -3.525009    0.835476    1.914657
   4 H   1.0000    1     1.008   -4.809302    0.850717    3.548634
   5 O   8.0000    1    15.999   -3.368459    3.328620    1.039663
   6 Si 14.0000    1    28.086   -0.848480    4.513984   -0.355877
   7 C   6.0000    1    12.011   -0.132306    7.691219    1.191617
   8 C   6.0000    1    12.011   -2.547118    9.204355    1.678751
   9 C   6.0000    1    12.011    1.361911    7.419052    3.653741
  10 C   6.0000    1    12.011   -1.305300    4.646174   -3.958781
  11 C   6.0000    1    12.011   -3.463988    6.379825   -4.795912
  12 C   6.0000    1    12.011    1.141721    5.450047   -5.281334
  13 O   8.0000    1    15.999    1.534439    2.616953    0.267903
  14 C   6.0000    1    12.011    1.086626    0.058945    0.759692
  15 C   6.0000    1    12.011   -0.976457   -0.242332    2.776702
  16 H   1.0000    1     1.008   -0.347944    0.810164    4.446814
  17 O   8.0000    1    15.999   -1.261721   -2.750652    3.628185
  18 C   6.0000    1    12.011   -2.322599   -4.503548    1.893617
  19 H   1.0000    1     1.008   -0.994605   -4.816390    0.303735
  20 O   8.0000    1    15.999   -2.757927   -6.728132    3.183024
  21 C   6.0000    1    12.011   -0.541027   -8.097409    3.829084
  22 C   6.0000    1    12.011   -4.864084   -3.603199    0.807523
  23 O   8.0000    1    15.999   -5.496344   -5.225421   -1.184967
  24 H   1.0000    1     1.008   -7.177246    1.768203   -0.739668
  25 H   1.0000    1     1.008    1.030850    8.782316   -0.122469
  26 H   1.0000    1     1.008   -3.781066    8.175556    2.957839
  27 H   1.0000    1     1.008   -3.569143    9.536721   -0.069274
  28 H   1.0000    1     1.008   -2.094199   11.023974    2.527031
  29 H   1.0000    1     1.008    0.254632    6.391864    5.049412
  30 H   1.0000    1     1.008    1.813527    9.273570    4.423387
  31 H   1.0000    1     1.008    3.110817    6.395611    3.323537
  32 H   1.0000    1     1.008   -1.761145    2.736734   -4.631655
  33 H   1.0000    1     1.008   -3.015055    8.332202   -4.339643
  34 H   1.0000    1     1.008   -5.218902    5.881658   -3.854818
  35 H   1.0000    1     1.008   -3.747386    6.244259   -6.829286
  36 H   1.0000    1     1.008    1.615413    7.386041   -4.781414
  37 H   1.0000    1     1.008    0.924874    5.344783   -7.324563
  38 H   1.0000    1     1.008    2.704707    4.242575   -4.718521
  39 H   1.0000    1     1.008    2.847360   -0.762002    1.467577
  40 H   1.0000    1     1.008    0.551337   -0.916912   -0.983561
  41 H   1.0000    1     1.008   -1.201399   -9.791608    4.785095
  42 H   1.0000    1     1.008    0.666840   -6.990765    5.084506
  43 H   1.0000    1     1.008    0.516321   -8.608921    2.124852
  44 H   1.0000    1     1.008   -6.269482   -3.712895    2.336174
  45 H   1.0000    1     1.008   -7.078144   -4.643760   -1.897177

      -----------------------------------------------------------      
     |                   =====================                   |     
     |                           x T B                           |     
     |                   =====================                   |     
     |                         S. Grimme                         |     
     |          Mulliken Center for Theoretical Chemistry        |     
     |                    University of Bonn                     |     
      -----------------------------------------------------------      

   * xtb version 6.7.1 (edcfbbe) compiled by 'albert@albert-system' on 2024-07-22

   xtb is free software: you can redistribute it and/or modify it under
   the terms of the GNU Lesser General Public License as published by
   the Free Software Foundation, either version 3 of the License, or
   (at your option) any later version.
   
   xtb is distributed in the hope that it will be useful,
   but WITHOUT ANY WARRANTY; without even the implied warranty of
   MERCHANTABILITY or FITNESS FOR A PARTICULAR PURPOSE.  See the
   GNU Lesser General Public License for more details.
   
   Cite this work as:
   * C. Bannwarth, E. Caldeweyher, S. Ehlert, A. Hansen, P. Pracht,
     J. Seibert, S. Spicher, S. Grimme, WIREs Comput. Mol. Sci., 2020, 11,
     e01493. DOI: 10.1002/wcms.1493
   
   for GFN2-xTB:
   * C. Bannwarth, S. Ehlert and S. Grimme., J. Chem. Theory Comput., 2019,
     15, 1652-1671. DOI: 10.1021/acs.jctc.8b01176
   for GFN1-xTB:
   * S. Grimme, C. Bannwarth, P. Shushkov, J. Chem. Theory Comput., 2017,
     13, 1989-2009. DOI: 10.1021/acs.jctc.7b00118
   for GFN0-xTB:
   * P. Pracht, E. Caldeweyher, S. Ehlert, S. Grimme, ChemRxiv, 2019, preprint.
     DOI: 10.26434/chemrxiv.8326202.v1
   for GFN-FF:
   * S. Spicher and S. Grimme, Angew. Chem. Int. Ed., 2020, 59, 15665-15673.
     DOI: 10.1002/anie.202004239
   
   for ALPB and GBSA implicit solvation:
   * S. Ehlert, M. Stahn, S. Spicher, S. Grimme, J. Chem. Theory Comput.,
     2021, 17, 4250-4261. DOI: 10.1021/acs.jctc.1c00471
   
   for ddCOSMO and CPCM-X implicit solvation:
   * M. Stahn, S. Ehlert, S. Grimme, J. Phys. Chem. A,
     2023, XX, XXXX-XXXX. DOI: 10.1021/acs.jpca.3c04382
   
   for DFT-D4:
   * E. Caldeweyher, C. Bannwarth and S. Grimme, J. Chem. Phys., 2017,
     147, 034112. DOI: 10.1063/1.4993215
   * E. Caldeweyher, S. Ehlert, A. Hansen, H. Neugebauer, S. Spicher,
     C. Bannwarth and S. Grimme, J. Chem. Phys., 2019, 150, 154122.
     DOI: 10.1063/1.5090222
   * E. Caldeweyher, J.-M. Mewes, S. Ehlert and S. Grimme, Phys. Chem. Chem. Phys.
     2020, 22, 8499-8512. DOI: 10.1039/D0CP00502A
   
   for sTDA-xTB:
   * S. Grimme and C. Bannwarth, J. Chem. Phys., 2016, 145, 054103.
     DOI: 10.1063/1.4959605
   
   in the mass-spec context:
   * V. Asgeirsson, C. Bauer and S. Grimme, Chem. Sci., 2017, 8, 4879.
     DOI: 10.1039/c7sc00601b
   * J. Koopman and S. Grimme, ACS Omega 2019, 4, 12, 15120-15133.
     DOI: 10.1021/acsomega.9b02011
   
   for metadynamics refer to:
   * S. Grimme, J. Chem. Theory Comput., 2019, 155, 2847-2862
     DOI: 10.1021/acs.jctc.9b00143
   
   for SPH calculations refer to:
   * S. Spicher and S. Grimme, J. Chem. Theory Comput., 2021, 17, 1701-1714
     DOI: 10.1021/acs.jctc.0c01306
   
   for ONIOM refer to:
   * C. Plett, A. Katbashev, S. Ehlert, S. Grimme, M. Bursch,
     Phys. Chem. Chem. Phys., 2023, 25, 17860-17868. DOI: 10.1039/D3CP02178E
   
   for DIPRO refer to:
   * J. Kohn, N. Gildemeister, S. Grimme, D. Fazzi, A. Hansen,
     J. Chem. Phys., 2023, just accepted.
   
   for PTB refer to:
   * S. Grimme, M. Mueller, A. Hansen, J. Chem. Phys., 2023, 158, 124111.
     DOI: 10.1063/5.0137838
   
   with help from (in alphabetical order)
   P. Atkinson, C. Bannwarth, F. Bohle, G. Brandenburg, E. Caldeweyher
   M. Checinski, S. Dohm, S. Ehlert, S. Ehrlich, I. Gerasimov, C. Hölzer
   A. Katbashev, J. Kohn, J. Koopman, C. Lavigne, S. Lehtola, F. März, M. Müller,
   F. Musil, H. Neugebauer, J. Pisarek, C. Plett, P. Pracht, F. Pultar,
   J. Seibert, P. Shushkov, S. Spicher, M. Stahn, M. Steiner, T. Strunk,
   J. Stückrath, T. Rose, and J. Unsleber
   
 * started run on 2025/09/10 at 11:29:46.598     
   ID    Z sym.   atoms
    1    8 O      1, 6, 14, 18, 21, 24
    2    6 C      2, 4, 8-13, 15, 16, 19, 22, 23
    3    1 H      3, 5, 17, 20, 25-46
    4   14 Si     7

           -------------------------------------------------
          |                Calculation Setup                |
           -------------------------------------------------

          program call               : /home/kmoult/orca_6_1/otool_xtb goat_0_XTB.xyz --grad -c 0 -u 0 -P 4 --namespace goat_0 --input goat_0_XTB.input.tmp --alpb ACETONE --acc 0.200000
          hostname                   : node2704
          calculation namespace      : goat_0
          coordinate file            : goat_0_XTB.xyz
          omp threads                :                     4


           -------------------------------------------------
          |                 G F N 2 - x T B                 |
           -------------------------------------------------

        Reference                      10.1021/acs.jctc.8b01176
      * Hamiltonian:
        H0-scaling (s, p, d)           1.850000    2.230000    2.230000
        zeta-weighting                 0.500000
      * Dispersion:
        s8                             2.700000
        a1                             0.520000
        a2                             5.000000
        s9                             5.000000
      * Repulsion:
        kExp                           1.500000    1.000000
        rExp                           1.000000
      * Coulomb:
        alpha                          2.000000
        third order                    shell-resolved
        anisotropic                    true
        a3                             3.000000
        a5                             4.000000
        cn-shift                       1.200000
        cn-exp                         4.000000
        max-rad                        5.000000

      * Solvation model:               ALPB
        Solvent                        ACETONE
        Parameter file                 internal GFN2-xTB/ALPB
        Dielectric constant                2.0700E+01
        Reference state                gsolv [1 M gas/solution]
        Free energy shift                  5.9241E-03 Eh       3.7175E+00 kcal/mol
        Temperature                        2.9815E+02 K
        Density                            7.9000E-01 kg/L
        Solvent mass                       5.8080E+01 g/mol
        Interaction kernel             P16
        Born radius scaling (c1)           1.8274E+00
        Born radii integrator          GBOBC
        Born offset                        0.0000E+00 a0       0.0000E+00 AA
        H-bond correction              true
        Ion screening                  false
        Surface tension                    1.0000E-05 Eh       1.5569E+01 dyn/cm
        Grid points                               230 per atom
q/qsh data taken from xtbrestart
CAMM data taken from xtbrestart

          ...................................................
          :                      SETUP                      :
          :.................................................:
          :  # basis functions                 112          :
          :  # atomic orbitals                 111          :
          :  # shells                           67          :
          :  # electrons                       118          :
          :  max. iterations                   250          :
          :  Hamiltonian                  GFN2-xTB          :
          :  restarted?                       true          :
          :  GBSA solvation                   true          :
          :  PC potential                    false          :
          :  electronic temp.          300.0000000     K    :
          :  accuracy                    0.2000000          :
          :  -> integral cutoff          0.3198970E+02      :
          :  -> integral neglect         0.2000000E-08      :
          :  -> SCF convergence          0.2000000E-06 Eh   :
          :  -> wf. convergence          0.2000000E-04 e    :
          :  Broyden damping             0.4000000          :
          :  net charge                          0          :
          :  unpaired electrons                  0          :
          ...................................................

 iter      E             dE          RMSdq      gap      omega  full diag
   1    -68.0077391 -0.680077E+02  0.722E-02    5.70       0.0  T
   2    -68.0077402 -0.111787E-05  0.491E-02    5.70       1.0  T
   3    -68.0077399  0.272348E-06  0.114E-02    5.70       1.3  T
   4    -68.0077400 -0.127944E-06  0.991E-03    5.71       1.5  T
   5    -68.0077409 -0.833491E-06  0.304E-03    5.70       4.9  T
   6    -68.0077409 -0.521215E-07  0.913E-04    5.70      16.1  T
   7    -68.0077409 -0.332936E-08  0.504E-04    5.70      29.2  T
   8    -68.0077409 -0.568235E-09  0.221E-04    5.70      66.8  T
   9    -68.0077409 -0.173301E-09  0.978E-05    5.70     150.7  T
  10    -68.0077409 -0.229079E-10  0.351E-05    5.70     420.5  T

   *** convergence criteria satisfied after 10 iterations ***

         #    Occupation            Energy/Eh            Energy/eV
      -------------------------------------------------------------
         1        2.0000           -0.8158493             -22.2004
       ...           ...                  ...                  ...
        53        2.0000           -0.4301003             -11.7036
        54        2.0000           -0.4249251             -11.5628
        55        2.0000           -0.4206949             -11.4477
        56        2.0000           -0.4174517             -11.3594
        57        2.0000           -0.4158975             -11.3171
        58        2.0000           -0.4090068             -11.1296
        59        2.0000           -0.3775961             -10.2749 (HOMO)
        60                         -0.1680088              -4.5718 (LUMO)
        61                         -0.1309543              -3.5634
        62                         -0.0969610              -2.6384
        63                         -0.0497246              -1.3531
        64                         -0.0094867              -0.2581
       ...                                ...                  ...
       111                          0.7926466              21.5690
      -------------------------------------------------------------
                  HL-Gap            0.2095873 Eh            5.7032 eV
             Fermi-level           -0.2728024 Eh           -7.4233 eV

 SCC (total)                   0 d,  0 h,  0 min,  0.030 sec
 SCC setup                      ...        0 min,  0.001 sec (  1.874%)
 Dispersion                     ...        0 min,  0.000 sec (  0.871%)
 classical contributions        ...        0 min,  0.000 sec (  0.129%)
 integral evaluation            ...        0 min,  0.004 sec ( 14.609%)
 iterations                     ...        0 min,  0.016 sec ( 53.154%)
 molecular gradient             ...        0 min,  0.009 sec ( 28.871%)
 printout                       ...        0 min,  0.000 sec (  0.435%)

         :::::::::::::::::::::::::::::::::::::::::::::::::::::
         ::                     SUMMARY                     ::
         :::::::::::::::::::::::::::::::::::::::::::::::::::::
         :: total energy             -67.354570385200 Eh    ::
         :: total w/o Gsasa/hb       -67.326986794371 Eh    ::
         :: gradient norm              0.003998620126 Eh/a0 ::
         :: HOMO-LUMO gap              5.703161002576 eV    ::
         ::.................................................::
         :: SCC energy               -68.006839705538 Eh    ::
         :: -> isotropic ES            0.154230379598 Eh    ::
         :: -> anisotropic ES          0.001250555794 Eh    ::
         :: -> anisotropic XC          0.002238480395 Eh    ::
         :: -> dispersion             -0.044939330798 Eh    ::
         :: -> Gsolv                  -0.030595201910 Eh    ::
         ::    -> Gelec               -0.003011611082 Eh    ::
         ::    -> Gsasa               -0.027921331497 Eh    ::
         ::    -> Ghb                 -0.005586400596 Eh    ::
         ::    -> Gshift               0.005924141264 Eh    ::
         :: repulsion energy           0.652269320338 Eh    ::
         :: add. restraining           0.000000000000 Eh    ::
         :: total charge              -0.000000000000 e     ::
         :::::::::::::::::::::::::::::::::::::::::::::::::::::


Property printout bound to 'properties.out'

           -------------------------------------------------
          | TOTAL ENERGY              -67.354570385200 Eh   |
          | GRADIENT NORM               0.003998620126 Eh/α |
          | HOMO-LUMO GAP               5.703161002576 eV   |
           -------------------------------------------------

------------------------------------------------------------------------
 * finished run on 2025/09/10 at 11:29:46.649     
------------------------------------------------------------------------
 total:
 * wall-time:     0 d,  0 h,  0 min,  0.051 sec
 *  cpu-time:     0 d,  0 h,  0 min,  0.185 sec
 * ratio c/w:     3.624 speedup
 SCF:
 * wall-time:     0 d,  0 h,  0 min,  0.030 sec
 *  cpu-time:     0 d,  0 h,  0 min,  0.121 sec
 * ratio c/w:     3.978 speedup


-------------------------   --------------------
FINAL SINGLE POINT ENERGY       -67.354570385200
-------------------------   --------------------


-------------
DIPOLE MOMENT
-------------
                                X             Y             Z
Total Dipole Moment    :      0.31800       0.77900      -0.38200
                        -----------------------------------------
Magnitude (a.u.)       :      0.92406
Magnitude (Debye)      :      2.34878


------------------
CARTESIAN GRADIENT
------------------

   1   O   :    0.000425326   -0.000411807   -0.000040945
   2   C   :   -0.001070835    0.000209341   -0.000365367
   3   H   :    0.000336598   -0.000181338    0.000295684
   4   C   :   -0.000180504    0.000306134   -0.000354984
   5   H   :    0.000027234   -0.000239708   -0.000004557
   6   O   :    0.000844963    0.000645043    0.000287173
   7   Si  :   -0.000049204   -0.000293669   -0.000589172
   8   C   :   -0.000018808   -0.001010234   -0.000173889
   9   C   :   -0.000257942    0.000467060    0.000073664
  10   C   :    0.000462608    0.000330533    0.000204500
  11   C   :    0.000164609   -0.000445073    0.000383127
  12   C   :   -0.000421779   -0.000015627   -0.000275546
  13   C   :    0.000281416    0.000113052   -0.000263123
  14   O   :   -0.000369697    0.001234686    0.000704274
  15   C   :    0.000210785   -0.000383739   -0.000821690
  16   C   :    0.000206837    0.000370546    0.000294743
  17   H   :    0.000104338   -0.000198381    0.000096754
  18   O   :    0.000052061    0.000135153    0.000346386
  19   C   :    0.000252020   -0.001096453    0.000599190
  20   H   :    0.000041245    0.000351452   -0.000187143
  21   O   :   -0.000013137   -0.000015974   -0.000071810
  22   C   :    0.000232605   -0.000384316    0.000238322
  23   C   :   -0.000586783   -0.000555399   -0.001255474
  24   O   :    0.000159561    0.000191778    0.000689258
  25   H   :   -0.000229258    0.000354805    0.000069393
  26   H   :    0.000109459    0.000135322   -0.000056414
  27   H   :   -0.000042454   -0.000187133    0.000132219
  28   H   :   -0.000038902   -0.000065244   -0.000166985
  29   H   :    0.000006108    0.000052293    0.000044428
  30   H   :   -0.000193676   -0.000091196    0.000083914
  31   H   :   -0.000068020    0.000094829    0.000017131
  32   H   :    0.000054929   -0.000092860   -0.000148704
  33   H   :    0.000019691    0.000101287   -0.000131116
  34   H   :    0.000126631    0.000142522    0.000155899
  35   H   :   -0.000082211   -0.000050543    0.000098755
  36   H   :    0.000032918   -0.000039157   -0.000057099
  37   H   :   -0.000034655    0.000213388    0.000049275
  38   H   :   -0.000063733    0.000030160   -0.000040257
  39   H   :    0.000083718   -0.000119213    0.000106253
  40   H   :   -0.000106404   -0.000003486    0.000015807
  41   H   :   -0.000289487   -0.000090647    0.000201361
  42   H   :   -0.000243334    0.000020448   -0.000044931
  43   H   :    0.000112778    0.000060850   -0.000142569
  44   H   :    0.000069880    0.000134320    0.000015716
  45   H   :    0.000178102    0.000135762    0.000392341
  46   H   :   -0.000235595    0.000140435   -0.000403794

Difference to translation invariance:
           :   -0.0000000000    0.0000000000   -0.0000000000

Difference to rotation invariance:
           :    0.0005549796    0.0001157704    0.0008907703

Norm of the Cartesian gradient     ...    0.0039986201
RMS gradient                       ...    0.0003403851
MAX gradient                       ...    0.0012554738
------------------------------------------------------------------------------
                         ORCA GEOMETRY RELAXATION STEP
------------------------------------------------------------------------------

Reading the OPT-File                    .... done
Getting information on internals        .... done
Copying old internal coords+grads       .... done
Making the new internal coordinates     .... (2022 redundants) done
Validating the new internal coordinates .... (2022 redundants) done
Calculating the B-matrix                .... done
Calculating the G,G- and P matrices     .... done
Transforming gradient to internals      .... done
Projecting the internal gradient        .... done
Number of atoms                         ....  46
Number of internal coordinates          .... 235
Current Energy                          ....   -67.354570385 Eh
Current gradient norm                   ....     0.003998620 Eh/bohr
Maximum allowed component of the step   ....  0.300
Current trust radius                    ....  0.675
Updating the Hessian (BFGS)             .... done
Forming the augmented Hessian           .... done
Diagonalizing the augmented Hessian     .... done
Last element of RFO vector              ....  0.973880306
Lowest eigenvalues of augmented Hessian:
 -0.000175612  0.002607961  0.010012155  0.010708933  0.010844274
Length of the computed step             ....  0.233151852
The final length of the internal step   ....  0.233151852
Converting the step to Cartesian space:
 Initial RMS(Int)=    0.0152091498
Transforming coordinates:
 Iter   0:  RMS(Cart)=    0.0709526820 RMS(Int)=    0.4082833661
 Iter   5:  RMS(Cart)=    0.0000000221 RMS(Int)=    0.0000000097
done
Storing new coordinates                 .... done
The predicted energy change is          ....    -0.000092579
Previously predicted energy change      ....    -0.000066082
Actually observed energy change         ....    -0.000100577
Ratio of predicted to observed change   ....     1.522001566
New trust radius                        ....     0.450000000

                                .--------------------.
          ----------------------|Geometry convergence|-------------------------
          Item                value                   Tolerance       Converged
          ---------------------------------------------------------------------
          Energy change      -0.0001005774            0.0000050000      NO
          RMS gradient        0.0001844833            0.0001000000      NO
          MAX gradient        0.0008719504            0.0003000000      NO
          RMS step            0.0152091498            0.0020000000      NO
          MAX step            0.0613849161            0.0040000000      NO
          -------------------------------------------------------------------------
          ........................................................
          Max(Bonds)      0.0265      Max(Angles)    0.54
          Max(Dihed)        3.52      Max(Improp)    0.00
          ---------------------------------------------------------------------

    ---------------------------------------------------------------------------
                         Redundant Internal Coordinates
                            (Angstroem and degrees)

        Definition                    Value    dE/dq     Step     New-Value
    ----------------------------------------------------------------------------
     1. B(C   1,O   0)                1.4055 -0.000315  0.0005    1.4060   
     2. B(H   2,C   1)                1.1027 -0.000055  0.0002    1.1029   
     3. B(C   3,C   1)                1.5310  0.000321 -0.0003    1.5307   
     4. B(H   4,C   3)                1.0998 -0.000022 -0.0000    1.0998   
     5. B(O   5,C   3)                1.4007  0.000268  0.0005    1.4012   
     6. B(Si  6,O   5)                1.6484 -0.000375 -0.0015    1.6469   
     7. B(C   7,Si  6)                1.9082 -0.000318  0.0040    1.9122   
     8. B(C   8,C   7)                1.5299  0.000420  0.0004    1.5302   
     9. B(C   9,C   7)                1.5309  0.000243  0.0003    1.5311   
    10. B(C  10,Si  6)                1.9231 -0.000034 -0.0013    1.9218   
    11. B(C  11,C  10)                1.5306  0.000295 -0.0002    1.5304   
    12. B(C  12,C  10)                1.5322  0.000364  0.0001    1.5322   
    13. B(O  13,Si  6)                1.6452 -0.000594 -0.0002    1.6450   
    14. B(C  14,O  13)                1.3987  0.000745 -0.0001    1.3985   
    15. B(C  15,C   3)                1.5337  0.000181 -0.0009    1.5328   
    16. B(C  15,C  14)                1.5351  0.000235  0.0000    1.5352   
    17. B(H  16,C  15)                1.0963  0.000009 -0.0000    1.0963   
    18. B(O  17,C  15)                1.4098  0.000510 -0.0006    1.4092   
    19. B(C  18,O  17)                1.4206  0.000574  0.0002    1.4208   
    20. B(H  19,C  18)                1.1086  0.000112 -0.0010    1.1076   
    21. B(O  20,C  18)                1.3800  0.000138  0.0010    1.3811   
    22. B(C  21,O  20)                1.4206  0.000229  0.0005    1.4211   
    23. B(C  22,C  18)                1.5382  0.000872 -0.0004    1.5378   
    24. B(C  22,C   1)                1.5357  0.000376 -0.0005    1.5353   
    25. B(O  23,C  22)                1.4002 -0.000413  0.0010    1.4013   
    26. B(H  24,O   0)                0.9674  0.000407 -0.0002    0.9672   
    27. B(H  24,O   5)                2.3729  0.000141  0.0030    2.3759   
    28. B(H  25,C   7)                1.0935  0.000171 -0.0000    1.0935   
    29. B(H  26,C   8)                1.0867  0.000198 -0.0001    1.0866   
    30. B(H  27,C   8)                1.0859  0.000151 -0.0001    1.0858   
    31. B(H  28,C   8)                1.0891  0.000067 -0.0001    1.0890   
    32. B(H  29,C   9)                1.0882  0.000204 -0.0000    1.0882   
    33. B(H  30,C   9)                1.0891  0.000076 -0.0001    1.0890   
    34. B(H  31,C   9)                1.0864  0.000120  0.0001    1.0865   
    35. B(H  32,C  10)                1.0982 -0.000054 -0.0005    1.0976   
    36. B(H  33,C  11)                1.0873  0.000197 -0.0001    1.0871   
    37. B(H  34,C  11)                1.0862  0.000125  0.0001    1.0864   
    38. B(H  35,C  11)                1.0888  0.000056  0.0000    1.0888   
    39. B(H  36,C  12)                1.0874  0.000202 -0.0001    1.0872   
    40. B(H  37,C  12)                1.0887  0.000046  0.0002    1.0889   
    41. B(H  38,C  12)                1.0868  0.000166 -0.0002    1.0866   
    42. B(H  39,C  14)                1.0942 -0.000084  0.0002    1.0943   
    43. B(H  40,C  14)                1.0945 -0.000052  0.0002    1.0946   
    44. B(H  41,C  21)                1.0871  0.000043 -0.0000    1.0871   
    45. B(H  42,C  21)                1.0922  0.000011  0.0000    1.0922   
    46. B(H  43,C  21)                1.0953 -0.000016 -0.0002    1.0951   
    47. B(H  44,C  22)                1.1004  0.000164 -0.0003    1.1001   
    48. B(H  45,O   0)                2.5037  0.000012  0.0265    2.5302   
    49. B(H  45,O  23)                0.9682  0.000411 -0.0004    0.9678   
    50. A(C   1,O   0,H  24)          108.07  0.000132    0.11    108.17   
    51. A(H   2,C   1,C   3)          108.87 -0.000156    0.01    108.88   
    52. A(O   0,C   1,C   3)          111.27 -0.000070   -0.05    111.22   
    53. A(H   2,C   1,C  22)          108.65 -0.000131    0.09    108.75   
    54. A(O   0,C   1,H   2)          109.54  0.000209   -0.17    109.37   
    55. A(O   0,C   1,C  22)          107.79 -0.000004    0.03    107.82   
    56. A(C   3,C   1,C  22)          110.67  0.000154    0.08    110.76   
    57. A(O   5,C   3,C  15)          113.37 -0.000169    0.04    113.40   
    58. A(C   1,C   3,H   4)          107.74 -0.000164    0.05    107.79   
    59. A(H   4,C   3,C  15)          108.20  0.000004   -0.11    108.08   
    60. A(H   4,C   3,O   5)          106.83  0.000120    0.08    106.91   
    61. A(C   1,C   3,C  15)          110.42  0.000100    0.07    110.49   
    62. A(C   1,C   3,O   5)          110.06  0.000104   -0.12    109.94   
    63. A(C   3,O   5,Si  6)          123.67  0.000340    0.08    123.75   
    64. A(C  10,Si  6,O  13)          108.51  0.000035   -0.17    108.34   
    65. A(O   5,Si  6,C   7)          107.68 -0.000160   -0.11    107.58   
    66. A(C   7,Si  6,O  13)          107.42 -0.000002   -0.20    107.22   
    67. A(O   5,Si  6,O  13)          107.34 -0.000032    0.37    107.70   
    68. A(O   5,Si  6,C  10)          110.87  0.000196   -0.19    110.69   
    69. A(C   7,Si  6,C  10)          114.73 -0.000043    0.30    115.03   
    70. A(C   8,C   7,H  25)          107.51  0.000004   -0.06    107.45   
    71. A(Si  6,C   7,C   8)          111.57 -0.000192    0.04    111.61   
    72. A(Si  6,C   7,H  25)          107.71 -0.000018    0.30    108.01   
    73. A(C   8,C   7,C   9)          109.71 -0.000028   -0.12    109.59   
    74. A(Si  6,C   7,C   9)          112.64  0.000318   -0.15    112.49   
    75. A(C   9,C   7,H  25)          107.47 -0.000093   -0.00    107.46   
    76. A(H  27,C   8,H  28)          108.51  0.000076   -0.05    108.46   
    77. A(C   7,C   8,H  28)          110.39  0.000066   -0.02    110.37   
    78. A(C   7,C   8,H  27)          110.93 -0.000101   -0.02    110.91   
    79. A(C   7,C   8,H  26)          110.16 -0.000170    0.09    110.25   
    80. A(H  26,C   8,H  27)          108.21  0.000098    0.01    108.22   
    81. A(H  26,C   8,H  28)          108.57  0.000038   -0.00    108.57   
    82. A(H  30,C   9,H  31)          108.81  0.000156   -0.08    108.73   
    83. A(C   7,C   9,H  31)          110.49 -0.000159    0.06    110.55   
    84. A(C   7,C   9,H  30)          110.29 -0.000013   -0.05    110.25   
    85. A(C   7,C   9,H  29)          110.27 -0.000123    0.05    110.32   
    86. A(H  29,C   9,H  31)          108.59  0.000093    0.02    108.61   
    87. A(H  29,C   9,H  30)          108.33  0.000055   -0.01    108.32   
    88. A(Si  6,C  10,C  12)          110.90 -0.000062   -0.14    110.75   
    89. A(Si  6,C  10,H  32)          108.40  0.000130    0.14    108.53   
    90. A(Si  6,C  10,C  11)          113.74 -0.000047   -0.01    113.73   
    91. A(C  11,C  10,C  12)          109.40  0.000053   -0.04    109.36   
    92. A(C  12,C  10,H  32)          107.04 -0.000057    0.07    107.11   
    93. A(C  11,C  10,H  32)          107.08 -0.000016   -0.01    107.07   
    94. A(C  10,C  11,H  35)          110.45 -0.000027   -0.01    110.44   
    95. A(H  34,C  11,H  35)          108.62  0.000088   -0.02    108.60   
    96. A(H  33,C  11,H  35)          108.19  0.000084   -0.02    108.17   
    97. A(H  33,C  11,H  34)          108.40  0.000069   -0.00    108.39   
    98. A(C  10,C  11,H  34)          111.09 -0.000014   -0.02    111.08   
    99. A(C  10,C  11,H  33)          110.01 -0.000192    0.06    110.07   
   100. A(H  36,C  12,H  38)          108.17  0.000053   -0.00    108.17   
   101. A(C  10,C  12,H  38)          110.78 -0.000070    0.01    110.79   
   102. A(H  36,C  12,H  37)          108.31  0.000029    0.03    108.34   
   103. A(C  10,C  12,H  37)          110.51 -0.000022    0.01    110.52   
   104. A(C  10,C  12,H  36)          110.20 -0.000089    0.01    110.21   
   105. A(H  37,C  12,H  38)          108.80  0.000105   -0.07    108.74   
   106. A(Si  6,O  13,C  14)          119.87 -0.000110    0.54    120.41   
   107. A(O  13,C  14,C  15)          110.51  0.000025    0.14    110.65   
   108. A(H  39,C  14,H  40)          108.76  0.000111   -0.15    108.61   
   109. A(O  13,C  14,H  40)          110.10  0.000213   -0.08    110.02   
   110. A(C  15,C  14,H  39)          109.05 -0.000194   -0.03    109.02   
   111. A(O  13,C  14,H  39)          107.68  0.000043    0.03    107.71   
   112. A(C  15,C  14,H  40)          110.67 -0.000194    0.08    110.75   
   113. A(H  16,C  15,O  17)          104.66 -0.000095    0.20    104.86   
   114. A(C  14,C  15,O  17)          113.34  0.000194   -0.09    113.24   
   115. A(C   3,C  15,O  17)          110.55  0.000017    0.04    110.59   
   116. A(C  14,C  15,H  16)          106.98 -0.000007   -0.03    106.95   
   117. A(C   3,C  15,H  16)          108.52  0.000194   -0.14    108.38   
   118. A(C   3,C  15,C  14)          112.33 -0.000284    0.03    112.36   
   119. A(C  15,O  17,C  18)          116.78  0.000128   -0.16    116.62   
   120. A(O  20,C  18,C  22)          107.64  0.000070   -0.19    107.45   
   121. A(H  19,C  18,C  22)          108.48 -0.000170   -0.03    108.45   
   122. A(O  17,C  18,C  22)          112.62 -0.000120    0.30    112.93   
   123. A(H  19,C  18,O  20)          110.71  0.000134    0.00    110.71   
   124. A(O  17,C  18,O  20)          107.67  0.000199   -0.05    107.61   
   125. A(O  17,C  18,H  19)          109.72 -0.000101   -0.04    109.67   
   126. A(C  18,O  20,C  21)          114.60  0.000491   -0.20    114.40   
   127. A(H  42,C  21,H  43)          109.54 -0.000130    0.05    109.58   
   128. A(H  41,C  21,H  43)          110.09  0.000168    0.00    110.10   
   129. A(O  20,C  21,H  43)          110.47 -0.000006   -0.05    110.42   
   130. A(H  41,C  21,H  42)          110.32  0.000216   -0.04    110.28   
   131. A(O  20,C  21,H  42)          110.87  0.000073   -0.07    110.80   
   132. A(O  20,C  21,H  41)          105.50 -0.000319    0.11    105.60   
   133. A(O  23,C  22,H  44)          111.08  0.000527   -0.10    110.98   
   134. A(C  18,C  22,H  44)          107.45 -0.000371    0.13    107.59   
   135. A(C  18,C  22,O  23)          107.48  0.000152   -0.25    107.23   
   136. A(C   1,C  22,H  44)          108.76 -0.000218   -0.04    108.72   
   137. A(C   1,C  22,O  23)          110.73 -0.000016   -0.07    110.66   
   138. A(C   1,C  22,C  18)          111.29 -0.000073    0.34    111.63   
   139. A(C  22,O  23,H  45)          107.75  0.000265    0.22    107.97   
   140. D(C   3,C   1,O   0,H  24)     38.93 -0.000168    0.33     39.26   
   141. D(C  22,C   1,O   0,H  24)    160.45 -0.000024    0.42    160.87   
   142. D(H   2,C   1,O   0,H  24)    -81.50 -0.000067    0.46    -81.04   
   143. D(H   4,C   3,C   1,H   2)    176.27  0.000214   -0.46    175.81   
   144. D(H   4,C   3,C   1,C  22)    -64.38  0.000048   -0.28    -64.66   
   145. D(O   5,C   3,C   1,O   0)    -60.69 -0.000007   -0.28    -60.97   
   146. D(O   5,C   3,C   1,C  22)    179.49 -0.000058   -0.34    179.15   
   147. D(O   5,C   3,C   1,H   2)     60.14  0.000108   -0.52     59.62   
   148. D(H   4,C   3,C   1,O   0)     55.44  0.000100   -0.22     55.22   
   149. D(Si  6,O   5,C   3,C  15)     30.77  0.000111   -1.04     29.72   
   150. D(Si  6,O   5,C   3,C   1)    -93.45  0.000023   -1.07    -94.52   
   151. D(Si  6,O   5,C   3,H   4)    149.85  0.000096   -1.11    148.74   
   152. D(O  13,Si  6,O   5,C   3)    -16.71 -0.000215    2.47    -14.24   
   153. D(C  10,Si  6,O   5,C   3)    101.65 -0.000082    2.38    104.03   
   154. D(C   7,Si  6,O   5,C   3)   -132.08 -0.000117    2.56   -129.52   
   155. D(C   9,C   7,Si  6,O  13)    -32.92  0.000150   -2.02    -34.93   
   156. D(C   8,C   7,Si  6,O   5)    -41.49 -0.000024   -1.50    -42.99   
   157. D(C   8,C   7,Si  6,O  13)   -156.82  0.000094   -1.78   -158.59   
   158. D(C   8,C   7,Si  6,C  10)     82.46  0.000078   -1.61     80.85   
   159. D(C   9,C   7,Si  6,O   5)     82.41  0.000032   -1.74     80.67   
   160. D(C   9,C   7,Si  6,C  10)   -153.63  0.000134   -1.85   -155.49   
   161. D(H  26,C   8,C   7,C   9)    -64.31 -0.000140   -0.32    -64.63   
   162. D(H  27,C   8,C   7,C   9)    175.90 -0.000087   -0.38    175.53   
   163. D(H  27,C   8,C   7,Si  6)    -58.56  0.000165   -0.63    -59.18   
   164. D(H  26,C   8,C   7,H  25)    179.11 -0.000017   -0.22    178.90   
   165. D(H  27,C   8,C   7,H  25)     59.33  0.000036   -0.27     59.05   
   166. D(H  26,C   8,C   7,Si  6)     61.23  0.000112   -0.57     60.66   
   167. D(H  30,C   9,C   7,Si  6)    177.11  0.000061   -0.16    176.95   
   168. D(H  29,C   9,C   7,H  25)    178.24 -0.000060   -0.46    177.79   
   169. D(H  29,C   9,C   7,C   8)     61.64  0.000003   -0.31     61.32   
   170. D(H  29,C   9,C   7,Si  6)    -63.29  0.000043   -0.17    -63.46   
   171. D(H  30,C   9,C   7,H  25)     58.64 -0.000042   -0.45     58.19   
   172. D(H  30,C   9,C   7,C   8)    -57.97  0.000021   -0.30    -58.27   
   173. D(C  12,C  10,Si  6,C   7)     64.47 -0.000114    3.18     67.64   
   174. D(C  12,C  10,Si  6,O   5)   -173.29 -0.000205    3.12   -170.17   
   175. D(C  11,C  10,Si  6,O  13)   -179.44 -0.000095    3.52   -175.93   
   176. D(C  11,C  10,Si  6,C   7)    -59.33 -0.000101    3.34    -55.99   
   177. D(C  12,C  10,Si  6,O  13)    -55.64 -0.000109    3.35    -52.29   
   178. D(C  11,C  10,Si  6,O   5)     62.91 -0.000191    3.28     66.20   
   179. D(H  34,C  11,C  10,C  12)   -178.71  0.000019    0.19   -178.52   
   180. D(H  34,C  11,C  10,Si  6)    -54.10 -0.000056   -0.03    -54.13   
   181. D(H  33,C  11,C  10,H  32)   -174.35  0.000019    0.16   -174.19   
   182. D(H  33,C  11,C  10,C  12)    -58.68 -0.000030    0.22    -58.46   
   183. D(H  33,C  11,C  10,Si  6)     65.93 -0.000104    0.00     65.93   
   184. D(H  34,C  11,C  10,H  32)     65.62  0.000067    0.13     65.75   
   185. D(H  37,C  12,C  10,H  32)     56.45 -0.000028   -0.20     56.26   
   186. D(H  37,C  12,C  10,C  11)    -59.24 -0.000005   -0.20    -59.45   
   187. D(H  37,C  12,C  10,Si  6)    174.51  0.000061   -0.07    174.44   
   188. D(H  36,C  12,C  10,H  32)    176.12 -0.000062   -0.14    175.98   
   189. D(H  36,C  12,C  10,C  11)     60.42 -0.000040   -0.15     60.28   
   190. D(H  36,C  12,C  10,Si  6)    -65.82  0.000026   -0.01    -65.84   
   191. D(C  14,O  13,Si  6,C  10)    -92.81 -0.000017   -2.73    -95.54   
   192. D(C  14,O  13,Si  6,C   7)    142.62  0.000015   -2.87    139.75   
   193. D(C  14,O  13,Si  6,O   5)     27.07  0.000218   -2.84     24.23   
   194. D(H  40,C  14,O  13,Si  6)     72.07 -0.000429    2.09     74.16   
   195. D(H  39,C  14,O  13,Si  6)   -169.50 -0.000151    1.88   -167.62   
   196. D(C  15,C  14,O  13,Si  6)    -50.49 -0.000346    1.95    -48.54   
   197. D(H  16,C  15,C   3,H   4)    -52.43 -0.000005   -0.54    -52.97   
   198. D(H  16,C  15,C   3,C   1)   -170.12  0.000134   -0.57   -170.69   
   199. D(C  14,C  15,C   3,O   5)    -52.20  0.000099   -0.38    -52.58   
   200. D(C  14,C  15,C   3,H   4)   -170.50  0.000049   -0.43   -170.93   
   201. D(H  16,C  15,C   3,O   5)     65.86  0.000045   -0.49     65.37   
   202. D(C  14,C  15,C   3,C   1)     71.82  0.000188   -0.46     71.35   
   203. D(H  16,C  15,C  14,H  40)   -178.65 -0.000124   -0.03   -178.68   
   204. D(H  16,C  15,C  14,H  39)     61.75 -0.000020    0.13     61.88   
   205. D(H  16,C  15,C  14,O  13)    -56.43  0.000031    0.02    -56.40   
   206. D(C   3,C  15,C  14,H  40)    -59.68 -0.000055   -0.20    -59.88   
   207. D(C   3,C  15,C  14,H  39)   -179.28  0.000050   -0.05   -179.32   
   208. D(C   3,C  15,C  14,O  13)     62.55  0.000100   -0.15     62.40   
   209. D(C  18,O  17,C  15,H  16)    173.68  0.000080    0.15    173.84   
   210. D(C  18,O  17,C  15,C  14)    -70.11  0.000112    0.19    -69.92   
   211. D(C  18,O  17,C  15,C   3)     57.02 -0.000103    0.19     57.21   
   212. D(C  22,C  18,O  17,C  15)    -53.45  0.000143    0.50    -52.95   
   213. D(O  20,C  18,O  17,C  15)   -171.96 -0.000001    0.59   -171.36   
   214. D(H  19,C  18,O  17,C  15)     67.49 -0.000225    0.65     68.13   
   215. D(C  21,O  20,C  18,C  22)    166.85 -0.000064   -0.34    166.51   
   216. D(C  21,O  20,C  18,H  19)     48.44  0.000023   -0.20     48.25   
   217. D(C  21,O  20,C  18,O  17)    -71.49 -0.000055   -0.12    -71.60   
   218. D(H  43,C  21,O  20,C  18)    -59.90  0.000044    0.04    -59.87   
   219. D(H  42,C  21,O  20,C  18)     61.72 -0.000075    0.02     61.73   
   220. D(H  41,C  21,O  20,C  18)   -178.86  0.000033   -0.00   -178.86   
   221. D(O  23,C  22,C  18,O  20)    -71.95  0.000090   -1.03    -72.98   
   222. D(O  23,C  22,C  18,H  19)     47.88  0.000194   -1.14     46.74   
   223. D(C   1,C  22,C  18,O  20)    166.64  0.000055   -0.98    165.66   
   224. D(C   1,C  22,C  18,H  19)    -73.52  0.000160   -1.10    -74.62   
   225. D(C   1,C  22,C  18,O  17)     48.12 -0.000164   -0.97     47.15   
   226. D(O  23,C  22,C   1,C   3)   -169.10 -0.000077    1.13   -167.97   
   227. D(O  23,C  22,C   1,H   2)    -49.62 -0.000258    1.26    -48.36   
   228. D(O  23,C  22,C   1,O   0)     69.01 -0.000083    1.13     70.13   
   229. D(O  23,C  22,C  18,O  17)    169.52 -0.000130   -1.01    168.51   
   230. D(C  18,C  22,C   1,C   3)    -49.62  0.000055    0.99    -48.62   
   231. D(C  18,C  22,C   1,H   2)     69.87 -0.000125    1.12     70.99   
   232. D(C  18,C  22,C   1,O   0)   -171.51  0.000050    0.99   -170.52   
   233. D(H  45,O  23,C  22,H  44)     63.90  0.000175   -1.60     62.30   
   234. D(H  45,O  23,C  22,C  18)   -178.82  0.000109   -1.64   -180.46   
   235. D(H  45,O  23,C  22,C   1)    -57.07  0.000107   -1.42    -58.49   
    ----------------------------------------------------------------------------

Geometry step timings:
Preparation and reading OPT file:      0.001 s ( 4.961 %)
Internal coordinates            :      0.000 s ( 0.169 %)
B/P matrices and projection     :      0.005 s (22.997 %)
Hessian update/contruction      :      0.009 s (42.914 %)
Making the step                 :      0.003 s (14.812 %)
Converting the step to Cartesian:      0.000 s ( 2.059 %)
Storing new data                :      0.001 s ( 4.033 %)
Checking convergence            :      0.000 s ( 0.154 %)
Final printing                  :      0.002 s ( 7.892 %)
Total time                      :      0.020 s

Time for energy+gradient        :      0.075 s
Time for complete geometry iter :      0.105 s

         *************************************************************
         *                GEOMETRY OPTIMIZATION CYCLE   7            *
         *************************************************************
---------------------------------
CARTESIAN COORDINATES (ANGSTROEM)
---------------------------------
  O    -3.798709   -0.065920   -0.382015
  C    -2.490273   -0.472754   -0.066994
  H    -1.867606   -0.438806   -0.976718
  C    -1.867204    0.437700    0.994050
  H    -2.540409    0.449939    1.863627
  O    -1.797166    1.752282    0.514218
  Si   -0.465707    2.387933   -0.217342
  C    -0.073186    4.050783    0.641261
  C    -1.341895    4.868740    0.892189
  C     0.686673    3.865389    1.957513
  C    -0.721819    2.495358   -2.118950
  C    -1.810214    3.485940   -2.538831
  C     0.590498    2.853431   -2.824214
  O     0.797473    1.376744    0.078737
  C     0.569756    0.027939    0.369746
  C    -0.512672   -0.117384    1.448700
  H    -0.176763    0.459798    2.318116
  O    -0.652015   -1.437155    1.922793
  C    -1.211978   -2.381675    1.021051
  H    -0.507116   -2.563509    0.186217
  O    -1.444476   -3.546015    1.726445
  C    -0.269354   -4.262405    2.080608
  C    -2.556429   -1.923191    0.431821
  O    -2.867112   -2.794356   -0.620794
  H    -3.817575    0.900899   -0.401232
  H     0.566038    4.633896   -0.027375
  H    -2.021149    4.320252    1.539113
  H    -1.857260    5.080186   -0.039826
  H    -1.094319    5.814685    1.371666
  H     0.074217    3.321720    2.674113
  H     0.937937    4.833944    2.387305
  H     1.604721    3.308105    1.792695
  H    -1.026581    1.506960   -2.486346
  H    -1.508511    4.499960   -2.288669
  H    -2.748228    3.272956   -2.033918
  H    -1.975354    3.436201   -3.613909
  H     0.902721    3.857937   -2.549340
  H     0.465002    2.817387   -3.905253
  H     1.381031    2.163633   -2.541412
  H     1.506809   -0.394525    0.745276
  H     0.284506   -0.508963   -0.540530
  H    -0.614807   -5.150166    2.604389
  H     0.368845   -3.662348    2.732890
  H     0.288843   -4.548409    1.182946
  H    -3.309045   -1.987508    1.231543
  H    -3.716185   -2.519359   -0.995100

----------------------------
CARTESIAN COORDINATES (A.U.)
----------------------------
  NO LB    ZA    FRAG    MASS        X           Y           Z
   0 O   8.0000    1    15.999   -7.178520   -0.124572   -0.721905
   1 C   6.0000    1    12.011   -4.705935   -0.893376   -0.126599
   2 H   1.0000    1     1.008   -3.529264   -0.829224   -1.845730
   3 C   6.0000    1    12.011   -3.528504    0.827132    1.878482
   4 H   1.0000    1     1.008   -4.800677    0.850262    3.521744
   5 O   8.0000    1    15.999   -3.396151    3.311334    0.971732
   6 Si 14.0000    1    28.086   -0.880059    4.512540   -0.410718
   7 C   6.0000    1    12.011   -0.138301    7.654870    1.211807
   8 C   6.0000    1    12.011   -2.535814    9.200585    1.685994
   9 C   6.0000    1    12.011    1.297624    7.304527    3.699163
  10 C   6.0000    1    12.011   -1.364041    4.715543   -4.004235
  11 C   6.0000    1    12.011   -3.420809    6.587472   -4.797695
  12 C   6.0000    1    12.011    1.115879    5.392203   -5.336991
  13 O   8.0000    1    15.999    1.507005    2.601669    0.148792
  14 C   6.0000    1    12.011    1.076682    0.052797    0.698718
  15 C   6.0000    1    12.011   -0.968809   -0.221824    2.737647
  16 H   1.0000    1     1.008   -0.334033    0.868893    4.380605
  17 O   8.0000    1    15.999   -1.232130   -2.715828    3.633553
  18 C   6.0000    1    12.011   -2.290307   -4.500713    1.929506
  19 H   1.0000    1     1.008   -0.958310   -4.844330    0.351899
  20 O   8.0000    1    15.999   -2.729664   -6.700997    3.262509
  21 C   6.0000    1    12.011   -0.509006   -8.054779    3.931779
  22 C   6.0000    1    12.011   -4.830951   -3.634304    0.816024
  23 O   8.0000    1    15.999   -5.418057   -5.280567   -1.173131
  24 H   1.0000    1     1.008   -7.214171    1.702452   -0.758218
  25 H   1.0000    1     1.008    1.069656    8.756795   -0.051732
  26 H   1.0000    1     1.008   -3.819419    8.164092    2.908502
  27 H   1.0000    1     1.008   -3.509713    9.600161   -0.075260
  28 H   1.0000    1     1.008   -2.067964   10.988163    2.592073
  29 H   1.0000    1     1.008    0.140249    6.277142    5.053341
  30 H   1.0000    1     1.008    1.772444    9.134831    4.511353
  31 H   1.0000    1     1.008    3.032483    6.251413    3.387703
  32 H   1.0000    1     1.008   -1.939958    2.847741   -4.698513
  33 H   1.0000    1     1.008   -2.850674    8.503692   -4.324958
  34 H   1.0000    1     1.008   -5.193398    6.184990   -3.843549
  35 H   1.0000    1     1.008   -3.732878    6.493480   -6.829298
  36 H   1.0000    1     1.008    1.705896    7.290444   -4.817555
  37 H   1.0000    1     1.008    0.878726    5.324090   -7.379859
  38 H   1.0000    1     1.008    2.609770    4.088673   -4.802573
  39 H   1.0000    1     1.008    2.847457   -0.745544    1.408368
  40 H   1.0000    1     1.008    0.537638   -0.961800   -1.021454
  41 H   1.0000    1     1.008   -1.161817   -9.732404    4.921582
  42 H   1.0000    1     1.008    0.697015   -6.920835    5.164413
  43 H   1.0000    1     1.008    0.545833   -8.595247    2.235445
  44 H   1.0000    1     1.008   -6.253188   -3.755845    2.327279
  45 H   1.0000    1     1.008   -7.022571   -4.760899   -1.880466

      -----------------------------------------------------------      
     |                   =====================                   |     
     |                           x T B                           |     
     |                   =====================                   |     
     |                         S. Grimme                         |     
     |          Mulliken Center for Theoretical Chemistry        |     
     |                    University of Bonn                     |     
      -----------------------------------------------------------      

   * xtb version 6.7.1 (edcfbbe) compiled by 'albert@albert-system' on 2024-07-22

   xtb is free software: you can redistribute it and/or modify it under
   the terms of the GNU Lesser General Public License as published by
   the Free Software Foundation, either version 3 of the License, or
   (at your option) any later version.
   
   xtb is distributed in the hope that it will be useful,
   but WITHOUT ANY WARRANTY; without even the implied warranty of
   MERCHANTABILITY or FITNESS FOR A PARTICULAR PURPOSE.  See the
   GNU Lesser General Public License for more details.
   
   Cite this work as:
   * C. Bannwarth, E. Caldeweyher, S. Ehlert, A. Hansen, P. Pracht,
     J. Seibert, S. Spicher, S. Grimme, WIREs Comput. Mol. Sci., 2020, 11,
     e01493. DOI: 10.1002/wcms.1493
   
   for GFN2-xTB:
   * C. Bannwarth, S. Ehlert and S. Grimme., J. Chem. Theory Comput., 2019,
     15, 1652-1671. DOI: 10.1021/acs.jctc.8b01176
   for GFN1-xTB:
   * S. Grimme, C. Bannwarth, P. Shushkov, J. Chem. Theory Comput., 2017,
     13, 1989-2009. DOI: 10.1021/acs.jctc.7b00118
   for GFN0-xTB:
   * P. Pracht, E. Caldeweyher, S. Ehlert, S. Grimme, ChemRxiv, 2019, preprint.
     DOI: 10.26434/chemrxiv.8326202.v1
   for GFN-FF:
   * S. Spicher and S. Grimme, Angew. Chem. Int. Ed., 2020, 59, 15665-15673.
     DOI: 10.1002/anie.202004239
   
   for ALPB and GBSA implicit solvation:
   * S. Ehlert, M. Stahn, S. Spicher, S. Grimme, J. Chem. Theory Comput.,
     2021, 17, 4250-4261. DOI: 10.1021/acs.jctc.1c00471
   
   for ddCOSMO and CPCM-X implicit solvation:
   * M. Stahn, S. Ehlert, S. Grimme, J. Phys. Chem. A,
     2023, XX, XXXX-XXXX. DOI: 10.1021/acs.jpca.3c04382
   
   for DFT-D4:
   * E. Caldeweyher, C. Bannwarth and S. Grimme, J. Chem. Phys., 2017,
     147, 034112. DOI: 10.1063/1.4993215
   * E. Caldeweyher, S. Ehlert, A. Hansen, H. Neugebauer, S. Spicher,
     C. Bannwarth and S. Grimme, J. Chem. Phys., 2019, 150, 154122.
     DOI: 10.1063/1.5090222
   * E. Caldeweyher, J.-M. Mewes, S. Ehlert and S. Grimme, Phys. Chem. Chem. Phys.
     2020, 22, 8499-8512. DOI: 10.1039/D0CP00502A
   
   for sTDA-xTB:
   * S. Grimme and C. Bannwarth, J. Chem. Phys., 2016, 145, 054103.
     DOI: 10.1063/1.4959605
   
   in the mass-spec context:
   * V. Asgeirsson, C. Bauer and S. Grimme, Chem. Sci., 2017, 8, 4879.
     DOI: 10.1039/c7sc00601b
   * J. Koopman and S. Grimme, ACS Omega 2019, 4, 12, 15120-15133.
     DOI: 10.1021/acsomega.9b02011
   
   for metadynamics refer to:
   * S. Grimme, J. Chem. Theory Comput., 2019, 155, 2847-2862
     DOI: 10.1021/acs.jctc.9b00143
   
   for SPH calculations refer to:
   * S. Spicher and S. Grimme, J. Chem. Theory Comput., 2021, 17, 1701-1714
     DOI: 10.1021/acs.jctc.0c01306
   
   for ONIOM refer to:
   * C. Plett, A. Katbashev, S. Ehlert, S. Grimme, M. Bursch,
     Phys. Chem. Chem. Phys., 2023, 25, 17860-17868. DOI: 10.1039/D3CP02178E
   
   for DIPRO refer to:
   * J. Kohn, N. Gildemeister, S. Grimme, D. Fazzi, A. Hansen,
     J. Chem. Phys., 2023, just accepted.
   
   for PTB refer to:
   * S. Grimme, M. Mueller, A. Hansen, J. Chem. Phys., 2023, 158, 124111.
     DOI: 10.1063/5.0137838
   
   with help from (in alphabetical order)
   P. Atkinson, C. Bannwarth, F. Bohle, G. Brandenburg, E. Caldeweyher
   M. Checinski, S. Dohm, S. Ehlert, S. Ehrlich, I. Gerasimov, C. Hölzer
   A. Katbashev, J. Kohn, J. Koopman, C. Lavigne, S. Lehtola, F. März, M. Müller,
   F. Musil, H. Neugebauer, J. Pisarek, C. Plett, P. Pracht, F. Pultar,
   J. Seibert, P. Shushkov, S. Spicher, M. Stahn, M. Steiner, T. Strunk,
   J. Stückrath, T. Rose, and J. Unsleber
   
 * started run on 2025/09/10 at 11:29:46.703     
   ID    Z sym.   atoms
    1    8 O      1, 6, 14, 18, 21, 24
    2    6 C      2, 4, 8-13, 15, 16, 19, 22, 23
    3    1 H      3, 5, 17, 20, 25-46
    4   14 Si     7

           -------------------------------------------------
          |                Calculation Setup                |
           -------------------------------------------------

          program call               : /home/kmoult/orca_6_1/otool_xtb goat_0_XTB.xyz --grad -c 0 -u 0 -P 4 --namespace goat_0 --input goat_0_XTB.input.tmp --alpb ACETONE --acc 0.200000
          hostname                   : node2704
          calculation namespace      : goat_0
          coordinate file            : goat_0_XTB.xyz
          omp threads                :                     4


           -------------------------------------------------
          |                 G F N 2 - x T B                 |
           -------------------------------------------------

        Reference                      10.1021/acs.jctc.8b01176
      * Hamiltonian:
        H0-scaling (s, p, d)           1.850000    2.230000    2.230000
        zeta-weighting                 0.500000
      * Dispersion:
        s8                             2.700000
        a1                             0.520000
        a2                             5.000000
        s9                             5.000000
      * Repulsion:
        kExp                           1.500000    1.000000
        rExp                           1.000000
      * Coulomb:
        alpha                          2.000000
        third order                    shell-resolved
        anisotropic                    true
        a3                             3.000000
        a5                             4.000000
        cn-shift                       1.200000
        cn-exp                         4.000000
        max-rad                        5.000000

      * Solvation model:               ALPB
        Solvent                        ACETONE
        Parameter file                 internal GFN2-xTB/ALPB
        Dielectric constant                2.0700E+01
        Reference state                gsolv [1 M gas/solution]
        Free energy shift                  5.9241E-03 Eh       3.7175E+00 kcal/mol
        Temperature                        2.9815E+02 K
        Density                            7.9000E-01 kg/L
        Solvent mass                       5.8080E+01 g/mol
        Interaction kernel             P16
        Born radius scaling (c1)           1.8274E+00
        Born radii integrator          GBOBC
        Born offset                        0.0000E+00 a0       0.0000E+00 AA
        H-bond correction              true
        Ion screening                  false
        Surface tension                    1.0000E-05 Eh       1.5569E+01 dyn/cm
        Grid points                               230 per atom
q/qsh data taken from xtbrestart
CAMM data taken from xtbrestart

          ...................................................
          :                      SETUP                      :
          :.................................................:
          :  # basis functions                 112          :
          :  # atomic orbitals                 111          :
          :  # shells                           67          :
          :  # electrons                       118          :
          :  max. iterations                   250          :
          :  Hamiltonian                  GFN2-xTB          :
          :  restarted?                       true          :
          :  GBSA solvation                   true          :
          :  PC potential                    false          :
          :  electronic temp.          300.0000000     K    :
          :  accuracy                    0.2000000          :
          :  -> integral cutoff          0.3198970E+02      :
          :  -> integral neglect         0.2000000E-08      :
          :  -> SCF convergence          0.2000000E-06 Eh   :
          :  -> wf. convergence          0.2000000E-04 e    :
          :  Broyden damping             0.4000000          :
          :  net charge                          0          :
          :  unpaired electrons                  0          :
          ...................................................

 iter      E             dE          RMSdq      gap      omega  full diag
   1    -68.0080441 -0.680080E+02  0.126E-01    5.69       0.0  T
   2    -68.0080472 -0.311445E-05  0.833E-02    5.69       1.0  T
   3    -68.0080465  0.691712E-06  0.180E-02    5.69       1.0  T
   4    -68.0080466 -0.117202E-06  0.162E-02    5.70       1.0  T
   5    -68.0080490 -0.236081E-05  0.534E-03    5.69       2.8  T
   6    -68.0080491 -0.101682E-06  0.159E-03    5.69       9.3  T
   7    -68.0080491 -0.671064E-08  0.937E-04    5.69      15.7  T
   8    -68.0080491 -0.340216E-08  0.364E-04    5.69      40.5  T
   9    -68.0080491 -0.232973E-09  0.153E-04    5.69      96.1  T
  10    -68.0080491 -0.502638E-10  0.569E-05    5.69     259.1  T

   *** convergence criteria satisfied after 10 iterations ***

         #    Occupation            Energy/Eh            Energy/eV
      -------------------------------------------------------------
         1        2.0000           -0.8154288             -22.1889
       ...           ...                  ...                  ...
        53        2.0000           -0.4301140             -11.7040
        54        2.0000           -0.4244675             -11.5503
        55        2.0000           -0.4207935             -11.4504
        56        2.0000           -0.4173886             -11.3577
        57        2.0000           -0.4160117             -11.3203
        58        2.0000           -0.4090865             -11.1318
        59        2.0000           -0.3770760             -10.2608 (HOMO)
        60                         -0.1679455              -4.5700 (LUMO)
        61                         -0.1317954              -3.5863
        62                         -0.0956685              -2.6033
        63                         -0.0495490              -1.3483
        64                         -0.0092209              -0.2509
       ...                                ...                  ...
       111                          0.7943340              21.6149
      -------------------------------------------------------------
                  HL-Gap            0.2091305 Eh            5.6907 eV
             Fermi-level           -0.2725107 Eh           -7.4154 eV

 SCC (total)                   0 d,  0 h,  0 min,  0.030 sec
 SCC setup                      ...        0 min,  0.001 sec (  1.848%)
 Dispersion                     ...        0 min,  0.000 sec (  0.879%)
 classical contributions        ...        0 min,  0.000 sec (  0.130%)
 integral evaluation            ...        0 min,  0.004 sec ( 14.891%)
 iterations                     ...        0 min,  0.016 sec ( 52.741%)
 molecular gradient             ...        0 min,  0.009 sec ( 29.033%)
 printout                       ...        0 min,  0.000 sec (  0.425%)

         :::::::::::::::::::::::::::::::::::::::::::::::::::::
         ::                     SUMMARY                     ::
         :::::::::::::::::::::::::::::::::::::::::::::::::::::
         :: total energy             -67.354681772100 Eh    ::
         :: total w/o Gsasa/hb       -67.326985636224 Eh    ::
         :: gradient norm              0.004307261509 Eh/a0 ::
         :: HOMO-LUMO gap              5.690729970363 eV    ::
         ::.................................................::
         :: SCC energy               -68.007153964204 Eh    ::
         :: -> isotropic ES            0.154356802329 Eh    ::
         :: -> anisotropic ES          0.001173871294 Eh    ::
         :: -> anisotropic XC          0.002331958934 Eh    ::
         :: -> dispersion             -0.044903464756 Eh    ::
         :: -> Gsolv                  -0.030685859605 Eh    ::
         ::    -> Gelec               -0.002989723729 Eh    ::
         ::    -> Gsasa               -0.027927836230 Eh    ::
         ::    -> Ghb                 -0.005692440910 Eh    ::
         ::    -> Gshift               0.005924141264 Eh    ::
         :: repulsion energy           0.652472192104 Eh    ::
         :: add. restraining           0.000000000000 Eh    ::
         :: total charge              -0.000000000000 e     ::
         :::::::::::::::::::::::::::::::::::::::::::::::::::::


Property printout bound to 'properties.out'

           -------------------------------------------------
          | TOTAL ENERGY              -67.354681772100 Eh   |
          | GRADIENT NORM               0.004307261509 Eh/α |
          | HOMO-LUMO GAP               5.690729970363 eV   |
           -------------------------------------------------

------------------------------------------------------------------------
 * finished run on 2025/09/10 at 11:29:46.754     
------------------------------------------------------------------------
 total:
 * wall-time:     0 d,  0 h,  0 min,  0.051 sec
 *  cpu-time:     0 d,  0 h,  0 min,  0.184 sec
 * ratio c/w:     3.616 speedup
 SCF:
 * wall-time:     0 d,  0 h,  0 min,  0.030 sec
 *  cpu-time:     0 d,  0 h,  0 min,  0.121 sec
 * ratio c/w:     3.980 speedup


-------------------------   --------------------
FINAL SINGLE POINT ENERGY       -67.354681772100
-------------------------   --------------------


-------------
DIPOLE MOMENT
-------------
                                X             Y             Z
Total Dipole Moment    :      0.29600       0.75400      -0.37000
                        -----------------------------------------
Magnitude (a.u.)       :      0.89052
Magnitude (Debye)      :      2.26353


------------------
CARTESIAN GRADIENT
------------------

   1   O   :    0.000555170    0.000121493   -0.000232830
   2   C   :   -0.000874977   -0.000380626    0.000099926
   3   H   :    0.000092730   -0.000006496    0.000027128
   4   C   :    0.000037034    0.000103319   -0.000242370
   5   H   :    0.000175759   -0.000319420    0.000085771
   6   O   :    0.001166079    0.001218405   -0.000363313
   7   Si  :   -0.000734363   -0.001568742   -0.000718636
   8   C   :    0.000403810   -0.000393914   -0.000089434
   9   C   :   -0.000284308    0.000437691    0.000334223
  10   C   :    0.000182395    0.000212916    0.000273455
  11   C   :   -0.000105373   -0.000884722    0.000434337
  12   C   :   -0.000163024    0.000229019   -0.000209903
  13   C   :    0.000372344    0.000220953    0.000020535
  14   O   :   -0.000343520    0.001448494    0.000336621
  15   C   :    0.000179085   -0.000437673   -0.000602448
  16   C   :   -0.000315444   -0.000013530    0.000659261
  17   H   :    0.000010585    0.000070754   -0.000071503
  18   O   :    0.000484289    0.000166504    0.000471733
  19   C   :    0.000680550   -0.000783706   -0.000244179
  20   H   :   -0.000167719    0.000462686    0.000141554
  21   O   :   -0.000723537   -0.000122366    0.000193054
  22   C   :    0.000478344   -0.000446305    0.000064081
  23   C   :    0.000035718   -0.000351493   -0.000551286
  24   O   :   -0.000139947    0.000461467    0.000411965
  25   H   :   -0.000459725    0.000129322    0.000059484
  26   H   :    0.000057073    0.000364470    0.000156572
  27   H   :   -0.000088903   -0.000104102    0.000073734
  28   H   :    0.000025578   -0.000028214   -0.000211582
  29   H   :    0.000008145    0.000030667   -0.000029536
  30   H   :   -0.000145350   -0.000071336    0.000100011
  31   H   :   -0.000057879    0.000086438   -0.000067911
  32   H   :    0.000085911   -0.000038700   -0.000097756
  33   H   :   -0.000000586    0.000331991   -0.000122114
  34   H   :    0.000023855    0.000101047    0.000151669
  35   H   :   -0.000055292    0.000003904    0.000120871
  36   H   :   -0.000010640   -0.000051853   -0.000046918
  37   H   :   -0.000025411    0.000176404    0.000001673
  38   H   :    0.000001887   -0.000071140   -0.000093899
  39   H   :    0.000025662   -0.000154145    0.000023237
  40   H   :   -0.000138258   -0.000152597   -0.000081081
  41   H   :   -0.000016618   -0.000160073    0.000178102
  42   H   :   -0.000111382   -0.000002945    0.000010911
  43   H   :    0.000049074    0.000091562   -0.000097159
  44   H   :   -0.000015508    0.000170487    0.000022156
  45   H   :   -0.000018198    0.000068774    0.000140032
  46   H   :   -0.000135113   -0.000164669   -0.000418239

Difference to translation invariance:
           :   -0.0000000000   -0.0000000000    0.0000000000

Difference to rotation invariance:
           :    0.0009164538   -0.0002656147    0.0005181257

Norm of the Cartesian gradient     ...    0.0043072615
RMS gradient                       ...    0.0003666584
MAX gradient                       ...    0.0015687422
------------------------------------------------------------------------------
                         ORCA GEOMETRY RELAXATION STEP
------------------------------------------------------------------------------

Reading the OPT-File                    .... done
Getting information on internals        .... done
Copying old internal coords+grads       .... done
Making the new internal coordinates     .... (2022 redundants) done
Validating the new internal coordinates .... (2022 redundants) done
Calculating the B-matrix                .... done
Calculating the G,G- and P matrices     .... done
Transforming gradient to internals      .... done
Projecting the internal gradient        .... done
Number of atoms                         ....  46
Number of internal coordinates          .... 235
Current Energy                          ....   -67.354681772 Eh
Current gradient norm                   ....     0.004307262 Eh/bohr
Maximum allowed component of the step   ....  0.300
Current trust radius                    ....  0.450
Updating the Hessian (BFGS)             .... done
Forming the augmented Hessian           .... done
Diagonalizing the augmented Hessian     .... done
Last element of RFO vector              ....  0.999515053
Lowest eigenvalues of augmented Hessian:
 -0.000034903  0.002776714  0.010008713  0.010714239  0.010842783
Length of the computed step             ....  0.031154454
The final length of the internal step   ....  0.031154454
Converting the step to Cartesian space:
 Initial RMS(Int)=    0.0020322925
Transforming coordinates:
 Iter   0:  RMS(Cart)=    0.0076270082 RMS(Int)=    0.0020322079
done
Storing new coordinates                 .... done
The predicted energy change is          ....    -0.000017468
Previously predicted energy change      ....    -0.000092579
Actually observed energy change         ....    -0.000111387
Ratio of predicted to observed change   ....     1.203150968
New trust radius                        ....     0.675000000

                                .--------------------.
          ----------------------|Geometry convergence|-------------------------
          Item                value                   Tolerance       Converged
          ---------------------------------------------------------------------
          Energy change      -0.0001113869            0.0000050000      NO
          RMS gradient        0.0001940200            0.0001000000      NO
          MAX gradient        0.0009527263            0.0003000000      NO
          RMS step            0.0020322925            0.0020000000      NO
          MAX step            0.0083583323            0.0040000000      NO
          -------------------------------------------------------------------------
          ........................................................
          Max(Bonds)      0.0029      Max(Angles)    0.12
          Max(Dihed)        0.48      Max(Improp)    0.00
          ---------------------------------------------------------------------

    ---------------------------------------------------------------------------
                         Redundant Internal Coordinates
                            (Angstroem and degrees)

        Definition                    Value    dE/dq     Step     New-Value
    ----------------------------------------------------------------------------
     1. B(C   1,O   0)                1.4060 -0.000168  0.0004    1.4064   
     2. B(H   2,C   1)                1.1029  0.000027 -0.0001    1.1028   
     3. B(C   3,C   1)                1.5307  0.000125 -0.0005    1.5302   
     4. B(H   4,C   3)                1.0998 -0.000043  0.0000    1.0998   
     5. B(O   5,C   3)                1.4012  0.000618 -0.0005    1.4007   
     6. B(Si  6,O   5)                1.6468 -0.000953  0.0007    1.6475   
     7. B(C   7,Si  6)                1.9122  0.000664 -0.0002    1.9120   
     8. B(C   8,C   7)                1.5302  0.000478 -0.0006    1.5297   
     9. B(C   9,C   7)                1.5311  0.000182 -0.0002    1.5309   
    10. B(C  10,Si  6)                1.9218 -0.000272  0.0004    1.9222   
    11. B(C  11,C  10)                1.5304  0.000322 -0.0005    1.5300   
    12. B(C  12,C  10)                1.5322  0.000383 -0.0005    1.5317   
    13. B(O  13,Si  6)                1.6449 -0.000596  0.0007    1.6456   
    14. B(C  14,O  13)                1.3985  0.000797 -0.0005    1.3980   
    15. B(C  15,C   3)                1.5328  0.000043 -0.0004    1.5324   
    16. B(C  15,C  14)                1.5352  0.000298 -0.0005    1.5348   
    17. B(H  16,C  15)                1.0963 -0.000015  0.0000    1.0963   
    18. B(O  17,C  15)                1.4092  0.000329 -0.0002    1.4090   
    19. B(C  18,O  17)                1.4209  0.000682 -0.0005    1.4203   
    20. B(H  19,C  18)                1.1076 -0.000293  0.0002    1.1078   
    21. B(O  20,C  18)                1.3811  0.000421  0.0001    1.3812   
    22. B(C  21,O  20)                1.4211  0.000420 -0.0004    1.4207   
    23. B(C  22,C  18)                1.5378  0.000667 -0.0009    1.5369   
    24. B(C  22,C   1)                1.5352  0.000043 -0.0003    1.5349   
    25. B(O  23,C  22)                1.4012 -0.000196  0.0006    1.4018   
    26. B(H  24,O   0)                0.9672  0.000211 -0.0001    0.9671   
    27. B(H  24,O   5)                2.3759  0.000218 -0.0029    2.3730   
    28. B(H  25,C   7)                1.0935  0.000135 -0.0002    1.0933   
    29. B(H  26,C   8)                1.0866  0.000148 -0.0001    1.0865   
    30. B(H  27,C   8)                1.0858  0.000165 -0.0002    1.0856   
    31. B(H  28,C   8)                1.0890  0.000016  0.0000    1.0891   
    32. B(H  29,C   9)                1.0882  0.000179 -0.0002    1.0880   
    33. B(H  30,C   9)                1.0890  0.000036  0.0000    1.0890   
    34. B(H  31,C   9)                1.0865  0.000110 -0.0001    1.0865   
    35. B(H  32,C  10)                1.0976 -0.000255  0.0003    1.0979   
    36. B(H  33,C  11)                1.0871  0.000134 -0.0001    1.0870   
    37. B(H  34,C  11)                1.0864  0.000103 -0.0000    1.0863   
    38. B(H  35,C  11)                1.0888  0.000052 -0.0000    1.0888   
    39. B(H  36,C  12)                1.0872  0.000152 -0.0002    1.0871   
    40. B(H  37,C  12)                1.0889  0.000098 -0.0001    1.0888   
    41. B(H  38,C  12)                1.0866  0.000124 -0.0001    1.0865   
    42. B(H  39,C  14)                1.0943 -0.000087  0.0002    1.0945   
    43. B(H  40,C  14)                1.0946 -0.000065  0.0001    1.0948   
    44. B(H  41,C  21)                1.0871  0.000045  0.0000    1.0871   
    45. B(H  42,C  21)                1.0922  0.000023 -0.0000    1.0922   
    46. B(H  43,C  21)                1.0951 -0.000075  0.0001    1.0951   
    47. B(H  44,C  22)                1.1001  0.000114 -0.0002    1.0998   
    48. B(H  45,O   0)                2.5302  0.000090  0.0018    2.5320   
    49. B(H  45,O  23)                0.9678  0.000254 -0.0002    0.9676   
    50. A(C   1,O   0,H  24)          108.17  0.000418   -0.12    108.05   
    51. A(H   2,C   1,C   3)          108.88 -0.000139    0.08    108.97   
    52. A(O   0,C   1,C   3)          111.22 -0.000060   -0.05    111.17   
    53. A(H   2,C   1,C  22)          108.75 -0.000080    0.05    108.80   
    54. A(O   0,C   1,H   2)          109.37 -0.000003   -0.05    109.32   
    55. A(O   0,C   1,C  22)          107.82  0.000150   -0.02    107.80   
    56. A(C   3,C   1,C  22)          110.75  0.000133   -0.01    110.74   
    57. A(O   5,C   3,C  15)          113.40  0.000027    0.03    113.43   
    58. A(C   1,C   3,H   4)          107.79 -0.000047    0.03    107.82   
    59. A(H   4,C   3,C  15)          108.09 -0.000264    0.07    108.16   
    60. A(H   4,C   3,O   5)          106.91  0.000195   -0.07    106.85   
    61. A(C   1,C   3,C  15)          110.48  0.000181   -0.03    110.46   
    62. A(C   1,C   3,O   5)          109.94 -0.000101   -0.04    109.90   
    63. A(C   3,O   5,Si  6)          123.69  0.000102   -0.02    123.67   
    64. A(C  10,Si  6,O  13)          108.35  0.000005   -0.04    108.30   
    65. A(O   5,Si  6,C   7)          107.59 -0.000317    0.08    107.66   
    66. A(C   7,Si  6,O  13)          107.22 -0.000081    0.04    107.26   
    67. A(O   5,Si  6,O  13)          107.68  0.000129    0.05    107.72   
    68. A(O   5,Si  6,C  10)          110.69  0.000246   -0.09    110.60   
    69. A(C   7,Si  6,C  10)          115.03  0.000019   -0.02    115.01   
    70. A(C   8,C   7,H  25)          107.45 -0.000107    0.06    107.51   
    71. A(Si  6,C   7,C   8)          111.61 -0.000145    0.03    111.64   
    72. A(Si  6,C   7,H  25)          108.01  0.000163   -0.06    107.95   
    73. A(C   8,C   7,C   9)          109.59 -0.000089    0.02    109.60   
    74. A(Si  6,C   7,C   9)          112.49  0.000282   -0.09    112.40   
    75. A(C   9,C   7,H  25)          107.47 -0.000117    0.05    107.51   
    76. A(H  27,C   8,H  28)          108.46 -0.000009   -0.02    108.44   
    77. A(C   7,C   8,H  28)          110.37  0.000038   -0.01    110.36   
    78. A(C   7,C   8,H  27)          110.91 -0.000252    0.05    110.96   
    79. A(C   7,C   8,H  26)          110.25  0.000045    0.02    110.26   
    80. A(H  26,C   8,H  27)          108.22  0.000085   -0.01    108.20   
    81. A(H  26,C   8,H  28)          108.57  0.000100   -0.03    108.54   
    82. A(H  30,C   9,H  31)          108.73  0.000057   -0.03    108.70   
    83. A(C   7,C   9,H  31)          110.55 -0.000077    0.03    110.58   
    84. A(C   7,C   9,H  30)          110.25 -0.000179    0.03    110.28   
    85. A(C   7,C   9,H  29)          110.32  0.000012    0.02    110.34   
    86. A(H  29,C   9,H  31)          108.61  0.000121   -0.03    108.58   
    87. A(H  29,C   9,H  30)          108.32  0.000073   -0.02    108.30   
    88. A(Si  6,C  10,C  12)          110.75 -0.000139    0.05    110.80   
    89. A(Si  6,C  10,H  32)          108.53  0.000230   -0.10    108.43   
    90. A(Si  6,C  10,C  11)          113.73 -0.000175    0.05    113.78   
    91. A(C  11,C  10,C  12)          109.36  0.000164    0.01    109.37   
    92. A(C  12,C  10,H  32)          107.11  0.000007   -0.02    107.09   
    93. A(C  11,C  10,H  32)          107.07 -0.000074    0.00    107.07   
    94. A(C  10,C  11,H  35)          110.44 -0.000006   -0.01    110.43   
    95. A(H  34,C  11,H  35)          108.60  0.000015   -0.02    108.58   
    96. A(H  33,C  11,H  35)          108.17  0.000110   -0.04    108.13   
    97. A(H  33,C  11,H  34)          108.39 -0.000013    0.02    108.41   
    98. A(C  10,C  11,H  34)          111.08 -0.000062    0.02    111.10   
    99. A(C  10,C  11,H  33)          110.07 -0.000039    0.03    110.11   
   100. A(H  36,C  12,H  38)          108.17  0.000138   -0.03    108.14   
   101. A(C  10,C  12,H  38)          110.79 -0.000100    0.03    110.82   
   102. A(H  36,C  12,H  37)          108.34  0.000019   -0.01    108.33   
   103. A(C  10,C  12,H  37)          110.52 -0.000025    0.00    110.52   
   104. A(C  10,C  12,H  36)          110.21  0.000009    0.01    110.23   
   105. A(H  37,C  12,H  38)          108.74 -0.000036   -0.01    108.73   
   106. A(Si  6,O  13,C  14)          120.35  0.000025    0.09    120.44   
   107. A(O  13,C  14,C  15)          110.63 -0.000161    0.07    110.70   
   108. A(H  39,C  14,H  40)          108.61 -0.000086   -0.02    108.59   
   109. A(O  13,C  14,H  40)          110.03  0.000190   -0.07    109.96   
   110. A(C  15,C  14,H  39)          109.03 -0.000128    0.01    109.04   
   111. A(O  13,C  14,H  39)          107.72  0.000193   -0.04    107.68   
   112. A(C  15,C  14,H  40)          110.75 -0.000004    0.04    110.79   
   113. A(H  16,C  15,O  17)          104.87  0.000049    0.02    104.88   
   114. A(C  14,C  15,O  17)          113.25 -0.000063    0.01    113.26   
   115. A(C   3,C  15,O  17)          110.58  0.000241   -0.05    110.53   
   116. A(C  14,C  15,H  16)          106.95  0.000059    0.01    106.95   
   117. A(C   3,C  15,H  16)          108.38  0.000026   -0.03    108.35   
   118. A(C   3,C  15,C  14)          112.35 -0.000290    0.05    112.40   
   119. A(C  15,O  17,C  18)          116.62 -0.000224    0.02    116.63   
   120. A(O  20,C  18,C  22)          107.45 -0.000079   -0.02    107.43   
   121. A(H  19,C  18,C  22)          108.45 -0.000134    0.06    108.51   
   122. A(O  17,C  18,C  22)          112.92 -0.000028    0.03    112.96   
   123. A(H  19,C  18,O  20)          110.71  0.000229   -0.10    110.61   
   124. A(O  17,C  18,O  20)          107.62  0.000145   -0.05    107.57   
   125. A(O  17,C  18,H  19)          109.67 -0.000121    0.06    109.73   
   126. A(C  18,O  20,C  21)          114.40 -0.000299   -0.00    114.40   
   127. A(H  42,C  21,H  43)          109.58 -0.000057    0.04    109.62   
   128. A(H  41,C  21,H  43)          110.10  0.000159   -0.05    110.05   
   129. A(O  20,C  21,H  43)          110.42 -0.000112    0.02    110.44   
   130. A(H  41,C  21,H  42)          110.28  0.000139   -0.06    110.22   
   131. A(O  20,C  21,H  42)          110.80 -0.000054    0.01    110.80   
   132. A(O  20,C  21,H  41)          105.60 -0.000071    0.04    105.65   
   133. A(O  23,C  22,H  44)          110.98  0.000159   -0.07    110.91   
   134. A(C  18,C  22,H  44)          107.59 -0.000093    0.06    107.64   
   135. A(C  18,C  22,O  23)          107.24  0.000260   -0.02    107.22   
   136. A(C   1,C  22,H  44)          108.72 -0.000072    0.04    108.76   
   137. A(C   1,C  22,O  23)          110.66 -0.000265   -0.01    110.65   
   138. A(C   1,C  22,C  18)          111.62  0.000022    0.01    111.63   
   139. A(C  22,O  23,H  45)          107.96  0.000567   -0.12    107.84   
   140. D(C   3,C   1,O   0,H  24)     39.26 -0.000267    0.39     39.66   
   141. D(C  22,C   1,O   0,H  24)    160.87 -0.000041    0.33    161.20   
   142. D(H   2,C   1,O   0,H  24)    -81.04 -0.000053    0.35    -80.69   
   143. D(H   4,C   3,C   1,H   2)    175.81  0.000070   -0.11    175.70   
   144. D(H   4,C   3,C   1,C  22)    -64.67 -0.000035    0.01    -64.66   
   145. D(O   5,C   3,C   1,O   0)    -60.98  0.000051    0.01    -60.96   
   146. D(O   5,C   3,C   1,C  22)    179.14 -0.000187    0.08    179.22   
   147. D(O   5,C   3,C   1,H   2)     59.61 -0.000082   -0.03     59.59   
   148. D(H   4,C   3,C   1,O   0)     55.22  0.000203   -0.07     55.15   
   149. D(Si  6,O   5,C   3,C  15)     29.72  0.000117   -0.11     29.61   
   150. D(Si  6,O   5,C   3,C   1)    -94.52 -0.000064   -0.07    -94.58   
   151. D(Si  6,O   5,C   3,H   4)    148.74 -0.000065   -0.05    148.69   
   152. D(O  13,Si  6,O   5,C   3)    -14.24 -0.000167    0.34    -13.90   
   153. D(C  10,Si  6,O   5,C   3)    104.02  0.000056    0.26    104.29   
   154. D(C   7,Si  6,O   5,C   3)   -129.52  0.000022    0.23   -129.29   
   155. D(C   9,C   7,Si  6,O  13)    -34.92 -0.000016   -0.16    -35.08   
   156. D(C   8,C   7,Si  6,O   5)    -43.00 -0.000049   -0.02    -43.02   
   157. D(C   8,C   7,Si  6,O  13)   -158.58 -0.000001   -0.14   -158.72   
   158. D(C   8,C   7,Si  6,C  10)     80.85  0.000040   -0.09     80.76   
   159. D(C   9,C   7,Si  6,O   5)     80.66 -0.000064   -0.04     80.61   
   160. D(C   9,C   7,Si  6,C  10)   -155.49  0.000024   -0.12   -155.61   
   161. D(H  26,C   8,C   7,C   9)    -64.63 -0.000157    0.03    -64.60   
   162. D(H  27,C   8,C   7,C   9)    175.53 -0.000130    0.01    175.53   
   163. D(H  27,C   8,C   7,Si  6)    -59.18  0.000065   -0.08    -59.26   
   164. D(H  26,C   8,C   7,H  25)    178.90  0.000088   -0.06    178.83   
   165. D(H  27,C   8,C   7,H  25)     59.05  0.000115   -0.09     58.96   
   166. D(H  26,C   8,C   7,Si  6)     60.66  0.000039   -0.05     60.61   
   167. D(H  30,C   9,C   7,Si  6)    176.95  0.000125   -0.06    176.89   
   168. D(H  29,C   9,C   7,H  25)    177.79 -0.000180    0.04    177.83   
   169. D(H  29,C   9,C   7,C   8)     61.32  0.000059   -0.06     61.26   
   170. D(H  29,C   9,C   7,Si  6)    -63.46  0.000110   -0.05    -63.51   
   171. D(H  30,C   9,C   7,H  25)     58.19 -0.000165    0.03     58.22   
   172. D(H  30,C   9,C   7,C   8)    -58.27  0.000073   -0.08    -58.35   
   173. D(C  12,C  10,Si  6,C   7)     67.64  0.000058    0.12     67.76   
   174. D(C  12,C  10,Si  6,O   5)   -170.16 -0.000155    0.14   -170.02   
   175. D(C  11,C  10,Si  6,O  13)   -175.94  0.000168    0.02   -175.91   
   176. D(C  11,C  10,Si  6,C   7)    -55.99  0.000080    0.03    -55.96   
   177. D(C  12,C  10,Si  6,O  13)    -52.30  0.000146    0.12    -52.19   
   178. D(C  11,C  10,Si  6,O   5)     66.21 -0.000133    0.05     66.25   
   179. D(H  34,C  11,C  10,C  12)   -178.52  0.000120   -0.08   -178.60   
   180. D(H  34,C  11,C  10,Si  6)    -54.13 -0.000063    0.03    -54.10   
   181. D(H  33,C  11,C  10,H  32)   -174.19 -0.000014   -0.01   -174.19   
   182. D(H  33,C  11,C  10,C  12)    -58.46  0.000038   -0.02    -58.48   
   183. D(H  33,C  11,C  10,Si  6)     65.93 -0.000145    0.09     66.02   
   184. D(H  34,C  11,C  10,H  32)     65.75  0.000068   -0.07     65.69   
   185. D(H  37,C  12,C  10,H  32)     56.26 -0.000100    0.17     56.43   
   186. D(H  37,C  12,C  10,C  11)    -59.45 -0.000101    0.17    -59.28   
   187. D(H  37,C  12,C  10,Si  6)    174.44  0.000104    0.06    174.50   
   188. D(H  36,C  12,C  10,H  32)    175.98 -0.000087    0.17    176.15   
   189. D(H  36,C  12,C  10,C  11)     60.28 -0.000087    0.17     60.45   
   190. D(H  36,C  12,C  10,Si  6)    -65.84  0.000118    0.06    -65.77   
   191. D(C  14,O  13,Si  6,C  10)    -95.54 -0.000093   -0.37    -95.91   
   192. D(C  14,O  13,Si  6,C   7)    139.75 -0.000069   -0.34    139.40   
   193. D(C  14,O  13,Si  6,O   5)     24.23  0.000276   -0.48     23.75   
   194. D(H  40,C  14,O  13,Si  6)     74.16 -0.000251    0.45     74.60   
   195. D(H  39,C  14,O  13,Si  6)   -167.61 -0.000135    0.37   -167.24   
   196. D(C  15,C  14,O  13,Si  6)    -48.53 -0.000266    0.40    -48.13   
   197. D(H  16,C  15,C   3,H   4)    -52.97 -0.000120   -0.03    -53.00   
   198. D(H  16,C  15,C   3,C   1)   -170.69 -0.000010   -0.09   -170.78   
   199. D(C  14,C  15,C   3,O   5)    -52.58  0.000046   -0.06    -52.64   
   200. D(C  14,C  15,C   3,H   4)   -170.93 -0.000037   -0.04   -170.97   
   201. D(H  16,C  15,C   3,O   5)     65.37 -0.000037   -0.04     65.33   
   202. D(C  14,C  15,C   3,C   1)     71.36  0.000073   -0.11     71.25   
   203. D(H  16,C  15,C  14,H  40)   -178.68 -0.000089   -0.07   -178.75   
   204. D(H  16,C  15,C  14,H  39)     61.88  0.000100   -0.09     61.79   
   205. D(H  16,C  15,C  14,O  13)    -56.41  0.000039   -0.09    -56.49   
   206. D(C   3,C  15,C  14,H  40)    -59.88 -0.000187   -0.08    -59.95   
   207. D(C   3,C  15,C  14,H  39)   -179.33  0.000002   -0.09   -179.41   
   208. D(C   3,C  15,C  14,O  13)     62.39 -0.000059   -0.09     62.30   
   209. D(C  18,O  17,C  15,H  16)    173.84  0.000002   -0.02    173.82   
   210. D(C  18,O  17,C  15,C  14)    -69.91  0.000072    0.01    -69.91   
   211. D(C  18,O  17,C  15,C   3)     57.21 -0.000172    0.03     57.24   
   212. D(C  22,C  18,O  17,C  15)    -52.94  0.000113    0.06    -52.88   
   213. D(O  20,C  18,O  17,C  15)   -171.36  0.000132    0.09   -171.28   
   214. D(H  19,C  18,O  17,C  15)     68.13 -0.000162    0.20     68.33   
   215. D(C  21,O  20,C  18,C  22)    166.51 -0.000092    0.18    166.70   
   216. D(C  21,O  20,C  18,H  19)     48.25 -0.000012    0.17     48.42   
   217. D(C  21,O  20,C  18,O  17)    -71.60 -0.000088    0.19    -71.41   
   218. D(H  43,C  21,O  20,C  18)    -59.87  0.000089   -0.02    -59.89   
   219. D(H  42,C  21,O  20,C  18)     61.73 -0.000094    0.04     61.77   
   220. D(H  41,C  21,O  20,C  18)   -178.86  0.000000    0.00   -178.86   
   221. D(O  23,C  22,C  18,O  20)    -72.98 -0.000025   -0.17    -73.15   
   222. D(O  23,C  22,C  18,H  19)     46.73  0.000129   -0.27     46.47   
   223. D(C   1,C  22,C  18,O  20)    165.66  0.000118   -0.15    165.51   
   224. D(C   1,C  22,C  18,H  19)    -74.62  0.000272   -0.24    -74.86   
   225. D(C   1,C  22,C  18,O  17)     47.14  0.000007   -0.10     47.04   
   226. D(O  23,C  22,C   1,C   3)   -167.97  0.000010    0.04   -167.92   
   227. D(O  23,C  22,C   1,H   2)    -48.36 -0.000131    0.18    -48.19   
   228. D(O  23,C  22,C   1,O   0)     70.13 -0.000095    0.13     70.26   
   229. D(O  23,C  22,C  18,O  17)    168.50 -0.000137   -0.12    168.38   
   230. D(C  18,C  22,C   1,C   3)    -48.62  0.000176    0.02    -48.60   
   231. D(C  18,C  22,C   1,H   2)     70.99  0.000035    0.15     71.13   
   232. D(C  18,C  22,C   1,O   0)   -170.52  0.000071    0.10   -170.42   
   233. D(H  45,O  23,C  22,H  44)     62.30 -0.000017   -0.34     61.96   
   234. D(H  45,O  23,C  22,C  18)    179.54  0.000111   -0.32    179.23   
   235. D(H  45,O  23,C  22,C   1)    -58.50  0.000145   -0.33    -58.82   
    ----------------------------------------------------------------------------

Geometry step timings:
Preparation and reading OPT file:      0.001 s ( 4.855 %)
Internal coordinates            :      0.000 s ( 0.158 %)
B/P matrices and projection     :      0.004 s (21.933 %)
Hessian update/contruction      :      0.009 s (44.098 %)
Making the step                 :      0.003 s (14.616 %)
Converting the step to Cartesian:      0.000 s ( 1.925 %)
Storing new data                :      0.001 s ( 3.959 %)
Checking convergence            :      0.000 s ( 0.143 %)
Final printing                  :      0.002 s ( 8.303 %)
Total time                      :      0.020 s

Time for energy+gradient        :      0.075 s
Time for complete geometry iter :      0.105 s

         *************************************************************
         *                GEOMETRY OPTIMIZATION CYCLE   8            *
         *************************************************************
---------------------------------
CARTESIAN COORDINATES (ANGSTROEM)
---------------------------------
  O    -3.796681   -0.068539   -0.385906
  C    -2.487692   -0.474612   -0.070339
  H    -1.865634   -0.440250   -0.980354
  C    -1.867131    0.436373    0.991020
  H    -2.541454    0.448971    1.859788
  O    -1.799066    1.750452    0.510848
  Si   -0.466616    2.388063   -0.218752
  C    -0.072170    4.048823    0.642617
  C    -1.338940    4.868239    0.895010
  C     0.686611    3.857842    1.958482
  C    -0.725104    2.500115   -2.120221
  C    -1.812416    3.492182   -2.537719
  C     0.586135    2.856053   -2.827468
  O     0.796913    1.374766    0.072333
  C     0.570201    0.027276    0.367625
  C    -0.512409   -0.116945    1.445927
  H    -0.177333    0.461687    2.314740
  O    -0.651935   -1.435914    1.921489
  C    -1.211039   -2.381499    1.021190
  H    -0.504762   -2.568009    0.188315
  O    -1.445241   -3.543799    1.729648
  C    -0.271141   -4.257527    2.090930
  C    -2.553777   -1.924458    0.429270
  O    -2.861264   -2.796788   -0.624128
  H    -3.812942    0.898126   -0.410500
  H     0.568579    4.630970   -0.025119
  H    -2.019580    4.319751    1.540250
  H    -1.853926    5.083812   -0.036080
  H    -1.089629    5.812266    1.377432
  H     0.072653    3.314287    2.673591
  H     0.941072    4.824275    2.391172
  H     1.603035    3.298186    1.793063
  H    -1.032019    1.512051   -2.487635
  H    -1.509453    4.505728   -2.287755
  H    -2.750324    3.279924   -2.032393
  H    -1.978788    3.443560   -3.612653
  H     0.902268    3.858651   -2.550736
  H     0.457978    2.823457   -3.908243
  H     1.375537    2.163455   -2.548767
  H     1.507950   -0.392763    0.744628
  H     0.286879   -0.512059   -0.541967
  H    -0.617003   -5.144162    2.616347
  H     0.363499   -3.654955    2.744340
  H     0.291104   -4.546486    1.196654
  H    -3.308914   -1.989861    1.226208
  H    -3.712077   -2.524467   -0.995919

----------------------------
CARTESIAN COORDINATES (A.U.)
----------------------------
  NO LB    ZA    FRAG    MASS        X           Y           Z
   0 O   8.0000    1    15.999   -7.174687   -0.129520   -0.729257
   1 C   6.0000    1    12.011   -4.701057   -0.896886   -0.132921
   2 H   1.0000    1     1.008   -3.525538   -0.831952   -1.852600
   3 C   6.0000    1    12.011   -3.528367    0.824626    1.872757
   4 H   1.0000    1     1.008   -4.802652    0.848433    3.514489
   5 O   8.0000    1    15.999   -3.399742    3.307875    0.965363
   6 Si 14.0000    1    28.086   -0.881776    4.512784   -0.413381
   7 C   6.0000    1    12.011   -0.136381    7.651168    1.214370
   8 C   6.0000    1    12.011   -2.530230    9.199638    1.691323
   9 C   6.0000    1    12.011    1.297507    7.290265    3.700994
  10 C   6.0000    1    12.011   -1.370249    4.724532   -4.006638
  11 C   6.0000    1    12.011   -3.424970    6.599268   -4.795594
  12 C   6.0000    1    12.011    1.107635    5.397157   -5.343141
  13 O   8.0000    1    15.999    1.505947    2.597932    0.136689
  14 C   6.0000    1    12.011    1.077524    0.051544    0.694710
  15 C   6.0000    1    12.011   -0.968313   -0.220994    2.732406
  16 H   1.0000    1     1.008   -0.335110    0.872463    4.374225
  17 O   8.0000    1    15.999   -1.231979   -2.713483    3.631088
  18 C   6.0000    1    12.011   -2.288533   -4.500382    1.929769
  19 H   1.0000    1     1.008   -0.953861   -4.852834    0.355863
  20 O   8.0000    1    15.999   -2.731110   -6.696809    3.268561
  21 C   6.0000    1    12.011   -0.512383   -8.045560    3.951285
  22 C   6.0000    1    12.011   -4.825939   -3.636698    0.811202
  23 O   8.0000    1    15.999   -5.407005   -5.285163   -1.179431
  24 H   1.0000    1     1.008   -7.205416    1.697212   -0.775733
  25 H   1.0000    1     1.008    1.074458    8.751265   -0.047468
  26 H   1.0000    1     1.008   -3.816454    8.163147    2.910651
  27 H   1.0000    1     1.008   -3.503412    9.607013   -0.068181
  28 H   1.0000    1     1.008   -2.059100   10.983591    2.602969
  29 H   1.0000    1     1.008    0.137294    6.263094    5.052354
  30 H   1.0000    1     1.008    1.778369    9.116559    4.518661
  31 H   1.0000    1     1.008    3.029297    6.232668    3.388399
  32 H   1.0000    1     1.008   -1.950233    2.857361   -4.700948
  33 H   1.0000    1     1.008   -2.852454    8.514592   -4.323231
  34 H   1.0000    1     1.008   -5.197360    6.198158   -3.840666
  35 H   1.0000    1     1.008   -3.739368    6.507385   -6.826924
  36 H   1.0000    1     1.008    1.705039    7.291794   -4.820193
  37 H   1.0000    1     1.008    0.865452    5.335561   -7.385510
  38 H   1.0000    1     1.008    2.599389    4.088337   -4.816472
  39 H   1.0000    1     1.008    2.849612   -0.742214    1.407143
  40 H   1.0000    1     1.008    0.542123   -0.967652   -1.024168
  41 H   1.0000    1     1.008   -1.165967   -9.721057    4.944179
  42 H   1.0000    1     1.008    0.686913   -6.906865    5.186051
  43 H   1.0000    1     1.008    0.550106   -8.591613    2.261348
  44 H   1.0000    1     1.008   -6.252941   -3.760292    2.317198
  45 H   1.0000    1     1.008   -7.014809   -4.770551   -1.882014

      -----------------------------------------------------------      
     |                   =====================                   |     
     |                           x T B                           |     
     |                   =====================                   |     
     |                         S. Grimme                         |     
     |          Mulliken Center for Theoretical Chemistry        |     
     |                    University of Bonn                     |     
      -----------------------------------------------------------      

   * xtb version 6.7.1 (edcfbbe) compiled by 'albert@albert-system' on 2024-07-22

   xtb is free software: you can redistribute it and/or modify it under
   the terms of the GNU Lesser General Public License as published by
   the Free Software Foundation, either version 3 of the License, or
   (at your option) any later version.
   
   xtb is distributed in the hope that it will be useful,
   but WITHOUT ANY WARRANTY; without even the implied warranty of
   MERCHANTABILITY or FITNESS FOR A PARTICULAR PURPOSE.  See the
   GNU Lesser General Public License for more details.
   
   Cite this work as:
   * C. Bannwarth, E. Caldeweyher, S. Ehlert, A. Hansen, P. Pracht,
     J. Seibert, S. Spicher, S. Grimme, WIREs Comput. Mol. Sci., 2020, 11,
     e01493. DOI: 10.1002/wcms.1493
   
   for GFN2-xTB:
   * C. Bannwarth, S. Ehlert and S. Grimme., J. Chem. Theory Comput., 2019,
     15, 1652-1671. DOI: 10.1021/acs.jctc.8b01176
   for GFN1-xTB:
   * S. Grimme, C. Bannwarth, P. Shushkov, J. Chem. Theory Comput., 2017,
     13, 1989-2009. DOI: 10.1021/acs.jctc.7b00118
   for GFN0-xTB:
   * P. Pracht, E. Caldeweyher, S. Ehlert, S. Grimme, ChemRxiv, 2019, preprint.
     DOI: 10.26434/chemrxiv.8326202.v1
   for GFN-FF:
   * S. Spicher and S. Grimme, Angew. Chem. Int. Ed., 2020, 59, 15665-15673.
     DOI: 10.1002/anie.202004239
   
   for ALPB and GBSA implicit solvation:
   * S. Ehlert, M. Stahn, S. Spicher, S. Grimme, J. Chem. Theory Comput.,
     2021, 17, 4250-4261. DOI: 10.1021/acs.jctc.1c00471
   
   for ddCOSMO and CPCM-X implicit solvation:
   * M. Stahn, S. Ehlert, S. Grimme, J. Phys. Chem. A,
     2023, XX, XXXX-XXXX. DOI: 10.1021/acs.jpca.3c04382
   
   for DFT-D4:
   * E. Caldeweyher, C. Bannwarth and S. Grimme, J. Chem. Phys., 2017,
     147, 034112. DOI: 10.1063/1.4993215
   * E. Caldeweyher, S. Ehlert, A. Hansen, H. Neugebauer, S. Spicher,
     C. Bannwarth and S. Grimme, J. Chem. Phys., 2019, 150, 154122.
     DOI: 10.1063/1.5090222
   * E. Caldeweyher, J.-M. Mewes, S. Ehlert and S. Grimme, Phys. Chem. Chem. Phys.
     2020, 22, 8499-8512. DOI: 10.1039/D0CP00502A
   
   for sTDA-xTB:
   * S. Grimme and C. Bannwarth, J. Chem. Phys., 2016, 145, 054103.
     DOI: 10.1063/1.4959605
   
   in the mass-spec context:
   * V. Asgeirsson, C. Bauer and S. Grimme, Chem. Sci., 2017, 8, 4879.
     DOI: 10.1039/c7sc00601b
   * J. Koopman and S. Grimme, ACS Omega 2019, 4, 12, 15120-15133.
     DOI: 10.1021/acsomega.9b02011
   
   for metadynamics refer to:
   * S. Grimme, J. Chem. Theory Comput., 2019, 155, 2847-2862
     DOI: 10.1021/acs.jctc.9b00143
   
   for SPH calculations refer to:
   * S. Spicher and S. Grimme, J. Chem. Theory Comput., 2021, 17, 1701-1714
     DOI: 10.1021/acs.jctc.0c01306
   
   for ONIOM refer to:
   * C. Plett, A. Katbashev, S. Ehlert, S. Grimme, M. Bursch,
     Phys. Chem. Chem. Phys., 2023, 25, 17860-17868. DOI: 10.1039/D3CP02178E
   
   for DIPRO refer to:
   * J. Kohn, N. Gildemeister, S. Grimme, D. Fazzi, A. Hansen,
     J. Chem. Phys., 2023, just accepted.
   
   for PTB refer to:
   * S. Grimme, M. Mueller, A. Hansen, J. Chem. Phys., 2023, 158, 124111.
     DOI: 10.1063/5.0137838
   
   with help from (in alphabetical order)
   P. Atkinson, C. Bannwarth, F. Bohle, G. Brandenburg, E. Caldeweyher
   M. Checinski, S. Dohm, S. Ehlert, S. Ehrlich, I. Gerasimov, C. Hölzer
   A. Katbashev, J. Kohn, J. Koopman, C. Lavigne, S. Lehtola, F. März, M. Müller,
   F. Musil, H. Neugebauer, J. Pisarek, C. Plett, P. Pracht, F. Pultar,
   J. Seibert, P. Shushkov, S. Spicher, M. Stahn, M. Steiner, T. Strunk,
   J. Stückrath, T. Rose, and J. Unsleber
   
 * started run on 2025/09/10 at 11:29:46.808     
   ID    Z sym.   atoms
    1    8 O      1, 6, 14, 18, 21, 24
    2    6 C      2, 4, 8-13, 15, 16, 19, 22, 23
    3    1 H      3, 5, 17, 20, 25-46
    4   14 Si     7

           -------------------------------------------------
          |                Calculation Setup                |
           -------------------------------------------------

          program call               : /home/kmoult/orca_6_1/otool_xtb goat_0_XTB.xyz --grad -c 0 -u 0 -P 4 --namespace goat_0 --input goat_0_XTB.input.tmp --alpb ACETONE --acc 0.200000
          hostname                   : node2704
          calculation namespace      : goat_0
          coordinate file            : goat_0_XTB.xyz
          omp threads                :                     4


           -------------------------------------------------
          |                 G F N 2 - x T B                 |
           -------------------------------------------------

        Reference                      10.1021/acs.jctc.8b01176
      * Hamiltonian:
        H0-scaling (s, p, d)           1.850000    2.230000    2.230000
        zeta-weighting                 0.500000
      * Dispersion:
        s8                             2.700000
        a1                             0.520000
        a2                             5.000000
        s9                             5.000000
      * Repulsion:
        kExp                           1.500000    1.000000
        rExp                           1.000000
      * Coulomb:
        alpha                          2.000000
        third order                    shell-resolved
        anisotropic                    true
        a3                             3.000000
        a5                             4.000000
        cn-shift                       1.200000
        cn-exp                         4.000000
        max-rad                        5.000000

      * Solvation model:               ALPB
        Solvent                        ACETONE
        Parameter file                 internal GFN2-xTB/ALPB
        Dielectric constant                2.0700E+01
        Reference state                gsolv [1 M gas/solution]
        Free energy shift                  5.9241E-03 Eh       3.7175E+00 kcal/mol
        Temperature                        2.9815E+02 K
        Density                            7.9000E-01 kg/L
        Solvent mass                       5.8080E+01 g/mol
        Interaction kernel             P16
        Born radius scaling (c1)           1.8274E+00
        Born radii integrator          GBOBC
        Born offset                        0.0000E+00 a0       0.0000E+00 AA
        H-bond correction              true
        Ion screening                  false
        Surface tension                    1.0000E-05 Eh       1.5569E+01 dyn/cm
        Grid points                               230 per atom
q/qsh data taken from xtbrestart
CAMM data taken from xtbrestart

          ...................................................
          :                      SETUP                      :
          :.................................................:
          :  # basis functions                 112          :
          :  # atomic orbitals                 111          :
          :  # shells                           67          :
          :  # electrons                       118          :
          :  max. iterations                   250          :
          :  Hamiltonian                  GFN2-xTB          :
          :  restarted?                       true          :
          :  GBSA solvation                   true          :
          :  PC potential                    false          :
          :  electronic temp.          300.0000000     K    :
          :  accuracy                    0.2000000          :
          :  -> integral cutoff          0.3198970E+02      :
          :  -> integral neglect         0.2000000E-08      :
          :  -> SCF convergence          0.2000000E-06 Eh   :
          :  -> wf. convergence          0.2000000E-04 e    :
          :  Broyden damping             0.4000000          :
          :  net charge                          0          :
          :  unpaired electrons                  0          :
          ...................................................

 iter      E             dE          RMSdq      gap      omega  full diag
   1    -68.0084773 -0.680085E+02  0.151E-02    5.69       0.0  T
   2    -68.0084775 -0.153004E-06  0.949E-03    5.69       1.6  T
   3    -68.0084773  0.182056E-06  0.235E-03    5.68       6.3  T
   4    -68.0084775 -0.220027E-06  0.144E-03    5.69      10.2  T
   5    -68.0084776 -0.137011E-07  0.806E-04    5.69      18.3  T
   6    -68.0084776 -0.683116E-09  0.229E-04    5.69      64.4  T
   7    -68.0084776 -0.303459E-09  0.728E-05    5.69     202.4  T
   8    -68.0084776 -0.189573E-10  0.299E-05    5.69     492.5  T

   *** convergence criteria satisfied after 8 iterations ***

         #    Occupation            Energy/Eh            Energy/eV
      -------------------------------------------------------------
         1        2.0000           -0.8153951             -22.1880
       ...           ...                  ...                  ...
        53        2.0000           -0.4302189             -11.7069
        54        2.0000           -0.4243759             -11.5479
        55        2.0000           -0.4208935             -11.4531
        56        2.0000           -0.4173758             -11.3574
        57        2.0000           -0.4160490             -11.3213
        58        2.0000           -0.4091362             -11.1332
        59        2.0000           -0.3770079             -10.2589 (HOMO)
        60                         -0.1680648              -4.5733 (LUMO)
        61                         -0.1317686              -3.5856
        62                         -0.0958485              -2.6082
        63                         -0.0493808              -1.3437
        64                         -0.0090674              -0.2467
       ...                                ...                  ...
       111                          0.7925100              21.5653
      -------------------------------------------------------------
                  HL-Gap            0.2089431 Eh            5.6856 eV
             Fermi-level           -0.2725363 Eh           -7.4161 eV

 SCC (total)                   0 d,  0 h,  0 min,  0.027 sec
 SCC setup                      ...        0 min,  0.001 sec (  2.157%)
 Dispersion                     ...        0 min,  0.000 sec (  1.015%)
 classical contributions        ...        0 min,  0.000 sec (  0.148%)
 integral evaluation            ...        0 min,  0.004 sec ( 16.426%)
 iterations                     ...        0 min,  0.013 sec ( 47.279%)
 molecular gradient             ...        0 min,  0.009 sec ( 32.429%)
 printout                       ...        0 min,  0.000 sec (  0.490%)

         :::::::::::::::::::::::::::::::::::::::::::::::::::::
         ::                     SUMMARY                     ::
         :::::::::::::::::::::::::::::::::::::::::::::::::::::
         :: total energy             -67.354709067527 Eh    ::
         :: total w/o Gsasa/hb       -67.327033498657 Eh    ::
         :: gradient norm              0.002638710444 Eh/a0 ::
         :: HOMO-LUMO gap              5.685631363758 eV    ::
         ::.................................................::
         :: SCC energy               -68.007582936535 Eh    ::
         :: -> isotropic ES            0.154393378829 Eh    ::
         :: -> anisotropic ES          0.001120409494 Eh    ::
         :: -> anisotropic XC          0.002322939384 Eh    ::
         :: -> dispersion             -0.044906877772 Eh    ::
         :: -> Gsolv                  -0.030657974098 Eh    ::
         ::    -> Gelec               -0.002982405228 Eh    ::
         ::    -> Gsasa               -0.027920232597 Eh    ::
         ::    -> Ghb                 -0.005679477536 Eh    ::
         ::    -> Gshift               0.005924141264 Eh    ::
         :: repulsion energy           0.652873869008 Eh    ::
         :: add. restraining           0.000000000000 Eh    ::
         :: total charge              -0.000000000000 e     ::
         :::::::::::::::::::::::::::::::::::::::::::::::::::::


Property printout bound to 'properties.out'

           -------------------------------------------------
          | TOTAL ENERGY              -67.354709067527 Eh   |
          | GRADIENT NORM               0.002638710444 Eh/α |
          | HOMO-LUMO GAP               5.685631363758 eV   |
           -------------------------------------------------

------------------------------------------------------------------------
 * finished run on 2025/09/10 at 11:29:46.857     
------------------------------------------------------------------------
 total:
 * wall-time:     0 d,  0 h,  0 min,  0.049 sec
 *  cpu-time:     0 d,  0 h,  0 min,  0.174 sec
 * ratio c/w:     3.574 speedup
 SCF:
 * wall-time:     0 d,  0 h,  0 min,  0.027 sec
 *  cpu-time:     0 d,  0 h,  0 min,  0.108 sec
 * ratio c/w:     3.979 speedup


-------------------------   --------------------
FINAL SINGLE POINT ENERGY       -67.354709067530
-------------------------   --------------------


-------------
DIPOLE MOMENT
-------------
                                X             Y             Z
Total Dipole Moment    :      0.29900       0.75700      -0.36300
                        -----------------------------------------
Magnitude (a.u.)       :      0.89119
Magnitude (Debye)      :      2.26522


------------------
CARTESIAN GRADIENT
------------------

   1   O   :    0.000330266    0.000153206   -0.000220009
   2   C   :   -0.000304180   -0.000278116    0.000207713
   3   H   :   -0.000025381    0.000022347   -0.000066264
   4   C   :    0.000067191   -0.000019780   -0.000188913
   5   H   :    0.000106387   -0.000145799    0.000059641
   6   O   :    0.000690057    0.000697889   -0.000115228
   7   Si  :   -0.000624603   -0.001226291   -0.000532392
   8   C   :    0.000287141   -0.000012235   -0.000053208
   9   C   :   -0.000166008    0.000177227    0.000196654
  10   C   :    0.000005229    0.000063052    0.000160520
  11   C   :   -0.000047613   -0.000411801    0.000217496
  12   C   :    0.000003844    0.000154018   -0.000095152
  13   C   :    0.000182232    0.000162949    0.000087356
  14   O   :   -0.000034712    0.000803067    0.000330536
  15   C   :    0.000006025   -0.000197125   -0.000352184
  16   C   :   -0.000252785   -0.000127212    0.000407807
  17   H   :   -0.000030384    0.000100821   -0.000096133
  18   O   :    0.000263341    0.000145333    0.000295675
  19   C   :    0.000374498   -0.000374153   -0.000370962
  20   H   :   -0.000112035    0.000254458    0.000143564
  21   O   :   -0.000477767   -0.000028292    0.000116903
  22   C   :    0.000296088   -0.000253388   -0.000000492
  23   C   :    0.000188736   -0.000070534   -0.000022254
  24   O   :   -0.000180250    0.000241666    0.000151353
  25   H   :   -0.000307956    0.000033578    0.000064345
  26   H   :    0.000002530    0.000223655    0.000130507
  27   H   :   -0.000035570   -0.000017965    0.000018680
  28   H   :    0.000032217   -0.000011452   -0.000081369
  29   H   :   -0.000000298    0.000003999   -0.000025038
  30   H   :   -0.000024092   -0.000024782    0.000031484
  31   H   :   -0.000029149    0.000041772   -0.000053493
  32   H   :    0.000034690   -0.000019718   -0.000027943
  33   H   :   -0.000011325    0.000196239   -0.000115190
  34   H   :   -0.000013201    0.000030402    0.000060652
  35   H   :   -0.000045080   -0.000013352    0.000051514
  36   H   :   -0.000005998   -0.000026185   -0.000006675
  37   H   :   -0.000029146    0.000045449   -0.000023126
  38   H   :    0.000018637   -0.000059560   -0.000042152
  39   H   :   -0.000002867   -0.000079377   -0.000018360
  40   H   :   -0.000048476   -0.000112709   -0.000095799
  41   H   :    0.000037430   -0.000064198    0.000090373
  42   H   :   -0.000010507    0.000006401    0.000012476
  43   H   :   -0.000003336    0.000050926   -0.000033097
  44   H   :   -0.000029280    0.000083879    0.000003723
  45   H   :   -0.000050914   -0.000020202    0.000005425
  46   H   :   -0.000023627   -0.000098107   -0.000208967

Difference to translation invariance:
           :   -0.0000000000    0.0000000000   -0.0000000000

Difference to rotation invariance:
           :    0.0008742896   -0.0002499204    0.0004548062

Norm of the Cartesian gradient     ...    0.0026387104
RMS gradient                       ...    0.0002246219
MAX gradient                       ...    0.0012262911
------------------------------------------------------------------------------
                         ORCA GEOMETRY RELAXATION STEP
------------------------------------------------------------------------------

Reading the OPT-File                    .... done
Getting information on internals        .... done
Copying old internal coords+grads       .... done
Making the new internal coordinates     .... (2022 redundants) done
Validating the new internal coordinates .... (2022 redundants) done
Calculating the B-matrix                .... done
Calculating the G,G- and P matrices     .... done
Transforming gradient to internals      .... done
Projecting the internal gradient        .... done
Number of atoms                         ....  46
Number of internal coordinates          .... 235
Current Energy                          ....   -67.354709068 Eh
Current gradient norm                   ....     0.002638710 Eh/bohr
Maximum allowed component of the step   ....  0.300
Current trust radius                    ....  0.675
Updating the Hessian (BFGS)             .... done
Forming the augmented Hessian           .... done
Diagonalizing the augmented Hessian     .... done
Last element of RFO vector              ....  0.998154468
Lowest eigenvalues of augmented Hessian:
 -0.000038034  0.002577342  0.009521217  0.010179587  0.010715201
Length of the computed step             ....  0.060838373
The final length of the internal step   ....  0.060838373
Converting the step to Cartesian space:
 Initial RMS(Int)=    0.0039686579
Transforming coordinates:
 Iter   0:  RMS(Cart)=    0.0176869407 RMS(Int)=    0.0039710590
done
Storing new coordinates                 .... done
The predicted energy change is          ....    -0.000019088
Previously predicted energy change      ....    -0.000017468
Actually observed energy change         ....    -0.000027295
Ratio of predicted to observed change   ....     1.562577552
New trust radius                        ....     0.450000000

                                .--------------------.
          ----------------------|Geometry convergence|-------------------------
          Item                value                   Tolerance       Converged
          ---------------------------------------------------------------------
          Energy change      -0.0000272954            0.0000050000      NO
          RMS gradient        0.0001136727            0.0001000000      NO
          MAX gradient        0.0005976550            0.0003000000      NO
          RMS step            0.0039686579            0.0020000000      NO
          MAX step            0.0186647770            0.0040000000      NO
          -------------------------------------------------------------------------
          ........................................................
          Max(Bonds)      0.0045      Max(Angles)    0.22
          Max(Dihed)        1.07      Max(Improp)    0.00
          ---------------------------------------------------------------------

    ---------------------------------------------------------------------------
                         Redundant Internal Coordinates
                            (Angstroem and degrees)

        Definition                    Value    dE/dq     Step     New-Value
    ----------------------------------------------------------------------------
     1. B(C   1,O   0)                1.4064 -0.000024  0.0003    1.4067   
     2. B(H   2,C   1)                1.1028  0.000039 -0.0002    1.1027   
     3. B(C   3,C   1)                1.5302 -0.000055 -0.0003    1.5298   
     4. B(H   4,C   3)                1.0998 -0.000019  0.0001    1.0999   
     5. B(O   5,C   3)                1.4007  0.000252 -0.0007    1.4000   
     6. B(Si  6,O   5)                1.6475 -0.000598  0.0010    1.6485   
     7. B(C   7,Si  6)                1.9120  0.000520 -0.0008    1.9111   
     8. B(C   8,C   7)                1.5297  0.000230 -0.0008    1.5289   
     9. B(C   9,C   7)                1.5309  0.000075 -0.0002    1.5307   
    10. B(C  10,Si  6)                1.9222 -0.000104  0.0004    1.9226   
    11. B(C  11,C  10)                1.5300  0.000132 -0.0006    1.5294   
    12. B(C  12,C  10)                1.5317  0.000158 -0.0006    1.5311   
    13. B(O  13,Si  6)                1.6456 -0.000254  0.0008    1.6464   
    14. B(C  14,O  13)                1.3980  0.000385 -0.0007    1.3973   
    15. B(C  15,C   3)                1.5324 -0.000075 -0.0004    1.5320   
    16. B(C  15,C  14)                1.5348  0.000180 -0.0007    1.5340   
    17. B(H  16,C  15)                1.0963 -0.000031  0.0001    1.0964   
    18. B(O  17,C  15)                1.4090  0.000094 -0.0002    1.4088   
    19. B(C  18,O  17)                1.4203  0.000382 -0.0009    1.4194   
    20. B(H  19,C  18)                1.1078 -0.000225  0.0006    1.1084   
    21. B(O  20,C  18)                1.3812  0.000214  0.0001    1.3813   
    22. B(C  21,O  20)                1.4207  0.000256 -0.0006    1.4201   
    23. B(C  22,C  18)                1.5369  0.000231 -0.0009    1.5360   
    24. B(C  22,C   1)                1.5349 -0.000044 -0.0002    1.5347   
    25. B(O  23,C  22)                1.4018 -0.000031  0.0006    1.4025   
    26. B(H  24,O   0)                0.9671  0.000075 -0.0001    0.9670   
    27. B(H  24,O   5)                2.3730  0.000110 -0.0041    2.3689   
    28. B(H  25,C   7)                1.0933  0.000044 -0.0002    1.0931   
    29. B(H  26,C   8)                1.0865  0.000038 -0.0001    1.0864   
    30. B(H  27,C   8)                1.0856  0.000054 -0.0002    1.0855   
    31. B(H  28,C   8)                1.0891 -0.000008  0.0001    1.0891   
    32. B(H  29,C   9)                1.0880  0.000043 -0.0001    1.0879   
    33. B(H  30,C   9)                1.0890  0.000009  0.0000    1.0890   
    34. B(H  31,C   9)                1.0865  0.000046 -0.0001    1.0864   
    35. B(H  32,C  10)                1.0979 -0.000133  0.0004    1.0984   
    36. B(H  33,C  11)                1.0870  0.000037 -0.0001    1.0869   
    37. B(H  34,C  11)                1.0863  0.000065 -0.0001    1.0862   
    38. B(H  35,C  11)                1.0888  0.000010  0.0000    1.0888   
    39. B(H  36,C  12)                1.0871  0.000024 -0.0001    1.0870   
    40. B(H  37,C  12)                1.0888  0.000044 -0.0001    1.0887   
    41. B(H  38,C  12)                1.0865  0.000045 -0.0001    1.0864   
    42. B(H  39,C  14)                1.0945 -0.000031  0.0002    1.0947   
    43. B(H  40,C  14)                1.0948 -0.000053  0.0002    1.0950   
    44. B(H  41,C  21)                1.0871  0.000006  0.0000    1.0871   
    45. B(H  42,C  21)                1.0922  0.000008 -0.0000    1.0921   
    46. B(H  43,C  21)                1.0951 -0.000045  0.0001    1.0953   
    47. B(H  44,C  22)                1.0998  0.000044 -0.0003    1.0996   
    48. B(H  45,O   0)                2.5320  0.000030  0.0045    2.5365   
    49. B(H  45,O  23)                0.9676  0.000081 -0.0002    0.9674   
    50. A(C   1,O   0,H  24)          108.06  0.000334   -0.20    107.86   
    51. A(H   2,C   1,C   3)          108.97 -0.000047    0.09    109.06   
    52. A(O   0,C   1,C   3)          111.17 -0.000025   -0.07    111.11   
    53. A(H   2,C   1,C  22)          108.80 -0.000022    0.05    108.86   
    54. A(O   0,C   1,H   2)          109.32 -0.000061   -0.01    109.31   
    55. A(O   0,C   1,C  22)          107.80  0.000102   -0.03    107.77   
    56. A(C   3,C   1,C  22)          110.73  0.000052   -0.03    110.70   
    57. A(O   5,C   3,C  15)          113.42  0.000046    0.02    113.44   
    58. A(C   1,C   3,H   4)          107.82 -0.000004    0.05    107.87   
    59. A(H   4,C   3,C  15)          108.16 -0.000181    0.13    108.29   
    60. A(H   4,C   3,O   5)          106.85  0.000115   -0.08    106.77   
    61. A(C   1,C   3,C  15)          110.45  0.000135   -0.07    110.38   
    62. A(C   1,C   3,O   5)          109.90 -0.000116   -0.03    109.87   
    63. A(C   3,O   5,Si  6)          123.65  0.000028   -0.02    123.64   
    64. A(C  10,Si  6,O  13)          108.31  0.000004   -0.09    108.22   
    65. A(O   5,Si  6,C   7)          107.67 -0.000273    0.15    107.82   
    66. A(C   7,Si  6,O  13)          107.26 -0.000064    0.06    107.32   
    67. A(O   5,Si  6,O  13)          107.72  0.000107    0.08    107.80   
    68. A(O   5,Si  6,C  10)          110.60  0.000246   -0.22    110.39   
    69. A(C   7,Si  6,C  10)          115.01 -0.000019    0.02    115.03   
    70. A(C   8,C   7,H  25)          107.51 -0.000079    0.09    107.60   
    71. A(Si  6,C   7,C   8)          111.64 -0.000065    0.05    111.69   
    72. A(Si  6,C   7,H  25)          107.95  0.000128   -0.11    107.85   
    73. A(C   8,C   7,C   9)          109.60 -0.000044    0.04    109.64   
    74. A(Si  6,C   7,C   9)          112.40  0.000108   -0.11    112.29   
    75. A(C   9,C   7,H  25)          107.51 -0.000053    0.06    107.57   
    76. A(H  27,C   8,H  28)          108.44 -0.000018   -0.01    108.43   
    77. A(C   7,C   8,H  28)          110.36  0.000012   -0.01    110.35   
    78. A(C   7,C   8,H  27)          110.96 -0.000139    0.07    111.03   
    79. A(C   7,C   8,H  26)          110.26  0.000062    0.00    110.27   
    80. A(H  26,C   8,H  27)          108.20  0.000036   -0.02    108.19   
    81. A(H  26,C   8,H  28)          108.54  0.000051   -0.04    108.50   
    82. A(H  30,C   9,H  31)          108.70  0.000022   -0.04    108.65   
    83. A(C   7,C   9,H  31)          110.58 -0.000018    0.03    110.61   
    84. A(C   7,C   9,H  30)          110.28 -0.000123    0.05    110.33   
    85. A(C   7,C   9,H  29)          110.34  0.000045    0.00    110.34   
    86. A(H  29,C   9,H  31)          108.58  0.000037   -0.03    108.56   
    87. A(H  29,C   9,H  30)          108.30  0.000040   -0.03    108.28   
    88. A(Si  6,C  10,C  12)          110.80 -0.000103    0.07    110.87   
    89. A(Si  6,C  10,H  32)          108.43  0.000155   -0.16    108.27   
    90. A(Si  6,C  10,C  11)          113.78 -0.000070    0.07    113.85   
    91. A(C  11,C  10,C  12)          109.37  0.000094    0.01    109.38   
    92. A(C  12,C  10,H  32)          107.09 -0.000005   -0.01    107.08   
    93. A(C  11,C  10,H  32)          107.07 -0.000065    0.02    107.09   
    94. A(C  10,C  11,H  35)          110.43 -0.000010   -0.01    110.42   
    95. A(H  34,C  11,H  35)          108.58 -0.000006   -0.02    108.56   
    96. A(H  33,C  11,H  35)          108.13  0.000051   -0.05    108.09   
    97. A(H  33,C  11,H  34)          108.41 -0.000011    0.02    108.44   
    98. A(C  10,C  11,H  34)          111.10 -0.000040    0.03    111.12   
    99. A(C  10,C  11,H  33)          110.11  0.000018    0.03    110.14   
   100. A(H  36,C  12,H  38)          108.14  0.000096   -0.05    108.09   
   101. A(C  10,C  12,H  38)          110.82 -0.000047    0.04    110.86   
   102. A(H  36,C  12,H  37)          108.33  0.000007   -0.01    108.32   
   103. A(C  10,C  12,H  37)          110.52 -0.000019    0.01    110.53   
   104. A(C  10,C  12,H  36)          110.23  0.000029    0.00    110.23   
   105. A(H  37,C  12,H  38)          108.73 -0.000063    0.01    108.74   
   106. A(Si  6,O  13,C  14)          120.42 -0.000057    0.21    120.63   
   107. A(O  13,C  14,C  15)          110.69 -0.000109    0.12    110.82   
   108. A(H  39,C  14,H  40)          108.59 -0.000089    0.01    108.60   
   109. A(O  13,C  14,H  40)          109.96  0.000088   -0.09    109.86   
   110. A(C  15,C  14,H  39)          109.04 -0.000045   -0.00    109.04   
   111. A(O  13,C  14,H  39)          107.68  0.000094   -0.06    107.62   
   112. A(C  15,C  14,H  40)          110.79  0.000060    0.02    110.81   
   113. A(H  16,C  15,O  17)          104.88  0.000054   -0.01    104.88   
   114. A(C  14,C  15,O  17)          113.26 -0.000053    0.02    113.28   
   115. A(C   3,C  15,O  17)          110.53  0.000137   -0.10    110.43   
   116. A(C  14,C  15,H  16)          106.95  0.000013    0.03    106.99   
   117. A(C   3,C  15,H  16)          108.35 -0.000022    0.00    108.36   
   118. A(C   3,C  15,C  14)          112.40 -0.000121    0.06    112.46   
   119. A(C  15,O  17,C  18)          116.63 -0.000177    0.06    116.70   
   120. A(O  20,C  18,C  22)          107.44 -0.000060   -0.02    107.42   
   121. A(H  19,C  18,C  22)          108.51 -0.000033    0.05    108.56   
   122. A(O  17,C  18,C  22)          112.96 -0.000020    0.08    113.04   
   123. A(H  19,C  18,O  20)          110.61  0.000121   -0.14    110.47   
   124. A(O  17,C  18,O  20)          107.57  0.000056   -0.06    107.51   
   125. A(O  17,C  18,H  19)          109.74 -0.000059    0.08    109.81   
   126. A(C  18,O  20,C  21)          114.40 -0.000306    0.05    114.45   
   127. A(H  42,C  21,H  43)          109.62  0.000003    0.04    109.66   
   128. A(H  41,C  21,H  43)          110.05  0.000072   -0.07    109.98   
   129. A(O  20,C  21,H  43)          110.44 -0.000079    0.03    110.47   
   130. A(H  41,C  21,H  42)          110.22  0.000043   -0.06    110.17   
   131. A(O  20,C  21,H  42)          110.80 -0.000069    0.03    110.83   
   132. A(O  20,C  21,H  41)          105.65  0.000032    0.03    105.68   
   133. A(O  23,C  22,H  44)          110.91 -0.000043   -0.05    110.86   
   134. A(C  18,C  22,H  44)          107.64  0.000021    0.04    107.68   
   135. A(C  18,C  22,O  23)          107.22  0.000159   -0.06    107.15   
   136. A(C   1,C  22,H  44)          108.76  0.000031    0.02    108.78   
   137. A(C   1,C  22,O  23)          110.65 -0.000185    0.03    110.67   
   138. A(C   1,C  22,C  18)          111.63  0.000023    0.02    111.65   
   139. A(C  22,O  23,H  45)          107.85  0.000330   -0.16    107.69   
   140. D(C   3,C   1,O   0,H  24)     39.66 -0.000167    0.80     40.46   
   141. D(C  22,C   1,O   0,H  24)    161.20 -0.000052    0.70    161.89   
   142. D(H   2,C   1,O   0,H  24)    -80.69 -0.000054    0.74    -79.95   
   143. D(H   4,C   3,C   1,H   2)    175.70 -0.000010   -0.00    175.70   
   144. D(H   4,C   3,C   1,C  22)    -64.66 -0.000035    0.10    -64.56   
   145. D(O   5,C   3,C   1,O   0)    -60.97  0.000040    0.08    -60.89   
   146. D(O   5,C   3,C   1,C  22)    179.22 -0.000107    0.19    179.41   
   147. D(O   5,C   3,C   1,H   2)     59.59 -0.000082    0.09     59.67   
   148. D(H   4,C   3,C   1,O   0)     55.15  0.000112   -0.01     55.14   
   149. D(Si  6,O   5,C   3,C  15)     29.60  0.000069   -0.20     29.41   
   150. D(Si  6,O   5,C   3,C   1)    -94.58 -0.000053   -0.09    -94.67   
   151. D(Si  6,O   5,C   3,H   4)    148.69 -0.000052   -0.08    148.61   
   152. D(O  13,Si  6,O   5,C   3)    -13.91 -0.000162    0.74    -13.16   
   153. D(C  10,Si  6,O   5,C   3)    104.28  0.000046    0.56    104.85   
   154. D(C   7,Si  6,O   5,C   3)   -129.29 -0.000004    0.55   -128.74   
   155. D(C   9,C   7,Si  6,O  13)    -35.08 -0.000026   -0.24    -35.32   
   156. D(C   8,C   7,Si  6,O   5)    -43.03 -0.000043   -0.03    -43.06   
   157. D(C   8,C   7,Si  6,O  13)   -158.71  0.000000   -0.24   -158.95   
   158. D(C   8,C   7,Si  6,C  10)     80.76  0.000053   -0.18     80.58   
   159. D(C   9,C   7,Si  6,O   5)     80.61 -0.000070   -0.03     80.58   
   160. D(C   9,C   7,Si  6,C  10)   -155.61  0.000027   -0.18   -155.79   
   161. D(H  26,C   8,C   7,C   9)    -64.60 -0.000065    0.02    -64.58   
   162. D(H  27,C   8,C   7,C   9)    175.53 -0.000060   -0.01    175.52   
   163. D(H  27,C   8,C   7,Si  6)    -59.26  0.000000   -0.09    -59.35   
   164. D(H  26,C   8,C   7,H  25)    178.83  0.000066   -0.12    178.72   
   165. D(H  27,C   8,C   7,H  25)     58.96  0.000070   -0.14     58.82   
   166. D(H  26,C   8,C   7,Si  6)     60.61 -0.000004   -0.07     60.54   
   167. D(H  30,C   9,C   7,Si  6)    176.89  0.000076   -0.10    176.79   
   168. D(H  29,C   9,C   7,H  25)    177.83 -0.000110    0.06    177.89   
   169. D(H  29,C   9,C   7,C   8)     61.26  0.000037   -0.09     61.17   
   170. D(H  29,C   9,C   7,Si  6)    -63.51  0.000076   -0.09    -63.60   
   171. D(H  30,C   9,C   7,H  25)     58.22 -0.000111    0.06     58.28   
   172. D(H  30,C   9,C   7,C   8)    -58.35  0.000036   -0.09    -58.44   
   173. D(C  12,C  10,Si  6,C   7)     67.76  0.000057    0.06     67.83   
   174. D(C  12,C  10,Si  6,O   5)   -170.02 -0.000125    0.12   -169.90   
   175. D(C  11,C  10,Si  6,O  13)   -175.91  0.000156   -0.09   -176.00   
   176. D(C  11,C  10,Si  6,C   7)    -55.96  0.000066   -0.06    -56.02   
   177. D(C  12,C  10,Si  6,O  13)    -52.19  0.000148    0.03    -52.15   
   178. D(C  11,C  10,Si  6,O   5)     66.26 -0.000116   -0.00     66.25   
   179. D(H  34,C  11,C  10,C  12)   -178.60  0.000050   -0.04   -178.64   
   180. D(H  34,C  11,C  10,Si  6)    -54.10 -0.000064    0.11    -53.99   
   181. D(H  33,C  11,C  10,H  32)   -174.19  0.000015    0.02   -174.17   
   182. D(H  33,C  11,C  10,C  12)    -58.48  0.000022    0.02    -58.46   
   183. D(H  33,C  11,C  10,Si  6)     66.02 -0.000092    0.17     66.19   
   184. D(H  34,C  11,C  10,H  32)     65.69  0.000043   -0.04     65.65   
   185. D(H  37,C  12,C  10,H  32)     56.43 -0.000077    0.30     56.72   
   186. D(H  37,C  12,C  10,C  11)    -59.28 -0.000045    0.28    -59.00   
   187. D(H  37,C  12,C  10,Si  6)    174.50  0.000050    0.13    174.64   
   188. D(H  36,C  12,C  10,H  32)    176.15 -0.000062    0.29    176.44   
   189. D(H  36,C  12,C  10,C  11)     60.45 -0.000031    0.27     60.72   
   190. D(H  36,C  12,C  10,Si  6)    -65.77  0.000065    0.12    -65.65   
   191. D(C  14,O  13,Si  6,C  10)    -95.91 -0.000096   -0.81    -96.72   
   192. D(C  14,O  13,Si  6,C   7)    139.40 -0.000037   -0.82    138.58   
   193. D(C  14,O  13,Si  6,O   5)     23.75  0.000259   -1.07     22.68   
   194. D(H  40,C  14,O  13,Si  6)     74.61 -0.000127    0.90     75.51   
   195. D(H  39,C  14,O  13,Si  6)   -167.24 -0.000130    0.82   -166.42   
   196. D(C  15,C  14,O  13,Si  6)    -48.13 -0.000190    0.86    -47.27   
   197. D(H  16,C  15,C   3,H   4)    -53.00 -0.000070   -0.11    -53.11   
   198. D(H  16,C  15,C   3,C   1)   -170.78 -0.000034   -0.20   -170.99   
   199. D(C  14,C  15,C   3,O   5)    -52.64  0.000049   -0.19    -52.83   
   200. D(C  14,C  15,C   3,H   4)   -170.97 -0.000000   -0.19   -171.16   
   201. D(H  16,C  15,C   3,O   5)     65.33 -0.000020   -0.12     65.21   
   202. D(C  14,C  15,C   3,C   1)     71.25  0.000035   -0.28     70.97   
   203. D(H  16,C  15,C  14,H  40)   -178.75 -0.000018   -0.20   -178.95   
   204. D(H  16,C  15,C  14,H  39)     61.79  0.000083   -0.22     61.57   
   205. D(H  16,C  15,C  14,O  13)    -56.50  0.000060   -0.22    -56.72   
   206. D(C   3,C  15,C  14,H  40)    -59.95 -0.000106   -0.14    -60.10   
   207. D(C   3,C  15,C  14,H  39)   -179.41 -0.000005   -0.16   -179.58   
   208. D(C   3,C  15,C  14,O  13)     62.30 -0.000028   -0.17     62.13   
   209. D(C  18,O  17,C  15,H  16)    173.82 -0.000014   -0.00    173.82   
   210. D(C  18,O  17,C  15,C  14)    -69.91  0.000008    0.04    -69.86   
   211. D(C  18,O  17,C  15,C   3)     57.24 -0.000084    0.05     57.29   
   212. D(C  22,C  18,O  17,C  15)    -52.88  0.000016    0.21    -52.68   
   213. D(O  20,C  18,O  17,C  15)   -171.27  0.000065    0.22   -171.05   
   214. D(H  19,C  18,O  17,C  15)     68.33 -0.000081    0.38     68.71   
   215. D(C  21,O  20,C  18,C  22)    166.70 -0.000032    0.26    166.96   
   216. D(C  21,O  20,C  18,H  19)     48.42 -0.000025    0.29     48.71   
   217. D(C  21,O  20,C  18,O  17)    -71.41 -0.000059    0.31    -71.10   
   218. D(H  43,C  21,O  20,C  18)    -59.89  0.000051   -0.02    -59.91   
   219. D(H  42,C  21,O  20,C  18)     61.77 -0.000046    0.06     61.84   
   220. D(H  41,C  21,O  20,C  18)   -178.86 -0.000012    0.03   -178.83   
   221. D(O  23,C  22,C  18,O  20)    -73.15 -0.000039   -0.30    -73.45   
   222. D(O  23,C  22,C  18,H  19)     46.47  0.000054   -0.45     46.02   
   223. D(C   1,C  22,C  18,O  20)    165.51  0.000073   -0.31    165.21   
   224. D(C   1,C  22,C  18,H  19)    -74.86  0.000165   -0.46    -75.32   
   225. D(C   1,C  22,C  18,O  17)     47.04  0.000054   -0.27     46.77   
   226. D(O  23,C  22,C   1,C   3)   -167.92  0.000006    0.08   -167.84   
   227. D(O  23,C  22,C   1,H   2)    -48.19 -0.000034    0.21    -47.98   
   228. D(O  23,C  22,C   1,O   0)     70.26 -0.000061    0.21     70.47   
   229. D(O  23,C  22,C  18,O  17)    168.38 -0.000057   -0.26    168.11   
   230. D(C  18,C  22,C   1,C   3)    -48.60  0.000098    0.04    -48.56   
   231. D(C  18,C  22,C   1,H   2)     71.14  0.000057    0.16     71.30   
   232. D(C  18,C  22,C   1,O   0)   -170.42  0.000030    0.16   -170.25   
   233. D(H  45,O  23,C  22,H  44)     61.96 -0.000028   -0.56     61.40   
   234. D(H  45,O  23,C  22,C  18)    179.23  0.000067   -0.57    178.65   
   235. D(H  45,O  23,C  22,C   1)    -58.82  0.000086   -0.57    -59.39   
    ----------------------------------------------------------------------------

Geometry step timings:
Preparation and reading OPT file:      0.001 s ( 5.148 %)
Internal coordinates            :      0.000 s ( 0.163 %)
B/P matrices and projection     :      0.004 s (22.151 %)
Hessian update/contruction      :      0.009 s (43.639 %)
Making the step                 :      0.003 s (14.439 %)
Converting the step to Cartesian:      0.000 s ( 1.940 %)
Storing new data                :      0.001 s ( 4.193 %)
Checking convergence            :      0.000 s ( 0.144 %)
Final printing                  :      0.002 s ( 8.177 %)
Total time                      :      0.020 s

Time for energy+gradient        :      0.073 s
Time for complete geometry iter :      0.103 s

         *************************************************************
         *                GEOMETRY OPTIMIZATION CYCLE   9            *
         *************************************************************
---------------------------------
CARTESIAN COORDINATES (ANGSTROEM)
---------------------------------
  O    -3.790732   -0.075229   -0.399059
  C    -2.481780   -0.479237   -0.079199
  H    -1.857578   -0.445721   -0.987550
  C    -1.867367    0.434222    0.983098
  H    -2.544459    0.446938    1.849786
  O    -1.802519    1.747368    0.501855
  Si   -0.468223    2.388826   -0.223212
  C    -0.068946    4.043657    0.645443
  C    -1.331936    4.866084    0.902157
  C     0.689200    3.841400    1.959754
  C    -0.732060    2.510656   -2.123747
  C    -1.819355    3.504587   -2.534737
  C     0.576612    2.866430   -2.834521
  O     0.794967    1.370739    0.056983
  C     0.570537    0.025823    0.362138
  C    -0.512101   -0.115101    1.439820
  H    -0.178263    0.466583    2.307216
  O    -0.651956   -1.432240    1.919713
  C    -1.209224   -2.381572    1.023580
  H    -0.499694   -2.577627    0.194925
  O    -1.447690   -3.538639    1.739254
  C    -0.276901   -4.248652    2.115735
  C    -2.548441   -1.927715    0.423612
  O    -2.848166   -2.804107   -0.629461
  H    -3.802110    0.891034   -0.436184
  H     0.574247    4.624918   -0.020432
  H    -2.014796    4.316689    1.544108
  H    -1.846567    5.089991   -0.026978
  H    -1.078968    5.806014    1.390801
  H     0.072748    3.297275    2.672076
  H     0.949536    4.803591    2.398414
  H     1.602531    3.277709    1.791480
  H    -1.041319    1.523302   -2.492385
  H    -1.514609    4.517300   -2.284072
  H    -2.755945    3.292168   -2.027311
  H    -1.989315    3.458927   -3.609267
  H     0.897543    3.866074   -2.552956
  H     0.443467    2.841357   -3.914807
  H     1.365409    2.170135   -2.563887
  H     1.509470   -0.388915    0.742602
  H     0.289883   -0.519739   -0.544858
  H    -0.626283   -5.131737    2.644866
  H     0.351784   -3.641475    2.770612
  H     0.293210   -4.544956    1.228717
  H    -3.308396   -1.992839    1.215600
  H    -3.701494   -2.538044   -0.999463

----------------------------
CARTESIAN COORDINATES (A.U.)
----------------------------
  NO LB    ZA    FRAG    MASS        X           Y           Z
   0 O   8.0000    1    15.999   -7.163445   -0.142162   -0.754113
   1 C   6.0000    1    12.011   -4.689885   -0.905627   -0.149664
   2 H   1.0000    1     1.008   -3.510314   -0.842291   -1.866199
   3 C   6.0000    1    12.011   -3.528812    0.820561    1.857787
   4 H   1.0000    1     1.008   -4.808331    0.844591    3.495589
   5 O   8.0000    1    15.999   -3.406268    3.302046    0.948369
   6 Si 14.0000    1    28.086   -0.884813    4.514227   -0.421809
   7 C   6.0000    1    12.011   -0.130290    7.641404    1.219711
   8 C   6.0000    1    12.011   -2.516994    9.195566    1.704830
   9 C   6.0000    1    12.011    1.302399    7.259195    3.703398
  10 C   6.0000    1    12.011   -1.383393    4.744452   -4.013300
  11 C   6.0000    1    12.011   -3.438082    6.622710   -4.789959
  12 C   6.0000    1    12.011    1.089639    5.416768   -5.356469
  13 O   8.0000    1    15.999    1.502271    2.590321    0.107683
  14 C   6.0000    1    12.011    1.078158    0.048799    0.684342
  15 C   6.0000    1    12.011   -0.967731   -0.217510    2.720865
  16 H   1.0000    1     1.008   -0.336868    0.881714    4.360007
  17 O   8.0000    1    15.999   -1.232019   -2.706541    3.627732
  18 C   6.0000    1    12.011   -2.285101   -4.500519    1.934286
  19 H   1.0000    1     1.008   -0.944285   -4.871009    0.368354
  20 O   8.0000    1    15.999   -2.735737   -6.687058    3.286714
  21 C   6.0000    1    12.011   -0.523267   -8.028788    3.998160
  22 C   6.0000    1    12.011   -4.815855   -3.642854    0.800511
  23 O   8.0000    1    15.999   -5.382254   -5.298995   -1.189508
  24 H   1.0000    1     1.008   -7.184947    1.683810   -0.824268
  25 H   1.0000    1     1.008    1.085170    8.739829   -0.038611
  26 H   1.0000    1     1.008   -3.807413    8.157359    2.917941
  27 H   1.0000    1     1.008   -3.489505    9.618688   -0.050981
  28 H   1.0000    1     1.008   -2.038955   10.971776    2.628232
  29 H   1.0000    1     1.008    0.137475    6.230947    5.049491
  30 H   1.0000    1     1.008    1.794362    9.077471    4.532346
  31 H   1.0000    1     1.008    3.028344    6.193972    3.385407
  32 H   1.0000    1     1.008   -1.967807    2.878624   -4.709925
  33 H   1.0000    1     1.008   -2.862196    8.536460   -4.316270
  34 H   1.0000    1     1.008   -5.207982    6.221295   -3.831063
  35 H   1.0000    1     1.008   -3.759261    6.536425   -6.820527
  36 H   1.0000    1     1.008    1.696110    7.305821   -4.824388
  37 H   1.0000    1     1.008    0.838031    5.369387   -7.397913
  38 H   1.0000    1     1.008    2.580250    4.100960   -4.845044
  39 H   1.0000    1     1.008    2.852484   -0.734942    1.403315
  40 H   1.0000    1     1.008    0.547799   -0.982164   -1.029632
  41 H   1.0000    1     1.008   -1.183503   -9.697577    4.998072
  42 H   1.0000    1     1.008    0.664776   -6.881391    5.235698
  43 H   1.0000    1     1.008    0.554086   -8.588722    2.321939
  44 H   1.0000    1     1.008   -6.251963   -3.765921    2.297151
  45 H   1.0000    1     1.008   -6.994810   -4.796209   -1.888712

      -----------------------------------------------------------      
     |                   =====================                   |     
     |                           x T B                           |     
     |                   =====================                   |     
     |                         S. Grimme                         |     
     |          Mulliken Center for Theoretical Chemistry        |     
     |                    University of Bonn                     |     
      -----------------------------------------------------------      

   * xtb version 6.7.1 (edcfbbe) compiled by 'albert@albert-system' on 2024-07-22

   xtb is free software: you can redistribute it and/or modify it under
   the terms of the GNU Lesser General Public License as published by
   the Free Software Foundation, either version 3 of the License, or
   (at your option) any later version.
   
   xtb is distributed in the hope that it will be useful,
   but WITHOUT ANY WARRANTY; without even the implied warranty of
   MERCHANTABILITY or FITNESS FOR A PARTICULAR PURPOSE.  See the
   GNU Lesser General Public License for more details.
   
   Cite this work as:
   * C. Bannwarth, E. Caldeweyher, S. Ehlert, A. Hansen, P. Pracht,
     J. Seibert, S. Spicher, S. Grimme, WIREs Comput. Mol. Sci., 2020, 11,
     e01493. DOI: 10.1002/wcms.1493
   
   for GFN2-xTB:
   * C. Bannwarth, S. Ehlert and S. Grimme., J. Chem. Theory Comput., 2019,
     15, 1652-1671. DOI: 10.1021/acs.jctc.8b01176
   for GFN1-xTB:
   * S. Grimme, C. Bannwarth, P. Shushkov, J. Chem. Theory Comput., 2017,
     13, 1989-2009. DOI: 10.1021/acs.jctc.7b00118
   for GFN0-xTB:
   * P. Pracht, E. Caldeweyher, S. Ehlert, S. Grimme, ChemRxiv, 2019, preprint.
     DOI: 10.26434/chemrxiv.8326202.v1
   for GFN-FF:
   * S. Spicher and S. Grimme, Angew. Chem. Int. Ed., 2020, 59, 15665-15673.
     DOI: 10.1002/anie.202004239
   
   for ALPB and GBSA implicit solvation:
   * S. Ehlert, M. Stahn, S. Spicher, S. Grimme, J. Chem. Theory Comput.,
     2021, 17, 4250-4261. DOI: 10.1021/acs.jctc.1c00471
   
   for ddCOSMO and CPCM-X implicit solvation:
   * M. Stahn, S. Ehlert, S. Grimme, J. Phys. Chem. A,
     2023, XX, XXXX-XXXX. DOI: 10.1021/acs.jpca.3c04382
   
   for DFT-D4:
   * E. Caldeweyher, C. Bannwarth and S. Grimme, J. Chem. Phys., 2017,
     147, 034112. DOI: 10.1063/1.4993215
   * E. Caldeweyher, S. Ehlert, A. Hansen, H. Neugebauer, S. Spicher,
     C. Bannwarth and S. Grimme, J. Chem. Phys., 2019, 150, 154122.
     DOI: 10.1063/1.5090222
   * E. Caldeweyher, J.-M. Mewes, S. Ehlert and S. Grimme, Phys. Chem. Chem. Phys.
     2020, 22, 8499-8512. DOI: 10.1039/D0CP00502A
   
   for sTDA-xTB:
   * S. Grimme and C. Bannwarth, J. Chem. Phys., 2016, 145, 054103.
     DOI: 10.1063/1.4959605
   
   in the mass-spec context:
   * V. Asgeirsson, C. Bauer and S. Grimme, Chem. Sci., 2017, 8, 4879.
     DOI: 10.1039/c7sc00601b
   * J. Koopman and S. Grimme, ACS Omega 2019, 4, 12, 15120-15133.
     DOI: 10.1021/acsomega.9b02011
   
   for metadynamics refer to:
   * S. Grimme, J. Chem. Theory Comput., 2019, 155, 2847-2862
     DOI: 10.1021/acs.jctc.9b00143
   
   for SPH calculations refer to:
   * S. Spicher and S. Grimme, J. Chem. Theory Comput., 2021, 17, 1701-1714
     DOI: 10.1021/acs.jctc.0c01306
   
   for ONIOM refer to:
   * C. Plett, A. Katbashev, S. Ehlert, S. Grimme, M. Bursch,
     Phys. Chem. Chem. Phys., 2023, 25, 17860-17868. DOI: 10.1039/D3CP02178E
   
   for DIPRO refer to:
   * J. Kohn, N. Gildemeister, S. Grimme, D. Fazzi, A. Hansen,
     J. Chem. Phys., 2023, just accepted.
   
   for PTB refer to:
   * S. Grimme, M. Mueller, A. Hansen, J. Chem. Phys., 2023, 158, 124111.
     DOI: 10.1063/5.0137838
   
   with help from (in alphabetical order)
   P. Atkinson, C. Bannwarth, F. Bohle, G. Brandenburg, E. Caldeweyher
   M. Checinski, S. Dohm, S. Ehlert, S. Ehrlich, I. Gerasimov, C. Hölzer
   A. Katbashev, J. Kohn, J. Koopman, C. Lavigne, S. Lehtola, F. März, M. Müller,
   F. Musil, H. Neugebauer, J. Pisarek, C. Plett, P. Pracht, F. Pultar,
   J. Seibert, P. Shushkov, S. Spicher, M. Stahn, M. Steiner, T. Strunk,
   J. Stückrath, T. Rose, and J. Unsleber
   
 * started run on 2025/09/10 at 11:29:46.910     
   ID    Z sym.   atoms
    1    8 O      1, 6, 14, 18, 21, 24
    2    6 C      2, 4, 8-13, 15, 16, 19, 22, 23
    3    1 H      3, 5, 17, 20, 25-46
    4   14 Si     7

           -------------------------------------------------
          |                Calculation Setup                |
           -------------------------------------------------

          program call               : /home/kmoult/orca_6_1/otool_xtb goat_0_XTB.xyz --grad -c 0 -u 0 -P 4 --namespace goat_0 --input goat_0_XTB.input.tmp --alpb ACETONE --acc 0.200000
          hostname                   : node2704
          calculation namespace      : goat_0
          coordinate file            : goat_0_XTB.xyz
          omp threads                :                     4


           -------------------------------------------------
          |                 G F N 2 - x T B                 |
           -------------------------------------------------

        Reference                      10.1021/acs.jctc.8b01176
      * Hamiltonian:
        H0-scaling (s, p, d)           1.850000    2.230000    2.230000
        zeta-weighting                 0.500000
      * Dispersion:
        s8                             2.700000
        a1                             0.520000
        a2                             5.000000
        s9                             5.000000
      * Repulsion:
        kExp                           1.500000    1.000000
        rExp                           1.000000
      * Coulomb:
        alpha                          2.000000
        third order                    shell-resolved
        anisotropic                    true
        a3                             3.000000
        a5                             4.000000
        cn-shift                       1.200000
        cn-exp                         4.000000
        max-rad                        5.000000

      * Solvation model:               ALPB
        Solvent                        ACETONE
        Parameter file                 internal GFN2-xTB/ALPB
        Dielectric constant                2.0700E+01
        Reference state                gsolv [1 M gas/solution]
        Free energy shift                  5.9241E-03 Eh       3.7175E+00 kcal/mol
        Temperature                        2.9815E+02 K
        Density                            7.9000E-01 kg/L
        Solvent mass                       5.8080E+01 g/mol
        Interaction kernel             P16
        Born radius scaling (c1)           1.8274E+00
        Born radii integrator          GBOBC
        Born offset                        0.0000E+00 a0       0.0000E+00 AA
        H-bond correction              true
        Ion screening                  false
        Surface tension                    1.0000E-05 Eh       1.5569E+01 dyn/cm
        Grid points                               230 per atom
q/qsh data taken from xtbrestart
CAMM data taken from xtbrestart

          ...................................................
          :                      SETUP                      :
          :.................................................:
          :  # basis functions                 112          :
          :  # atomic orbitals                 111          :
          :  # shells                           67          :
          :  # electrons                       118          :
          :  max. iterations                   250          :
          :  Hamiltonian                  GFN2-xTB          :
          :  restarted?                       true          :
          :  GBSA solvation                   true          :
          :  PC potential                    false          :
          :  electronic temp.          300.0000000     K    :
          :  accuracy                    0.2000000          :
          :  -> integral cutoff          0.3198970E+02      :
          :  -> integral neglect         0.2000000E-08      :
          :  -> SCF convergence          0.2000000E-06 Eh   :
          :  -> wf. convergence          0.2000000E-04 e    :
          :  Broyden damping             0.4000000          :
          :  net charge                          0          :
          :  unpaired electrons                  0          :
          ...................................................

 iter      E             dE          RMSdq      gap      omega  full diag
   1    -68.0089355 -0.680089E+02  0.299E-02    5.68       0.0  T
   2    -68.0089359 -0.341718E-06  0.187E-02    5.68       1.0  T
   3    -68.0089356  0.238521E-06  0.366E-03    5.68       4.0  T
   4    -68.0089359 -0.297992E-06  0.287E-03    5.68       5.1  T
   5    -68.0089360 -0.493027E-07  0.143E-03    5.68      10.3  T
   6    -68.0089360 -0.346492E-08  0.413E-04    5.68      35.7  T
   7    -68.0089360 -0.107478E-08  0.146E-04    5.68     100.8  T
   8    -68.0089360 -0.714380E-10  0.609E-05    5.68     242.0  T

   *** convergence criteria satisfied after 8 iterations ***

         #    Occupation            Energy/Eh            Energy/eV
      -------------------------------------------------------------
         1        2.0000           -0.8153389             -22.1865
       ...           ...                  ...                  ...
        53        2.0000           -0.4304159             -11.7122
        54        2.0000           -0.4241748             -11.5424
        55        2.0000           -0.4210336             -11.4569
        56        2.0000           -0.4173411             -11.3564
        57        2.0000           -0.4160720             -11.3219
        58        2.0000           -0.4091800             -11.1344
        59        2.0000           -0.3769035             -10.2561 (HOMO)
        60                         -0.1682561              -4.5785 (LUMO)
        61                         -0.1317518              -3.5851
        62                         -0.0958987              -2.6095
        63                         -0.0491747              -1.3381
        64                         -0.0086799              -0.2362
       ...                                ...                  ...
       111                          0.7900684              21.4989
      -------------------------------------------------------------
                  HL-Gap            0.2086474 Eh            5.6776 eV
             Fermi-level           -0.2725798 Eh           -7.4173 eV

 SCC (total)                   0 d,  0 h,  0 min,  0.027 sec
 SCC setup                      ...        0 min,  0.001 sec (  2.098%)
 Dispersion                     ...        0 min,  0.000 sec (  0.987%)
 classical contributions        ...        0 min,  0.000 sec (  0.144%)
 integral evaluation            ...        0 min,  0.004 sec ( 16.514%)
 iterations                     ...        0 min,  0.013 sec ( 47.203%)
 molecular gradient             ...        0 min,  0.009 sec ( 32.505%)
 printout                       ...        0 min,  0.000 sec (  0.483%)

         :::::::::::::::::::::::::::::::::::::::::::::::::::::
         ::                     SUMMARY                     ::
         :::::::::::::::::::::::::::::::::::::::::::::::::::::
         :: total energy             -67.354733337130 Eh    ::
         :: total w/o Gsasa/hb       -67.327091663448 Eh    ::
         :: gradient norm              0.001333524036 Eh/a0 ::
         :: HOMO-LUMO gap              5.677585411615 eV    ::
         ::.................................................::
         :: SCC energy               -68.008043267280 Eh    ::
         :: -> isotropic ES            0.154426394558 Eh    ::
         :: -> anisotropic ES          0.001044573344 Eh    ::
         :: -> anisotropic XC          0.002322708586 Eh    ::
         :: -> dispersion             -0.044915611648 Eh    ::
         :: -> Gsolv                  -0.030612063652 Eh    ::
         ::    -> Gelec               -0.002970389971 Eh    ::
         ::    -> Gsasa               -0.027908457240 Eh    ::
         ::    -> Ghb                 -0.005657357705 Eh    ::
         ::    -> Gshift               0.005924141264 Eh    ::
         :: repulsion energy           0.653309930151 Eh    ::
         :: add. restraining           0.000000000000 Eh    ::
         :: total charge              -0.000000000000 e     ::
         :::::::::::::::::::::::::::::::::::::::::::::::::::::


Property printout bound to 'properties.out'

           -------------------------------------------------
          | TOTAL ENERGY              -67.354733337130 Eh   |
          | GRADIENT NORM               0.001333524036 Eh/α |
          | HOMO-LUMO GAP               5.677585411615 eV   |
           -------------------------------------------------

------------------------------------------------------------------------
 * finished run on 2025/09/10 at 11:29:46.959     
------------------------------------------------------------------------
 total:
 * wall-time:     0 d,  0 h,  0 min,  0.048 sec
 *  cpu-time:     0 d,  0 h,  0 min,  0.172 sec
 * ratio c/w:     3.597 speedup
 SCF:
 * wall-time:     0 d,  0 h,  0 min,  0.027 sec
 *  cpu-time:     0 d,  0 h,  0 min,  0.108 sec
 * ratio c/w:     3.981 speedup


-------------------------   --------------------
FINAL SINGLE POINT ENERGY       -67.354733337130
-------------------------   --------------------


-------------
DIPOLE MOMENT
-------------
                                X             Y             Z
Total Dipole Moment    :      0.30300       0.76100      -0.35300
                        -----------------------------------------
Magnitude (a.u.)       :      0.89193
Magnitude (Debye)      :      2.26711


------------------
CARTESIAN GRADIENT
------------------

   1   O   :    0.000003119    0.000112130   -0.000117498
   2   C   :    0.000326328   -0.000015537    0.000199911
   3   H   :   -0.000101994    0.000015611   -0.000108371
   4   C   :    0.000026871   -0.000123623   -0.000079479
   5   H   :   -0.000012715    0.000084052    0.000016784
   6   O   :    0.000078861   -0.000015196    0.000214424
   7   Si  :   -0.000360132   -0.000424501   -0.000192150
   8   C   :    0.000035119    0.000293262    0.000003014
   9   C   :    0.000021362   -0.000160718   -0.000037142
  10   C   :   -0.000142190   -0.000115207   -0.000032961
  11   C   :   -0.000002269    0.000182716   -0.000015435
  12   C   :    0.000140041    0.000033469    0.000069896
  13   C   :   -0.000053495    0.000004126    0.000107302
  14   O   :    0.000326556   -0.000043241    0.000283243
  15   C   :   -0.000204434    0.000116079   -0.000009836
  16   C   :    0.000002509   -0.000214597   -0.000019795
  17   H   :   -0.000030022    0.000114141   -0.000060434
  18   O   :   -0.000094116    0.000095726    0.000010547
  19   C   :   -0.000152468    0.000101854   -0.000292977
  20   H   :    0.000013989   -0.000054681    0.000059559
  21   O   :    0.000032190    0.000104752   -0.000032410
  22   C   :    0.000003536    0.000020354   -0.000058937
  23   C   :    0.000192587    0.000236507    0.000432498
  24   O   :   -0.000090491   -0.000103939   -0.000152812
  25   H   :   -0.000057250   -0.000086255    0.000097702
  26   H   :   -0.000062301   -0.000003192    0.000057697
  27   H   :    0.000025736    0.000055600   -0.000028171
  28   H   :    0.000013507    0.000013511    0.000054990
  29   H   :   -0.000000845   -0.000015297   -0.000000723
  30   H   :    0.000075793    0.000011918   -0.000034562
  31   H   :    0.000014079   -0.000013234   -0.000014948
  32   H   :   -0.000025532    0.000004967    0.000047014
  33   H   :   -0.000026296   -0.000019398   -0.000083627
  34   H   :   -0.000037716   -0.000036246   -0.000039498
  35   H   :    0.000024472   -0.000024508   -0.000094682
  36   H   :    0.000000360    0.000003754    0.000020035
  37   H   :   -0.000012281   -0.000064583   -0.000019423
  38   H   :    0.000023022   -0.000024744    0.000016261
  39   H   :   -0.000007514    0.000027613   -0.000045082
  40   H   :    0.000044446   -0.000020433   -0.000069571
  41   H   :    0.000022401    0.000047356   -0.000053455
  42   H   :    0.000077497    0.000010030    0.000011797
  43   H   :   -0.000053045   -0.000006290    0.000040584
  44   H   :   -0.000036622   -0.000036089   -0.000017809
  45   H   :   -0.000044058   -0.000082421   -0.000109872
  46   H   :    0.000083403    0.000014401    0.000078401

Difference to translation invariance:
           :   -0.0000000000    0.0000000000   -0.0000000000

Difference to rotation invariance:
           :    0.0006272206   -0.0001744433    0.0002626032

Norm of the Cartesian gradient     ...    0.0013335240
RMS gradient                       ...    0.0001135171
MAX gradient                       ...    0.0004324982
------------------------------------------------------------------------------
                         ORCA GEOMETRY RELAXATION STEP
------------------------------------------------------------------------------

Reading the OPT-File                    .... done
Getting information on internals        .... done
Copying old internal coords+grads       .... done
Making the new internal coordinates     .... (2022 redundants) done
Validating the new internal coordinates .... (2022 redundants) done
Calculating the B-matrix                .... done
Calculating the G,G- and P matrices     .... done
Transforming gradient to internals      .... done
Projecting the internal gradient        .... done
Number of atoms                         ....  46
Number of internal coordinates          .... 235
Current Energy                          ....   -67.354733337 Eh
Current gradient norm                   ....     0.001333524 Eh/bohr
Maximum allowed component of the step   ....  0.300
Current trust radius                    ....  0.450
Updating the Hessian (BFGS)             .... done
Forming the augmented Hessian           .... done
Diagonalizing the augmented Hessian     .... done
Last element of RFO vector              ....  0.998915880
Lowest eigenvalues of augmented Hessian:
 -0.000013731  0.002322082  0.007118032  0.010112917  0.010715565
Length of the computed step             ....  0.046602254
The final length of the internal step   ....  0.046602254
Converting the step to Cartesian space:
 Initial RMS(Int)=    0.0030399959
Transforming coordinates:
 Iter   0:  RMS(Cart)=    0.0148971495 RMS(Int)=    0.0030426267
done
Storing new coordinates                 .... done
The predicted energy change is          ....    -0.000006880
Previously predicted energy change      ....    -0.000019088
Actually observed energy change         ....    -0.000024270
Ratio of predicted to observed change   ....     1.271488836
New trust radius                        ....     0.450000000

                                .--------------------.
          ----------------------|Geometry convergence|-------------------------
          Item                value                   Tolerance       Converged
          ---------------------------------------------------------------------
          Energy change      -0.0000242696            0.0000050000      NO
          RMS gradient        0.0000692511            0.0001000000      YES
          MAX gradient        0.0002743621            0.0003000000      YES
          RMS step            0.0030399959            0.0020000000      NO
          MAX step            0.0150454631            0.0040000000      NO
          -------------------------------------------------------------------------
          ........................................................
          Max(Bonds)      0.0034      Max(Angles)    0.20
          Max(Dihed)        0.86      Max(Improp)    0.00
          ---------------------------------------------------------------------

    ---------------------------------------------------------------------------
                         Redundant Internal Coordinates
                            (Angstroem and degrees)

        Definition                    Value    dE/dq     Step     New-Value
    ----------------------------------------------------------------------------
     1. B(C   1,O   0)                1.4067  0.000094  0.0000    1.4068   
     2. B(H   2,C   1)                1.1027  0.000030 -0.0001    1.1025   
     3. B(C   3,C   1)                1.5298 -0.000208  0.0001    1.5299   
     4. B(H   4,C   3)                1.0999  0.000022 -0.0000    1.0999   
     5. B(O   5,C   3)                1.4001 -0.000189 -0.0002    1.3998   
     6. B(Si  6,O   5)                1.6485 -0.000078  0.0004    1.6489   
     7. B(C   7,Si  6)                1.9111  0.000056 -0.0004    1.9108   
     8. B(C   8,C   7)                1.5289 -0.000115 -0.0002    1.5287   
     9. B(C   9,C   7)                1.5307 -0.000059 -0.0000    1.5307   
    10. B(C  10,Si  6)                1.9226  0.000095 -0.0001    1.9226   
    11. B(C  11,C  10)                1.5294 -0.000095 -0.0001    1.5292   
    12. B(C  12,C  10)                1.5311 -0.000084 -0.0002    1.5310   
    13. B(O  13,Si  6)                1.6464  0.000138  0.0003    1.6467   
    14. B(C  14,O  13)                1.3972 -0.000162 -0.0001    1.3971   
    15. B(C  15,C   3)                1.5320 -0.000138 -0.0002    1.5318   
    16. B(C  15,C  14)                1.5341 -0.000056 -0.0002    1.5338   
    17. B(H  16,C  15)                1.0964  0.000004  0.0000    1.0965   
    18. B(O  17,C  15)                1.4088 -0.000161  0.0001    1.4089   
    19. B(C  18,O  17)                1.4194 -0.000036 -0.0003    1.4191   
    20. B(H  19,C  18)                1.1084 -0.000028  0.0003    1.1087   
    21. B(O  20,C  18)                1.3813 -0.000107  0.0001    1.3813   
    22. B(C  21,O  20)                1.4201 -0.000010 -0.0003    1.4198   
    23. B(C  22,C  18)                1.5361 -0.000274  0.0000    1.5361   
    24. B(C  22,C   1)                1.5347 -0.000100  0.0000    1.5347   
    25. B(O  23,C  22)                1.4024  0.000132  0.0001    1.4026   
    26. B(H  24,O   0)                0.9670 -0.000099  0.0000    0.9671   
    27. B(H  24,O   5)                2.3689 -0.000030 -0.0016    2.3672   
    28. B(H  25,C   7)                1.0931 -0.000071  0.0000    1.0932   
    29. B(H  26,C   8)                1.0864 -0.000064  0.0000    1.0864   
    30. B(H  27,C   8)                1.0855 -0.000050 -0.0000    1.0855   
    31. B(H  28,C   8)                1.0891 -0.000014  0.0000    1.0892   
    32. B(H  29,C   9)                1.0879 -0.000074  0.0000    1.0879   
    33. B(H  30,C   9)                1.0890 -0.000014  0.0000    1.0891   
    34. B(H  31,C   9)                1.0864 -0.000030 -0.0000    1.0864   
    35. B(H  32,C  10)                1.0984  0.000055  0.0001    1.0985   
    36. B(H  33,C  11)                1.0869 -0.000055  0.0000    1.0869   
    37. B(H  34,C  11)                1.0862 -0.000061  0.0000    1.0862   
    38. B(H  35,C  11)                1.0888 -0.000019  0.0000    1.0889   
    39. B(H  36,C  12)                1.0870 -0.000071  0.0000    1.0870   
    40. B(H  37,C  12)                1.0887 -0.000017 -0.0000    1.0887   
    41. B(H  38,C  12)                1.0864 -0.000034 -0.0000    1.0864   
    42. B(H  39,C  14)                1.0947  0.000022  0.0001    1.0948   
    43. B(H  40,C  14)                1.0950  0.000015  0.0001    1.0951   
    44. B(H  41,C  21)                1.0871 -0.000026  0.0000    1.0872   
    45. B(H  42,C  21)                1.0921 -0.000008  0.0000    1.0921   
    46. B(H  43,C  21)                1.0953  0.000002  0.0001    1.0953   
    47. B(H  44,C  22)                1.0996 -0.000042 -0.0001    1.0995   
    48. B(H  45,O   0)                2.5365 -0.000030  0.0034    2.5399   
    49. B(H  45,O  23)                0.9674 -0.000105 -0.0000    0.9674   
    50. A(C   1,O   0,H  24)          107.86  0.000115   -0.10    107.76   
    51. A(H   2,C   1,C   3)          109.06  0.000044    0.02    109.07   
    52. A(O   0,C   1,C   3)          111.11  0.000004   -0.01    111.09   
    53. A(H   2,C   1,C  22)          108.85  0.000028    0.01    108.86   
    54. A(O   0,C   1,H   2)          109.31 -0.000043    0.02    109.33   
    55. A(O   0,C   1,C  22)          107.77 -0.000014    0.01    107.77   
    56. A(C   3,C   1,C  22)          110.70 -0.000019   -0.03    110.67   
    57. A(O   5,C   3,C  15)          113.44  0.000036   -0.00    113.44   
    58. A(C   1,C   3,H   4)          107.87  0.000027    0.02    107.89   
    59. A(H   4,C   3,C  15)          108.29 -0.000023    0.06    108.35   
    60. A(H   4,C   3,O   5)          106.77  0.000004   -0.02    106.75   
    61. A(C   1,C   3,C  15)          110.38  0.000029   -0.06    110.32   
    62. A(C   1,C   3,O   5)          109.87 -0.000072    0.00    109.88   
    63. A(C   3,O   5,Si  6)          123.62 -0.000060   -0.01    123.61   
    64. A(C  10,Si  6,O  13)          108.22 -0.000083   -0.04    108.19   
    65. A(O   5,Si  6,C   7)          107.83 -0.000232    0.11    107.93   
    66. A(C   7,Si  6,O  13)          107.33 -0.000020    0.04    107.36   
    67. A(O   5,Si  6,O  13)          107.79  0.000070    0.05    107.84   
    68. A(O   5,Si  6,C  10)          110.39  0.000273   -0.20    110.19   
    69. A(C   7,Si  6,C  10)          115.03 -0.000008    0.04    115.07   
    70. A(C   8,C   7,H  25)          107.60 -0.000026    0.03    107.62   
    71. A(Si  6,C   7,C   8)          111.69  0.000023    0.03    111.71   
    72. A(Si  6,C   7,H  25)          107.85  0.000060   -0.06    107.79   
    73. A(C   8,C   7,C   9)          109.64  0.000050    0.01    109.65   
    74. A(Si  6,C   7,C   9)          112.29 -0.000136   -0.02    112.28   
    75. A(C   9,C   7,H  25)          107.57  0.000034    0.01    107.58   
    76. A(H  27,C   8,H  28)          108.43 -0.000010   -0.00    108.43   
    77. A(C   7,C   8,H  28)          110.35 -0.000024    0.00    110.35   
    78. A(C   7,C   8,H  27)          111.03  0.000033    0.02    111.06   
    79. A(C   7,C   8,H  26)          110.27  0.000036   -0.01    110.26   
    80. A(H  26,C   8,H  27)          108.19 -0.000020   -0.01    108.18   
    81. A(H  26,C   8,H  28)          108.50 -0.000017   -0.01    108.49   
    82. A(H  30,C   9,H  31)          108.65 -0.000018   -0.01    108.64   
    83. A(C   7,C   9,H  31)          110.61  0.000042    0.01    110.62   
    84. A(C   7,C   9,H  30)          110.33 -0.000012    0.02    110.36   
    85. A(C   7,C   9,H  29)          110.34  0.000040   -0.01    110.34   
    86. A(H  29,C   9,H  31)          108.56 -0.000053    0.00    108.56   
    87. A(H  29,C   9,H  30)          108.28 -0.000002   -0.02    108.26   
    88. A(Si  6,C  10,C  12)          110.87 -0.000110    0.05    110.92   
    89. A(Si  6,C  10,H  32)          108.27  0.000034   -0.09    108.18   
    90. A(Si  6,C  10,C  11)          113.85  0.000153   -0.01    113.84   
    91. A(C  11,C  10,C  12)          109.38 -0.000033    0.02    109.40   
    92. A(C  12,C  10,H  32)          107.08 -0.000005    0.01    107.09   
    93. A(C  11,C  10,H  32)          107.09 -0.000045    0.02    107.11   
    94. A(C  10,C  11,H  35)          110.42 -0.000022    0.01    110.43   
    95. A(H  34,C  11,H  35)          108.56 -0.000029    0.00    108.56   
    96. A(H  33,C  11,H  35)          108.09 -0.000025   -0.01    108.07   
    97. A(H  33,C  11,H  34)          108.44  0.000000   -0.00    108.44   
    98. A(C  10,C  11,H  34)          111.12  0.000015    0.00    111.13   
    99. A(C  10,C  11,H  33)          110.13  0.000058   -0.00    110.13   
   100. A(H  36,C  12,H  38)          108.09 -0.000000   -0.02    108.07   
   101. A(C  10,C  12,H  38)          110.86  0.000042    0.01    110.86   
   102. A(H  36,C  12,H  37)          108.32 -0.000001   -0.01    108.31   
   103. A(C  10,C  12,H  37)          110.53 -0.000005    0.00    110.54   
   104. A(C  10,C  12,H  36)          110.23  0.000018   -0.00    110.23   
   105. A(H  37,C  12,H  38)          108.74 -0.000056    0.02    108.75   
   106. A(Si  6,O  13,C  14)          120.61 -0.000153    0.19    120.80   
   107. A(O  13,C  14,C  15)          110.81 -0.000018    0.09    110.89   
   108. A(H  39,C  14,H  40)          108.60 -0.000035    0.00    108.60   
   109. A(O  13,C  14,H  40)          109.87 -0.000026   -0.04    109.83   
   110. A(C  15,C  14,H  39)          109.05  0.000019   -0.02    109.03   
   111. A(O  13,C  14,H  39)          107.63 -0.000047   -0.03    107.60   
   112. A(C  15,C  14,H  40)          110.81  0.000102   -0.02    110.79   
   113. A(H  16,C  15,O  17)          104.88  0.000046   -0.02    104.86   
   114. A(C  14,C  15,O  17)          113.28 -0.000016    0.00    113.28   
   115. A(C   3,C  15,O  17)          110.42 -0.000028   -0.05    110.37   
   116. A(C  14,C  15,H  16)          106.99 -0.000056    0.04    107.02   
   117. A(C   3,C  15,H  16)          108.36 -0.000039    0.03    108.39   
   118. A(C   3,C  15,C  14)          112.45  0.000088    0.01    112.47   
   119. A(C  15,O  17,C  18)          116.69 -0.000031    0.05    116.74   
   120. A(O  20,C  18,C  22)          107.42  0.000009   -0.02    107.40   
   121. A(H  19,C  18,C  22)          108.56  0.000077   -0.01    108.56   
   122. A(O  17,C  18,C  22)          113.03 -0.000022    0.07    113.10   
   123. A(H  19,C  18,O  20)          110.47 -0.000044   -0.05    110.42   
   124. A(O  17,C  18,O  20)          107.51 -0.000051   -0.01    107.50   
   125. A(O  17,C  18,H  19)          109.81  0.000026    0.02    109.84   
   126. A(C  18,O  20,C  21)          114.45 -0.000103    0.03    114.48   
   127. A(H  42,C  21,H  43)          109.66  0.000066    0.00    109.66   
   128. A(H  41,C  21,H  43)          109.98 -0.000035   -0.02    109.96   
   129. A(O  20,C  21,H  43)          110.47 -0.000020    0.02    110.48   
   130. A(H  41,C  21,H  42)          110.17 -0.000059   -0.01    110.16   
   131. A(O  20,C  21,H  42)          110.83 -0.000052    0.02    110.85   
   132. A(O  20,C  21,H  41)          105.68  0.000099   -0.00    105.67   
   133. A(O  23,C  22,H  44)          110.86 -0.000182    0.01    110.88   
   134. A(C  18,C  22,H  44)          107.68  0.000104   -0.01    107.68   
   135. A(C  18,C  22,O  23)          107.16 -0.000027   -0.04    107.12   
   136. A(C   1,C  22,H  44)          108.78  0.000096   -0.02    108.76   
   137. A(C   1,C  22,O  23)          110.67 -0.000004    0.03    110.71   
   138. A(C   1,C  22,C  18)          111.65  0.000010    0.02    111.67   
   139. A(C  22,O  23,H  45)          107.69 -0.000063   -0.04    107.65   
   140. D(C   3,C   1,O   0,H  24)     40.46 -0.000038    0.62     41.08   
   141. D(C  22,C   1,O   0,H  24)    161.89 -0.000069    0.58    162.47   
   142. D(H   2,C   1,O   0,H  24)    -79.95 -0.000067    0.60    -79.35   
   143. D(H   4,C   3,C   1,H   2)    175.70 -0.000073    0.17    175.87   
   144. D(H   4,C   3,C   1,C  22)    -64.56 -0.000023    0.16    -64.40   
   145. D(O   5,C   3,C   1,O   0)    -60.89 -0.000031    0.15    -60.74   
   146. D(O   5,C   3,C   1,C  22)    179.41 -0.000004    0.17    179.58   
   147. D(O   5,C   3,C   1,H   2)     59.67 -0.000054    0.18     59.84   
   148. D(H   4,C   3,C   1,O   0)     55.14 -0.000050    0.14     55.29   
   149. D(Si  6,O   5,C   3,C  15)     29.40 -0.000030   -0.07     29.33   
   150. D(Si  6,O   5,C   3,C   1)    -94.67 -0.000038    0.01    -94.67   
   151. D(Si  6,O   5,C   3,H   4)    148.61 -0.000035   -0.01    148.60   
   152. D(O  13,Si  6,O   5,C   3)    -13.16 -0.000119    0.55    -12.61   
   153. D(C  10,Si  6,O   5,C   3)    104.84 -0.000025    0.43    105.27   
   154. D(C   7,Si  6,O   5,C   3)   -128.74 -0.000013    0.42   -128.32   
   155. D(C   9,C   7,Si  6,O  13)    -35.31 -0.000038   -0.16    -35.47   
   156. D(C   8,C   7,Si  6,O   5)    -43.06 -0.000065   -0.04    -43.11   
   157. D(C   8,C   7,Si  6,O  13)   -158.94 -0.000020   -0.19   -159.13   
   158. D(C   8,C   7,Si  6,C  10)     80.58  0.000106   -0.19     80.39   
   159. D(C   9,C   7,Si  6,O   5)     80.57 -0.000084   -0.02     80.55   
   160. D(C   9,C   7,Si  6,C  10)   -155.79  0.000087   -0.16   -155.95   
   161. D(H  26,C   8,C   7,C   9)    -64.58  0.000066   -0.03    -64.61   
   162. D(H  27,C   8,C   7,C   9)    175.52  0.000046   -0.03    175.49   
   163. D(H  27,C   8,C   7,Si  6)    -59.35 -0.000076   -0.02    -59.37   
   164. D(H  26,C   8,C   7,H  25)    178.72  0.000013   -0.06    178.66   
   165. D(H  27,C   8,C   7,H  25)     58.82 -0.000006   -0.06     58.76   
   166. D(H  26,C   8,C   7,Si  6)     60.54 -0.000056   -0.02     60.53   
   167. D(H  30,C   9,C   7,Si  6)    176.79  0.000005   -0.05    176.73   
   168. D(H  29,C   9,C   7,H  25)    177.89  0.000005    0.02    177.91   
   169. D(H  29,C   9,C   7,C   8)     61.17 -0.000010   -0.03     61.14   
   170. D(H  29,C   9,C   7,Si  6)    -63.60  0.000020   -0.06    -63.66   
   171. D(H  30,C   9,C   7,H  25)     58.28 -0.000011    0.02     58.31   
   172. D(H  30,C   9,C   7,C   8)    -58.44 -0.000026   -0.02    -58.46   
   173. D(C  12,C  10,Si  6,C   7)     67.83  0.000030   -0.06     67.76   
   174. D(C  12,C  10,Si  6,O   5)   -169.90 -0.000069   -0.04   -169.94   
   175. D(C  11,C  10,Si  6,O  13)   -176.00  0.000135   -0.16   -176.16   
   176. D(C  11,C  10,Si  6,C   7)    -56.02  0.000044   -0.11    -56.13   
   177. D(C  12,C  10,Si  6,O  13)    -52.16  0.000121   -0.11    -52.26   
   178. D(C  11,C  10,Si  6,O   5)     66.25 -0.000055   -0.09     66.17   
   179. D(H  34,C  11,C  10,C  12)   -178.64 -0.000040    0.14   -178.50   
   180. D(H  34,C  11,C  10,Si  6)    -53.99 -0.000097    0.20    -53.78   
   181. D(H  33,C  11,C  10,H  32)   -174.17  0.000055    0.10   -174.07   
   182. D(H  33,C  11,C  10,C  12)    -58.46  0.000008    0.13    -58.32   
   183. D(H  33,C  11,C  10,Si  6)     66.19 -0.000049    0.20     66.40   
   184. D(H  34,C  11,C  10,H  32)     65.65  0.000007    0.11     65.75   
   185. D(H  37,C  12,C  10,H  32)     56.72 -0.000023    0.16     56.88   
   186. D(H  37,C  12,C  10,C  11)    -59.00  0.000050    0.12    -58.88   
   187. D(H  37,C  12,C  10,Si  6)    174.64 -0.000045    0.09    174.72   
   188. D(H  36,C  12,C  10,H  32)    176.44 -0.000015    0.15    176.59   
   189. D(H  36,C  12,C  10,C  11)     60.72  0.000057    0.11     60.83   
   190. D(H  36,C  12,C  10,Si  6)    -65.65 -0.000038    0.08    -65.57   
   191. D(C  14,O  13,Si  6,C  10)    -96.72 -0.000108   -0.64    -97.36   
   192. D(C  14,O  13,Si  6,C   7)    138.58 -0.000035   -0.69    137.89   
   193. D(C  14,O  13,Si  6,O   5)     22.68  0.000210   -0.86     21.81   
   194. D(H  40,C  14,O  13,Si  6)     75.51 -0.000022    0.72     76.23   
   195. D(H  39,C  14,O  13,Si  6)   -166.41 -0.000105    0.70   -165.72   
   196. D(C  15,C  14,O  13,Si  6)    -47.27 -0.000121    0.71    -46.56   
   197. D(H  16,C  15,C   3,H   4)    -53.11  0.000002   -0.15    -53.26   
   198. D(H  16,C  15,C   3,C   1)   -170.98 -0.000034   -0.18   -171.16   
   199. D(C  14,C  15,C   3,O   5)    -52.83  0.000056   -0.20    -53.04   
   200. D(C  14,C  15,C   3,H   4)   -171.16  0.000045   -0.22   -171.38   
   201. D(H  16,C  15,C   3,O   5)     65.21  0.000013   -0.13     65.08   
   202. D(C  14,C  15,C   3,C   1)     70.97  0.000009   -0.25     70.72   
   203. D(H  16,C  15,C  14,H  40)   -178.95  0.000060   -0.22   -179.17   
   204. D(H  16,C  15,C  14,H  39)     61.57  0.000028   -0.20     61.36   
   205. D(H  16,C  15,C  14,O  13)    -56.72  0.000085   -0.21    -56.93   
   206. D(C   3,C  15,C  14,H  40)    -60.10  0.000027   -0.15    -60.25   
   207. D(C   3,C  15,C  14,H  39)   -179.58 -0.000005   -0.14   -179.72   
   208. D(C   3,C  15,C  14,O  13)     62.13  0.000052   -0.15     61.98   
   209. D(C  18,O  17,C  15,H  16)    173.82 -0.000003   -0.00    173.82   
   210. D(C  18,O  17,C  15,C  14)    -69.86 -0.000051    0.03    -69.83   
   211. D(C  18,O  17,C  15,C   3)     57.29  0.000032    0.00     57.29   
   212. D(C  22,C  18,O  17,C  15)    -52.68 -0.000086    0.22    -52.46   
   213. D(O  20,C  18,O  17,C  15)   -171.05 -0.000051    0.21   -170.85   
   214. D(H  19,C  18,O  17,C  15)     68.72  0.000017    0.27     68.98   
   215. D(C  21,O  20,C  18,C  22)    166.96  0.000036    0.11    167.07   
   216. D(C  21,O  20,C  18,H  19)     48.71 -0.000038    0.16     48.87   
   217. D(C  21,O  20,C  18,O  17)    -71.10 -0.000013    0.17    -70.93   
   218. D(H  43,C  21,O  20,C  18)    -59.91 -0.000017    0.02    -59.89   
   219. D(H  42,C  21,O  20,C  18)     61.84  0.000018    0.05     61.88   
   220. D(H  41,C  21,O  20,C  18)   -178.83 -0.000022    0.04   -178.79   
   221. D(O  23,C  22,C  18,O  20)    -73.45 -0.000025   -0.19    -73.65   
   222. D(O  23,C  22,C  18,H  19)     46.02 -0.000029   -0.27     45.75   
   223. D(C   1,C  22,C  18,O  20)    165.21 -0.000008   -0.22    164.99   
   224. D(C   1,C  22,C  18,H  19)    -75.32 -0.000013   -0.29    -75.61   
   225. D(C   1,C  22,C  18,O  17)     46.77  0.000061   -0.23     46.55   
   226. D(O  23,C  22,C   1,C   3)   -167.84  0.000011    0.03   -167.81   
   227. D(O  23,C  22,C   1,H   2)    -47.98  0.000071    0.03    -47.95   
   228. D(O  23,C  22,C   1,O   0)     70.47  0.000027    0.06     70.53   
   229. D(O  23,C  22,C  18,O  17)    168.11  0.000045   -0.20    167.91   
   230. D(C  18,C  22,C   1,C   3)    -48.56 -0.000019    0.01    -48.55   
   231. D(C  18,C  22,C   1,H   2)     71.30  0.000040    0.01     71.31   
   232. D(C  18,C  22,C   1,O   0)   -170.25 -0.000004    0.04   -170.21   
   233. D(H  45,O  23,C  22,H  44)     61.41 -0.000015   -0.32     61.09   
   234. D(H  45,O  23,C  22,C  18)    178.65 -0.000004   -0.34    178.32   
   235. D(H  45,O  23,C  22,C   1)    -59.39 -0.000012   -0.32    -59.71   
    ----------------------------------------------------------------------------

Geometry step timings:
Preparation and reading OPT file:      0.001 s ( 4.751 %)
Internal coordinates            :      0.000 s ( 0.160 %)
B/P matrices and projection     :      0.004 s (22.397 %)
Hessian update/contruction      :      0.009 s (43.353 %)
Making the step                 :      0.003 s (14.640 %)
Converting the step to Cartesian:      0.000 s ( 1.929 %)
Storing new data                :      0.001 s ( 4.227 %)
Checking convergence            :      0.000 s ( 0.155 %)
Final printing                  :      0.002 s ( 8.384 %)
Total time                      :      0.020 s

Time for energy+gradient        :      0.072 s
Time for complete geometry iter :      0.103 s

         *************************************************************
         *                GEOMETRY OPTIMIZATION CYCLE  10            *
         *************************************************************
---------------------------------
CARTESIAN COORDINATES (ANGSTROEM)
---------------------------------
  O    -3.783874   -0.080627   -0.414090
  C    -2.476174   -0.483331   -0.087445
  H    -1.847673   -0.451560   -0.992754
  C    -1.867464    0.432573    0.976166
  H    -2.547171    0.444595    1.840799
  O    -1.804393    1.745309    0.494228
  Si   -0.468838    2.389198   -0.227237
  C    -0.065235    4.039384    0.647424
  C    -1.325448    4.864722    0.907267
  C     0.692719    3.829828    1.960692
  C    -0.737876    2.518523   -2.126489
  C    -1.827006    3.513193   -2.530246
  C     0.568113    2.876921   -2.840497
  O     0.793409    1.367307    0.044679
  C     0.571089    0.024174    0.358447
  C    -0.512067   -0.113628    1.435722
  H    -0.179448    0.470540    2.301944
  O    -0.652173   -1.429359    1.919574
  C    -1.207916   -2.382211    1.026772
  H    -0.495552   -2.585016    0.201801
  O    -1.450821   -3.534971    1.748046
  C    -0.283112   -4.243317    2.136001
  C    -2.544266   -1.930583    0.418736
  O    -2.837570   -2.810589   -0.633267
  H    -3.791662    0.885227   -0.462281
  H     0.579802    4.620416   -0.016914
  H    -2.010103    4.314857    1.546936
  H    -1.839525    5.094260   -0.020766
  H    -1.069576    5.801774    1.399974
  H     0.074497    3.285426    2.671300
  H     0.956760    4.789334    2.403029
  H     1.604019    3.263543    1.790211
  H    -1.047960    1.531917   -2.496706
  H    -1.520787    4.525432   -2.279460
  H    -2.761085    3.300128   -2.018385
  H    -2.002422    3.469547   -3.604004
  H     0.890731    3.875002   -2.555202
  H     0.430814    2.857402   -3.920346
  H     1.357686    2.179151   -2.576143
  H     1.510677   -0.386077    0.742319
  H     0.292586   -0.527404   -0.545663
  H    -0.636497   -5.123357    2.667622
  H     0.341753   -3.633160    2.791765
  H     0.292721   -4.545146    1.254497
  H    -3.308109   -1.993926    1.207026
  H    -3.691626   -2.549170   -1.004821

----------------------------
CARTESIAN COORDINATES (A.U.)
----------------------------
  NO LB    ZA    FRAG    MASS        X           Y           Z
   0 O   8.0000    1    15.999   -7.150486   -0.152363   -0.782518
   1 C   6.0000    1    12.011   -4.679290   -0.913363   -0.165247
   2 H   1.0000    1     1.008   -3.491597   -0.853324   -1.876034
   3 C   6.0000    1    12.011   -3.528995    0.817445    1.844687
   4 H   1.0000    1     1.008   -4.813455    0.840163    3.478607
   5 O   8.0000    1    15.999   -3.409809    3.298156    0.933955
   6 Si 14.0000    1    28.086   -0.885975    4.514929   -0.429415
   7 C   6.0000    1    12.011   -0.123276    7.633330    1.223454
   8 C   6.0000    1    12.011   -2.504733    9.192992    1.714486
   9 C   6.0000    1    12.011    1.309050    7.237325    3.705171
  10 C   6.0000    1    12.011   -1.394384    4.759320   -4.018481
  11 C   6.0000    1    12.011   -3.452541    6.638972   -4.781471
  12 C   6.0000    1    12.011    1.073578    5.436594   -5.367762
  13 O   8.0000    1    15.999    1.499327    2.583835    0.084432
  14 C   6.0000    1    12.011    1.079201    0.045682    0.677366
  15 C   6.0000    1    12.011   -0.967667   -0.214725    2.713121
  16 H   1.0000    1     1.008   -0.339108    0.889192    4.350044
  17 O   8.0000    1    15.999   -1.232428   -2.701096    3.627469
  18 C   6.0000    1    12.011   -2.282630   -4.501727    1.940317
  19 H   1.0000    1     1.008   -0.936458   -4.884972    0.381349
  20 O   8.0000    1    15.999   -2.741655   -6.680127    3.303328
  21 C   6.0000    1    12.011   -0.535003   -8.018708    4.036457
  22 C   6.0000    1    12.011   -4.807966   -3.648273    0.791296
  23 O   8.0000    1    15.999   -5.362231   -5.311243   -1.196701
  24 H   1.0000    1     1.008   -7.165202    1.672836   -0.873584
  25 H   1.0000    1     1.008    1.095668    8.731320   -0.031962
  26 H   1.0000    1     1.008   -3.798545    8.153898    2.923285
  27 H   1.0000    1     1.008   -3.476199    9.626756   -0.039242
  28 H   1.0000    1     1.008   -2.021205   10.963765    2.645567
  29 H   1.0000    1     1.008    0.140779    6.208556    5.048025
  30 H   1.0000    1     1.008    1.808015    9.050529    4.541067
  31 H   1.0000    1     1.008    3.031157    6.167203    3.383008
  32 H   1.0000    1     1.008   -1.980357    2.894904   -4.718091
  33 H   1.0000    1     1.008   -2.873870    8.551828   -4.307555
  34 H   1.0000    1     1.008   -5.217694    6.236337   -3.814194
  35 H   1.0000    1     1.008   -3.784029    6.556494   -6.810580
  36 H   1.0000    1     1.008    1.683237    7.322693   -4.828633
  37 H   1.0000    1     1.008    0.814120    5.399706   -7.408380
  38 H   1.0000    1     1.008    2.565654    4.117999   -4.868205
  39 H   1.0000    1     1.008    2.854766   -0.729579    1.402779
  40 H   1.0000    1     1.008    0.552908   -0.996648   -1.031153
  41 H   1.0000    1     1.008   -1.202804   -9.681742    5.041074
  42 H   1.0000    1     1.008    0.645820   -6.865677    5.275671
  43 H   1.0000    1     1.008    0.553163   -8.589082    2.370655
  44 H   1.0000    1     1.008   -6.251420   -3.767973    2.280949
  45 H   1.0000    1     1.008   -6.976162   -4.817233   -1.898837

      -----------------------------------------------------------      
     |                   =====================                   |     
     |                           x T B                           |     
     |                   =====================                   |     
     |                         S. Grimme                         |     
     |          Mulliken Center for Theoretical Chemistry        |     
     |                    University of Bonn                     |     
      -----------------------------------------------------------      

   * xtb version 6.7.1 (edcfbbe) compiled by 'albert@albert-system' on 2024-07-22

   xtb is free software: you can redistribute it and/or modify it under
   the terms of the GNU Lesser General Public License as published by
   the Free Software Foundation, either version 3 of the License, or
   (at your option) any later version.
   
   xtb is distributed in the hope that it will be useful,
   but WITHOUT ANY WARRANTY; without even the implied warranty of
   MERCHANTABILITY or FITNESS FOR A PARTICULAR PURPOSE.  See the
   GNU Lesser General Public License for more details.
   
   Cite this work as:
   * C. Bannwarth, E. Caldeweyher, S. Ehlert, A. Hansen, P. Pracht,
     J. Seibert, S. Spicher, S. Grimme, WIREs Comput. Mol. Sci., 2020, 11,
     e01493. DOI: 10.1002/wcms.1493
   
   for GFN2-xTB:
   * C. Bannwarth, S. Ehlert and S. Grimme., J. Chem. Theory Comput., 2019,
     15, 1652-1671. DOI: 10.1021/acs.jctc.8b01176
   for GFN1-xTB:
   * S. Grimme, C. Bannwarth, P. Shushkov, J. Chem. Theory Comput., 2017,
     13, 1989-2009. DOI: 10.1021/acs.jctc.7b00118
   for GFN0-xTB:
   * P. Pracht, E. Caldeweyher, S. Ehlert, S. Grimme, ChemRxiv, 2019, preprint.
     DOI: 10.26434/chemrxiv.8326202.v1
   for GFN-FF:
   * S. Spicher and S. Grimme, Angew. Chem. Int. Ed., 2020, 59, 15665-15673.
     DOI: 10.1002/anie.202004239
   
   for ALPB and GBSA implicit solvation:
   * S. Ehlert, M. Stahn, S. Spicher, S. Grimme, J. Chem. Theory Comput.,
     2021, 17, 4250-4261. DOI: 10.1021/acs.jctc.1c00471
   
   for ddCOSMO and CPCM-X implicit solvation:
   * M. Stahn, S. Ehlert, S. Grimme, J. Phys. Chem. A,
     2023, XX, XXXX-XXXX. DOI: 10.1021/acs.jpca.3c04382
   
   for DFT-D4:
   * E. Caldeweyher, C. Bannwarth and S. Grimme, J. Chem. Phys., 2017,
     147, 034112. DOI: 10.1063/1.4993215
   * E. Caldeweyher, S. Ehlert, A. Hansen, H. Neugebauer, S. Spicher,
     C. Bannwarth and S. Grimme, J. Chem. Phys., 2019, 150, 154122.
     DOI: 10.1063/1.5090222
   * E. Caldeweyher, J.-M. Mewes, S. Ehlert and S. Grimme, Phys. Chem. Chem. Phys.
     2020, 22, 8499-8512. DOI: 10.1039/D0CP00502A
   
   for sTDA-xTB:
   * S. Grimme and C. Bannwarth, J. Chem. Phys., 2016, 145, 054103.
     DOI: 10.1063/1.4959605
   
   in the mass-spec context:
   * V. Asgeirsson, C. Bauer and S. Grimme, Chem. Sci., 2017, 8, 4879.
     DOI: 10.1039/c7sc00601b
   * J. Koopman and S. Grimme, ACS Omega 2019, 4, 12, 15120-15133.
     DOI: 10.1021/acsomega.9b02011
   
   for metadynamics refer to:
   * S. Grimme, J. Chem. Theory Comput., 2019, 155, 2847-2862
     DOI: 10.1021/acs.jctc.9b00143
   
   for SPH calculations refer to:
   * S. Spicher and S. Grimme, J. Chem. Theory Comput., 2021, 17, 1701-1714
     DOI: 10.1021/acs.jctc.0c01306
   
   for ONIOM refer to:
   * C. Plett, A. Katbashev, S. Ehlert, S. Grimme, M. Bursch,
     Phys. Chem. Chem. Phys., 2023, 25, 17860-17868. DOI: 10.1039/D3CP02178E
   
   for DIPRO refer to:
   * J. Kohn, N. Gildemeister, S. Grimme, D. Fazzi, A. Hansen,
     J. Chem. Phys., 2023, just accepted.
   
   for PTB refer to:
   * S. Grimme, M. Mueller, A. Hansen, J. Chem. Phys., 2023, 158, 124111.
     DOI: 10.1063/5.0137838
   
   with help from (in alphabetical order)
   P. Atkinson, C. Bannwarth, F. Bohle, G. Brandenburg, E. Caldeweyher
   M. Checinski, S. Dohm, S. Ehlert, S. Ehrlich, I. Gerasimov, C. Hölzer
   A. Katbashev, J. Kohn, J. Koopman, C. Lavigne, S. Lehtola, F. März, M. Müller,
   F. Musil, H. Neugebauer, J. Pisarek, C. Plett, P. Pracht, F. Pultar,
   J. Seibert, P. Shushkov, S. Spicher, M. Stahn, M. Steiner, T. Strunk,
   J. Stückrath, T. Rose, and J. Unsleber
   
 * started run on 2025/09/10 at 11:29:47.013     
   ID    Z sym.   atoms
    1    8 O      1, 6, 14, 18, 21, 24
    2    6 C      2, 4, 8-13, 15, 16, 19, 22, 23
    3    1 H      3, 5, 17, 20, 25-46
    4   14 Si     7

           -------------------------------------------------
          |                Calculation Setup                |
           -------------------------------------------------

          program call               : /home/kmoult/orca_6_1/otool_xtb goat_0_XTB.xyz --grad -c 0 -u 0 -P 4 --namespace goat_0 --input goat_0_XTB.input.tmp --alpb ACETONE --acc 0.200000
          hostname                   : node2704
          calculation namespace      : goat_0
          coordinate file            : goat_0_XTB.xyz
          omp threads                :                     4


           -------------------------------------------------
          |                 G F N 2 - x T B                 |
           -------------------------------------------------

        Reference                      10.1021/acs.jctc.8b01176
      * Hamiltonian:
        H0-scaling (s, p, d)           1.850000    2.230000    2.230000
        zeta-weighting                 0.500000
      * Dispersion:
        s8                             2.700000
        a1                             0.520000
        a2                             5.000000
        s9                             5.000000
      * Repulsion:
        kExp                           1.500000    1.000000
        rExp                           1.000000
      * Coulomb:
        alpha                          2.000000
        third order                    shell-resolved
        anisotropic                    true
        a3                             3.000000
        a5                             4.000000
        cn-shift                       1.200000
        cn-exp                         4.000000
        max-rad                        5.000000

      * Solvation model:               ALPB
        Solvent                        ACETONE
        Parameter file                 internal GFN2-xTB/ALPB
        Dielectric constant                2.0700E+01
        Reference state                gsolv [1 M gas/solution]
        Free energy shift                  5.9241E-03 Eh       3.7175E+00 kcal/mol
        Temperature                        2.9815E+02 K
        Density                            7.9000E-01 kg/L
        Solvent mass                       5.8080E+01 g/mol
        Interaction kernel             P16
        Born radius scaling (c1)           1.8274E+00
        Born radii integrator          GBOBC
        Born offset                        0.0000E+00 a0       0.0000E+00 AA
        H-bond correction              true
        Ion screening                  false
        Surface tension                    1.0000E-05 Eh       1.5569E+01 dyn/cm
        Grid points                               230 per atom
q/qsh data taken from xtbrestart
CAMM data taken from xtbrestart

          ...................................................
          :                      SETUP                      :
          :.................................................:
          :  # basis functions                 112          :
          :  # atomic orbitals                 111          :
          :  # shells                           67          :
          :  # electrons                       118          :
          :  max. iterations                   250          :
          :  Hamiltonian                  GFN2-xTB          :
          :  restarted?                       true          :
          :  GBSA solvation                   true          :
          :  PC potential                    false          :
          :  electronic temp.          300.0000000     K    :
          :  accuracy                    0.2000000          :
          :  -> integral cutoff          0.3198970E+02      :
          :  -> integral neglect         0.2000000E-08      :
          :  -> SCF convergence          0.2000000E-06 Eh   :
          :  -> wf. convergence          0.2000000E-04 e    :
          :  Broyden damping             0.4000000          :
          :  net charge                          0          :
          :  unpaired electrons                  0          :
          ...................................................

 iter      E             dE          RMSdq      gap      omega  full diag
   1    -68.0089578 -0.680090E+02  0.247E-02    5.67       0.0  T
   2    -68.0089579 -0.136220E-06  0.157E-02    5.67       1.0  T
   3    -68.0089578  0.456410E-07  0.327E-03    5.67       4.5  T
   4    -68.0089579 -0.516945E-07  0.265E-03    5.67       5.6  T
   5    -68.0089580 -0.531149E-07  0.940E-04    5.67      15.7  T
   6    -68.0089580 -0.312434E-08  0.298E-04    5.67      49.6  T
   7    -68.0089580 -0.438661E-09  0.112E-04    5.67     131.3  T
   8    -68.0089580 -0.453895E-10  0.547E-05    5.67     269.7  T

   *** convergence criteria satisfied after 8 iterations ***

         #    Occupation            Energy/Eh            Energy/eV
      -------------------------------------------------------------
         1        2.0000           -0.8152716             -22.1847
       ...           ...                  ...                  ...
        53        2.0000           -0.4305403             -11.7156
        54        2.0000           -0.4240081             -11.5378
        55        2.0000           -0.4210966             -11.4586
        56        2.0000           -0.4173198             -11.3559
        57        2.0000           -0.4160697             -11.3218
        58        2.0000           -0.4092132             -11.1353
        59        2.0000           -0.3768360             -10.2542 (HOMO)
        60                         -0.1683477              -4.5810 (LUMO)
        61                         -0.1317832              -3.5860
        62                         -0.0957898              -2.6066
        63                         -0.0491870              -1.3384
        64                         -0.0084445              -0.2298
       ...                                ...                  ...
       111                          0.7891421              21.4736
      -------------------------------------------------------------
                  HL-Gap            0.2084883 Eh            5.6733 eV
             Fermi-level           -0.2725919 Eh           -7.4176 eV

 SCC (total)                   0 d,  0 h,  0 min,  0.040 sec
 SCC setup                      ...        0 min,  0.001 sec (  1.421%)
 Dispersion                     ...        0 min,  0.000 sec (  0.635%)
 classical contributions        ...        0 min,  0.000 sec (  0.107%)
 integral evaluation            ...        0 min,  0.018 sec ( 43.608%)
 iterations                     ...        0 min,  0.013 sec ( 32.140%)
 molecular gradient             ...        0 min,  0.009 sec ( 21.718%)
 printout                       ...        0 min,  0.000 sec (  0.326%)

         :::::::::::::::::::::::::::::::::::::::::::::::::::::
         ::                     SUMMARY                     ::
         :::::::::::::::::::::::::::::::::::::::::::::::::::::
         :: total energy             -67.354743954329 Eh    ::
         :: total w/o Gsasa/hb       -67.327123269286 Eh    ::
         :: gradient norm              0.001541596360 Eh/a0 ::
         :: HOMO-LUMO gap              5.673256594551 eV    ::
         ::.................................................::
         :: SCC energy               -68.008067131380 Eh    ::
         :: -> isotropic ES            0.154419366186 Eh    ::
         :: -> anisotropic ES          0.001024476457 Eh    ::
         :: -> anisotropic XC          0.002340562482 Eh    ::
         :: -> dispersion             -0.044922038778 Eh    ::
         :: -> Gsolv                  -0.030584645241 Eh    ::
         ::    -> Gelec               -0.002963960198 Eh    ::
         ::    -> Gsasa               -0.027902940862 Eh    ::
         ::    -> Ghb                 -0.005641885445 Eh    ::
         ::    -> Gshift               0.005924141264 Eh    ::
         :: repulsion energy           0.653323177051 Eh    ::
         :: add. restraining           0.000000000000 Eh    ::
         :: total charge              -0.000000000000 e     ::
         :::::::::::::::::::::::::::::::::::::::::::::::::::::


Property printout bound to 'properties.out'

           -------------------------------------------------
          | TOTAL ENERGY              -67.354743954329 Eh   |
          | GRADIENT NORM               0.001541596360 Eh/α |
          | HOMO-LUMO GAP               5.673256594551 eV   |
           -------------------------------------------------

------------------------------------------------------------------------
 * finished run on 2025/09/10 at 11:29:47.075     
------------------------------------------------------------------------
 total:
 * wall-time:     0 d,  0 h,  0 min,  0.061 sec
 *  cpu-time:     0 d,  0 h,  0 min,  0.211 sec
 * ratio c/w:     3.464 speedup
 SCF:
 * wall-time:     0 d,  0 h,  0 min,  0.040 sec
 *  cpu-time:     0 d,  0 h,  0 min,  0.148 sec
 * ratio c/w:     3.662 speedup


-------------------------   --------------------
FINAL SINGLE POINT ENERGY       -67.354743954330
-------------------------   --------------------


-------------
DIPOLE MOMENT
-------------
                                X             Y             Z
Total Dipole Moment    :      0.30600       0.76100      -0.34800
                        -----------------------------------------
Magnitude (a.u.)       :      0.89099
Magnitude (Debye)      :      2.26471


------------------
CARTESIAN GRADIENT
------------------

   1   O   :   -0.000145891    0.000050677   -0.000074954
   2   C   :    0.000452209    0.000101370    0.000131814
   3   H   :   -0.000091602   -0.000006899   -0.000075860
   4   C   :    0.000000611   -0.000150166    0.000015771
   5   H   :   -0.000050828    0.000147781   -0.000015111
   6   O   :   -0.000145598   -0.000241330    0.000293151
   7   Si  :   -0.000222800    0.000041893   -0.000054972
   8   C   :   -0.000093000    0.000279255    0.000029629
   9   C   :    0.000089846   -0.000232579   -0.000124867
  10   C   :   -0.000137514   -0.000144883   -0.000104737
  11   C   :   -0.000020418    0.000313622   -0.000088514
  12   C   :    0.000184925    0.000002827    0.000102531
  13   C   :   -0.000098633   -0.000084232    0.000082752
  14   O   :    0.000446525   -0.000276348    0.000204340
  15   C   :   -0.000258098    0.000167264    0.000062539
  16   C   :    0.000150135   -0.000174984   -0.000166455
  17   H   :   -0.000012049    0.000086327   -0.000025118
  18   O   :   -0.000226692    0.000049853   -0.000073456
  19   C   :   -0.000296579    0.000245207   -0.000143833
  20   H   :    0.000065122   -0.000161633   -0.000002452
  21   O   :    0.000246869    0.000077747   -0.000070493
  22   C   :   -0.000120304    0.000130925   -0.000069798
  23   C   :    0.000099293    0.000271619    0.000428746
  24   O   :    0.000006603   -0.000224942   -0.000238966
  25   H   :    0.000063802   -0.000076733    0.000109389
  26   H   :   -0.000062779   -0.000081987    0.000007948
  27   H   :    0.000034605    0.000058478   -0.000029694
  28   H   :   -0.000003484    0.000021625    0.000080352
  29   H   :    0.000001225   -0.000010520    0.000014753
  30   H   :    0.000075894    0.000018707   -0.000041977
  31   H   :    0.000025116   -0.000031678    0.000010347
  32   H   :   -0.000034050    0.000015854    0.000059646
  33   H   :   -0.000025348   -0.000086437   -0.000032926
  34   H   :   -0.000034475   -0.000039112   -0.000052116
  35   H   :    0.000011888   -0.000034944   -0.000120994
  36   H   :    0.000001232    0.000007375    0.000014205
  37   H   :    0.000006770   -0.000073889   -0.000003760
  38   H   :    0.000015524   -0.000002049    0.000031810
  39   H   :    0.000006695    0.000069981   -0.000039725
  40   H   :    0.000060035    0.000014168   -0.000044211
  41   H   :   -0.000015486    0.000071073   -0.000088023
  42   H   :    0.000080171    0.000001953    0.000011726
  43   H   :   -0.000051281   -0.000028889    0.000057584
  44   H   :   -0.000031208   -0.000069763   -0.000019086
  45   H   :   -0.000026699   -0.000063399   -0.000110282
  46   H   :    0.000079722    0.000051815    0.000163348

Difference to translation invariance:
           :   -0.0000000000    0.0000000000   -0.0000000000

Difference to rotation invariance:
           :    0.0004780492   -0.0001024647    0.0001530862

Norm of the Cartesian gradient     ...    0.0015415964
RMS gradient                       ...    0.0001312294
MAX gradient                       ...    0.0004522086
------------------------------------------------------------------------------
                         ORCA GEOMETRY RELAXATION STEP
------------------------------------------------------------------------------

Reading the OPT-File                    .... done
Getting information on internals        .... done
Copying old internal coords+grads       .... done
Making the new internal coordinates     .... (2022 redundants) done
Validating the new internal coordinates .... (2022 redundants) done
Calculating the B-matrix                .... done
Calculating the G,G- and P matrices     .... done
Transforming gradient to internals      .... done
Projecting the internal gradient        .... done
Number of atoms                         ....  46
Number of internal coordinates          .... 235
Current Energy                          ....   -67.354743954 Eh
Current gradient norm                   ....     0.001541596 Eh/bohr
Maximum allowed component of the step   ....  0.300
Current trust radius                    ....  0.450
Updating the Hessian (BFGS)             .... done
Forming the augmented Hessian           .... done
Diagonalizing the augmented Hessian     .... done
Last element of RFO vector              ....  0.995820027
Lowest eigenvalues of augmented Hessian:
 -0.000024295  0.001700612  0.004456649  0.010110777  0.010719997
Length of the computed step             ....  0.091720534
The final length of the internal step   ....  0.091720534
Converting the step to Cartesian space:
 Initial RMS(Int)=    0.0059831879
Transforming coordinates:
 Iter   0:  RMS(Cart)=    0.0288537717 RMS(Int)=    0.4095316759
done
Storing new coordinates                 .... done
The predicted energy change is          ....    -0.000012250
Previously predicted energy change      ....    -0.000006880
Actually observed energy change         ....    -0.000010617
Ratio of predicted to observed change   ....     1.543144484
New trust radius                        ....     0.300000000

                                .--------------------.
          ----------------------|Geometry convergence|-------------------------
          Item                value                   Tolerance       Converged
          ---------------------------------------------------------------------
          Energy change      -0.0000106172            0.0000050000      NO
          RMS gradient        0.0000825768            0.0001000000      YES
          MAX gradient        0.0003416536            0.0003000000      NO
          RMS step            0.0059831879            0.0020000000      NO
          MAX step            0.0293766506            0.0040000000      NO
          -------------------------------------------------------------------------
          ........................................................
          Max(Bonds)      0.0054      Max(Angles)    0.41
          Max(Dihed)        1.68      Max(Improp)    0.00
          ---------------------------------------------------------------------

    ---------------------------------------------------------------------------
                         Redundant Internal Coordinates
                            (Angstroem and degrees)

        Definition                    Value    dE/dq     Step     New-Value
    ----------------------------------------------------------------------------
     1. B(C   1,O   0)                1.4068  0.000132 -0.0002    1.4066   
     2. B(H   2,C   1)                1.1025  0.000009 -0.0001    1.1024   
     3. B(C   3,C   1)                1.5299 -0.000173  0.0004    1.5304   
     4. B(H   4,C   3)                1.0999  0.000021 -0.0000    1.0998   
     5. B(O   5,C   3)                1.3998 -0.000261 -0.0002    1.3996   
     6. B(Si  6,O   5)                1.6489  0.000126  0.0004    1.6492   
     7. B(C   7,Si  6)                1.9108 -0.000162 -0.0002    1.9105   
     8. B(C   8,C   7)                1.5287 -0.000202  0.0000    1.5287   
     9. B(C   9,C   7)                1.5307 -0.000085  0.0001    1.5308   
    10. B(C  10,Si  6)                1.9226  0.000113 -0.0004    1.9222   
    11. B(C  11,C  10)                1.5292 -0.000145  0.0000    1.5292   
    12. B(C  12,C  10)                1.5310 -0.000114 -0.0002    1.5308   
    13. B(O  13,Si  6)                1.6467  0.000269  0.0001    1.6467   
    14. B(C  14,O  13)                1.3971 -0.000251  0.0000    1.3971   
    15. B(C  15,C   3)                1.5319 -0.000108 -0.0001    1.5318   
    16. B(C  15,C  14)                1.5339 -0.000113 -0.0000    1.5338   
    17. B(H  16,C  15)                1.0965  0.000023 -0.0000    1.0964   
    18. B(O  17,C  15)                1.4089 -0.000170  0.0003    1.4091   
    19. B(C  18,O  17)                1.4191 -0.000161 -0.0003    1.4188   
    20. B(H  19,C  18)                1.1087  0.000072  0.0003    1.1090   
    21. B(O  20,C  18)                1.3813 -0.000159  0.0002    1.3815   
    22. B(C  21,O  20)                1.4198 -0.000125 -0.0002    1.4195   
    23. B(C  22,C  18)                1.5361 -0.000342  0.0005    1.5366   
    24. B(C  22,C   1)                1.5347 -0.000075  0.0001    1.5348   
    25. B(O  23,C  22)                1.4026  0.000169 -0.0002    1.4024   
    26. B(H  24,O   0)                0.9671 -0.000110  0.0001    0.9672   
    27. B(H  24,O   5)                2.3673 -0.000082 -0.0008    2.3664   
    28. B(H  25,C   7)                1.0932 -0.000084  0.0002    1.0933   
    29. B(H  26,C   8)                1.0864 -0.000071  0.0001    1.0865   
    30. B(H  27,C   8)                1.0855 -0.000061  0.0000    1.0855   
    31. B(H  28,C   8)                1.0892 -0.000002  0.0000    1.0892   
    32. B(H  29,C   9)                1.0879 -0.000082  0.0001    1.0880   
    33. B(H  30,C   9)                1.0891 -0.000018  0.0000    1.0891   
    34. B(H  31,C   9)                1.0864 -0.000045  0.0000    1.0864   
    35. B(H  32,C  10)                1.0985  0.000097 -0.0000    1.0984   
    36. B(H  33,C  11)                1.0869 -0.000059  0.0001    1.0869   
    37. B(H  34,C  11)                1.0862 -0.000061  0.0001    1.0864   
    38. B(H  35,C  11)                1.0889 -0.000014  0.0000    1.0889   
    39. B(H  36,C  12)                1.0870 -0.000069  0.0001    1.0871   
    40. B(H  37,C  12)                1.0887 -0.000032 -0.0000    1.0887   
    41. B(H  38,C  12)                1.0864 -0.000049 -0.0000    1.0863   
    42. B(H  39,C  14)                1.0948  0.000031  0.0000    1.0948   
    43. B(H  40,C  14)                1.0951  0.000041  0.0000    1.0951   
    44. B(H  41,C  21)                1.0872 -0.000021  0.0001    1.0872   
    45. B(H  42,C  21)                1.0921 -0.000010  0.0000    1.0922   
    46. B(H  43,C  21)                1.0953  0.000016  0.0001    1.0954   
    47. B(H  44,C  22)                1.0995 -0.000055 -0.0000    1.0995   
    48. B(H  45,O   0)                2.5399 -0.000031  0.0054    2.5453   
    49. B(H  45,O  23)                0.9674 -0.000126  0.0000    0.9674   
    50. A(C   1,O   0,H  24)          107.76 -0.000020   -0.13    107.63   
    51. A(H   2,C   1,C   3)          109.07  0.000056   -0.01    109.07   
    52. A(O   0,C   1,C   3)          111.09  0.000015    0.01    111.11   
    53. A(H   2,C   1,C  22)          108.86  0.000034   -0.01    108.86   
    54. A(O   0,C   1,H   2)          109.33 -0.000016    0.04    109.37   
    55. A(O   0,C   1,C  22)          107.78 -0.000056    0.04    107.82   
    56. A(C   3,C   1,C  22)          110.66 -0.000034   -0.08    110.58   
    57. A(O   5,C   3,C  15)          113.44  0.000022   -0.01    113.43   
    58. A(C   1,C   3,H   4)          107.89  0.000033    0.02    107.90   
    59. A(H   4,C   3,C  15)          108.35  0.000059    0.07    108.42   
    60. A(H   4,C   3,O   5)          106.75 -0.000044    0.01    106.76   
    61. A(C   1,C   3,C  15)          110.31 -0.000030   -0.11    110.21   
    62. A(C   1,C   3,O   5)          109.88 -0.000038    0.03    109.91   
    63. A(C   3,O   5,Si  6)          123.60 -0.000058   -0.03    123.57   
    64. A(C  10,Si  6,O  13)          108.19 -0.000141   -0.00    108.18   
    65. A(O   5,Si  6,C   7)          107.94 -0.000180    0.21    108.15   
    66. A(C   7,Si  6,O  13)          107.36  0.000020    0.06    107.43   
    67. A(O   5,Si  6,O  13)          107.84  0.000040    0.09    107.92   
    68. A(O   5,Si  6,C  10)          110.19  0.000248   -0.41    109.78   
    69. A(C   7,Si  6,C  10)          115.07  0.000012    0.07    115.14   
    70. A(C   8,C   7,H  25)          107.62 -0.000001    0.02    107.64   
    71. A(Si  6,C   7,C   8)          111.71  0.000050    0.04    111.75   
    72. A(Si  6,C   7,H  25)          107.79  0.000018   -0.09    107.70   
    73. A(C   8,C   7,C   9)          109.65  0.000077    0.01    109.66   
    74. A(Si  6,C   7,C   9)          112.28 -0.000192    0.04    112.32   
    75. A(C   9,C   7,H  25)          107.58  0.000054   -0.02    107.56   
    76. A(H  27,C   8,H  28)          108.43 -0.000001    0.00    108.43   
    77. A(C   7,C   8,H  28)          110.35 -0.000030    0.01    110.36   
    78. A(C   7,C   8,H  27)          111.06  0.000090    0.01    111.07   
    79. A(C   7,C   8,H  26)          110.26  0.000011   -0.01    110.25   
    80. A(H  26,C   8,H  27)          108.18 -0.000034   -0.01    108.17   
    81. A(H  26,C   8,H  28)          108.49 -0.000038   -0.00    108.49   
    82. A(H  30,C   9,H  31)          108.64 -0.000034   -0.01    108.63   
    83. A(C   7,C   9,H  31)          110.62  0.000054    0.00    110.62   
    84. A(C   7,C   9,H  30)          110.36  0.000040    0.02    110.38   
    85. A(C   7,C   9,H  29)          110.34  0.000017   -0.02    110.32   
    86. A(H  29,C   9,H  31)          108.56 -0.000062    0.02    108.59   
    87. A(H  29,C   9,H  30)          108.26 -0.000018   -0.02    108.24   
    88. A(Si  6,C  10,C  12)          110.92 -0.000127    0.11    111.03   
    89. A(Si  6,C  10,H  32)          108.18 -0.000019   -0.12    108.06   
    90. A(Si  6,C  10,C  11)          113.84  0.000221   -0.09    113.76   
    91. A(C  11,C  10,C  12)          109.40 -0.000061    0.03    109.43   
    92. A(C  12,C  10,H  32)          107.09  0.000006    0.03    107.12   
    93. A(C  11,C  10,H  32)          107.11 -0.000028    0.04    107.14   
    94. A(C  10,C  11,H  35)          110.43 -0.000027    0.03    110.46   
    95. A(H  34,C  11,H  35)          108.56 -0.000033    0.03    108.59   
    96. A(H  33,C  11,H  35)          108.07 -0.000039    0.00    108.08   
    97. A(H  33,C  11,H  34)          108.44  0.000006   -0.02    108.41   
    98. A(C  10,C  11,H  34)          111.13  0.000035   -0.01    111.12   
    99. A(C  10,C  11,H  33)          110.13  0.000055   -0.03    110.11   
   100. A(H  36,C  12,H  38)          108.07 -0.000056   -0.01    108.05   
   101. A(C  10,C  12,H  38)          110.86  0.000082   -0.01    110.85   
   102. A(H  36,C  12,H  37)          108.31 -0.000001   -0.01    108.31   
   103. A(C  10,C  12,H  37)          110.54  0.000002    0.01    110.54   
   104. A(C  10,C  12,H  36)          110.23  0.000002   -0.01    110.21   
   105. A(H  37,C  12,H  38)          108.75 -0.000032    0.04    108.79   
   106. A(Si  6,O  13,C  14)          120.78 -0.000180    0.38    121.16   
   107. A(O  13,C  14,C  15)          110.88  0.000036    0.15    111.04   
   108. A(H  39,C  14,H  40)          108.60  0.000003   -0.01    108.60   
   109. A(O  13,C  14,H  40)          109.83 -0.000045   -0.04    109.79   
   110. A(C  15,C  14,H  39)          109.03  0.000020   -0.04    108.99   
   111. A(O  13,C  14,H  39)          107.60 -0.000096   -0.03    107.58   
   112. A(C  15,C  14,H  40)          110.79  0.000077   -0.05    110.75   
   113. A(H  16,C  15,O  17)          104.86  0.000012   -0.05    104.81   
   114. A(C  14,C  15,O  17)          113.29  0.000033   -0.03    113.26   
   115. A(C   3,C  15,O  17)          110.37 -0.000088   -0.07    110.30   
   116. A(C  14,C  15,H  16)          107.02 -0.000065    0.08    107.10   
   117. A(C   3,C  15,H  16)          108.39 -0.000020    0.06    108.45   
   118. A(C   3,C  15,C  14)          112.46  0.000119    0.01    112.48   
   119. A(C  15,O  17,C  18)          116.74  0.000038    0.08    116.82   
   120. A(O  20,C  18,C  22)          107.40  0.000041   -0.04    107.36   
   121. A(H  19,C  18,C  22)          108.56  0.000089   -0.05    108.50   
   122. A(O  17,C  18,C  22)          113.10 -0.000020    0.12    113.22   
   123. A(H  19,C  18,O  20)          110.42 -0.000098   -0.03    110.38   
   124. A(O  17,C  18,O  20)          107.50 -0.000062   -0.00    107.50   
   125. A(O  17,C  18,H  19)          109.84  0.000044    0.01    109.84   
   126. A(C  18,O  20,C  21)          114.48  0.000042    0.04    114.52   
   127. A(H  42,C  21,H  43)          109.66  0.000069   -0.02    109.63   
   128. A(H  41,C  21,H  43)          109.96 -0.000064   -0.01    109.95   
   129. A(O  20,C  21,H  43)          110.48  0.000005    0.02    110.50   
   130. A(H  41,C  21,H  42)          110.16 -0.000080    0.02    110.17   
   131. A(O  20,C  21,H  42)          110.85 -0.000019    0.03    110.88   
   132. A(O  20,C  21,H  41)          105.67  0.000086   -0.03    105.65   
   133. A(O  23,C  22,H  44)          110.88 -0.000156    0.06    110.93   
   134. A(C  18,C  22,H  44)          107.68  0.000097   -0.04    107.64   
   135. A(C  18,C  22,O  23)          107.12 -0.000094   -0.05    107.07   
   136. A(C   1,C  22,H  44)          108.76  0.000070   -0.05    108.71   
   137. A(C   1,C  22,O  23)          110.71  0.000075    0.06    110.76   
   138. A(C   1,C  22,C  18)          111.67  0.000005    0.02    111.69   
   139. A(C  22,O  23,H  45)          107.65 -0.000212    0.01    107.66   
   140. D(C   3,C   1,O   0,H  24)     41.08  0.000005    1.24     42.31   
   141. D(C  22,C   1,O   0,H  24)    162.47 -0.000064    1.17    163.64   
   142. D(H   2,C   1,O   0,H  24)    -79.35 -0.000064    1.21    -78.14   
   143. D(H   4,C   3,C   1,H   2)    175.87 -0.000066    0.43    176.30   
   144. D(H   4,C   3,C   1,C  22)    -64.40 -0.000010    0.37    -64.03   
   145. D(O   5,C   3,C   1,O   0)    -60.74 -0.000039    0.34    -60.40   
   146. D(O   5,C   3,C   1,C  22)    179.58  0.000044    0.33    179.91   
   147. D(O   5,C   3,C   1,H   2)     59.84 -0.000013    0.40     60.24   
   148. D(H   4,C   3,C   1,O   0)     55.29 -0.000093    0.37     55.66   
   149. D(Si  6,O   5,C   3,C  15)     29.33 -0.000070   -0.07     29.25   
   150. D(Si  6,O   5,C   3,C   1)    -94.67 -0.000018    0.05    -94.62   
   151. D(Si  6,O   5,C   3,H   4)    148.59 -0.000013    0.01    148.60   
   152. D(O  13,Si  6,O   5,C   3)    -12.62 -0.000067    1.00    -11.61   
   153. D(C  10,Si  6,O   5,C   3)    105.27 -0.000075    0.82    106.09   
   154. D(C   7,Si  6,O   5,C   3)   -128.32 -0.000019    0.78   -127.54   
   155. D(C   9,C   7,Si  6,O  13)    -35.46 -0.000046   -0.24    -35.70   
   156. D(C   8,C   7,Si  6,O   5)    -43.11 -0.000074   -0.07    -43.18   
   157. D(C   8,C   7,Si  6,O  13)   -159.13 -0.000041   -0.31   -159.43   
   158. D(C   8,C   7,Si  6,C  10)     80.39  0.000117   -0.39     80.00   
   159. D(C   9,C   7,Si  6,O   5)     80.55 -0.000079    0.00     80.55   
   160. D(C   9,C   7,Si  6,C  10)   -155.95  0.000112   -0.32   -156.27   
   161. D(H  26,C   8,C   7,C   9)    -64.61  0.000095   -0.09    -64.69   
   162. D(H  27,C   8,C   7,C   9)    175.49  0.000072   -0.07    175.42   
   163. D(H  27,C   8,C   7,Si  6)    -59.37 -0.000084    0.01    -59.36   
   164. D(H  26,C   8,C   7,H  25)    178.66 -0.000010   -0.07    178.58   
   165. D(H  27,C   8,C   7,H  25)     58.76 -0.000033   -0.06     58.70   
   166. D(H  26,C   8,C   7,Si  6)     60.53 -0.000061   -0.00     60.52   
   167. D(H  30,C   9,C   7,Si  6)    176.73 -0.000021   -0.10    176.64   
   168. D(H  29,C   9,C   7,H  25)    177.91  0.000047   -0.02    177.89   
   169. D(H  29,C   9,C   7,C   8)     61.14 -0.000024   -0.03     61.11   
   170. D(H  29,C   9,C   7,Si  6)    -63.66 -0.000008   -0.12    -63.78   
   171. D(H  30,C   9,C   7,H  25)     58.31  0.000034    0.00     58.31   
   172. D(H  30,C   9,C   7,C   8)    -58.46 -0.000037   -0.01    -58.47   
   173. D(C  12,C  10,Si  6,C   7)     67.77  0.000014   -0.25     67.51   
   174. D(C  12,C  10,Si  6,O   5)   -169.93 -0.000022   -0.24   -170.18   
   175. D(C  11,C  10,Si  6,O  13)   -176.17  0.000097   -0.44   -176.60   
   176. D(C  11,C  10,Si  6,C   7)    -56.13  0.000027   -0.32    -56.45   
   177. D(C  12,C  10,Si  6,O  13)    -52.27  0.000083   -0.37    -52.64   
   178. D(C  11,C  10,Si  6,O   5)     66.17 -0.000008   -0.31     65.86   
   179. D(H  34,C  11,C  10,C  12)   -178.50 -0.000055    0.48   -178.02   
   180. D(H  34,C  11,C  10,Si  6)    -53.78 -0.000107    0.58    -53.20   
   181. D(H  33,C  11,C  10,H  32)   -174.07  0.000051    0.35   -173.71   
   182. D(H  33,C  11,C  10,C  12)    -58.32  0.000012    0.42    -57.90   
   183. D(H  33,C  11,C  10,Si  6)     66.40 -0.000041    0.53     66.92   
   184. D(H  34,C  11,C  10,H  32)     65.75 -0.000016    0.41     66.16   
   185. D(H  37,C  12,C  10,H  32)     56.88  0.000012    0.21     57.09   
   186. D(H  37,C  12,C  10,C  11)    -58.88  0.000073    0.13    -58.74   
   187. D(H  37,C  12,C  10,Si  6)    174.72 -0.000076    0.14    174.86   
   188. D(H  36,C  12,C  10,H  32)    176.59  0.000013    0.20    176.79   
   189. D(H  36,C  12,C  10,C  11)     60.83  0.000074    0.12     60.96   
   190. D(H  36,C  12,C  10,Si  6)    -65.57 -0.000075    0.13    -65.44   
   191. D(C  14,O  13,Si  6,C  10)    -97.36 -0.000095   -1.24    -98.59   
   192. D(C  14,O  13,Si  6,C   7)    137.89 -0.000036   -1.36    136.53   
   193. D(C  14,O  13,Si  6,O   5)     21.81  0.000143   -1.68     20.13   
   194. D(H  40,C  14,O  13,Si  6)     76.23 -0.000007    1.47     77.70   
   195. D(H  39,C  14,O  13,Si  6)   -165.72 -0.000083    1.43   -164.29   
   196. D(C  15,C  14,O  13,Si  6)    -46.55 -0.000097    1.45    -45.11   
   197. D(H  16,C  15,C   3,H   4)    -53.26  0.000031   -0.30    -53.57   
   198. D(H  16,C  15,C   3,C   1)   -171.16 -0.000027   -0.30   -171.46   
   199. D(C  14,C  15,C   3,O   5)    -53.03  0.000052   -0.40    -53.43   
   200. D(C  14,C  15,C   3,H   4)   -171.38  0.000054   -0.44   -171.83   
   201. D(H  16,C  15,C   3,O   5)     65.08  0.000029   -0.26     64.83   
   202. D(C  14,C  15,C   3,C   1)     70.72 -0.000004   -0.44     70.28   
   203. D(H  16,C  15,C  14,H  40)   -179.17  0.000071   -0.53   -179.69   
   204. D(H  16,C  15,C  14,H  39)     61.36  0.000008   -0.47     60.90   
   205. D(H  16,C  15,C  14,O  13)    -56.94  0.000091   -0.50    -57.44   
   206. D(C   3,C  15,C  14,H  40)    -60.25  0.000073   -0.40    -60.64   
   207. D(C   3,C  15,C  14,H  39)   -179.72  0.000009   -0.34   -180.05   
   208. D(C   3,C  15,C  14,O  13)     61.98  0.000093   -0.37     61.61   
   209. D(C  18,O  17,C  15,H  16)    173.82  0.000022   -0.05    173.77   
   210. D(C  18,O  17,C  15,C  14)    -69.83 -0.000032   -0.00    -69.83   
   211. D(C  18,O  17,C  15,C   3)     57.29  0.000082   -0.06     57.23   
   212. D(C  22,C  18,O  17,C  15)    -52.46 -0.000085    0.43    -52.03   
   213. D(O  20,C  18,O  17,C  15)   -170.84 -0.000083    0.42   -170.43   
   214. D(H  19,C  18,O  17,C  15)     68.98  0.000047    0.46     69.44   
   215. D(C  21,O  20,C  18,C  22)    167.07  0.000047    0.11    167.19   
   216. D(C  21,O  20,C  18,H  19)     48.88 -0.000029    0.22     49.10   
   217. D(C  21,O  20,C  18,O  17)    -70.93  0.000012    0.23    -70.69   
   218. D(H  43,C  21,O  20,C  18)    -59.89 -0.000041    0.08    -59.80   
   219. D(H  42,C  21,O  20,C  18)     61.88  0.000037    0.08     61.97   
   220. D(H  41,C  21,O  20,C  18)   -178.79 -0.000018    0.10   -178.69   
   221. D(O  23,C  22,C  18,O  20)    -73.65 -0.000006   -0.29    -73.94   
   222. D(O  23,C  22,C  18,H  19)     45.75 -0.000051   -0.38     45.37   
   223. D(C   1,C  22,C  18,O  20)    164.99 -0.000039   -0.34    164.65   
   224. D(C   1,C  22,C  18,H  19)    -75.61 -0.000085   -0.43    -76.04   
   225. D(C   1,C  22,C  18,O  17)     46.55  0.000022   -0.38     46.17   
   226. D(O  23,C  22,C   1,C   3)   -167.81  0.000015    0.00   -167.81   
   227. D(O  23,C  22,C   1,H   2)    -47.95  0.000085   -0.06    -48.01   
   228. D(O  23,C  22,C   1,O   0)     70.53  0.000053    0.01     70.54   
   229. D(O  23,C  22,C  18,O  17)    167.91  0.000055   -0.33    167.58   
   230. D(C  18,C  22,C   1,C   3)    -48.55 -0.000051   -0.01    -48.56   
   231. D(C  18,C  22,C   1,H   2)     71.31  0.000019   -0.08     71.24   
   232. D(C  18,C  22,C   1,O   0)   -170.21 -0.000013   -0.00   -170.21   
   233. D(H  45,O  23,C  22,H  44)     61.09 -0.000011   -0.44     60.65   
   234. D(H  45,O  23,C  22,C  18)    178.32 -0.000034   -0.49    177.83   
   235. D(H  45,O  23,C  22,C   1)    -59.72 -0.000044   -0.46    -60.17   
    ----------------------------------------------------------------------------

Geometry step timings:
Preparation and reading OPT file:      0.001 s ( 5.013 %)
Internal coordinates            :      0.000 s ( 0.162 %)
B/P matrices and projection     :      0.005 s (22.153 %)
Hessian update/contruction      :      0.009 s (43.508 %)
Making the step                 :      0.003 s (14.672 %)
Converting the step to Cartesian:      0.000 s ( 1.855 %)
Storing new data                :      0.001 s ( 4.205 %)
Checking convergence            :      0.000 s ( 0.142 %)
Final printing                  :      0.002 s ( 8.288 %)
Total time                      :      0.020 s

Time for energy+gradient        :      0.087 s
Time for complete geometry iter :      0.117 s

         *************************************************************
         *                GEOMETRY OPTIMIZATION CYCLE  11            *
         *************************************************************
---------------------------------
CARTESIAN COORDINATES (ANGSTROEM)
---------------------------------
  O    -3.769273   -0.090938   -0.446183
  C    -2.465096   -0.491369   -0.103984
  H    -1.826587   -0.463888   -1.002226
  C    -1.867807    0.429661    0.962269
  H    -2.553020    0.439970    1.822511
  O    -1.807132    1.741746    0.478872
  Si   -0.468918    2.389235   -0.235206
  C    -0.056871    4.031054    0.650707
  C    -1.312165    4.862137    0.916181
  C     0.700974    3.809609    1.962222
  C    -0.748482    2.532447   -2.131584
  C    -1.843520    3.526915   -2.519553
  C     0.551286    2.899290   -2.852296
  O     0.790669    1.360275    0.022356
  C     0.573089    0.020661    0.354001
  C    -0.512768   -0.110751    1.429328
  H    -0.183536    0.478170    2.293568
  O    -0.653301   -1.423947    1.920679
  C    -1.205978   -2.383535    1.033742
  H    -0.488169   -2.597711    0.216009
  O    -1.458033   -3.528287    1.764894
  C    -0.296199   -4.234470    2.173006
  C    -2.536847   -1.935938    0.409578
  O    -2.818485   -2.823030   -0.639437
  H    -3.770263    0.873647   -0.517447
  H     0.591416    4.612091   -0.010747
  H    -2.000062    4.311734    1.552068
  H    -1.825065    5.101048   -0.010138
  H    -1.050940    5.794257    1.415405
  H     0.079678    3.265164    2.670293
  H     0.971254    4.764820    2.410099
  H     1.608747    3.238835    1.787805
  H    -1.058537    1.547250   -2.505477
  H    -1.534780    4.538778   -2.270124
  H    -2.770709    3.312143   -1.995745
  H    -2.032662    3.485803   -3.591089
  H     0.874583    3.895291   -2.560178
  H     0.405704    2.889719   -3.931173
  H     1.343869    2.200517   -2.599951
  H     1.513454   -0.379836    0.746321
  H     0.300471   -0.544142   -0.543738
  H    -0.657587   -5.108904    2.708596
  H     0.322375   -3.619351    2.830112
  H     0.289561   -4.545772    1.301323
  H    -3.307850   -1.994498    1.191223
  H    -3.672538   -2.569646   -1.016634

----------------------------
CARTESIAN COORDINATES (A.U.)
----------------------------
  NO LB    ZA    FRAG    MASS        X           Y           Z
   0 O   8.0000    1    15.999   -7.122893   -0.171848   -0.843163
   1 C   6.0000    1    12.011   -4.658356   -0.928552   -0.196501
   2 H   1.0000    1     1.008   -3.451750   -0.876622   -1.893933
   3 C   6.0000    1    12.011   -3.529644    0.811942    1.818425
   4 H   1.0000    1     1.008   -4.824509    0.831423    3.444046
   5 O   8.0000    1    15.999   -3.414985    3.291423    0.904938
   6 Si 14.0000    1    28.086   -0.886127    4.514999   -0.444475
   7 C   6.0000    1    12.011   -0.107471    7.617588    1.229658
   8 C   6.0000    1    12.011   -2.479632    9.188107    1.731331
   9 C   6.0000    1    12.011    1.324648    7.199117    3.708063
  10 C   6.0000    1    12.011   -1.414426    4.785630   -4.028110
  11 C   6.0000    1    12.011   -3.483749    6.664904   -4.761266
  12 C   6.0000    1    12.011    1.041779    5.478863   -5.390058
  13 O   8.0000    1    15.999    1.494148    2.570547    0.042247
  14 C   6.0000    1    12.011    1.082982    0.039043    0.668965
  15 C   6.0000    1    12.011   -0.968990   -0.209289    2.701038
  16 H   1.0000    1     1.008   -0.346833    0.903609    4.334215
  17 O   8.0000    1    15.999   -1.234560   -2.690871    3.629557
  18 C   6.0000    1    12.011   -2.278968   -4.504229    1.953489
  19 H   1.0000    1     1.008   -0.922506   -4.908963    0.408198
  20 O   8.0000    1    15.999   -2.755283   -6.667495    3.335166
  21 C   6.0000    1    12.011   -0.559735   -8.001988    4.106386
  22 C   6.0000    1    12.011   -4.793946   -3.658393    0.773990
  23 O   8.0000    1    15.999   -5.326164   -5.334754   -1.208361
  24 H   1.0000    1     1.008   -7.124765    1.650954   -0.977833
  25 H   1.0000    1     1.008    1.117614    8.715589   -0.020309
  26 H   1.0000    1     1.008   -3.779570    8.147996    2.932983
  27 H   1.0000    1     1.008   -3.448873    9.639583   -0.019158
  28 H   1.0000    1     1.008   -1.985989   10.949558    2.674727
  29 H   1.0000    1     1.008    0.150570    6.170266    5.046123
  30 H   1.0000    1     1.008    1.835405    9.004205    4.554426
  31 H   1.0000    1     1.008    3.040091    6.120511    3.378462
  32 H   1.0000    1     1.008   -2.000345    2.923879   -4.734664
  33 H   1.0000    1     1.008   -2.900313    8.577048   -4.289912
  34 H   1.0000    1     1.008   -5.235881    6.259043   -3.771411
  35 H   1.0000    1     1.008   -3.841174    6.587213   -6.786176
  36 H   1.0000    1     1.008    1.652721    7.361033   -4.838035
  37 H   1.0000    1     1.008    0.766670    5.460777   -7.428841
  38 H   1.0000    1     1.008    2.539544    4.158374   -4.913195
  39 H   1.0000    1     1.008    2.860013   -0.717787    1.410343
  40 H   1.0000    1     1.008    0.567808   -1.028279   -1.027515
  41 H   1.0000    1     1.008   -1.242660   -9.654430    5.118505
  42 H   1.0000    1     1.008    0.609201   -6.839583    5.348137
  43 H   1.0000    1     1.008    0.547191   -8.590264    2.459145
  44 H   1.0000    1     1.008   -6.250930   -3.769056    2.251086
  45 H   1.0000    1     1.008   -6.940092   -4.855928   -1.921160

      -----------------------------------------------------------      
     |                   =====================                   |     
     |                           x T B                           |     
     |                   =====================                   |     
     |                         S. Grimme                         |     
     |          Mulliken Center for Theoretical Chemistry        |     
     |                    University of Bonn                     |     
      -----------------------------------------------------------      

   * xtb version 6.7.1 (edcfbbe) compiled by 'albert@albert-system' on 2024-07-22

   xtb is free software: you can redistribute it and/or modify it under
   the terms of the GNU Lesser General Public License as published by
   the Free Software Foundation, either version 3 of the License, or
   (at your option) any later version.
   
   xtb is distributed in the hope that it will be useful,
   but WITHOUT ANY WARRANTY; without even the implied warranty of
   MERCHANTABILITY or FITNESS FOR A PARTICULAR PURPOSE.  See the
   GNU Lesser General Public License for more details.
   
   Cite this work as:
   * C. Bannwarth, E. Caldeweyher, S. Ehlert, A. Hansen, P. Pracht,
     J. Seibert, S. Spicher, S. Grimme, WIREs Comput. Mol. Sci., 2020, 11,
     e01493. DOI: 10.1002/wcms.1493
   
   for GFN2-xTB:
   * C. Bannwarth, S. Ehlert and S. Grimme., J. Chem. Theory Comput., 2019,
     15, 1652-1671. DOI: 10.1021/acs.jctc.8b01176
   for GFN1-xTB:
   * S. Grimme, C. Bannwarth, P. Shushkov, J. Chem. Theory Comput., 2017,
     13, 1989-2009. DOI: 10.1021/acs.jctc.7b00118
   for GFN0-xTB:
   * P. Pracht, E. Caldeweyher, S. Ehlert, S. Grimme, ChemRxiv, 2019, preprint.
     DOI: 10.26434/chemrxiv.8326202.v1
   for GFN-FF:
   * S. Spicher and S. Grimme, Angew. Chem. Int. Ed., 2020, 59, 15665-15673.
     DOI: 10.1002/anie.202004239
   
   for ALPB and GBSA implicit solvation:
   * S. Ehlert, M. Stahn, S. Spicher, S. Grimme, J. Chem. Theory Comput.,
     2021, 17, 4250-4261. DOI: 10.1021/acs.jctc.1c00471
   
   for ddCOSMO and CPCM-X implicit solvation:
   * M. Stahn, S. Ehlert, S. Grimme, J. Phys. Chem. A,
     2023, XX, XXXX-XXXX. DOI: 10.1021/acs.jpca.3c04382
   
   for DFT-D4:
   * E. Caldeweyher, C. Bannwarth and S. Grimme, J. Chem. Phys., 2017,
     147, 034112. DOI: 10.1063/1.4993215
   * E. Caldeweyher, S. Ehlert, A. Hansen, H. Neugebauer, S. Spicher,
     C. Bannwarth and S. Grimme, J. Chem. Phys., 2019, 150, 154122.
     DOI: 10.1063/1.5090222
   * E. Caldeweyher, J.-M. Mewes, S. Ehlert and S. Grimme, Phys. Chem. Chem. Phys.
     2020, 22, 8499-8512. DOI: 10.1039/D0CP00502A
   
   for sTDA-xTB:
   * S. Grimme and C. Bannwarth, J. Chem. Phys., 2016, 145, 054103.
     DOI: 10.1063/1.4959605
   
   in the mass-spec context:
   * V. Asgeirsson, C. Bauer and S. Grimme, Chem. Sci., 2017, 8, 4879.
     DOI: 10.1039/c7sc00601b
   * J. Koopman and S. Grimme, ACS Omega 2019, 4, 12, 15120-15133.
     DOI: 10.1021/acsomega.9b02011
   
   for metadynamics refer to:
   * S. Grimme, J. Chem. Theory Comput., 2019, 155, 2847-2862
     DOI: 10.1021/acs.jctc.9b00143
   
   for SPH calculations refer to:
   * S. Spicher and S. Grimme, J. Chem. Theory Comput., 2021, 17, 1701-1714
     DOI: 10.1021/acs.jctc.0c01306
   
   for ONIOM refer to:
   * C. Plett, A. Katbashev, S. Ehlert, S. Grimme, M. Bursch,
     Phys. Chem. Chem. Phys., 2023, 25, 17860-17868. DOI: 10.1039/D3CP02178E
   
   for DIPRO refer to:
   * J. Kohn, N. Gildemeister, S. Grimme, D. Fazzi, A. Hansen,
     J. Chem. Phys., 2023, just accepted.
   
   for PTB refer to:
   * S. Grimme, M. Mueller, A. Hansen, J. Chem. Phys., 2023, 158, 124111.
     DOI: 10.1063/5.0137838
   
   with help from (in alphabetical order)
   P. Atkinson, C. Bannwarth, F. Bohle, G. Brandenburg, E. Caldeweyher
   M. Checinski, S. Dohm, S. Ehlert, S. Ehrlich, I. Gerasimov, C. Hölzer
   A. Katbashev, J. Kohn, J. Koopman, C. Lavigne, S. Lehtola, F. März, M. Müller,
   F. Musil, H. Neugebauer, J. Pisarek, C. Plett, P. Pracht, F. Pultar,
   J. Seibert, P. Shushkov, S. Spicher, M. Stahn, M. Steiner, T. Strunk,
   J. Stückrath, T. Rose, and J. Unsleber
   
 * started run on 2025/09/10 at 11:29:47.130     
   ID    Z sym.   atoms
    1    8 O      1, 6, 14, 18, 21, 24
    2    6 C      2, 4, 8-13, 15, 16, 19, 22, 23
    3    1 H      3, 5, 17, 20, 25-46
    4   14 Si     7

           -------------------------------------------------
          |                Calculation Setup                |
           -------------------------------------------------

          program call               : /home/kmoult/orca_6_1/otool_xtb goat_0_XTB.xyz --grad -c 0 -u 0 -P 4 --namespace goat_0 --input goat_0_XTB.input.tmp --alpb ACETONE --acc 0.200000
          hostname                   : node2704
          calculation namespace      : goat_0
          coordinate file            : goat_0_XTB.xyz
          omp threads                :                     4


           -------------------------------------------------
          |                 G F N 2 - x T B                 |
           -------------------------------------------------

        Reference                      10.1021/acs.jctc.8b01176
      * Hamiltonian:
        H0-scaling (s, p, d)           1.850000    2.230000    2.230000
        zeta-weighting                 0.500000
      * Dispersion:
        s8                             2.700000
        a1                             0.520000
        a2                             5.000000
        s9                             5.000000
      * Repulsion:
        kExp                           1.500000    1.000000
        rExp                           1.000000
      * Coulomb:
        alpha                          2.000000
        third order                    shell-resolved
        anisotropic                    true
        a3                             3.000000
        a5                             4.000000
        cn-shift                       1.200000
        cn-exp                         4.000000
        max-rad                        5.000000

      * Solvation model:               ALPB
        Solvent                        ACETONE
        Parameter file                 internal GFN2-xTB/ALPB
        Dielectric constant                2.0700E+01
        Reference state                gsolv [1 M gas/solution]
        Free energy shift                  5.9241E-03 Eh       3.7175E+00 kcal/mol
        Temperature                        2.9815E+02 K
        Density                            7.9000E-01 kg/L
        Solvent mass                       5.8080E+01 g/mol
        Interaction kernel             P16
        Born radius scaling (c1)           1.8274E+00
        Born radii integrator          GBOBC
        Born offset                        0.0000E+00 a0       0.0000E+00 AA
        H-bond correction              true
        Ion screening                  false
        Surface tension                    1.0000E-05 Eh       1.5569E+01 dyn/cm
        Grid points                               230 per atom
q/qsh data taken from xtbrestart
CAMM data taken from xtbrestart

          ...................................................
          :                      SETUP                      :
          :.................................................:
          :  # basis functions                 112          :
          :  # atomic orbitals                 111          :
          :  # shells                           67          :
          :  # electrons                       118          :
          :  max. iterations                   250          :
          :  Hamiltonian                  GFN2-xTB          :
          :  restarted?                       true          :
          :  GBSA solvation                   true          :
          :  PC potential                    false          :
          :  electronic temp.          300.0000000     K    :
          :  accuracy                    0.2000000          :
          :  -> integral cutoff          0.3198970E+02      :
          :  -> integral neglect         0.2000000E-08      :
          :  -> SCF convergence          0.2000000E-06 Eh   :
          :  -> wf. convergence          0.2000000E-04 e    :
          :  Broyden damping             0.4000000          :
          :  net charge                          0          :
          :  unpaired electrons                  0          :
          ...................................................

 iter      E             dE          RMSdq      gap      omega  full diag
   1    -68.0087935 -0.680088E+02  0.499E-02    5.67       0.0  T
   2    -68.0087940 -0.512947E-06  0.322E-02    5.67       1.0  T
   3    -68.0087939  0.116804E-06  0.725E-03    5.67       2.0  T
   4    -68.0087940 -0.612345E-07  0.569E-03    5.67       2.6  T
   5    -68.0087943 -0.309657E-06  0.179E-03    5.67       8.2  T
   6    -68.0087943 -0.135675E-07  0.598E-04    5.67      24.6  T
   7    -68.0087943 -0.197385E-08  0.232E-04    5.67      63.6  T
   8    -68.0087943 -0.151815E-09  0.118E-04    5.67     124.5  T
   9    -68.0087943 -0.500791E-10  0.515E-05    5.67     286.3  T

   *** convergence criteria satisfied after 9 iterations ***

         #    Occupation            Energy/Eh            Energy/eV
      -------------------------------------------------------------
         1        2.0000           -0.8151187             -22.1805
       ...           ...                  ...                  ...
        53        2.0000           -0.4307403             -11.7210
        54        2.0000           -0.4236873             -11.5291
        55        2.0000           -0.4211665             -11.4605
        56        2.0000           -0.4172945             -11.3552
        57        2.0000           -0.4160478             -11.3212
        58        2.0000           -0.4092767             -11.1370
        59        2.0000           -0.3767096             -10.2508 (HOMO)
        60                         -0.1684446              -4.5836 (LUMO)
        61                         -0.1318839              -3.5887
        62                         -0.0954603              -2.5976
        63                         -0.0493155              -1.3419
        64                         -0.0080531              -0.2191
       ...                                ...                  ...
       111                          0.7883867              21.4531
      -------------------------------------------------------------
                  HL-Gap            0.2082650 Eh            5.6672 eV
             Fermi-level           -0.2725771 Eh           -7.4172 eV

 SCC (total)                   0 d,  0 h,  0 min,  0.029 sec
 SCC setup                      ...        0 min,  0.001 sec (  1.968%)
 Dispersion                     ...        0 min,  0.000 sec (  0.930%)
 classical contributions        ...        0 min,  0.000 sec (  0.143%)
 integral evaluation            ...        0 min,  0.004 sec ( 15.382%)
 iterations                     ...        0 min,  0.014 sec ( 49.690%)
 molecular gradient             ...        0 min,  0.009 sec ( 31.351%)
 printout                       ...        0 min,  0.000 sec (  0.486%)

         :::::::::::::::::::::::::::::::::::::::::::::::::::::
         ::                     SUMMARY                     ::
         :::::::::::::::::::::::::::::::::::::::::::::::::::::
         :: total energy             -67.354759601452 Eh    ::
         :: total w/o Gsasa/hb       -67.327164250284 Eh    ::
         :: gradient norm              0.001801338044 Eh/a0 ::
         :: HOMO-LUMO gap              5.667180061486 eV    ::
         ::.................................................::
         :: SCC energy               -68.007907297677 Eh    ::
         :: -> isotropic ES            0.154376323301 Eh    ::
         :: -> anisotropic ES          0.001017769782 Eh    ::
         :: -> anisotropic XC          0.002384458978 Eh    ::
         :: -> dispersion             -0.044933216384 Eh    ::
         :: -> Gsolv                  -0.030550904972 Eh    ::
         ::    -> Gelec               -0.002955553804 Eh    ::
         ::    -> Gsasa               -0.027899840750 Eh    ::
         ::    -> Ghb                 -0.005619651682 Eh    ::
         ::    -> Gshift               0.005924141264 Eh    ::
         :: repulsion energy           0.653147696225 Eh    ::
         :: add. restraining           0.000000000000 Eh    ::
         :: total charge              -0.000000000000 e     ::
         :::::::::::::::::::::::::::::::::::::::::::::::::::::


Property printout bound to 'properties.out'

           -------------------------------------------------
          | TOTAL ENERGY              -67.354759601452 Eh   |
          | GRADIENT NORM               0.001801338044 Eh/α |
          | HOMO-LUMO GAP               5.667180061486 eV   |
           -------------------------------------------------

------------------------------------------------------------------------
 * finished run on 2025/09/10 at 11:29:47.180     
------------------------------------------------------------------------
 total:
 * wall-time:     0 d,  0 h,  0 min,  0.050 sec
 *  cpu-time:     0 d,  0 h,  0 min,  0.180 sec
 * ratio c/w:     3.605 speedup
 SCF:
 * wall-time:     0 d,  0 h,  0 min,  0.029 sec
 *  cpu-time:     0 d,  0 h,  0 min,  0.114 sec
 * ratio c/w:     3.978 speedup


-------------------------   --------------------
FINAL SINGLE POINT ENERGY       -67.354759601450
-------------------------   --------------------


-------------
DIPOLE MOMENT
-------------
                                X             Y             Z
Total Dipole Moment    :      0.31300       0.75800      -0.34300
                        -----------------------------------------
Magnitude (a.u.)       :      0.88892
Magnitude (Debye)      :      2.25946


------------------
CARTESIAN GRADIENT
------------------

   1   O   :   -0.000270694   -0.000062362   -0.000006483
   2   C   :    0.000346854    0.000205995   -0.000013769
   3   H   :   -0.000043175   -0.000043212    0.000011664
   4   C   :   -0.000052947   -0.000139880    0.000136285
   5   H   :   -0.000101896    0.000149760   -0.000007266
   6   O   :   -0.000366214   -0.000372957    0.000271923
   7   Si  :   -0.000037410    0.000668398    0.000091303
   8   C   :   -0.000231696    0.000080442    0.000055192
   9   C   :    0.000134745   -0.000194773   -0.000180244
  10   C   :   -0.000048766   -0.000106450   -0.000147292
  11   C   :   -0.000073867    0.000286460   -0.000146388
  12   C   :    0.000197199   -0.000005545    0.000078070
  13   C   :   -0.000089291   -0.000179639    0.000018468
  14   O   :    0.000503281   -0.000399341    0.000057864
  15   C   :   -0.000234852    0.000105044    0.000034275
  16   C   :    0.000320585   -0.000018518   -0.000232377
  17   H   :    0.000029766   -0.000002126    0.000028775
  18   O   :   -0.000303140   -0.000040263   -0.000130999
  19   C   :   -0.000296737    0.000325229    0.000150056
  20   H   :    0.000089143   -0.000211039   -0.000082153
  21   O   :    0.000395019   -0.000030537   -0.000073637
  22   C   :   -0.000235002    0.000230090   -0.000059370
  23   C   :   -0.000092937    0.000146571    0.000159252
  24   O   :    0.000165562   -0.000260678   -0.000237080
  25   H   :    0.000257322    0.000003179    0.000042035
  26   H   :   -0.000020457   -0.000133408   -0.000071614
  27   H   :    0.000022291    0.000025972   -0.000011012
  28   H   :   -0.000027279    0.000024025    0.000070818
  29   H   :    0.000000596    0.000002601    0.000028743
  30   H   :    0.000022254    0.000017451   -0.000025880
  31   H   :    0.000026767   -0.000035869    0.000053179
  32   H   :   -0.000022697    0.000025376    0.000042887
  33   H   :   -0.000014607   -0.000121303    0.000066992
  34   H   :   -0.000018628   -0.000021617   -0.000026652
  35   H   :   -0.000020833   -0.000042522   -0.000099048
  36   H   :   -0.000004363   -0.000000188   -0.000005616
  37   H   :    0.000032710   -0.000040265    0.000026019
  38   H   :   -0.000007543    0.000028474    0.000036000
  39   H   :    0.000037739    0.000102464   -0.000011883
  40   H   :    0.000043268    0.000043450   -0.000006016
  41   H   :   -0.000066113    0.000065330   -0.000068248
  42   H   :    0.000037233   -0.000015708    0.000005863
  43   H   :   -0.000009771   -0.000048402    0.000048368
  44   H   :   -0.000000569   -0.000083149   -0.000009570
  45   H   :    0.000016173    0.000013848   -0.000048776
  46   H   :    0.000012977    0.000059592    0.000187343

Difference to translation invariance:
           :   -0.0000000000    0.0000000000   -0.0000000000

Difference to rotation invariance:
           :    0.0002547148   -0.0002548372   -0.0000149792

Norm of the Cartesian gradient     ...    0.0018013380
RMS gradient                       ...    0.0001533401
MAX gradient                       ...    0.0006683976
------------------------------------------------------------------------------
                         ORCA GEOMETRY RELAXATION STEP
------------------------------------------------------------------------------

Reading the OPT-File                    .... done
Getting information on internals        .... done
Copying old internal coords+grads       .... done
Making the new internal coordinates     .... (2022 redundants) done
Validating the new internal coordinates .... (2022 redundants) done
Calculating the B-matrix                .... done
Calculating the G,G- and P matrices     .... done
Transforming gradient to internals      .... done
Projecting the internal gradient        .... done
Number of atoms                         ....  46
Number of internal coordinates          .... 235
Current Energy                          ....   -67.354759601 Eh
Current gradient norm                   ....     0.001801338 Eh/bohr
Maximum allowed component of the step   ....  0.300
Current trust radius                    ....  0.300
Updating the Hessian (BFGS)             .... done
Forming the augmented Hessian           .... done
Diagonalizing the augmented Hessian     .... done
Last element of RFO vector              ....  0.999580583
Lowest eigenvalues of augmented Hessian:
 -0.000009292  0.001654437  0.004307442  0.010114818  0.010724649
Length of the computed step             ....  0.028971728
The final length of the internal step   ....  0.028971728
Converting the step to Cartesian space:
 Initial RMS(Int)=    0.0018899072
Transforming coordinates:
 Iter   0:  RMS(Cart)=    0.0075228840 RMS(Int)=    0.0018915137
done
Storing new coordinates                 .... done
The predicted energy change is          ....    -0.000004650
Previously predicted energy change      ....    -0.000012250
Actually observed energy change         ....    -0.000015647
Ratio of predicted to observed change   ....     1.277338126
New trust radius                        ....     0.300000000

                                .--------------------.
          ----------------------|Geometry convergence|-------------------------
          Item                value                   Tolerance       Converged
          ---------------------------------------------------------------------
          Energy change      -0.0000156471            0.0000050000      NO
          RMS gradient        0.0000878096            0.0001000000      YES
          MAX gradient        0.0003807798            0.0003000000      NO
          RMS step            0.0018899072            0.0020000000      YES
          MAX step            0.0087913004            0.0040000000      NO
          -------------------------------------------------------------------------
          ........................................................
          Max(Bonds)      0.0025      Max(Angles)    0.14
          Max(Dihed)        0.50      Max(Improp)    0.00
          ---------------------------------------------------------------------

    ---------------------------------------------------------------------------
                         Redundant Internal Coordinates
                            (Angstroem and degrees)

        Definition                    Value    dE/dq     Step     New-Value
    ----------------------------------------------------------------------------
     1. B(C   1,O   0)                1.4065  0.000098 -0.0002    1.4063   
     2. B(H   2,C   1)                1.1024 -0.000037  0.0000    1.1024   
     3. B(C   3,C   1)                1.5303  0.000021  0.0002    1.5306   
     4. B(H   4,C   3)                1.0998  0.000059 -0.0001    1.0997   
     5. B(O   5,C   3)                1.3996 -0.000187  0.0001    1.3997   
     6. B(Si  6,O   5)                1.6492  0.000308 -0.0002    1.6490   
     7. B(C   7,Si  6)                1.9105 -0.000372  0.0004    1.9109   
     8. B(C   8,C   7)                1.5287 -0.000203  0.0003    1.5290   
     9. B(C   9,C   7)                1.5308 -0.000066  0.0001    1.5309   
    10. B(C  10,Si  6)                1.9222  0.000065 -0.0003    1.9220   
    11. B(C  11,C  10)                1.5292 -0.000139  0.0002    1.5294   
    12. B(C  12,C  10)                1.5308 -0.000079  0.0001    1.5309   
    13. B(O  13,Si  6)                1.6467  0.000381 -0.0004    1.6464   
    14. B(C  14,O  13)                1.3971 -0.000180  0.0001    1.3972   
    15. B(C  15,C   3)                1.5318  0.000028  0.0001    1.5318   
    16. B(C  15,C  14)                1.5338 -0.000093  0.0002    1.5341   
    17. B(H  16,C  15)                1.0964  0.000031 -0.0001    1.0964   
    18. B(O  17,C  15)                1.4091 -0.000085  0.0001    1.4093   
    19. B(C  18,O  17)                1.4188 -0.000251  0.0001    1.4189   
    20. B(H  19,C  18)                1.1090  0.000159 -0.0001    1.1088   
    21. B(O  20,C  18)                1.3815 -0.000124  0.0000    1.3815   
    22. B(C  21,O  20)                1.4195 -0.000213  0.0002    1.4197   
    23. B(C  22,C  18)                1.5366 -0.000228  0.0004    1.5370   
    24. B(C  22,C   1)                1.5348 -0.000004  0.0001    1.5349   
    25. B(O  23,C  22)                1.4024  0.000128 -0.0003    1.4021   
    26. B(H  24,O   0)                0.9672 -0.000048  0.0000    0.9672   
    27. B(H  24,O   5)                2.3665 -0.000144  0.0025    2.3690   
    28. B(H  25,C   7)                1.0933 -0.000039  0.0001    1.0934   
    29. B(H  26,C   8)                1.0865 -0.000035  0.0000    1.0866   
    30. B(H  27,C   8)                1.0855 -0.000042  0.0000    1.0855   
    31. B(H  28,C   8)                1.0892  0.000016 -0.0000    1.0891   
    32. B(H  29,C   9)                1.0880 -0.000040  0.0001    1.0881   
    33. B(H  30,C   9)                1.0891 -0.000003 -0.0000    1.0891   
    34. B(H  31,C   9)                1.0864 -0.000038  0.0000    1.0864   
    35. B(H  32,C  10)                1.0984  0.000091 -0.0001    1.0983   
    36. B(H  33,C  11)                1.0869 -0.000032  0.0000    1.0870   
    37. B(H  34,C  11)                1.0864 -0.000020  0.0000    1.0864   
    38. B(H  35,C  11)                1.0889  0.000007 -0.0000    1.0888   
    39. B(H  36,C  12)                1.0871 -0.000022  0.0000    1.0872   
    40. B(H  37,C  12)                1.0887 -0.000034  0.0000    1.0887   
    41. B(H  38,C  12)                1.0863 -0.000042  0.0000    1.0864   
    42. B(H  39,C  14)                1.0948  0.000019 -0.0000    1.0948   
    43. B(H  40,C  14)                1.0951  0.000039 -0.0001    1.0950   
    44. B(H  41,C  21)                1.0872  0.000003 -0.0000    1.0872   
    45. B(H  42,C  21)                1.0922 -0.000003 -0.0000    1.0922   
    46. B(H  43,C  21)                1.0954  0.000031 -0.0000    1.0953   
    47. B(H  44,C  22)                1.0995 -0.000046  0.0001    1.0996   
    48. B(H  45,O   0)                2.5453 -0.000002  0.0008    2.5462   
    49. B(H  45,O  23)                0.9674 -0.000069  0.0001    0.9675   
    50. A(C   1,O   0,H  24)          107.63 -0.000236    0.04    107.67   
    51. A(H   2,C   1,C   3)          109.07  0.000056   -0.03    109.04   
    52. A(O   0,C   1,C   3)          111.10  0.000048    0.02    111.12   
    53. A(H   2,C   1,C  22)          108.86  0.000011   -0.00    108.85   
    54. A(O   0,C   1,H   2)          109.37 -0.000014    0.03    109.40   
    55. A(O   0,C   1,C  22)          107.82 -0.000053   -0.00    107.82   
    56. A(C   3,C   1,C  22)          110.58 -0.000051   -0.02    110.57   
    57. A(O   5,C   3,C  15)          113.43 -0.000016   -0.00    113.43   
    58. A(C   1,C   3,H   4)          107.91  0.000049   -0.03    107.88   
    59. A(H   4,C   3,C  15)          108.42  0.000166   -0.04    108.38   
    60. A(H   4,C   3,O   5)          106.76 -0.000093    0.03    106.79   
    61. A(C   1,C   3,C  15)          110.20 -0.000114    0.01    110.22   
    62. A(C   1,C   3,O   5)          109.91  0.000017    0.03    109.94   
    63. A(C   3,O   5,Si  6)          123.56 -0.000004    0.01    123.56   
    64. A(C  10,Si  6,O  13)          108.19 -0.000177    0.05    108.23   
    65. A(O   5,Si  6,C   7)          108.16 -0.000033    0.03    108.19   
    66. A(C   7,Si  6,O  13)          107.43  0.000064   -0.00    107.42   
    67. A(O   5,Si  6,O  13)          107.92 -0.000009    0.03    107.94   
    68. A(O   5,Si  6,C  10)          109.78  0.000099   -0.12    109.65   
    69. A(C   7,Si  6,C  10)          115.14  0.000052    0.02    115.16   
    70. A(C   8,C   7,H  25)          107.64  0.000032   -0.02    107.62   
    71. A(Si  6,C   7,C   8)          111.75  0.000063    0.00    111.75   
    72. A(Si  6,C   7,H  25)          107.70 -0.000047    0.01    107.71   
    73. A(C   8,C   7,C   9)          109.66  0.000069   -0.02    109.64   
    74. A(Si  6,C   7,C   9)          112.32 -0.000164    0.05    112.37   
    75. A(C   9,C   7,H  25)          107.56  0.000052   -0.03    107.53   
    76. A(H  27,C   8,H  28)          108.43  0.000008    0.00    108.43   
    77. A(C   7,C   8,H  28)          110.36 -0.000021    0.01    110.37   
    78. A(C   7,C   8,H  27)          111.07  0.000124   -0.02    111.04   
    79. A(C   7,C   8,H  26)          110.25 -0.000031   -0.00    110.25   
    80. A(H  26,C   8,H  27)          108.17 -0.000035    0.00    108.17   
    81. A(H  26,C   8,H  28)          108.49 -0.000048    0.01    108.50   
    82. A(H  30,C   9,H  31)          108.63 -0.000042    0.01    108.64   
    83. A(C   7,C   9,H  31)          110.62  0.000037   -0.01    110.61   
    84. A(C   7,C   9,H  30)          110.38  0.000101   -0.01    110.37   
    85. A(C   7,C   9,H  29)          110.32 -0.000034   -0.00    110.32   
    86. A(H  29,C   9,H  31)          108.59 -0.000031    0.01    108.60   
    87. A(H  29,C   9,H  30)          108.24 -0.000035    0.00    108.24   
    88. A(Si  6,C  10,C  12)          111.03 -0.000111    0.04    111.07   
    89. A(Si  6,C  10,H  32)          108.06 -0.000081    0.01    108.07   
    90. A(Si  6,C  10,C  11)          113.76  0.000220   -0.07    113.69   
    91. A(C  11,C  10,C  12)          109.43 -0.000070    0.01    109.44   
    92. A(C  12,C  10,H  32)          107.12  0.000032    0.01    107.13   
    93. A(C  11,C  10,H  32)          107.14  0.000004    0.00    107.15   
    94. A(C  10,C  11,H  35)          110.46 -0.000022    0.02    110.47   
    95. A(H  34,C  11,H  35)          108.59 -0.000033    0.02    108.61   
    96. A(H  33,C  11,H  35)          108.08 -0.000023    0.01    108.09   
    97. A(H  33,C  11,H  34)          108.41  0.000011   -0.02    108.39   
    98. A(C  10,C  11,H  34)          111.12  0.000033   -0.01    111.10   
    99. A(C  10,C  11,H  33)          110.11  0.000033   -0.02    110.09   
   100. A(H  36,C  12,H  38)          108.05 -0.000118    0.02    108.07   
   101. A(C  10,C  12,H  38)          110.85  0.000119   -0.03    110.82   
   102. A(H  36,C  12,H  37)          108.31  0.000004    0.00    108.31   
   103. A(C  10,C  12,H  37)          110.54 -0.000000    0.00    110.55   
   104. A(C  10,C  12,H  36)          110.21 -0.000031   -0.00    110.21   
   105. A(H  37,C  12,H  38)          108.79  0.000021    0.01    108.80   
   106. A(Si  6,O  13,C  14)          121.14 -0.000172    0.14    121.28   
   107. A(O  13,C  14,C  15)          111.03  0.000102    0.04    111.07   
   108. A(H  39,C  14,H  40)          108.60  0.000048   -0.01    108.58   
   109. A(O  13,C  14,H  40)          109.80 -0.000030    0.00    109.80   
   110. A(C  15,C  14,H  39)          109.00  0.000004   -0.02    108.97   
   111. A(O  13,C  14,H  39)          107.58 -0.000122    0.01    107.59   
   112. A(C  15,C  14,H  40)          110.75 -0.000005   -0.02    110.73   
   113. A(H  16,C  15,O  17)          104.81 -0.000060   -0.01    104.80   
   114. A(C  14,C  15,O  17)          113.26  0.000106   -0.05    113.21   
   115. A(C   3,C  15,O  17)          110.30 -0.000129    0.02    110.32   
   116. A(C  14,C  15,H  16)          107.10 -0.000042    0.01    107.11   
   117. A(C   3,C  15,H  16)          108.45  0.000034    0.00    108.45   
   118. A(C   3,C  15,C  14)          112.47  0.000082    0.02    112.49   
   119. A(C  15,O  17,C  18)          116.82  0.000096    0.01    116.82   
   120. A(O  20,C  18,C  22)          107.36  0.000059   -0.02    107.33   
   121. A(H  19,C  18,C  22)          108.50  0.000035   -0.03    108.47   
   122. A(O  17,C  18,C  22)          113.22  0.000019    0.03    113.25   
   123. A(H  19,C  18,O  20)          110.38 -0.000116    0.04    110.43   
   124. A(O  17,C  18,O  20)          107.50 -0.000037    0.01    107.51   
   125. A(O  17,C  18,H  19)          109.84  0.000035   -0.02    109.82   
   126. A(C  18,O  20,C  21)          114.52  0.000209   -0.01    114.51   
   127. A(H  42,C  21,H  43)          109.63  0.000025   -0.02    109.61   
   128. A(H  41,C  21,H  43)          109.95 -0.000073    0.02    109.97   
   129. A(O  20,C  21,H  43)          110.50  0.000043   -0.01    110.50   
   130. A(H  41,C  21,H  42)          110.17 -0.000067    0.03    110.20   
   131. A(O  20,C  21,H  42)          110.88  0.000053   -0.01    110.87   
   132. A(O  20,C  21,H  41)          105.65  0.000016   -0.02    105.63   
   133. A(O  23,C  22,H  44)          110.93 -0.000009    0.02    110.96   
   134. A(C  18,C  22,H  44)          107.64  0.000030   -0.03    107.62   
   135. A(C  18,C  22,O  23)          107.07 -0.000143   -0.00    107.07   
   136. A(C   1,C  22,H  44)          108.71 -0.000017   -0.03    108.69   
   137. A(C   1,C  22,O  23)          110.76  0.000143    0.00    110.76   
   138. A(C   1,C  22,C  18)          111.69 -0.000008    0.02    111.71   
   139. A(C  22,O  23,H  45)          107.65 -0.000305    0.07    107.72   
   140. D(C   3,C   1,O   0,H  24)     42.31  0.000083    0.22     42.53   
   141. D(C  22,C   1,O   0,H  24)    163.64  0.000015    0.21    163.85   
   142. D(H   2,C   1,O   0,H  24)    -78.14 -0.000008    0.23    -77.91   
   143. D(H   4,C   3,C   1,H   2)    176.30 -0.000005    0.08    176.38   
   144. D(H   4,C   3,C   1,C  22)    -64.03  0.000013    0.05    -63.98   
   145. D(O   5,C   3,C   1,O   0)    -60.40  0.000019    0.02    -60.38   
   146. D(O   5,C   3,C   1,C  22)    179.91  0.000088    0.02    179.93   
   147. D(O   5,C   3,C   1,H   2)     60.24  0.000070    0.05     60.29   
   148. D(H   4,C   3,C   1,O   0)     55.66 -0.000055    0.05     55.71   
   149. D(Si  6,O   5,C   3,C  15)     29.25 -0.000090   -0.03     29.22   
   150. D(Si  6,O   5,C   3,C   1)    -94.62  0.000058   -0.07    -94.69   
   151. D(Si  6,O   5,C   3,H   4)    148.60  0.000044   -0.06    148.54   
   152. D(O  13,Si  6,O   5,C   3)    -11.62  0.000031    0.29    -11.33   
   153. D(C  10,Si  6,O   5,C   3)    106.08 -0.000132    0.29    106.37   
   154. D(C   7,Si  6,O   5,C   3)   -127.55 -0.000022    0.26   -127.29   
   155. D(C   9,C   7,Si  6,O  13)    -35.70 -0.000043   -0.06    -35.76   
   156. D(C   8,C   7,Si  6,O   5)    -43.18 -0.000053   -0.03    -43.21   
   157. D(C   8,C   7,Si  6,O  13)   -159.43 -0.000058   -0.07   -159.50   
   158. D(C   8,C   7,Si  6,C  10)     80.00  0.000087   -0.15     79.85   
   159. D(C   9,C   7,Si  6,O   5)     80.55 -0.000037   -0.01     80.54   
   160. D(C   9,C   7,Si  6,C  10)   -156.27  0.000103   -0.13   -156.40   
   161. D(H  26,C   8,C   7,C   9)    -64.69  0.000082   -0.05    -64.74   
   162. D(H  27,C   8,C   7,C   9)    175.42  0.000066   -0.03    175.39   
   163. D(H  27,C   8,C   7,Si  6)    -59.36 -0.000050    0.02    -59.34   
   164. D(H  26,C   8,C   7,H  25)    178.58 -0.000035    0.01    178.59   
   165. D(H  27,C   8,C   7,H  25)     58.70 -0.000051    0.02     58.72   
   166. D(H  26,C   8,C   7,Si  6)     60.52 -0.000034    0.01     60.53   
   167. D(H  30,C   9,C   7,Si  6)    176.64 -0.000043   -0.03    176.61   
   168. D(H  29,C   9,C   7,H  25)    177.89  0.000077   -0.07    177.82   
   169. D(H  29,C   9,C   7,C   8)     61.11 -0.000027   -0.02     61.09   
   170. D(H  29,C   9,C   7,Si  6)    -63.78 -0.000043   -0.04    -63.82   
   171. D(H  30,C   9,C   7,H  25)     58.31  0.000077   -0.06     58.25   
   172. D(H  30,C   9,C   7,C   8)    -58.47 -0.000027   -0.01    -58.48   
   173. D(C  12,C  10,Si  6,C   7)     67.51 -0.000017   -0.11     67.41   
   174. D(C  12,C  10,Si  6,O   5)   -170.17  0.000055   -0.14   -170.31   
   175. D(C  11,C  10,Si  6,O  13)   -176.61  0.000010   -0.14   -176.75   
   176. D(C  11,C  10,Si  6,C   7)    -56.45 -0.000004   -0.10    -56.55   
   177. D(C  12,C  10,Si  6,O  13)    -52.64 -0.000003   -0.15    -52.79   
   178. D(C  11,C  10,Si  6,O   5)     65.86  0.000068   -0.13     65.73   
   179. D(H  34,C  11,C  10,C  12)   -178.03 -0.000041    0.29   -177.73   
   180. D(H  34,C  11,C  10,Si  6)    -53.20 -0.000080    0.30    -52.90   
   181. D(H  33,C  11,C  10,H  32)   -173.71  0.000010    0.22   -173.49   
   182. D(H  33,C  11,C  10,C  12)    -57.90  0.000015    0.24    -57.65   
   183. D(H  33,C  11,C  10,Si  6)     66.93 -0.000024    0.25     67.17   
   184. D(H  34,C  11,C  10,H  32)     66.16 -0.000046    0.27     66.43   
   185. D(H  37,C  12,C  10,H  32)     57.09  0.000057   -0.02     57.07   
   186. D(H  37,C  12,C  10,C  11)    -58.74  0.000070   -0.03    -58.78   
   187. D(H  37,C  12,C  10,Si  6)    174.86 -0.000083    0.02    174.88   
   188. D(H  36,C  12,C  10,H  32)    176.79  0.000042   -0.01    176.78   
   189. D(H  36,C  12,C  10,C  11)     60.96  0.000055   -0.03     60.93   
   190. D(H  36,C  12,C  10,Si  6)    -65.44 -0.000097    0.03    -65.41   
   191. D(C  14,O  13,Si  6,C  10)    -98.60 -0.000019   -0.40    -99.00   
   192. D(C  14,O  13,Si  6,C   7)    136.53 -0.000014   -0.45    136.08   
   193. D(C  14,O  13,Si  6,O   5)     20.12 -0.000004   -0.50     19.62   
   194. D(H  40,C  14,O  13,Si  6)     77.70 -0.000004    0.48     78.18   
   195. D(H  39,C  14,O  13,Si  6)   -164.29 -0.000034    0.47   -163.82   
   196. D(C  15,C  14,O  13,Si  6)    -45.10 -0.000046    0.47    -44.63   
   197. D(H  16,C  15,C   3,H   4)    -53.57  0.000059   -0.05    -53.62   
   198. D(H  16,C  15,C   3,C   1)   -171.46 -0.000032    0.00   -171.46   
   199. D(C  14,C  15,C   3,O   5)    -53.43  0.000025   -0.07    -53.50   
   200. D(C  14,C  15,C   3,H   4)   -171.83  0.000040   -0.08   -171.90   
   201. D(H  16,C  15,C   3,O   5)     64.83  0.000045   -0.05     64.78   
   202. D(C  14,C  15,C   3,C   1)     70.28 -0.000052   -0.02     70.26   
   203. D(H  16,C  15,C  14,H  40)   -179.69  0.000042   -0.22   -179.92   
   204. D(H  16,C  15,C  14,H  39)     60.90 -0.000017   -0.18     60.71   
   205. D(H  16,C  15,C  14,O  13)    -57.44  0.000070   -0.20    -57.64   
   206. D(C   3,C  15,C  14,H  40)    -60.64  0.000104   -0.20    -60.84   
   207. D(C   3,C  15,C  14,H  39)    179.95  0.000045   -0.16    179.78   
   208. D(C   3,C  15,C  14,O  13)     61.61  0.000132   -0.18     61.43   
   209. D(C  18,O  17,C  15,H  16)    173.77  0.000066   -0.06    173.71   
   210. D(C  18,O  17,C  15,C  14)    -69.83  0.000032   -0.07    -69.90   
   211. D(C  18,O  17,C  15,C   3)     57.23  0.000121   -0.07     57.16   
   212. D(C  22,C  18,O  17,C  15)    -52.03 -0.000025    0.10    -51.93   
   213. D(O  20,C  18,O  17,C  15)   -170.43 -0.000085    0.11   -170.32   
   214. D(H  19,C  18,O  17,C  15)     69.44  0.000057    0.06     69.50   
   215. D(C  21,O  20,C  18,C  22)    167.19  0.000009   -0.02    167.16   
   216. D(C  21,O  20,C  18,H  19)     49.10 -0.000003    0.00     49.10   
   217. D(C  21,O  20,C  18,O  17)    -70.69  0.000045   -0.00    -70.70   
   218. D(H  43,C  21,O  20,C  18)    -59.80 -0.000058    0.06    -59.74   
   219. D(H  42,C  21,O  20,C  18)     61.97  0.000039    0.03     61.99   
   220. D(H  41,C  21,O  20,C  18)   -178.69 -0.000003    0.05   -178.64   
   221. D(O  23,C  22,C  18,O  20)    -73.94  0.000029   -0.03    -73.97   
   222. D(O  23,C  22,C  18,H  19)     45.37 -0.000057   -0.01     45.36   
   223. D(C   1,C  22,C  18,O  20)    164.65 -0.000049   -0.05    164.60   
   224. D(C   1,C  22,C  18,H  19)    -76.04 -0.000135   -0.03    -76.08   
   225. D(C   1,C  22,C  18,O  17)     46.17 -0.000053   -0.06     46.11   
   226. D(O  23,C  22,C   1,C   3)   -167.81  0.000020    0.02   -167.79   
   227. D(O  23,C  22,C   1,H   2)    -48.01  0.000066   -0.02    -48.04   
   228. D(O  23,C  22,C   1,O   0)     70.54  0.000026    0.01     70.55   
   229. D(O  23,C  22,C  18,O  17)    167.58  0.000025   -0.04    167.54   
   230. D(C  18,C  22,C   1,C   3)    -48.56 -0.000070    0.04    -48.53   
   231. D(C  18,C  22,C   1,H   2)     71.24 -0.000024   -0.01     71.23   
   232. D(C  18,C  22,C   1,O   0)   -170.21 -0.000064    0.03   -170.18   
   233. D(H  45,O  23,C  22,H  44)     60.65 -0.000006    0.01     60.66   
   234. D(H  45,O  23,C  22,C  18)    177.83 -0.000059   -0.01    177.83   
   235. D(H  45,O  23,C  22,C   1)    -60.17 -0.000075    0.02    -60.15   
    ----------------------------------------------------------------------------

Geometry step timings:
Preparation and reading OPT file:      0.001 s ( 4.946 %)
Internal coordinates            :      0.000 s ( 0.158 %)
B/P matrices and projection     :      0.004 s (22.011 %)
Hessian update/contruction      :      0.009 s (44.536 %)
Making the step                 :      0.003 s (14.911 %)
Converting the step to Cartesian:      0.000 s ( 1.912 %)
Storing new data                :      0.001 s ( 4.032 %)
Checking convergence            :      0.000 s ( 0.153 %)
Final printing                  :      0.001 s ( 7.342 %)
Total time                      :      0.020 s

Time for energy+gradient        :      0.075 s
Time for complete geometry iter :      0.106 s

         *************************************************************
         *                GEOMETRY OPTIMIZATION CYCLE  12            *
         *************************************************************
---------------------------------
CARTESIAN COORDINATES (ANGSTROEM)
---------------------------------
  O    -3.767403   -0.095023   -0.453197
  C    -2.463716   -0.494000   -0.108154
  H    -1.823261   -0.467851   -1.005103
  C    -1.868236    0.429221    0.957589
  H    -2.554567    0.439673    1.816795
  O    -1.807436    1.740886    0.472820
  Si   -0.468182    2.388593   -0.238512
  C    -0.053986    4.028221    0.651307
  C    -1.308316    4.861082    0.917483
  C     0.702842    3.804161    1.963103
  C    -0.750284    2.536127   -2.133918
  C    -1.847423    3.530748   -2.516314
  C     0.547679    2.906517   -2.856237
  O     0.790068    1.357918    0.016346
  C     0.574303    0.019447    0.354282
  C    -0.513687   -0.109732    1.428051
  H    -0.186207    0.480865    2.291734
  O    -0.653869   -1.422239    1.921697
  C    -1.205626   -2.383875    1.036191
  H    -0.486634   -2.599729    0.220111
  O    -1.459771   -3.526712    1.769679
  C    -0.298835   -4.232551    2.181532
  C    -2.535576   -1.937680    0.408127
  O    -2.814775   -2.826899   -0.639366
  H    -3.768721    0.869166   -0.529852
  H     0.595601    4.609886   -0.008475
  H    -1.997627    4.310545    1.551806
  H    -1.819947    5.102225   -0.009002
  H    -1.046005    5.791950    1.418384
  H     0.080156    3.260065    2.670324
  H     0.974296    4.758582    2.411922
  H     1.609804    3.232117    1.788408
  H    -1.060125    1.551821   -2.509907
  H    -1.537126    4.542482   -2.268110
  H    -2.771671    3.316151   -1.987163
  H    -2.042301    3.489846   -3.586801
  H     0.870348    3.902138   -2.562010
  H     0.400030    2.899655   -3.934879
  H     1.341261    2.207681   -2.607109
  H     1.514503   -0.377375    0.750653
  H     0.304853   -0.550488   -0.541096
  H    -0.661840   -5.105849    2.717859
  H     0.318612   -3.616223    2.838564
  H     0.288712   -4.545275    1.311603
  H    -3.307873   -1.994612    1.188722
  H    -3.668093   -2.575411   -1.019627

----------------------------
CARTESIAN COORDINATES (A.U.)
----------------------------
  NO LB    ZA    FRAG    MASS        X           Y           Z
   0 O   8.0000    1    15.999   -7.119361   -0.179567   -0.856418
   1 C   6.0000    1    12.011   -4.655748   -0.933524   -0.204381
   2 H   1.0000    1     1.008   -3.445463   -0.884110   -1.899369
   3 C   6.0000    1    12.011   -3.530454    0.811109    1.809580
   4 H   1.0000    1     1.008   -4.827432    0.830861    3.433245
   5 O   8.0000    1    15.999   -3.415559    3.289799    0.893499
   6 Si 14.0000    1    28.086   -0.884735    4.513786   -0.450723
   7 C   6.0000    1    12.011   -0.102019    7.612235    1.230791
   8 C   6.0000    1    12.011   -2.472360    9.186114    1.733791
   9 C   6.0000    1    12.011    1.328178    7.188823    3.709727
  10 C   6.0000    1    12.011   -1.417831    4.792585   -4.032521
  11 C   6.0000    1    12.011   -3.491123    6.672147   -4.755144
  12 C   6.0000    1    12.011    1.034964    5.492522   -5.397506
  13 O   8.0000    1    15.999    1.493013    2.566094    0.030890
  14 C   6.0000    1    12.011    1.085275    0.036749    0.669496
  15 C   6.0000    1    12.011   -0.970728   -0.207364    2.698626
  16 H   1.0000    1     1.008   -0.351880    0.908703    4.330750
  17 O   8.0000    1    15.999   -1.235633   -2.687642    3.631481
  18 C   6.0000    1    12.011   -2.278304   -4.504871    1.958117
  19 H   1.0000    1     1.008   -0.919605   -4.912776    0.415950
  20 O   8.0000    1    15.999   -2.758567   -6.664519    3.344208
  21 C   6.0000    1    12.011   -0.564716   -7.998363    4.122499
  22 C   6.0000    1    12.011   -4.791544   -3.661684    0.771248
  23 O   8.0000    1    15.999   -5.319154   -5.342064   -1.208226
  24 H   1.0000    1     1.008   -7.121850    1.642486   -1.001276
  25 H   1.0000    1     1.008    1.125523    8.711423   -0.016016
  26 H   1.0000    1     1.008   -3.774968    8.145750    2.932489
  27 H   1.0000    1     1.008   -3.439201    9.641809   -0.017012
  28 H   1.0000    1     1.008   -1.976662   10.945200    2.680358
  29 H   1.0000    1     1.008    0.151473    6.160631    5.046181
  30 H   1.0000    1     1.008    1.841152    8.992417    4.557871
  31 H   1.0000    1     1.008    3.042089    6.107817    3.379602
  32 H   1.0000    1     1.008   -2.003346    2.932517   -4.743037
  33 H   1.0000    1     1.008   -2.904746    8.584047   -4.286107
  34 H   1.0000    1     1.008   -5.237699    6.266617   -3.755193
  35 H   1.0000    1     1.008   -3.859390    6.594854   -6.778072
  36 H   1.0000    1     1.008    1.644719    7.373972   -4.841496
  37 H   1.0000    1     1.008    0.755948    5.479554   -7.435844
  38 H   1.0000    1     1.008    2.534616    4.171912   -4.926722
  39 H   1.0000    1     1.008    2.861996   -0.713135    1.418528
  40 H   1.0000    1     1.008    0.576089   -1.040271   -1.022523
  41 H   1.0000    1     1.008   -1.250697   -9.648656    5.136009
  42 H   1.0000    1     1.008    0.602090   -6.833671    5.364108
  43 H   1.0000    1     1.008    0.545586   -8.589325    2.478571
  44 H   1.0000    1     1.008   -6.250974   -3.769271    2.246360
  45 H   1.0000    1     1.008   -6.931691   -4.866822   -1.926817

      -----------------------------------------------------------      
     |                   =====================                   |     
     |                           x T B                           |     
     |                   =====================                   |     
     |                         S. Grimme                         |     
     |          Mulliken Center for Theoretical Chemistry        |     
     |                    University of Bonn                     |     
      -----------------------------------------------------------      

   * xtb version 6.7.1 (edcfbbe) compiled by 'albert@albert-system' on 2024-07-22

   xtb is free software: you can redistribute it and/or modify it under
   the terms of the GNU Lesser General Public License as published by
   the Free Software Foundation, either version 3 of the License, or
   (at your option) any later version.
   
   xtb is distributed in the hope that it will be useful,
   but WITHOUT ANY WARRANTY; without even the implied warranty of
   MERCHANTABILITY or FITNESS FOR A PARTICULAR PURPOSE.  See the
   GNU Lesser General Public License for more details.
   
   Cite this work as:
   * C. Bannwarth, E. Caldeweyher, S. Ehlert, A. Hansen, P. Pracht,
     J. Seibert, S. Spicher, S. Grimme, WIREs Comput. Mol. Sci., 2020, 11,
     e01493. DOI: 10.1002/wcms.1493
   
   for GFN2-xTB:
   * C. Bannwarth, S. Ehlert and S. Grimme., J. Chem. Theory Comput., 2019,
     15, 1652-1671. DOI: 10.1021/acs.jctc.8b01176
   for GFN1-xTB:
   * S. Grimme, C. Bannwarth, P. Shushkov, J. Chem. Theory Comput., 2017,
     13, 1989-2009. DOI: 10.1021/acs.jctc.7b00118
   for GFN0-xTB:
   * P. Pracht, E. Caldeweyher, S. Ehlert, S. Grimme, ChemRxiv, 2019, preprint.
     DOI: 10.26434/chemrxiv.8326202.v1
   for GFN-FF:
   * S. Spicher and S. Grimme, Angew. Chem. Int. Ed., 2020, 59, 15665-15673.
     DOI: 10.1002/anie.202004239
   
   for ALPB and GBSA implicit solvation:
   * S. Ehlert, M. Stahn, S. Spicher, S. Grimme, J. Chem. Theory Comput.,
     2021, 17, 4250-4261. DOI: 10.1021/acs.jctc.1c00471
   
   for ddCOSMO and CPCM-X implicit solvation:
   * M. Stahn, S. Ehlert, S. Grimme, J. Phys. Chem. A,
     2023, XX, XXXX-XXXX. DOI: 10.1021/acs.jpca.3c04382
   
   for DFT-D4:
   * E. Caldeweyher, C. Bannwarth and S. Grimme, J. Chem. Phys., 2017,
     147, 034112. DOI: 10.1063/1.4993215
   * E. Caldeweyher, S. Ehlert, A. Hansen, H. Neugebauer, S. Spicher,
     C. Bannwarth and S. Grimme, J. Chem. Phys., 2019, 150, 154122.
     DOI: 10.1063/1.5090222
   * E. Caldeweyher, J.-M. Mewes, S. Ehlert and S. Grimme, Phys. Chem. Chem. Phys.
     2020, 22, 8499-8512. DOI: 10.1039/D0CP00502A
   
   for sTDA-xTB:
   * S. Grimme and C. Bannwarth, J. Chem. Phys., 2016, 145, 054103.
     DOI: 10.1063/1.4959605
   
   in the mass-spec context:
   * V. Asgeirsson, C. Bauer and S. Grimme, Chem. Sci., 2017, 8, 4879.
     DOI: 10.1039/c7sc00601b
   * J. Koopman and S. Grimme, ACS Omega 2019, 4, 12, 15120-15133.
     DOI: 10.1021/acsomega.9b02011
   
   for metadynamics refer to:
   * S. Grimme, J. Chem. Theory Comput., 2019, 155, 2847-2862
     DOI: 10.1021/acs.jctc.9b00143
   
   for SPH calculations refer to:
   * S. Spicher and S. Grimme, J. Chem. Theory Comput., 2021, 17, 1701-1714
     DOI: 10.1021/acs.jctc.0c01306
   
   for ONIOM refer to:
   * C. Plett, A. Katbashev, S. Ehlert, S. Grimme, M. Bursch,
     Phys. Chem. Chem. Phys., 2023, 25, 17860-17868. DOI: 10.1039/D3CP02178E
   
   for DIPRO refer to:
   * J. Kohn, N. Gildemeister, S. Grimme, D. Fazzi, A. Hansen,
     J. Chem. Phys., 2023, just accepted.
   
   for PTB refer to:
   * S. Grimme, M. Mueller, A. Hansen, J. Chem. Phys., 2023, 158, 124111.
     DOI: 10.1063/5.0137838
   
   with help from (in alphabetical order)
   P. Atkinson, C. Bannwarth, F. Bohle, G. Brandenburg, E. Caldeweyher
   M. Checinski, S. Dohm, S. Ehlert, S. Ehrlich, I. Gerasimov, C. Hölzer
   A. Katbashev, J. Kohn, J. Koopman, C. Lavigne, S. Lehtola, F. März, M. Müller,
   F. Musil, H. Neugebauer, J. Pisarek, C. Plett, P. Pracht, F. Pultar,
   J. Seibert, P. Shushkov, S. Spicher, M. Stahn, M. Steiner, T. Strunk,
   J. Stückrath, T. Rose, and J. Unsleber
   
 * started run on 2025/09/10 at 11:29:47.236     
   ID    Z sym.   atoms
    1    8 O      1, 6, 14, 18, 21, 24
    2    6 C      2, 4, 8-13, 15, 16, 19, 22, 23
    3    1 H      3, 5, 17, 20, 25-46
    4   14 Si     7

           -------------------------------------------------
          |                Calculation Setup                |
           -------------------------------------------------

          program call               : /home/kmoult/orca_6_1/otool_xtb goat_0_XTB.xyz --grad -c 0 -u 0 -P 4 --namespace goat_0 --input goat_0_XTB.input.tmp --alpb ACETONE --acc 0.200000
          hostname                   : node2704
          calculation namespace      : goat_0
          coordinate file            : goat_0_XTB.xyz
          omp threads                :                     4


           -------------------------------------------------
          |                 G F N 2 - x T B                 |
           -------------------------------------------------

        Reference                      10.1021/acs.jctc.8b01176
      * Hamiltonian:
        H0-scaling (s, p, d)           1.850000    2.230000    2.230000
        zeta-weighting                 0.500000
      * Dispersion:
        s8                             2.700000
        a1                             0.520000
        a2                             5.000000
        s9                             5.000000
      * Repulsion:
        kExp                           1.500000    1.000000
        rExp                           1.000000
      * Coulomb:
        alpha                          2.000000
        third order                    shell-resolved
        anisotropic                    true
        a3                             3.000000
        a5                             4.000000
        cn-shift                       1.200000
        cn-exp                         4.000000
        max-rad                        5.000000

      * Solvation model:               ALPB
        Solvent                        ACETONE
        Parameter file                 internal GFN2-xTB/ALPB
        Dielectric constant                2.0700E+01
        Reference state                gsolv [1 M gas/solution]
        Free energy shift                  5.9241E-03 Eh       3.7175E+00 kcal/mol
        Temperature                        2.9815E+02 K
        Density                            7.9000E-01 kg/L
        Solvent mass                       5.8080E+01 g/mol
        Interaction kernel             P16
        Born radius scaling (c1)           1.8274E+00
        Born radii integrator          GBOBC
        Born offset                        0.0000E+00 a0       0.0000E+00 AA
        H-bond correction              true
        Ion screening                  false
        Surface tension                    1.0000E-05 Eh       1.5569E+01 dyn/cm
        Grid points                               230 per atom
q/qsh data taken from xtbrestart
CAMM data taken from xtbrestart

          ...................................................
          :                      SETUP                      :
          :.................................................:
          :  # basis functions                 112          :
          :  # atomic orbitals                 111          :
          :  # shells                           67          :
          :  # electrons                       118          :
          :  max. iterations                   250          :
          :  Hamiltonian                  GFN2-xTB          :
          :  restarted?                       true          :
          :  GBSA solvation                   true          :
          :  PC potential                    false          :
          :  electronic temp.          300.0000000     K    :
          :  accuracy                    0.2000000          :
          :  -> integral cutoff          0.3198970E+02      :
          :  -> integral neglect         0.2000000E-08      :
          :  -> SCF convergence          0.2000000E-06 Eh   :
          :  -> wf. convergence          0.2000000E-04 e    :
          :  Broyden damping             0.4000000          :
          :  net charge                          0          :
          :  unpaired electrons                  0          :
          ...................................................

 iter      E             dE          RMSdq      gap      omega  full diag
   1    -68.0086706 -0.680087E+02  0.169E-02    5.67       0.0  T
   2    -68.0086706 -0.855515E-07  0.118E-02    5.67       1.3  T
   3    -68.0086706  0.729784E-08  0.287E-03    5.67       5.1  T
   4    -68.0086707 -0.245860E-07  0.224E-03    5.67       6.6  T
   5    -68.0086707 -0.201153E-07  0.712E-04    5.67      20.7  T
   6    -68.0086707 -0.730758E-08  0.242E-04    5.67      61.0  T
   7    -68.0086707 -0.814225E-09  0.100E-04    5.67     146.9  T
   8    -68.0086707 -0.446221E-11  0.579E-05    5.67     254.6  T

   *** convergence criteria satisfied after 8 iterations ***

         #    Occupation            Energy/Eh            Energy/eV
      -------------------------------------------------------------
         1        2.0000           -0.8150454             -22.1785
       ...           ...                  ...                  ...
        53        2.0000           -0.4307536             -11.7214
        54        2.0000           -0.4236156             -11.5272
        55        2.0000           -0.4211418             -11.4599
        56        2.0000           -0.4172760             -11.3547
        57        2.0000           -0.4160474             -11.3212
        58        2.0000           -0.4092825             -11.1371
        59        2.0000           -0.3766516             -10.2492 (HOMO)
        60                         -0.1683941              -4.5822 (LUMO)
        61                         -0.1319326              -3.5901
        62                         -0.0952488              -2.5919
        63                         -0.0493890              -1.3439
        64                         -0.0080015              -0.2177
       ...                                ...                  ...
       111                          0.7890929              21.4723
      -------------------------------------------------------------
                  HL-Gap            0.2082575 Eh            5.6670 eV
             Fermi-level           -0.2725228 Eh           -7.4157 eV

 SCC (total)                   0 d,  0 h,  0 min,  0.040 sec
 SCC setup                      ...        0 min,  0.001 sec (  1.435%)
 Dispersion                     ...        0 min,  0.000 sec (  0.626%)
 classical contributions        ...        0 min,  0.000 sec (  0.101%)
 integral evaluation            ...        0 min,  0.017 sec ( 42.660%)
 iterations                     ...        0 min,  0.013 sec ( 32.799%)
 molecular gradient             ...        0 min,  0.009 sec ( 22.010%)
 printout                       ...        0 min,  0.000 sec (  0.324%)

         :::::::::::::::::::::::::::::::::::::::::::::::::::::
         ::                     SUMMARY                     ::
         :::::::::::::::::::::::::::::::::::::::::::::::::::::
         :: total energy             -67.354766669441 Eh    ::
         :: total w/o Gsasa/hb       -67.327166491432 Eh    ::
         :: gradient norm              0.001169603784 Eh/a0 ::
         :: HOMO-LUMO gap              5.666973743442 eV    ::
         ::.................................................::
         :: SCC energy               -68.007784809939 Eh    ::
         :: -> isotropic ES            0.154345534530 Eh    ::
         :: -> anisotropic ES          0.001036135743 Eh    ::
         :: -> anisotropic XC          0.002404413051 Eh    ::
         :: -> dispersion             -0.044929711965 Eh    ::
         :: -> Gsolv                  -0.030555197030 Eh    ::
         ::    -> Gelec               -0.002955019021 Eh    ::
         ::    -> Gsasa               -0.027902252620 Eh    ::
         ::    -> Ghb                 -0.005622066654 Eh    ::
         ::    -> Gshift               0.005924141264 Eh    ::
         :: repulsion energy           0.653018140498 Eh    ::
         :: add. restraining           0.000000000000 Eh    ::
         :: total charge              -0.000000000000 e     ::
         :::::::::::::::::::::::::::::::::::::::::::::::::::::


Property printout bound to 'properties.out'

           -------------------------------------------------
          | TOTAL ENERGY              -67.354766669441 Eh   |
          | GRADIENT NORM               0.001169603784 Eh/α |
          | HOMO-LUMO GAP               5.666973743442 eV   |
           -------------------------------------------------

------------------------------------------------------------------------
 * finished run on 2025/09/10 at 11:29:47.298     
------------------------------------------------------------------------
 total:
 * wall-time:     0 d,  0 h,  0 min,  0.061 sec
 *  cpu-time:     0 d,  0 h,  0 min,  0.212 sec
 * ratio c/w:     3.474 speedup
 SCF:
 * wall-time:     0 d,  0 h,  0 min,  0.040 sec
 *  cpu-time:     0 d,  0 h,  0 min,  0.147 sec
 * ratio c/w:     3.671 speedup


-------------------------   --------------------
FINAL SINGLE POINT ENERGY       -67.354766669440
-------------------------   --------------------


-------------
DIPOLE MOMENT
-------------
                                X             Y             Z
Total Dipole Moment    :      0.31400       0.75600      -0.34400
                        -----------------------------------------
Magnitude (a.u.)       :      0.88796
Magnitude (Debye)      :      2.25701


------------------
CARTESIAN GRADIENT
------------------

   1   O   :   -0.000197497   -0.000061148    0.000025127
   2   C   :    0.000085138    0.000116791   -0.000066221
   3   H   :   -0.000006324   -0.000041062    0.000034686
   4   C   :   -0.000058345   -0.000067529    0.000108153
   5   H   :   -0.000032830    0.000073712   -0.000048739
   6   O   :   -0.000244068   -0.000182099    0.000155173
   7   Si  :   -0.000051591    0.000571751    0.000058895
   8   C   :   -0.000162750   -0.000060970    0.000042029
   9   C   :    0.000079384   -0.000071893   -0.000104345
  10   C   :    0.000015534   -0.000035561   -0.000082208
  11   C   :   -0.000082366    0.000088699   -0.000094929
  12   C   :    0.000131437    0.000026628    0.000010817
  13   C   :   -0.000016906   -0.000134169   -0.000010724
  14   O   :    0.000359731   -0.000215319    0.000019648
  15   C   :   -0.000122761    0.000004819   -0.000039180
  16   C   :    0.000233976    0.000052666   -0.000091369
  17   H   :    0.000042465   -0.000041026    0.000024395
  18   O   :   -0.000174341   -0.000066795   -0.000080918
  19   C   :   -0.000113083    0.000199280    0.000195238
  20   H   :    0.000045801   -0.000110597   -0.000073097
  21   O   :    0.000230971   -0.000066687   -0.000028691
  22   C   :   -0.000161966    0.000156875   -0.000028039
  23   C   :   -0.000131412    0.000000492   -0.000048740
  24   O   :    0.000154770   -0.000109766   -0.000109632
  25   H   :    0.000210643    0.000037110    0.000006783
  26   H   :    0.000008547   -0.000078042   -0.000064020
  27   H   :    0.000001837   -0.000003432    0.000001253
  28   H   :   -0.000022301    0.000013946    0.000028528
  29   H   :   -0.000003724    0.000007479    0.000019914
  30   H   :   -0.000017308    0.000008606   -0.000005739
  31   H   :    0.000012263   -0.000020363    0.000045419
  32   H   :   -0.000006178    0.000015677    0.000015258
  33   H   :   -0.000006055   -0.000064132    0.000073797
  34   H   :   -0.000008476   -0.000006120    0.000007454
  35   H   :   -0.000036236   -0.000030434   -0.000039608
  36   H   :   -0.000006582   -0.000009910   -0.000009347
  37   H   :    0.000026192   -0.000002197    0.000029141
  38   H   :   -0.000013172    0.000023301    0.000018874
  39   H   :    0.000033916    0.000068351    0.000005556
  40   H   :    0.000014551    0.000028204   -0.000002264
  41   H   :   -0.000038489    0.000031176   -0.000004972
  42   H   :   -0.000000721   -0.000014808    0.000000496
  43   H   :    0.000014828   -0.000033511    0.000017400
  44   H   :    0.000014361   -0.000044885   -0.000000058
  45   H   :    0.000023498    0.000042135   -0.000003478
  46   H   :   -0.000024360    0.000004761    0.000092285

Difference to translation invariance:
           :   -0.0000000000   -0.0000000000    0.0000000000

Difference to rotation invariance:
           :    0.0002671725   -0.0002894946   -0.0000216726

Norm of the Cartesian gradient     ...    0.0011696038
RMS gradient                       ...    0.0000995633
MAX gradient                       ...    0.0005717513
------------------------------------------------------------------------------
                         ORCA GEOMETRY RELAXATION STEP
------------------------------------------------------------------------------

Reading the OPT-File                    .... done
Getting information on internals        .... done
Copying old internal coords+grads       .... done
Making the new internal coordinates     .... (2022 redundants) done
Validating the new internal coordinates .... (2022 redundants) done
Calculating the B-matrix                .... done
Calculating the G,G- and P matrices     .... done
Transforming gradient to internals      .... done
Projecting the internal gradient        .... done
Number of atoms                         ....  46
Number of internal coordinates          .... 235
Current Energy                          ....   -67.354766669 Eh
Current gradient norm                   ....     0.001169604 Eh/bohr
Maximum allowed component of the step   ....  0.300
Current trust radius                    ....  0.300
Updating the Hessian (BFGS)             .... done
Forming the augmented Hessian           .... done
Diagonalizing the augmented Hessian     .... done
Last element of RFO vector              ....  0.999634546
Lowest eigenvalues of augmented Hessian:
 -0.000009200  0.001760664  0.004142016  0.010037141  0.010307961
Length of the computed step             ....  0.027042713
The final length of the internal step   ....  0.027042713
Converting the step to Cartesian space:
 Initial RMS(Int)=    0.0017640721
Transforming coordinates:
 Iter   0:  RMS(Cart)=    0.0050562847 RMS(Int)=    0.4096884270
done
Storing new coordinates                 .... done
The predicted energy change is          ....    -0.000004603
Previously predicted energy change      ....    -0.000004650
Actually observed energy change         ....    -0.000007068
Ratio of predicted to observed change   ....     1.520101121
New trust radius                        ....     0.200000000

                                .--------------------.
          ----------------------|Geometry convergence|-------------------------
          Item                value                   Tolerance       Converged
          ---------------------------------------------------------------------
          Energy change      -0.0000070680            0.0000050000      NO
          RMS gradient        0.0000561425            0.0001000000      YES
          MAX gradient        0.0002927683            0.0003000000      YES
          RMS step            0.0017640721            0.0020000000      YES
          MAX step            0.0083850547            0.0040000000      NO
          -------------------------------------------------------------------------
          ........................................................
          Max(Bonds)      0.0044      Max(Angles)    0.12
          Max(Dihed)        0.34      Max(Improp)    0.00
          ---------------------------------------------------------------------

    ---------------------------------------------------------------------------
                         Redundant Internal Coordinates
                            (Angstroem and degrees)

        Definition                    Value    dE/dq     Step     New-Value
    ----------------------------------------------------------------------------
     1. B(C   1,O   0)                1.4064  0.000042 -0.0001    1.4062   
     2. B(H   2,C   1)                1.1024 -0.000034  0.0001    1.1026   
     3. B(C   3,C   1)                1.5306  0.000111  0.0001    1.5307   
     4. B(H   4,C   3)                1.0997 -0.000017  0.0000    1.0997   
     5. B(O   5,C   3)                1.3997 -0.000050  0.0002    1.3999   
     6. B(Si  6,O   5)                1.6490  0.000190 -0.0005    1.6485   
     7. B(C   7,Si  6)                1.9109 -0.000263  0.0008    1.9117   
     8. B(C   8,C   7)                1.5290 -0.000087  0.0004    1.5294   
     9. B(C   9,C   7)                1.5309 -0.000020  0.0001    1.5311   
    10. B(C  10,Si  6)                1.9220  0.000010 -0.0002    1.9217   
    11. B(C  11,C  10)                1.5294 -0.000060  0.0003    1.5297   
    12. B(C  12,C  10)                1.5309 -0.000009  0.0001    1.5310   
    13. B(O  13,Si  6)                1.6463  0.000293 -0.0006    1.6457   
    14. B(C  14,O  13)                1.3972 -0.000034  0.0001    1.3973   
    15. B(C  15,C   3)                1.5319  0.000105  0.0000    1.5319   
    16. B(C  15,C  14)                1.5341 -0.000022  0.0003    1.5344   
    17. B(H  16,C  15)                1.0964  0.000010 -0.0001    1.0963   
    18. B(O  17,C  15)                1.4093 -0.000003  0.0001    1.4093   
    19. B(C  18,O  17)                1.4189 -0.000155  0.0003    1.4192   
    20. B(H  19,C  18)                1.1088  0.000104 -0.0003    1.1085   
    21. B(O  20,C  18)                1.3815 -0.000036 -0.0000    1.3815   
    22. B(C  21,O  20)                1.4197 -0.000141  0.0004    1.4201   
    23. B(C  22,C  18)                1.5370 -0.000049  0.0003    1.5372   
    24. B(C  22,C   1)                1.5349  0.000012  0.0001    1.5350   
    25. B(O  23,C  22)                1.4021  0.000031 -0.0003    1.4018   
    26. B(H  24,O   0)                0.9672  0.000004 -0.0000    0.9672   
    27. B(H  24,O   5)                2.3689 -0.000098  0.0044    2.3734   
    28. B(H  25,C   7)                1.0934  0.000003  0.0000    1.0935   
    29. B(H  26,C   8)                1.0866  0.000000  0.0000    1.0866   
    30. B(H  27,C   8)                1.0855 -0.000011  0.0000    1.0855   
    31. B(H  28,C   8)                1.0891  0.000015 -0.0001    1.0891   
    32. B(H  29,C   9)                1.0881 -0.000000  0.0000    1.0881   
    33. B(H  30,C   9)                1.0891  0.000004 -0.0000    1.0890   
    34. B(H  31,C   9)                1.0864 -0.000015  0.0000    1.0865   
    35. B(H  32,C  10)                1.0983  0.000035 -0.0002    1.0981   
    36. B(H  33,C  11)                1.0870 -0.000007  0.0000    1.0870   
    37. B(H  34,C  11)                1.0864  0.000019 -0.0000    1.0864   
    38. B(H  35,C  11)                1.0888  0.000011 -0.0001    1.0888   
    39. B(H  36,C  12)                1.0872  0.000012 -0.0000    1.0872   
    40. B(H  37,C  12)                1.0887 -0.000016  0.0000    1.0888   
    41. B(H  38,C  12)                1.0864 -0.000019  0.0001    1.0864   
    42. B(H  39,C  14)                1.0948  0.000001 -0.0000    1.0948   
    43. B(H  40,C  14)                1.0950 -0.000002 -0.0000    1.0950   
    44. B(H  41,C  21)                1.0872  0.000012 -0.0000    1.0872   
    45. B(H  42,C  21)                1.0922  0.000001 -0.0000    1.0921   
    46. B(H  43,C  21)                1.0953  0.000020 -0.0001    1.0953   
    47. B(H  44,C  22)                1.0996 -0.000020  0.0001    1.0997   
    48. B(H  45,O   0)                2.5462  0.000025 -0.0019    2.5442   
    49. B(H  45,O  23)                0.9675 -0.000009  0.0000    0.9675   
    50. A(C   1,O   0,H  24)          107.67 -0.000215    0.12    107.79   
    51. A(H   2,C   1,C   3)          109.04  0.000026   -0.03    109.00   
    52. A(O   0,C   1,C   3)          111.12  0.000034    0.03    111.15   
    53. A(H   2,C   1,C  22)          108.85 -0.000005    0.01    108.87   
    54. A(O   0,C   1,H   2)          109.40 -0.000001    0.02    109.42   
    55. A(O   0,C   1,C  22)          107.82 -0.000019   -0.03    107.78   
    56. A(C   3,C   1,C  22)          110.57 -0.000035    0.00    110.57   
    57. A(O   5,C   3,C  15)          113.43 -0.000018   -0.00    113.43   
    58. A(C   1,C   3,H   4)          107.87  0.000011   -0.04    107.83   
    59. A(H   4,C   3,C  15)          108.38  0.000111   -0.08    108.30   
    60. A(H   4,C   3,O   5)          106.79 -0.000065    0.04    106.83   
    61. A(C   1,C   3,C  15)          110.22 -0.000068    0.04    110.26   
    62. A(C   1,C   3,O   5)          109.94  0.000032    0.03    109.97   
    63. A(C   3,O   5,Si  6)          123.56  0.000010    0.02    123.58   
    64. A(C  10,Si  6,O  13)          108.23 -0.000138    0.10    108.33   
    65. A(O   5,Si  6,C   7)          108.19 -0.000003   -0.01    108.18   
    66. A(C   7,Si  6,O  13)          107.42  0.000045   -0.02    107.40   
    67. A(O   5,Si  6,O  13)          107.94 -0.000001    0.02    107.96   
    68. A(O   5,Si  6,C  10)          109.66  0.000022   -0.06    109.59   
    69. A(C   7,Si  6,C  10)          115.16  0.000072   -0.01    115.15   
    70. A(C   8,C   7,H  25)          107.62  0.000028   -0.04    107.58   
    71. A(Si  6,C   7,C   8)          111.75  0.000031   -0.01    111.74   
    72. A(Si  6,C   7,H  25)          107.71 -0.000043    0.05    107.76   
    73. A(C   8,C   7,C   9)          109.64  0.000033   -0.03    109.61   
    74. A(Si  6,C   7,C   9)          112.37 -0.000069    0.06    112.43   
    75. A(C   9,C   7,H  25)          107.53  0.000023   -0.03    107.50   
    76. A(H  27,C   8,H  28)          108.43  0.000006    0.00    108.44   
    77. A(C   7,C   8,H  28)          110.37 -0.000001    0.00    110.37   
    78. A(C   7,C   8,H  27)          111.04  0.000070   -0.04    111.01   
    79. A(C   7,C   8,H  26)          110.25 -0.000032    0.00    110.25   
    80. A(H  26,C   8,H  27)          108.17 -0.000017    0.01    108.18   
    81. A(H  26,C   8,H  28)          108.50 -0.000027    0.02    108.52   
    82. A(H  30,C   9,H  31)          108.64 -0.000023    0.02    108.66   
    83. A(C   7,C   9,H  31)          110.61  0.000013   -0.01    110.60   
    84. A(C   7,C   9,H  30)          110.37  0.000077   -0.03    110.34   
    85. A(C   7,C   9,H  29)          110.32 -0.000045    0.01    110.33   
    86. A(H  29,C   9,H  31)          108.60 -0.000001    0.01    108.61   
    87. A(H  29,C   9,H  30)          108.24 -0.000022    0.01    108.25   
    88. A(Si  6,C  10,C  12)          111.07 -0.000080    0.04    111.11   
    89. A(Si  6,C  10,H  32)          108.07 -0.000058    0.05    108.12   
    90. A(Si  6,C  10,C  11)          113.69  0.000129   -0.08    113.61   
    91. A(C  11,C  10,C  12)          109.44 -0.000033    0.01    109.45   
    92. A(C  12,C  10,H  32)          107.13  0.000033   -0.00    107.12   
    93. A(C  11,C  10,H  32)          107.15  0.000008   -0.01    107.14   
    94. A(C  10,C  11,H  35)          110.47 -0.000014    0.02    110.49   
    95. A(H  34,C  11,H  35)          108.61 -0.000023    0.03    108.64   
    96. A(H  33,C  11,H  35)          108.09  0.000006    0.01    108.10   
    97. A(H  33,C  11,H  34)          108.39  0.000005   -0.02    108.37   
    98. A(C  10,C  11,H  34)          111.10  0.000012   -0.01    111.09   
    99. A(C  10,C  11,H  33)          110.09  0.000013   -0.02    110.06   
   100. A(H  36,C  12,H  38)          108.07 -0.000088    0.04    108.11   
   101. A(C  10,C  12,H  38)          110.82  0.000080   -0.04    110.78   
   102. A(H  36,C  12,H  37)          108.31  0.000008    0.01    108.31   
   103. A(C  10,C  12,H  37)          110.55 -0.000002    0.00    110.55   
   104. A(C  10,C  12,H  36)          110.21 -0.000034    0.01    110.22   
   105. A(H  37,C  12,H  38)          108.80  0.000034   -0.01    108.79   
   106. A(Si  6,O  13,C  14)          121.27 -0.000108    0.10    121.38   
   107. A(O  13,C  14,C  15)          111.07  0.000062    0.03    111.10   
   108. A(H  39,C  14,H  40)          108.58  0.000029   -0.02    108.57   
   109. A(O  13,C  14,H  40)          109.80  0.000002    0.01    109.82   
   110. A(C  15,C  14,H  39)          108.97 -0.000002   -0.02    108.95   
   111. A(O  13,C  14,H  39)          107.59 -0.000070    0.02    107.60   
   112. A(C  15,C  14,H  40)          110.73 -0.000022   -0.02    110.72   
   113. A(H  16,C  15,O  17)          104.80 -0.000050    0.01    104.81   
   114. A(C  14,C  15,O  17)          113.21  0.000083   -0.08    113.14   
   115. A(C   3,C  15,O  17)          110.32 -0.000089    0.07    110.39   
   116. A(C  14,C  15,H  16)          107.11 -0.000029    0.00    107.11   
   117. A(C   3,C  15,H  16)          108.45  0.000049   -0.03    108.43   
   118. A(C   3,C  15,C  14)          112.49  0.000033    0.02    112.51   
   119. A(C  15,O  17,C  18)          116.83  0.000068   -0.02    116.80   
   120. A(O  20,C  18,C  22)          107.33  0.000017   -0.01    107.32   
   121. A(H  19,C  18,C  22)          108.47 -0.000006   -0.02    108.45   
   122. A(O  17,C  18,C  22)          113.25  0.000035   -0.01    113.24   
   123. A(H  19,C  18,O  20)          110.43 -0.000050    0.07    110.49   
   124. A(O  17,C  18,O  20)          107.51 -0.000012    0.02    107.52   
   125. A(O  17,C  18,H  19)          109.82  0.000013   -0.03    109.79   
   126. A(C  18,O  20,C  21)          114.51  0.000159   -0.04    114.47   
   127. A(H  42,C  21,H  43)          109.61 -0.000009   -0.02    109.60   
   128. A(H  41,C  21,H  43)          109.97 -0.000038    0.03    110.01   
   129. A(O  20,C  21,H  43)          110.50  0.000038   -0.02    110.48   
   130. A(H  41,C  21,H  42)          110.20 -0.000028    0.03    110.23   
   131. A(O  20,C  21,H  42)          110.87  0.000058   -0.02    110.85   
   132. A(O  20,C  21,H  41)          105.63 -0.000023   -0.01    105.62   
   133. A(O  23,C  22,H  44)          110.96  0.000055    0.00    110.96   
   134. A(C  18,C  22,H  44)          107.62 -0.000012   -0.02    107.59   
   135. A(C  18,C  22,O  23)          107.07 -0.000080    0.02    107.09   
   136. A(C   1,C  22,H  44)          108.69 -0.000045   -0.02    108.67   
   137. A(C   1,C  22,O  23)          110.77  0.000086   -0.02    110.75   
   138. A(C   1,C  22,C  18)          111.72 -0.000005    0.03    111.74   
   139. A(C  22,O  23,H  45)          107.72 -0.000164    0.09    107.81   
   140. D(C   3,C   1,O   0,H  24)     42.53  0.000065   -0.07     42.47   
   141. D(C  22,C   1,O   0,H  24)    163.85  0.000030   -0.07    163.78   
   142. D(H   2,C   1,O   0,H  24)    -77.92  0.000012   -0.06    -77.98   
   143. D(H   4,C   3,C   1,H   2)    176.38  0.000018   -0.02    176.35   
   144. D(H   4,C   3,C   1,C  22)    -63.98  0.000006   -0.03    -64.01   
   145. D(O   5,C   3,C   1,O   0)    -60.38  0.000035   -0.09    -60.47   
   146. D(O   5,C   3,C   1,C  22)    179.93  0.000060   -0.07    179.86   
   147. D(O   5,C   3,C   1,H   2)     60.29  0.000072   -0.07     60.22   
   148. D(H   4,C   3,C   1,O   0)     55.71 -0.000019   -0.05     55.66   
   149. D(Si  6,O   5,C   3,C  15)     29.22 -0.000053   -0.04     29.18   
   150. D(Si  6,O   5,C   3,C   1)    -94.69  0.000024   -0.12    -94.81   
   151. D(Si  6,O   5,C   3,H   4)    148.54  0.000030   -0.11    148.43   
   152. D(O  13,Si  6,O   5,C   3)    -11.33  0.000032    0.18    -11.15   
   153. D(C  10,Si  6,O   5,C   3)    106.37 -0.000121    0.27    106.64   
   154. D(C   7,Si  6,O   5,C   3)   -127.29 -0.000018    0.21   -127.08   
   155. D(C   9,C   7,Si  6,O  13)    -35.75 -0.000037    0.06    -35.69   
   156. D(C   8,C   7,Si  6,O   5)    -43.21 -0.000031    0.06    -43.15   
   157. D(C   8,C   7,Si  6,O  13)   -159.50 -0.000052    0.06   -159.44   
   158. D(C   8,C   7,Si  6,C  10)     79.85  0.000046   -0.04     79.82   
   159. D(C   9,C   7,Si  6,O   5)     80.54 -0.000017    0.06     80.60   
   160. D(C   9,C   7,Si  6,C  10)   -156.40  0.000060   -0.03   -156.43   
   161. D(H  26,C   8,C   7,C   9)    -64.74  0.000032   -0.02    -64.76   
   162. D(H  27,C   8,C   7,C   9)    175.39  0.000030   -0.01    175.38   
   163. D(H  27,C   8,C   7,Si  6)    -59.34 -0.000013    0.04    -59.30   
   164. D(H  26,C   8,C   7,H  25)    178.59 -0.000028    0.05    178.64   
   165. D(H  27,C   8,C   7,H  25)     58.72 -0.000030    0.07     58.79   
   166. D(H  26,C   8,C   7,Si  6)     60.53 -0.000011    0.03     60.56   
   167. D(H  30,C   9,C   7,Si  6)    176.61 -0.000025   -0.02    176.58   
   168. D(H  29,C   9,C   7,H  25)    177.82  0.000046   -0.09    177.73   
   169. D(H  29,C   9,C   7,C   8)     61.09 -0.000018   -0.01     61.08   
   170. D(H  29,C   9,C   7,Si  6)    -63.82 -0.000032   -0.02    -63.84   
   171. D(H  30,C   9,C   7,H  25)     58.25  0.000053   -0.09     58.15   
   172. D(H  30,C   9,C   7,C   8)    -58.48 -0.000010   -0.01    -58.49   
   173. D(C  12,C  10,Si  6,C   7)     67.41 -0.000014   -0.15     67.26   
   174. D(C  12,C  10,Si  6,O   5)   -170.31  0.000051   -0.22   -170.53   
   175. D(C  11,C  10,Si  6,O  13)   -176.75 -0.000008   -0.16   -176.90   
   176. D(C  11,C  10,Si  6,C   7)    -56.55 -0.000005   -0.13    -56.67   
   177. D(C  12,C  10,Si  6,O  13)    -52.79 -0.000017   -0.18    -52.97   
   178. D(C  11,C  10,Si  6,O   5)     65.73  0.000060   -0.20     65.53   
   179. D(H  34,C  11,C  10,C  12)   -177.73 -0.000009    0.32   -177.41   
   180. D(H  34,C  11,C  10,Si  6)    -52.90 -0.000045    0.32    -52.59   
   181. D(H  33,C  11,C  10,H  32)   -173.49 -0.000012    0.28   -173.21   
   182. D(H  33,C  11,C  10,C  12)    -57.65  0.000014    0.27    -57.38   
   183. D(H  33,C  11,C  10,Si  6)     67.17 -0.000022    0.27     67.44   
   184. D(H  34,C  11,C  10,H  32)     66.43 -0.000035    0.33     66.76   
   185. D(H  37,C  12,C  10,H  32)     57.07  0.000045   -0.08     56.99   
   186. D(H  37,C  12,C  10,C  11)    -58.78  0.000034   -0.07    -58.85   
   187. D(H  37,C  12,C  10,Si  6)    174.88 -0.000050    0.00    174.89   
   188. D(H  36,C  12,C  10,H  32)    176.77  0.000032   -0.07    176.71   
   189. D(H  36,C  12,C  10,C  11)     60.93  0.000021   -0.06     60.87   
   190. D(H  36,C  12,C  10,Si  6)    -65.41 -0.000063    0.02    -65.40   
   191. D(C  14,O  13,Si  6,C  10)    -99.00  0.000026   -0.31    -99.30   
   192. D(C  14,O  13,Si  6,C   7)    136.07 -0.000005   -0.34    135.74   
   193. D(C  14,O  13,Si  6,O   5)     19.62 -0.000024   -0.32     19.30   
   194. D(H  40,C  14,O  13,Si  6)     78.18 -0.000010    0.32     78.50   
   195. D(H  39,C  14,O  13,Si  6)   -163.82 -0.000015    0.32   -163.50   
   196. D(C  15,C  14,O  13,Si  6)    -44.63 -0.000026    0.32    -44.32   
   197. D(H  16,C  15,C   3,H   4)    -53.62  0.000035    0.01    -53.61   
   198. D(H  16,C  15,C   3,C   1)   -171.46 -0.000005    0.07   -171.39   
   199. D(C  14,C  15,C   3,O   5)    -53.50  0.000002    0.00    -53.50   
   200. D(C  14,C  15,C   3,H   4)   -171.90  0.000020    0.00   -171.90   
   201. D(H  16,C  15,C   3,O   5)     64.78  0.000018    0.00     64.79   
   202. D(C  14,C  15,C   3,C   1)     70.26 -0.000020    0.07     70.33   
   203. D(H  16,C  15,C  14,H  40)   -179.92 -0.000000   -0.16   -180.08   
   204. D(H  16,C  15,C  14,H  39)     60.71 -0.000021   -0.12     60.59   
   205. D(H  16,C  15,C  14,O  13)    -57.64  0.000030   -0.14    -57.78   
   206. D(C   3,C  15,C  14,H  40)    -60.84  0.000060   -0.18    -61.02   
   207. D(C   3,C  15,C  14,H  39)    179.78  0.000040   -0.14    179.65   
   208. D(C   3,C  15,C  14,O  13)     61.43  0.000090   -0.16     61.28   
   209. D(C  18,O  17,C  15,H  16)    173.71  0.000048   -0.06    173.66   
   210. D(C  18,O  17,C  15,C  14)    -69.90  0.000025   -0.09    -69.99   
   211. D(C  18,O  17,C  15,C   3)     57.16  0.000062   -0.06     57.10   
   212. D(C  22,C  18,O  17,C  15)    -51.93 -0.000002    0.00    -51.93   
   213. D(O  20,C  18,O  17,C  15)   -170.32 -0.000036    0.02   -170.31   
   214. D(H  19,C  18,O  17,C  15)     69.50  0.000024   -0.05     69.45   
   215. D(C  21,O  20,C  18,C  22)    167.16 -0.000012   -0.07    167.09   
   216. D(C  21,O  20,C  18,H  19)     49.10  0.000013   -0.07     49.03   
   217. D(C  21,O  20,C  18,O  17)    -70.69  0.000033   -0.08    -70.78   
   218. D(H  43,C  21,O  20,C  18)    -59.74 -0.000035    0.07    -59.67   
   219. D(H  42,C  21,O  20,C  18)     61.99  0.000018    0.02     62.02   
   220. D(H  41,C  21,O  20,C  18)   -178.64  0.000003    0.04   -178.60   
   221. D(O  23,C  22,C  18,O  20)    -73.97  0.000023    0.06    -73.91   
   222. D(O  23,C  22,C  18,H  19)     45.35 -0.000030    0.12     45.47   
   223. D(C   1,C  22,C  18,O  20)    164.60 -0.000028    0.04    164.65   
   224. D(C   1,C  22,C  18,H  19)    -76.08 -0.000082    0.11    -75.97   
   225. D(C   1,C  22,C  18,O  17)     46.11 -0.000046    0.04     46.15   
   226. D(O  23,C  22,C   1,C   3)   -167.79  0.000023   -0.01   -167.80   
   227. D(O  23,C  22,C   1,H   2)    -48.04  0.000030   -0.04    -48.07   
   228. D(O  23,C  22,C   1,O   0)     70.55  0.000015   -0.02     70.53   
   229. D(O  23,C  22,C  18,O  17)    167.54  0.000005    0.06    167.59   
   230. D(C  18,C  22,C   1,C   3)    -48.53 -0.000023    0.03    -48.50   
   231. D(C  18,C  22,C   1,H   2)     71.23 -0.000016   -0.00     71.23   
   232. D(C  18,C  22,C   1,O   0)   -170.19 -0.000032    0.01   -170.17   
   233. D(H  45,O  23,C  22,H  44)     60.66 -0.000011    0.22     60.87   
   234. D(H  45,O  23,C  22,C  18)    177.82 -0.000043    0.20    178.03   
   235. D(H  45,O  23,C  22,C   1)    -60.15 -0.000049    0.24    -59.91   
    ----------------------------------------------------------------------------

Geometry step timings:
Preparation and reading OPT file:      0.001 s ( 5.085 %)
Internal coordinates            :      0.000 s ( 0.159 %)
B/P matrices and projection     :      0.005 s (22.428 %)
Hessian update/contruction      :      0.009 s (42.881 %)
Making the step                 :      0.003 s (14.937 %)
Converting the step to Cartesian:      0.000 s ( 1.900 %)
Storing new data                :      0.001 s ( 4.063 %)
Checking convergence            :      0.000 s ( 0.154 %)
Final printing                  :      0.002 s ( 8.379 %)
Total time                      :      0.020 s

Time for energy+gradient        :      0.088 s
Time for complete geometry iter :      0.118 s

         *************************************************************
         *                GEOMETRY OPTIMIZATION CYCLE  13            *
         *************************************************************
---------------------------------
CARTESIAN COORDINATES (ANGSTROEM)
---------------------------------
  O    -3.768696   -0.099165   -0.455728
  C    -2.464671   -0.495993   -0.110044
  H    -1.823846   -0.470793   -1.006905
  C    -1.869436    0.429478    0.954040
  H    -2.556390    0.441067    1.812752
  O    -1.807422    1.740402    0.466967
  Si   -0.466930    2.387138   -0.241851
  C    -0.051861    4.025790    0.651016
  C    -1.306237    4.859013    0.918060
  C     0.704569    3.800816    1.963019
  C    -0.749311    2.538344   -2.136705
  C    -1.848790    3.532430   -2.514831
  C     0.547405    2.913249   -2.859132
  O     0.789690    1.355632    0.013460
  C     0.574858    0.018184    0.356443
  C    -0.515858   -0.108751    1.428129
  H    -0.190462    0.483603    2.291331
  O    -0.655406   -1.420711    1.923589
  C    -1.205950   -2.383890    1.038478
  H    -0.486325   -2.599020    0.223168
  O    -1.460473   -3.526110    1.772786
  C    -0.298960   -4.231647    2.184786
  C    -2.535846   -1.938845    0.408854
  O    -2.814870   -2.829565   -0.637023
  H    -3.773426    0.864864   -0.533600
  H     0.597944    4.608963   -0.007296
  H    -1.995871    4.308047    1.551693
  H    -1.817328    5.100861   -0.008585
  H    -1.043683    5.789417    1.419563
  H     0.081586    3.256622    2.669956
  H     0.976012    4.755196    2.411867
  H     1.611423    3.228600    1.788047
  H    -1.057853    1.554950   -2.515644
  H    -1.537687    4.544281   -2.267923
  H    -2.770336    3.317712   -1.981091
  H    -2.048407    3.491310   -3.584385
  H     0.868249    3.908839   -2.562868
  H     0.399085    2.908413   -3.937736
  H     1.342077    2.214839   -2.612058
  H     1.514416   -0.375954    0.756926
  H     0.308584   -0.556029   -0.537125
  H    -0.661719   -5.104975    2.721133
  H     0.318137   -3.614579    2.841442
  H     0.288699   -4.543615    1.314749
  H    -3.308282   -1.994475    1.189564
  H    -3.666452   -2.577697   -1.021027

----------------------------
CARTESIAN COORDINATES (A.U.)
----------------------------
  NO LB    ZA    FRAG    MASS        X           Y           Z
   0 O   8.0000    1    15.999   -7.121804   -0.187394   -0.861201
   1 C   6.0000    1    12.011   -4.657553   -0.937292   -0.207953
   2 H   1.0000    1     1.008   -3.446570   -0.889670   -1.902776
   3 C   6.0000    1    12.011   -3.532722    0.811596    1.802874
   4 H   1.0000    1     1.008   -4.830877    0.833496    3.425605
   5 O   8.0000    1    15.999   -3.415533    3.288884    0.882439
   6 Si 14.0000    1    28.086   -0.882369    4.511038   -0.457032
   7 C   6.0000    1    12.011   -0.098003    7.607640    1.230242
   8 C   6.0000    1    12.011   -2.468430    9.182205    1.734882
   9 C   6.0000    1    12.011    1.331443    7.182501    3.709568
  10 C   6.0000    1    12.011   -1.415992    4.796775   -4.037787
  11 C   6.0000    1    12.011   -3.493706    6.675326   -4.752341
  12 C   6.0000    1    12.011    1.034446    5.505243   -5.402976
  13 O   8.0000    1    15.999    1.492298    2.561772    0.025435
  14 C   6.0000    1    12.011    1.086323    0.034364    0.673580
  15 C   6.0000    1    12.011   -0.974830   -0.205510    2.698773
  16 H   1.0000    1     1.008   -0.359921    0.913878    4.329988
  17 O   8.0000    1    15.999   -1.238538   -2.684754    3.635056
  18 C   6.0000    1    12.011   -2.278915   -4.504899    1.962439
  19 H   1.0000    1     1.008   -0.919021   -4.911435    0.421726
  20 O   8.0000    1    15.999   -2.759895   -6.663382    3.350081
  21 C   6.0000    1    12.011   -0.564952   -7.996654    4.128647
  22 C   6.0000    1    12.011   -4.792055   -3.663886    0.772621
  23 O   8.0000    1    15.999   -5.319334   -5.347104   -1.203798
  24 H   1.0000    1     1.008   -7.130742    1.634356   -1.008358
  25 H   1.0000    1     1.008    1.129951    8.709678   -0.013788
  26 H   1.0000    1     1.008   -3.771649    8.141030    2.932275
  27 H   1.0000    1     1.008   -3.434253    9.639231   -0.016223
  28 H   1.0000    1     1.008   -1.972276   10.940412    2.682586
  29 H   1.0000    1     1.008    0.154176    6.154123    5.045486
  30 H   1.0000    1     1.008    1.844395    8.986017    4.557769
  31 H   1.0000    1     1.008    3.045149    6.101170    3.378919
  32 H   1.0000    1     1.008   -1.999053    2.938430   -4.753879
  33 H   1.0000    1     1.008   -2.905807    8.587447   -4.285754
  34 H   1.0000    1     1.008   -5.235176    6.269567   -3.743719
  35 H   1.0000    1     1.008   -3.870928    6.597621   -6.773505
  36 H   1.0000    1     1.008    1.640754    7.386634   -4.843118
  37 H   1.0000    1     1.008    0.754161    5.496104   -7.441243
  38 H   1.0000    1     1.008    2.536158    4.185440   -4.936074
  39 H   1.0000    1     1.008    2.861832   -0.710450    1.430383
  40 H   1.0000    1     1.008    0.583139   -1.050743   -1.015020
  41 H   1.0000    1     1.008   -1.250468   -9.647006    5.142197
  42 H   1.0000    1     1.008    0.601192   -6.830564    5.369548
  43 H   1.0000    1     1.008    0.545561   -8.586187    2.484515
  44 H   1.0000    1     1.008   -6.251747   -3.769011    2.247950
  45 H   1.0000    1     1.008   -6.928590   -4.871141   -1.929462

      -----------------------------------------------------------      
     |                   =====================                   |     
     |                           x T B                           |     
     |                   =====================                   |     
     |                         S. Grimme                         |     
     |          Mulliken Center for Theoretical Chemistry        |     
     |                    University of Bonn                     |     
      -----------------------------------------------------------      

   * xtb version 6.7.1 (edcfbbe) compiled by 'albert@albert-system' on 2024-07-22

   xtb is free software: you can redistribute it and/or modify it under
   the terms of the GNU Lesser General Public License as published by
   the Free Software Foundation, either version 3 of the License, or
   (at your option) any later version.
   
   xtb is distributed in the hope that it will be useful,
   but WITHOUT ANY WARRANTY; without even the implied warranty of
   MERCHANTABILITY or FITNESS FOR A PARTICULAR PURPOSE.  See the
   GNU Lesser General Public License for more details.
   
   Cite this work as:
   * C. Bannwarth, E. Caldeweyher, S. Ehlert, A. Hansen, P. Pracht,
     J. Seibert, S. Spicher, S. Grimme, WIREs Comput. Mol. Sci., 2020, 11,
     e01493. DOI: 10.1002/wcms.1493
   
   for GFN2-xTB:
   * C. Bannwarth, S. Ehlert and S. Grimme., J. Chem. Theory Comput., 2019,
     15, 1652-1671. DOI: 10.1021/acs.jctc.8b01176
   for GFN1-xTB:
   * S. Grimme, C. Bannwarth, P. Shushkov, J. Chem. Theory Comput., 2017,
     13, 1989-2009. DOI: 10.1021/acs.jctc.7b00118
   for GFN0-xTB:
   * P. Pracht, E. Caldeweyher, S. Ehlert, S. Grimme, ChemRxiv, 2019, preprint.
     DOI: 10.26434/chemrxiv.8326202.v1
   for GFN-FF:
   * S. Spicher and S. Grimme, Angew. Chem. Int. Ed., 2020, 59, 15665-15673.
     DOI: 10.1002/anie.202004239
   
   for ALPB and GBSA implicit solvation:
   * S. Ehlert, M. Stahn, S. Spicher, S. Grimme, J. Chem. Theory Comput.,
     2021, 17, 4250-4261. DOI: 10.1021/acs.jctc.1c00471
   
   for ddCOSMO and CPCM-X implicit solvation:
   * M. Stahn, S. Ehlert, S. Grimme, J. Phys. Chem. A,
     2023, XX, XXXX-XXXX. DOI: 10.1021/acs.jpca.3c04382
   
   for DFT-D4:
   * E. Caldeweyher, C. Bannwarth and S. Grimme, J. Chem. Phys., 2017,
     147, 034112. DOI: 10.1063/1.4993215
   * E. Caldeweyher, S. Ehlert, A. Hansen, H. Neugebauer, S. Spicher,
     C. Bannwarth and S. Grimme, J. Chem. Phys., 2019, 150, 154122.
     DOI: 10.1063/1.5090222
   * E. Caldeweyher, J.-M. Mewes, S. Ehlert and S. Grimme, Phys. Chem. Chem. Phys.
     2020, 22, 8499-8512. DOI: 10.1039/D0CP00502A
   
   for sTDA-xTB:
   * S. Grimme and C. Bannwarth, J. Chem. Phys., 2016, 145, 054103.
     DOI: 10.1063/1.4959605
   
   in the mass-spec context:
   * V. Asgeirsson, C. Bauer and S. Grimme, Chem. Sci., 2017, 8, 4879.
     DOI: 10.1039/c7sc00601b
   * J. Koopman and S. Grimme, ACS Omega 2019, 4, 12, 15120-15133.
     DOI: 10.1021/acsomega.9b02011
   
   for metadynamics refer to:
   * S. Grimme, J. Chem. Theory Comput., 2019, 155, 2847-2862
     DOI: 10.1021/acs.jctc.9b00143
   
   for SPH calculations refer to:
   * S. Spicher and S. Grimme, J. Chem. Theory Comput., 2021, 17, 1701-1714
     DOI: 10.1021/acs.jctc.0c01306
   
   for ONIOM refer to:
   * C. Plett, A. Katbashev, S. Ehlert, S. Grimme, M. Bursch,
     Phys. Chem. Chem. Phys., 2023, 25, 17860-17868. DOI: 10.1039/D3CP02178E
   
   for DIPRO refer to:
   * J. Kohn, N. Gildemeister, S. Grimme, D. Fazzi, A. Hansen,
     J. Chem. Phys., 2023, just accepted.
   
   for PTB refer to:
   * S. Grimme, M. Mueller, A. Hansen, J. Chem. Phys., 2023, 158, 124111.
     DOI: 10.1063/5.0137838
   
   with help from (in alphabetical order)
   P. Atkinson, C. Bannwarth, F. Bohle, G. Brandenburg, E. Caldeweyher
   M. Checinski, S. Dohm, S. Ehlert, S. Ehrlich, I. Gerasimov, C. Hölzer
   A. Katbashev, J. Kohn, J. Koopman, C. Lavigne, S. Lehtola, F. März, M. Müller,
   F. Musil, H. Neugebauer, J. Pisarek, C. Plett, P. Pracht, F. Pultar,
   J. Seibert, P. Shushkov, S. Spicher, M. Stahn, M. Steiner, T. Strunk,
   J. Stückrath, T. Rose, and J. Unsleber
   
 * started run on 2025/09/10 at 11:29:47.354     
   ID    Z sym.   atoms
    1    8 O      1, 6, 14, 18, 21, 24
    2    6 C      2, 4, 8-13, 15, 16, 19, 22, 23
    3    1 H      3, 5, 17, 20, 25-46
    4   14 Si     7

           -------------------------------------------------
          |                Calculation Setup                |
           -------------------------------------------------

          program call               : /home/kmoult/orca_6_1/otool_xtb goat_0_XTB.xyz --grad -c 0 -u 0 -P 4 --namespace goat_0 --input goat_0_XTB.input.tmp --alpb ACETONE --acc 0.200000
          hostname                   : node2704
          calculation namespace      : goat_0
          coordinate file            : goat_0_XTB.xyz
          omp threads                :                     4


           -------------------------------------------------
          |                 G F N 2 - x T B                 |
           -------------------------------------------------

        Reference                      10.1021/acs.jctc.8b01176
      * Hamiltonian:
        H0-scaling (s, p, d)           1.850000    2.230000    2.230000
        zeta-weighting                 0.500000
      * Dispersion:
        s8                             2.700000
        a1                             0.520000
        a2                             5.000000
        s9                             5.000000
      * Repulsion:
        kExp                           1.500000    1.000000
        rExp                           1.000000
      * Coulomb:
        alpha                          2.000000
        third order                    shell-resolved
        anisotropic                    true
        a3                             3.000000
        a5                             4.000000
        cn-shift                       1.200000
        cn-exp                         4.000000
        max-rad                        5.000000

      * Solvation model:               ALPB
        Solvent                        ACETONE
        Parameter file                 internal GFN2-xTB/ALPB
        Dielectric constant                2.0700E+01
        Reference state                gsolv [1 M gas/solution]
        Free energy shift                  5.9241E-03 Eh       3.7175E+00 kcal/mol
        Temperature                        2.9815E+02 K
        Density                            7.9000E-01 kg/L
        Solvent mass                       5.8080E+01 g/mol
        Interaction kernel             P16
        Born radius scaling (c1)           1.8274E+00
        Born radii integrator          GBOBC
        Born offset                        0.0000E+00 a0       0.0000E+00 AA
        H-bond correction              true
        Ion screening                  false
        Surface tension                    1.0000E-05 Eh       1.5569E+01 dyn/cm
        Grid points                               230 per atom
q/qsh data taken from xtbrestart
CAMM data taken from xtbrestart

          ...................................................
          :                      SETUP                      :
          :.................................................:
          :  # basis functions                 112          :
          :  # atomic orbitals                 111          :
          :  # shells                           67          :
          :  # electrons                       118          :
          :  max. iterations                   250          :
          :  Hamiltonian                  GFN2-xTB          :
          :  restarted?                       true          :
          :  GBSA solvation                   true          :
          :  PC potential                    false          :
          :  electronic temp.          300.0000000     K    :
          :  accuracy                    0.2000000          :
          :  -> integral cutoff          0.3198970E+02      :
          :  -> integral neglect         0.2000000E-08      :
          :  -> SCF convergence          0.2000000E-06 Eh   :
          :  -> wf. convergence          0.2000000E-04 e    :
          :  Broyden damping             0.4000000          :
          :  net charge                          0          :
          :  unpaired electrons                  0          :
          ...................................................

 iter      E             dE          RMSdq      gap      omega  full diag
   1    -68.0085929 -0.680086E+02  0.153E-02    5.67       0.0  T
   2    -68.0085930 -0.113106E-06  0.112E-02    5.67       1.3  T
   3    -68.0085930  0.182701E-07  0.261E-03    5.67       5.6  T
   4    -68.0085930 -0.534935E-07  0.208E-03    5.67       7.1  T
   5    -68.0085930 -0.804820E-08  0.715E-04    5.67      20.6  T
   6    -68.0085930 -0.438654E-08  0.272E-04    5.67      54.1  T
   7    -68.0085930 -0.143045E-08  0.117E-04    5.67     126.0  T
   8    -68.0085930 -0.133582E-11  0.604E-05    5.67     244.2  T

   *** convergence criteria satisfied after 8 iterations ***

         #    Occupation            Energy/Eh            Energy/eV
      -------------------------------------------------------------
         1        2.0000           -0.8149856             -22.1769
       ...           ...                  ...                  ...
        53        2.0000           -0.4307108             -11.7202
        54        2.0000           -0.4236178             -11.5272
        55        2.0000           -0.4210849             -11.4583
        56        2.0000           -0.4172563             -11.3541
        57        2.0000           -0.4160675             -11.3218
        58        2.0000           -0.4092838             -11.1372
        59        2.0000           -0.3765833             -10.2474 (HOMO)
        60                         -0.1683057              -4.5798 (LUMO)
        61                         -0.1319437              -3.5904
        62                         -0.0950615              -2.5868
        63                         -0.0494833              -1.3465
        64                         -0.0080784              -0.2198
       ...                                ...                  ...
       111                          0.7904097              21.5081
      -------------------------------------------------------------
                  HL-Gap            0.2082776 Eh            5.6675 eV
             Fermi-level           -0.2724445 Eh           -7.4136 eV

 SCC (total)                   0 d,  0 h,  0 min,  0.027 sec
 SCC setup                      ...        0 min,  0.001 sec (  2.099%)
 Dispersion                     ...        0 min,  0.000 sec (  1.006%)
 classical contributions        ...        0 min,  0.000 sec (  0.149%)
 integral evaluation            ...        0 min,  0.004 sec ( 16.353%)
 iterations                     ...        0 min,  0.013 sec ( 47.416%)
 molecular gradient             ...        0 min,  0.009 sec ( 32.407%)
 printout                       ...        0 min,  0.000 sec (  0.505%)

         :::::::::::::::::::::::::::::::::::::::::::::::::::::
         ::                     SUMMARY                     ::
         :::::::::::::::::::::::::::::::::::::::::::::::::::::
         :: total energy             -67.354771753198 Eh    ::
         :: total w/o Gsasa/hb       -67.327158684358 Eh    ::
         :: gradient norm              0.000605116286 Eh/a0 ::
         :: HOMO-LUMO gap              5.667521236194 eV    ::
         ::.................................................::
         :: SCC energy               -68.007707977021 Eh    ::
         :: -> isotropic ES            0.154312555882 Eh    ::
         :: -> anisotropic ES          0.001063167064 Eh    ::
         :: -> anisotropic XC          0.002419982955 Eh    ::
         :: -> dispersion             -0.044921662995 Eh    ::
         :: -> Gsolv                  -0.030569751634 Eh    ::
         ::    -> Gelec               -0.002956682793 Eh    ::
         ::    -> Gsasa               -0.027906183874 Eh    ::
         ::    -> Ghb                 -0.005631026231 Eh    ::
         ::    -> Gshift               0.005924141264 Eh    ::
         :: repulsion energy           0.652936223823 Eh    ::
         :: add. restraining           0.000000000000 Eh    ::
         :: total charge               0.000000000000 e     ::
         :::::::::::::::::::::::::::::::::::::::::::::::::::::


Property printout bound to 'properties.out'

           -------------------------------------------------
          | TOTAL ENERGY              -67.354771753198 Eh   |
          | GRADIENT NORM               0.000605116286 Eh/α |
          | HOMO-LUMO GAP               5.667521236194 eV   |
           -------------------------------------------------

------------------------------------------------------------------------
 * finished run on 2025/09/10 at 11:29:47.403     
------------------------------------------------------------------------
 total:
 * wall-time:     0 d,  0 h,  0 min,  0.048 sec
 *  cpu-time:     0 d,  0 h,  0 min,  0.173 sec
 * ratio c/w:     3.588 speedup
 SCF:
 * wall-time:     0 d,  0 h,  0 min,  0.027 sec
 *  cpu-time:     0 d,  0 h,  0 min,  0.108 sec
 * ratio c/w:     3.978 speedup


-------------------------   --------------------
FINAL SINGLE POINT ENERGY       -67.354771753200
-------------------------   --------------------


-------------
DIPOLE MOMENT
-------------
                                X             Y             Z
Total Dipole Moment    :      0.31400       0.75400      -0.34700
                        -----------------------------------------
Magnitude (a.u.)       :      0.88742
Magnitude (Debye)      :      2.25565


------------------
CARTESIAN GRADIENT
------------------

   1   O   :   -0.000032371    0.000010623    0.000051119
   2   C   :   -0.000159277   -0.000035578   -0.000065766
   3   H   :    0.000036872   -0.000019132    0.000024124
   4   C   :    0.000020297    0.000004799   -0.000002854
   5   H   :    0.000029537   -0.000039212   -0.000035291
   6   O   :   -0.000002406    0.000107156   -0.000005483
   7   Si  :   -0.000097615    0.000174468   -0.000020053
   8   C   :   -0.000001332   -0.000149251    0.000016863
   9   C   :   -0.000008669    0.000071164    0.000025173
  10   C   :    0.000048758    0.000042153    0.000028885
  11   C   :   -0.000044715   -0.000135275   -0.000016329
  12   C   :    0.000011238    0.000048403   -0.000063210
  13   C   :    0.000055727   -0.000013389   -0.000028006
  14   O   :    0.000097934    0.000057612    0.000017251
  15   C   :    0.000013222   -0.000087131   -0.000087725
  16   C   :   -0.000007277    0.000101427    0.000081597
  17   H   :    0.000024437   -0.000047868    0.000007220
  18   O   :    0.000036528   -0.000059135   -0.000009873
  19   C   :    0.000131806    0.000004907    0.000125906
  20   H   :   -0.000028037    0.000045708   -0.000024484
  21   O   :   -0.000064425   -0.000068734    0.000030667
  22   C   :   -0.000011021    0.000004497    0.000014682
  23   C   :   -0.000082195   -0.000133807   -0.000190590
  24   O   :    0.000056002    0.000108546    0.000053868
  25   H   :    0.000036298    0.000034323   -0.000007796
  26   H   :    0.000020804    0.000009356   -0.000015611
  27   H   :   -0.000015424   -0.000024809    0.000009487
  28   H   :   -0.000002461   -0.000000662   -0.000018694
  29   H   :   -0.000007939    0.000003996   -0.000003505
  30   H   :   -0.000038433   -0.000003912    0.000011231
  31   H   :   -0.000009080    0.000003694    0.000010948
  32   H   :    0.000010401   -0.000001362   -0.000017630
  33   H   :    0.000003450    0.000018005    0.000036595
  34   H   :    0.000001163    0.000006770    0.000033600
  35   H   :   -0.000009434   -0.000001768    0.000005619
  36   H   :   -0.000006795   -0.000015553   -0.000002472
  37   H   :    0.000001503    0.000028273    0.000014409
  38   H   :   -0.000007360    0.000004207   -0.000007513
  39   H   :    0.000012486   -0.000000135    0.000015704
  40   H   :   -0.000009782   -0.000002123   -0.000005118
  41   H   :    0.000000186   -0.000020046    0.000043505
  42   H   :   -0.000029103   -0.000005533   -0.000004587
  43   H   :    0.000028438   -0.000003241   -0.000020516
  44   H   :    0.000021191    0.000014499    0.000008162
  45   H   :    0.000015416    0.000040009    0.000032475
  46   H   :   -0.000038544   -0.000076941   -0.000045983

Difference to translation invariance:
           :    0.0000000000   -0.0000000000   -0.0000000000

Difference to rotation invariance:
           :    0.0002341455   -0.0002894283   -0.0000232100

Norm of the Cartesian gradient     ...    0.0006051163
RMS gradient                       ...    0.0000515109
MAX gradient                       ...    0.0001905904
------------------------------------------------------------------------------
                         ORCA GEOMETRY RELAXATION STEP
------------------------------------------------------------------------------

Reading the OPT-File                    .... done
Getting information on internals        .... done
Copying old internal coords+grads       .... done
Making the new internal coordinates     .... (2022 redundants) done
Validating the new internal coordinates .... (2022 redundants) done
Calculating the B-matrix                .... done
Calculating the G,G- and P matrices     .... done
Transforming gradient to internals      .... done
Projecting the internal gradient        .... done
Number of atoms                         ....  46
Number of internal coordinates          .... 235
Current Energy                          ....   -67.354771753 Eh
Current gradient norm                   ....     0.000605116 Eh/bohr
Maximum allowed component of the step   ....  0.300
Current trust radius                    ....  0.200
Updating the Hessian (BFGS)             .... done
Forming the augmented Hessian           .... done
Diagonalizing the augmented Hessian     .... done
Last element of RFO vector              ....  0.999877568
Lowest eigenvalues of augmented Hessian:
 -0.000001474  0.001688543  0.003739697  0.009710766  0.010434796
Length of the computed step             ....  0.015649557
The final length of the internal step   ....  0.015649557
Converting the step to Cartesian space:
 Initial RMS(Int)=    0.0010208645
Transforming coordinates:
 Iter   0:  RMS(Cart)=    0.0048958301 RMS(Int)=    0.0010210505
done
Storing new coordinates                 .... done
The predicted energy change is          ....    -0.000000737
Previously predicted energy change      ....    -0.000004603
Actually observed energy change         ....    -0.000005084
Ratio of predicted to observed change   ....     1.104343045
New trust radius                        ....     0.300000000

                                .--------------------.
          ----------------------|Geometry convergence|-------------------------
          Item                value                   Tolerance       Converged
          ---------------------------------------------------------------------
          Energy change      -0.0000050838            0.0000050000      NO
          RMS gradient        0.0000286677            0.0001000000      YES
          MAX gradient        0.0001166049            0.0003000000      YES
          RMS step            0.0010208645            0.0020000000      YES
          MAX step            0.0047897001            0.0040000000      NO
          -------------------------------------------------------------------------
          ........................................................
          Max(Bonds)      0.0016      Max(Angles)    0.06
          Max(Dihed)        0.27      Max(Improp)    0.00
          ---------------------------------------------------------------------

    ---------------------------------------------------------------------------
                         Redundant Internal Coordinates
                            (Angstroem and degrees)

        Definition                    Value    dE/dq     Step     New-Value
    ----------------------------------------------------------------------------
     1. B(C   1,O   0)                1.4062 -0.000009  0.0000    1.4062   
     2. B(H   2,C   1)                1.1026  0.000000  0.0000    1.1026   
     3. B(C   3,C   1)                1.5307  0.000099 -0.0001    1.5306   
     4. B(H   4,C   3)                1.0997 -0.000046  0.0001    1.0998   
     5. B(O   5,C   3)                1.3999  0.000117 -0.0001    1.3998   
     6. B(Si  6,O   5)                1.6485 -0.000002 -0.0000    1.6485   
     7. B(C   7,Si  6)                1.9117 -0.000023  0.0002    1.9119   
     8. B(C   8,C   7)                1.5294  0.000055  0.0000    1.5294   
     9. B(C   9,C   7)                1.5311  0.000026  0.0000    1.5311   
    10. B(C  10,Si  6)                1.9217  0.000011 -0.0001    1.9217   
    11. B(C  11,C  10)                1.5297  0.000037  0.0000    1.5297   
    12. B(C  12,C  10)                1.5310  0.000056 -0.0001    1.5309   
    13. B(O  13,Si  6)                1.6457  0.000090 -0.0002    1.6455   
    14. B(C  14,O  13)                1.3973  0.000099 -0.0001    1.3973   
    15. B(C  15,C   3)                1.5319  0.000076 -0.0001    1.5318   
    16. B(C  15,C  14)                1.5344  0.000038  0.0000    1.5344   
    17. B(H  16,C  15)                1.0963 -0.000013  0.0000    1.0963   
    18. B(O  17,C  15)                1.4093  0.000064 -0.0000    1.4093   
    19. B(C  18,O  17)                1.4192  0.000001  0.0001    1.4193   
    20. B(H  19,C  18)                1.1085 -0.000010 -0.0000    1.1085   
    21. B(O  20,C  18)                1.3815  0.000073 -0.0000    1.3815   
    22. B(C  21,O  20)                1.4201  0.000005  0.0000    1.4201   
    23. B(C  22,C  18)                1.5372  0.000112 -0.0001    1.5372   
    24. B(C  22,C   1)                1.5350  0.000005 -0.0000    1.5349   
    25. B(O  23,C  22)                1.4018 -0.000071  0.0000    1.4019   
    26. B(H  24,O   0)                0.9672  0.000032 -0.0000    0.9672   
    27. B(H  24,O   5)                2.3734 -0.000007  0.0010    2.3744   
    28. B(H  25,C   7)                1.0935  0.000028 -0.0000    1.0935   
    29. B(H  26,C   8)                1.0866  0.000027 -0.0000    1.0866   
    30. B(H  27,C   8)                1.0855  0.000017 -0.0000    1.0855   
    31. B(H  28,C   8)                1.0891  0.000000 -0.0000    1.0891   
    32. B(H  29,C   9)                1.0881  0.000029 -0.0000    1.0881   
    33. B(H  30,C   9)                1.0890  0.000005 -0.0000    1.0890   
    34. B(H  31,C   9)                1.0865  0.000014  0.0000    1.0865   
    35. B(H  32,C  10)                1.0981 -0.000029  0.0000    1.0981   
    36. B(H  33,C  11)                1.0870  0.000013  0.0000    1.0870   
    37. B(H  34,C  11)                1.0864  0.000012 -0.0000    1.0864   
    38. B(H  35,C  11)                1.0888  0.000004 -0.0000    1.0888   
    39. B(H  36,C  12)                1.0872  0.000029 -0.0000    1.0871   
    40. B(H  37,C  12)                1.0888  0.000010  0.0000    1.0888   
    41. B(H  38,C  12)                1.0864  0.000012  0.0000    1.0864   
    42. B(H  39,C  14)                1.0948 -0.000010  0.0000    1.0948   
    43. B(H  40,C  14)                1.0950 -0.000024  0.0000    1.0951   
    44. B(H  41,C  21)                1.0872  0.000012 -0.0000    1.0872   
    45. B(H  42,C  21)                1.0921  0.000003 -0.0000    1.0921   
    46. B(H  43,C  21)                1.0953  0.000001 -0.0000    1.0953   
    47. B(H  44,C  22)                1.0997  0.000011  0.0000    1.0997   
    48. B(H  45,O   0)                2.5442  0.000050 -0.0016    2.5426   
    49. B(H  45,O  23)                0.9675  0.000042 -0.0000    0.9675   
    50. A(C   1,O   0,H  24)          107.79 -0.000051    0.02    107.82   
    51. A(H   2,C   1,C   3)          109.00 -0.000022    0.00    109.01   
    52. A(O   0,C   1,C   3)          111.15 -0.000011    0.02    111.17   
    53. A(H   2,C   1,C  22)          108.87 -0.000021    0.02    108.89   
    54. A(O   0,C   1,H   2)          109.42  0.000031   -0.01    109.42   
    55. A(O   0,C   1,C  22)          107.78  0.000008   -0.02    107.76   
    56. A(C   3,C   1,C  22)          110.57  0.000015   -0.01    110.56   
    57. A(O   5,C   3,C  15)          113.43  0.000012   -0.00    113.42   
    58. A(C   1,C   3,H   4)          107.83 -0.000033    0.01    107.84   
    59. A(H   4,C   3,C  15)          108.30 -0.000018    0.00    108.30   
    60. A(H   4,C   3,O   5)          106.83  0.000009    0.00    106.83   
    61. A(C   1,C   3,C  15)          110.26  0.000015   -0.02    110.24   
    62. A(C   1,C   3,O   5)          109.97  0.000012    0.01    109.98   
    63. A(C   3,O   5,Si  6)          123.57 -0.000015    0.00    123.58   
    64. A(C  10,Si  6,O  13)          108.33 -0.000080    0.04    108.37   
    65. A(O   5,Si  6,C   7)          108.18 -0.000024    0.02    108.20   
    66. A(C   7,Si  6,O  13)          107.40  0.000003    0.00    107.40   
    67. A(O   5,Si  6,O  13)          107.96  0.000018    0.02    107.97   
    68. A(O   5,Si  6,C  10)          109.59 -0.000004   -0.05    109.54   
    69. A(C   7,Si  6,C  10)          115.15  0.000084   -0.03    115.12   
    70. A(C   8,C   7,H  25)          107.58  0.000007   -0.00    107.57   
    71. A(Si  6,C   7,C   8)          111.74 -0.000007    0.00    111.75   
    72. A(Si  6,C   7,H  25)          107.76 -0.000015    0.00    107.76   
    73. A(C   8,C   7,C   9)          109.61 -0.000022   -0.00    109.61   
    74. A(Si  6,C   7,C   9)          112.43  0.000046    0.00    112.43   
    75. A(C   9,C   7,H  25)          107.50 -0.000010   -0.00    107.49   
    76. A(H  27,C   8,H  28)          108.44 -0.000004   -0.00    108.44   
    77. A(C   7,C   8,H  28)          110.37  0.000017   -0.00    110.37   
    78. A(C   7,C   8,H  27)          111.01 -0.000016   -0.00    111.01   
    79. A(C   7,C   8,H  26)          110.25 -0.000012    0.00    110.25   
    80. A(H  26,C   8,H  27)          108.18  0.000008    0.00    108.18   
    81. A(H  26,C   8,H  28)          108.52  0.000008    0.00    108.52   
    82. A(H  30,C   9,H  31)          108.66  0.000007   -0.00    108.65   
    83. A(C   7,C   9,H  31)          110.60 -0.000017    0.00    110.60   
    84. A(C   7,C   9,H  30)          110.34  0.000009   -0.00    110.33   
    85. A(C   7,C   9,H  29)          110.33 -0.000027    0.01    110.33   
    86. A(H  29,C   9,H  31)          108.61  0.000026   -0.00    108.61   
    87. A(H  29,C   9,H  30)          108.25  0.000003    0.00    108.25   
    88. A(Si  6,C  10,C  12)          111.11 -0.000029    0.03    111.14   
    89. A(Si  6,C  10,H  32)          108.12 -0.000016   -0.00    108.12   
    90. A(Si  6,C  10,C  11)          113.61  0.000035   -0.03    113.58   
    91. A(C  11,C  10,C  12)          109.45 -0.000012    0.01    109.46   
    92. A(C  12,C  10,H  32)          107.12  0.000020   -0.00    107.12   
    93. A(C  11,C  10,H  32)          107.14  0.000003   -0.00    107.14   
    94. A(C  10,C  11,H  35)          110.49 -0.000002    0.01    110.50   
    95. A(H  34,C  11,H  35)          108.64 -0.000011    0.01    108.65   
    96. A(H  33,C  11,H  35)          108.10  0.000030   -0.01    108.10   
    97. A(H  33,C  11,H  34)          108.37 -0.000003   -0.00    108.37   
    98. A(C  10,C  11,H  34)          111.09 -0.000007   -0.00    111.09   
    99. A(C  10,C  11,H  33)          110.06 -0.000005   -0.00    110.06   
   100. A(H  36,C  12,H  38)          108.11 -0.000010    0.01    108.12   
   101. A(C  10,C  12,H  38)          110.78  0.000003   -0.01    110.77   
   102. A(H  36,C  12,H  37)          108.32  0.000007   -0.00    108.31   
   103. A(C  10,C  12,H  37)          110.55  0.000000    0.00    110.55   
   104. A(C  10,C  12,H  36)          110.22 -0.000022    0.01    110.23   
   105. A(H  37,C  12,H  38)          108.79  0.000022   -0.00    108.78   
   106. A(Si  6,O  13,C  14)          121.37 -0.000013    0.06    121.43   
   107. A(O  13,C  14,C  15)          111.09 -0.000006    0.03    111.12   
   108. A(H  39,C  14,H  40)          108.57 -0.000006   -0.01    108.56   
   109. A(O  13,C  14,H  40)          109.82  0.000031   -0.01    109.80   
   110. A(C  15,C  14,H  39)          108.95 -0.000008   -0.01    108.95   
   111. A(O  13,C  14,H  39)          107.60  0.000005   -0.00    107.60   
   112. A(C  15,C  14,H  40)          110.71 -0.000017   -0.00    110.71   
   113. A(H  16,C  15,O  17)          104.81 -0.000001    0.01    104.81   
   114. A(C  14,C  15,O  17)          113.14 -0.000019   -0.02    113.12   
   115. A(C   3,C  15,O  17)          110.39  0.000009    0.01    110.40   
   116. A(C  14,C  15,H  16)          107.11 -0.000003    0.01    107.12   
   117. A(C   3,C  15,H  16)          108.43  0.000031   -0.01    108.41   
   118. A(C   3,C  15,C  14)          112.51 -0.000015    0.01    112.52   
   119. A(C  15,O  17,C  18)          116.80  0.000004   -0.00    116.80   
   120. A(O  20,C  18,C  22)          107.32 -0.000040    0.00    107.32   
   121. A(H  19,C  18,C  22)          108.45 -0.000038    0.01    108.46   
   122. A(O  17,C  18,C  22)          113.24  0.000025   -0.01    113.23   
   123. A(H  19,C  18,O  20)          110.49  0.000041   -0.00    110.49   
   124. A(O  17,C  18,O  20)          107.52  0.000023   -0.00    107.52   
   125. A(O  17,C  18,H  19)          109.79 -0.000008   -0.00    109.79   
   126. A(C  18,O  20,C  21)          114.47  0.000010   -0.01    114.47   
   127. A(H  42,C  21,H  43)          109.60 -0.000037    0.00    109.60   
   128. A(H  41,C  21,H  43)          110.01  0.000012    0.00    110.01   
   129. A(O  20,C  21,H  43)          110.48  0.000013   -0.00    110.48   
   130. A(H  41,C  21,H  42)          110.23  0.000020   -0.00    110.23   
   131. A(O  20,C  21,H  42)          110.85  0.000030   -0.01    110.84   
   132. A(O  20,C  21,H  41)          105.62 -0.000037    0.01    105.63   
   133. A(O  23,C  22,H  44)          110.96  0.000074   -0.01    110.95   
   134. A(C  18,C  22,H  44)          107.59 -0.000042    0.00    107.60   
   135. A(C  18,C  22,O  23)          107.09  0.000028    0.01    107.10   
   136. A(C   1,C  22,H  44)          108.67 -0.000036    0.00    108.67   
   137. A(C   1,C  22,O  23)          110.75 -0.000019   -0.01    110.74   
   138. A(C   1,C  22,C  18)          111.75 -0.000004    0.01    111.75   
   139. A(C  22,O  23,H  45)          107.81  0.000073   -0.00    107.81   
   140. D(C   3,C   1,O   0,H  24)     42.47 -0.000003    0.09     42.55   
   141. D(C  22,C   1,O   0,H  24)    163.78  0.000014    0.07    163.85   
   142. D(H   2,C   1,O   0,H  24)    -77.98  0.000011    0.08    -77.90   
   143. D(H   4,C   3,C   1,H   2)    176.35  0.000022    0.03    176.38   
   144. D(H   4,C   3,C   1,C  22)    -64.01 -0.000008    0.04    -63.96   
   145. D(O   5,C   3,C   1,O   0)    -60.47  0.000006    0.01    -60.46   
   146. D(O   5,C   3,C   1,C  22)    179.86 -0.000007    0.03    179.89   
   147. D(O   5,C   3,C   1,H   2)     60.22  0.000023    0.02     60.24   
   148. D(H   4,C   3,C   1,O   0)     55.66  0.000005    0.03     55.69   
   149. D(Si  6,O   5,C   3,C  15)     29.18 -0.000001   -0.03     29.15   
   150. D(Si  6,O   5,C   3,C   1)    -94.81 -0.000038   -0.02    -94.82   
   151. D(Si  6,O   5,C   3,H   4)    148.43 -0.000010   -0.03    148.40   
   152. D(O  13,Si  6,O   5,C   3)    -11.15  0.000004    0.17    -10.98   
   153. D(C  10,Si  6,O   5,C   3)    106.64 -0.000084    0.21    106.85   
   154. D(C   7,Si  6,O   5,C   3)   -127.08  0.000003    0.15   -126.93   
   155. D(C   9,C   7,Si  6,O  13)    -35.69 -0.000026    0.04    -35.65   
   156. D(C   8,C   7,Si  6,O   5)    -43.15 -0.000016    0.07    -43.08   
   157. D(C   8,C   7,Si  6,O  13)   -159.44 -0.000026    0.04   -159.40   
   158. D(C   8,C   7,Si  6,C  10)     79.82  0.000020   -0.00     79.82   
   159. D(C   9,C   7,Si  6,O   5)     80.60 -0.000016    0.07     80.67   
   160. D(C   9,C   7,Si  6,C  10)   -156.43  0.000020   -0.00   -156.43   
   161. D(H  26,C   8,C   7,C   9)    -64.76 -0.000025    0.01    -64.75   
   162. D(H  27,C   8,C   7,C   9)    175.38 -0.000016    0.01    175.39   
   163. D(H  27,C   8,C   7,Si  6)    -59.30  0.000022    0.01    -59.29   
   164. D(H  26,C   8,C   7,H  25)    178.64 -0.000004    0.01    178.66   
   165. D(H  27,C   8,C   7,H  25)     58.79  0.000004    0.01     58.80   
   166. D(H  26,C   8,C   7,Si  6)     60.56  0.000014    0.01     60.57   
   167. D(H  30,C   9,C   7,Si  6)    176.58  0.000004   -0.02    176.56   
   168. D(H  29,C   9,C   7,H  25)    177.73 -0.000006   -0.02    177.70   
   169. D(H  29,C   9,C   7,C   8)     61.08  0.000003   -0.01     61.07   
   170. D(H  29,C   9,C   7,Si  6)    -63.84 -0.000004   -0.02    -63.86   
   171. D(H  30,C   9,C   7,H  25)     58.15  0.000002   -0.03     58.13   
   172. D(H  30,C   9,C   7,C   8)    -58.49  0.000011   -0.02    -58.51   
   173. D(C  12,C  10,Si  6,C   7)     67.26 -0.000010   -0.09     67.17   
   174. D(C  12,C  10,Si  6,O   5)   -170.53  0.000016   -0.13   -170.66   
   175. D(C  11,C  10,Si  6,O  13)   -176.91  0.000001   -0.12   -177.03   
   176. D(C  11,C  10,Si  6,C   7)    -56.67  0.000002   -0.11    -56.78   
   177. D(C  12,C  10,Si  6,O  13)    -52.97 -0.000011   -0.11    -53.09   
   178. D(C  11,C  10,Si  6,O   5)     65.53  0.000028   -0.14     65.39   
   179. D(H  34,C  11,C  10,C  12)   -177.41  0.000016    0.12   -177.29   
   180. D(H  34,C  11,C  10,Si  6)    -52.59 -0.000006    0.15    -52.44   
   181. D(H  33,C  11,C  10,H  32)   -173.21 -0.000015    0.12   -173.09   
   182. D(H  33,C  11,C  10,C  12)    -57.38  0.000003    0.12    -57.27   
   183. D(H  33,C  11,C  10,Si  6)     67.44 -0.000018    0.14     67.58   
   184. D(H  34,C  11,C  10,H  32)     66.76 -0.000003    0.13     66.88   
   185. D(H  37,C  12,C  10,H  32)     56.99  0.000010    0.02     57.01   
   186. D(H  37,C  12,C  10,C  11)    -58.85  0.000002    0.02    -58.83   
   187. D(H  37,C  12,C  10,Si  6)    174.89 -0.000014    0.03    174.92   
   188. D(H  36,C  12,C  10,H  32)    176.71  0.000005    0.02    176.73   
   189. D(H  36,C  12,C  10,C  11)     60.87 -0.000003    0.02     60.89   
   190. D(H  36,C  12,C  10,Si  6)    -65.40 -0.000019    0.04    -65.36   
   191. D(C  14,O  13,Si  6,C  10)    -99.30  0.000045   -0.24    -99.55   
   192. D(C  14,O  13,Si  6,C   7)    135.74 -0.000011   -0.24    135.50   
   193. D(C  14,O  13,Si  6,O   5)     19.30  0.000006   -0.27     19.03   
   194. D(H  40,C  14,O  13,Si  6)     78.50 -0.000023    0.24     78.74   
   195. D(H  39,C  14,O  13,Si  6)   -163.50 -0.000010    0.22   -163.27   
   196. D(C  15,C  14,O  13,Si  6)    -44.31 -0.000019    0.23    -44.08   
   197. D(H  16,C  15,C   3,H   4)    -53.61 -0.000011   -0.04    -53.65   
   198. D(H  16,C  15,C   3,C   1)   -171.38  0.000031   -0.04   -171.42   
   199. D(C  14,C  15,C   3,O   5)    -53.50 -0.000012   -0.04    -53.54   
   200. D(C  14,C  15,C   3,H   4)   -171.90 -0.000019   -0.05   -171.95   
   201. D(H  16,C  15,C   3,O   5)     64.79 -0.000004   -0.03     64.75   
   202. D(C  14,C  15,C   3,C   1)     70.33  0.000023   -0.05     70.28   
   203. D(H  16,C  15,C  14,H  40)    179.92 -0.000037   -0.06    179.86   
   204. D(H  16,C  15,C  14,H  39)     60.59 -0.000015   -0.05     60.55   
   205. D(H  16,C  15,C  14,O  13)    -57.78 -0.000013   -0.06    -57.84   
   206. D(C   3,C  15,C  14,H  40)    -61.02 -0.000009   -0.06    -61.09   
   207. D(C   3,C  15,C  14,H  39)    179.65  0.000013   -0.05    179.60   
   208. D(C   3,C  15,C  14,O  13)     61.28  0.000015   -0.06     61.21   
   209. D(C  18,O  17,C  15,H  16)    173.66  0.000009   -0.01    173.65   
   210. D(C  18,O  17,C  15,C  14)    -69.99 -0.000004   -0.00    -69.99   
   211. D(C  18,O  17,C  15,C   3)     57.10 -0.000032   -0.00     57.10   
   212. D(C  22,C  18,O  17,C  15)    -51.93  0.000011    0.03    -51.90   
   213. D(O  20,C  18,O  17,C  15)   -170.31  0.000032    0.03   -170.27   
   214. D(H  19,C  18,O  17,C  15)     69.45 -0.000027    0.04     69.48   
   215. D(C  21,O  20,C  18,C  22)    167.09 -0.000023    0.01    167.11   
   216. D(C  21,O  20,C  18,H  19)     49.03  0.000024    0.00     49.03   
   217. D(C  21,O  20,C  18,O  17)    -70.78 -0.000003    0.01    -70.77   
   218. D(H  43,C  21,O  20,C  18)    -59.67  0.000006    0.02    -59.65   
   219. D(H  42,C  21,O  20,C  18)     62.02 -0.000012    0.02     62.04   
   220. D(H  41,C  21,O  20,C  18)   -178.60  0.000006    0.02   -178.58   
   221. D(O  23,C  22,C  18,O  20)    -73.91  0.000003   -0.01    -73.91   
   222. D(O  23,C  22,C  18,H  19)     45.47  0.000008   -0.00     45.47   
   223. D(C   1,C  22,C  18,O  20)    164.65  0.000010   -0.01    164.64   
   224. D(C   1,C  22,C  18,H  19)    -75.97  0.000015   -0.00    -75.98   
   225. D(C   1,C  22,C  18,O  17)     46.15 -0.000006   -0.00     46.15   
   226. D(O  23,C  22,C   1,C   3)   -167.80  0.000017   -0.05   -167.84   
   227. D(O  23,C  22,C   1,H   2)    -48.07 -0.000014   -0.04    -48.11   
   228. D(O  23,C  22,C   1,O   0)     70.53  0.000017   -0.05     70.48   
   229. D(O  23,C  22,C  18,O  17)    167.59 -0.000013   -0.00    167.59   
   230. D(C  18,C  22,C   1,C   3)    -48.50  0.000038   -0.03    -48.53   
   231. D(C  18,C  22,C   1,H   2)     71.23  0.000007   -0.03     71.20   
   232. D(C  18,C  22,C   1,O   0)   -170.17  0.000037   -0.04   -170.21   
   233. D(H  45,O  23,C  22,H  44)     60.87 -0.000015    0.06     60.94   
   234. D(H  45,O  23,C  22,C  18)    178.03 -0.000008    0.06    178.09   
   235. D(H  45,O  23,C  22,C   1)    -59.90 -0.000005    0.07    -59.83   
    ----------------------------------------------------------------------------

Geometry step timings:
Preparation and reading OPT file:      0.001 s ( 4.829 %)
Internal coordinates            :      0.000 s ( 0.153 %)
B/P matrices and projection     :      0.004 s (21.999 %)
Hessian update/contruction      :      0.009 s (45.201 %)
Making the step                 :      0.003 s (14.584 %)
Converting the step to Cartesian:      0.000 s ( 1.892 %)
Storing new data                :      0.001 s ( 4.011 %)
Checking convergence            :      0.000 s ( 0.182 %)
Final printing                  :      0.001 s ( 7.144 %)
Total time                      :      0.020 s

Time for energy+gradient        :      0.074 s
Time for complete geometry iter :      0.104 s

         *************************************************************
         *                GEOMETRY OPTIMIZATION CYCLE  14            *
         *************************************************************
---------------------------------
CARTESIAN COORDINATES (ANGSTROEM)
---------------------------------
  O    -3.766952   -0.101895   -0.461010
  C    -2.463335   -0.497651   -0.112566
  H    -1.821119   -0.473403   -1.008459
  C    -1.870066    0.429145    0.951323
  H    -2.558097    0.441197    1.809246
  O    -1.807879    1.739581    0.463188
  Si   -0.466524    2.386328   -0.243926
  C    -0.050471    4.023869    0.650972
  C    -1.304448    4.857117    0.919842
  C     0.706647    3.797063    1.962264
  C    -0.749786    2.540973   -2.138301
  C    -1.850998    3.534373   -2.513199
  C     0.545728    2.918931   -2.861128
  O     0.789254    1.353765    0.010207
  C     0.574808    0.017183    0.356511
  C    -0.516923   -0.108155    1.427360
  H    -0.192602    0.485609    2.290010
  O    -0.656528   -1.419474    1.924475
  C    -1.206113   -2.383996    1.040133
  H    -0.485494   -2.600502    0.226108
  O    -1.461606   -3.525026    1.775938
  C    -0.300495   -4.229812    2.190507
  C    -2.535157   -1.939714    0.408351
  O    -2.813303   -2.831835   -0.636604
  H    -3.772051    0.861891   -0.541513
  H     0.599105    4.607769   -0.006897
  H    -1.993834    4.305659    1.553289
  H    -1.816062    5.100185   -0.006190
  H    -1.041268    5.786865    1.422226
  H     0.083940    3.252408    2.669065
  H     0.978854    4.750851    2.411898
  H     1.613122    3.224603    1.786115
  H    -1.057419    1.557979   -2.519038
  H    -1.540103    4.546311   -2.266367
  H    -2.771048    3.318605   -1.977312
  H    -2.053105    3.493909   -3.582303
  H     0.865962    3.914095   -2.562876
  H     0.396341    2.916479   -3.939594
  H     1.341208    2.220554   -2.616550
  H     1.514206   -0.375423    0.758922
  H     0.309903   -0.559409   -0.535980
  H    -0.663733   -5.102496    2.727551
  H     0.315481   -3.611640    2.847173
  H     0.288399   -4.542777    1.321679
  H    -3.308564   -1.994234    1.188179
  H    -3.663927   -2.579604   -1.022460

----------------------------
CARTESIAN COORDINATES (A.U.)
----------------------------
  NO LB    ZA    FRAG    MASS        X           Y           Z
   0 O   8.0000    1    15.999   -7.118507   -0.192554   -0.871182
   1 C   6.0000    1    12.011   -4.655029   -0.940424   -0.212719
   2 H   1.0000    1     1.008   -3.441416   -0.894602   -1.905710
   3 C   6.0000    1    12.011   -3.533912    0.810966    1.797740
   4 H   1.0000    1     1.008   -4.834102    0.833741    3.418980
   5 O   8.0000    1    15.999   -3.416397    3.287332    0.875299
   6 Si 14.0000    1    28.086   -0.881602    4.509506   -0.460954
   7 C   6.0000    1    12.011   -0.095377    7.604010    1.230159
   8 C   6.0000    1    12.011   -2.465050    9.178621    1.738250
   9 C   6.0000    1    12.011    1.335369    7.175409    3.708141
  10 C   6.0000    1    12.011   -1.416890    4.801743   -4.040804
  11 C   6.0000    1    12.011   -3.497879    6.678998   -4.749257
  12 C   6.0000    1    12.011    1.031276    5.515980   -5.406749
  13 O   8.0000    1    15.999    1.491473    2.558245    0.019289
  14 C   6.0000    1    12.011    1.086231    0.032471    0.673709
  15 C   6.0000    1    12.011   -0.976843   -0.204382    2.697320
  16 H   1.0000    1     1.008   -0.363965    0.917668    4.327493
  17 O   8.0000    1    15.999   -1.240659   -2.682417    3.636731
  18 C   6.0000    1    12.011   -2.279222   -4.505100    1.965566
  19 H   1.0000    1     1.008   -0.917450   -4.914236    0.427281
  20 O   8.0000    1    15.999   -2.762034   -6.661334    3.356037
  21 C   6.0000    1    12.011   -0.567853   -7.993186    4.139459
  22 C   6.0000    1    12.011   -4.790752   -3.665527    0.771672
  23 O   8.0000    1    15.999   -5.316372   -5.351393   -1.203007
  24 H   1.0000    1     1.008   -7.128143    1.628737   -1.023311
  25 H   1.0000    1     1.008    1.132145    8.707422   -0.013033
  26 H   1.0000    1     1.008   -3.767801    8.136517    2.935292
  27 H   1.0000    1     1.008   -3.431859    9.637953   -0.011697
  28 H   1.0000    1     1.008   -1.967711   10.935590    2.687618
  29 H   1.0000    1     1.008    0.158623    6.146160    5.043802
  30 H   1.0000    1     1.008    1.849767    8.977806    4.557828
  31 H   1.0000    1     1.008    3.048359    6.093617    3.375267
  32 H   1.0000    1     1.008   -1.998232    2.944154   -4.760293
  33 H   1.0000    1     1.008   -2.910374    8.591283   -4.282813
  34 H   1.0000    1     1.008   -5.236522    6.271255   -3.736578
  35 H   1.0000    1     1.008   -3.879806    6.602532   -6.769571
  36 H   1.0000    1     1.008    1.636431    7.396567   -4.843134
  37 H   1.0000    1     1.008    0.748975    5.511348   -7.444754
  38 H   1.0000    1     1.008    2.534516    4.196240   -4.944563
  39 H   1.0000    1     1.008    2.861434   -0.709447    1.434154
  40 H   1.0000    1     1.008    0.585632   -1.057130   -1.012856
  41 H   1.0000    1     1.008   -1.254274   -9.642321    5.154325
  42 H   1.0000    1     1.008    0.596173   -6.825010    5.380377
  43 H   1.0000    1     1.008    0.544995   -8.584605    2.497610
  44 H   1.0000    1     1.008   -6.252280   -3.768557    2.245332
  45 H   1.0000    1     1.008   -6.923818   -4.874745   -1.932170

      -----------------------------------------------------------      
     |                   =====================                   |     
     |                           x T B                           |     
     |                   =====================                   |     
     |                         S. Grimme                         |     
     |          Mulliken Center for Theoretical Chemistry        |     
     |                    University of Bonn                     |     
      -----------------------------------------------------------      

   * xtb version 6.7.1 (edcfbbe) compiled by 'albert@albert-system' on 2024-07-22

   xtb is free software: you can redistribute it and/or modify it under
   the terms of the GNU Lesser General Public License as published by
   the Free Software Foundation, either version 3 of the License, or
   (at your option) any later version.
   
   xtb is distributed in the hope that it will be useful,
   but WITHOUT ANY WARRANTY; without even the implied warranty of
   MERCHANTABILITY or FITNESS FOR A PARTICULAR PURPOSE.  See the
   GNU Lesser General Public License for more details.
   
   Cite this work as:
   * C. Bannwarth, E. Caldeweyher, S. Ehlert, A. Hansen, P. Pracht,
     J. Seibert, S. Spicher, S. Grimme, WIREs Comput. Mol. Sci., 2020, 11,
     e01493. DOI: 10.1002/wcms.1493
   
   for GFN2-xTB:
   * C. Bannwarth, S. Ehlert and S. Grimme., J. Chem. Theory Comput., 2019,
     15, 1652-1671. DOI: 10.1021/acs.jctc.8b01176
   for GFN1-xTB:
   * S. Grimme, C. Bannwarth, P. Shushkov, J. Chem. Theory Comput., 2017,
     13, 1989-2009. DOI: 10.1021/acs.jctc.7b00118
   for GFN0-xTB:
   * P. Pracht, E. Caldeweyher, S. Ehlert, S. Grimme, ChemRxiv, 2019, preprint.
     DOI: 10.26434/chemrxiv.8326202.v1
   for GFN-FF:
   * S. Spicher and S. Grimme, Angew. Chem. Int. Ed., 2020, 59, 15665-15673.
     DOI: 10.1002/anie.202004239
   
   for ALPB and GBSA implicit solvation:
   * S. Ehlert, M. Stahn, S. Spicher, S. Grimme, J. Chem. Theory Comput.,
     2021, 17, 4250-4261. DOI: 10.1021/acs.jctc.1c00471
   
   for ddCOSMO and CPCM-X implicit solvation:
   * M. Stahn, S. Ehlert, S. Grimme, J. Phys. Chem. A,
     2023, XX, XXXX-XXXX. DOI: 10.1021/acs.jpca.3c04382
   
   for DFT-D4:
   * E. Caldeweyher, C. Bannwarth and S. Grimme, J. Chem. Phys., 2017,
     147, 034112. DOI: 10.1063/1.4993215
   * E. Caldeweyher, S. Ehlert, A. Hansen, H. Neugebauer, S. Spicher,
     C. Bannwarth and S. Grimme, J. Chem. Phys., 2019, 150, 154122.
     DOI: 10.1063/1.5090222
   * E. Caldeweyher, J.-M. Mewes, S. Ehlert and S. Grimme, Phys. Chem. Chem. Phys.
     2020, 22, 8499-8512. DOI: 10.1039/D0CP00502A
   
   for sTDA-xTB:
   * S. Grimme and C. Bannwarth, J. Chem. Phys., 2016, 145, 054103.
     DOI: 10.1063/1.4959605
   
   in the mass-spec context:
   * V. Asgeirsson, C. Bauer and S. Grimme, Chem. Sci., 2017, 8, 4879.
     DOI: 10.1039/c7sc00601b
   * J. Koopman and S. Grimme, ACS Omega 2019, 4, 12, 15120-15133.
     DOI: 10.1021/acsomega.9b02011
   
   for metadynamics refer to:
   * S. Grimme, J. Chem. Theory Comput., 2019, 155, 2847-2862
     DOI: 10.1021/acs.jctc.9b00143
   
   for SPH calculations refer to:
   * S. Spicher and S. Grimme, J. Chem. Theory Comput., 2021, 17, 1701-1714
     DOI: 10.1021/acs.jctc.0c01306
   
   for ONIOM refer to:
   * C. Plett, A. Katbashev, S. Ehlert, S. Grimme, M. Bursch,
     Phys. Chem. Chem. Phys., 2023, 25, 17860-17868. DOI: 10.1039/D3CP02178E
   
   for DIPRO refer to:
   * J. Kohn, N. Gildemeister, S. Grimme, D. Fazzi, A. Hansen,
     J. Chem. Phys., 2023, just accepted.
   
   for PTB refer to:
   * S. Grimme, M. Mueller, A. Hansen, J. Chem. Phys., 2023, 158, 124111.
     DOI: 10.1063/5.0137838
   
   with help from (in alphabetical order)
   P. Atkinson, C. Bannwarth, F. Bohle, G. Brandenburg, E. Caldeweyher
   M. Checinski, S. Dohm, S. Ehlert, S. Ehrlich, I. Gerasimov, C. Hölzer
   A. Katbashev, J. Kohn, J. Koopman, C. Lavigne, S. Lehtola, F. März, M. Müller,
   F. Musil, H. Neugebauer, J. Pisarek, C. Plett, P. Pracht, F. Pultar,
   J. Seibert, P. Shushkov, S. Spicher, M. Stahn, M. Steiner, T. Strunk,
   J. Stückrath, T. Rose, and J. Unsleber
   
 * started run on 2025/09/10 at 11:29:47.458     
   ID    Z sym.   atoms
    1    8 O      1, 6, 14, 18, 21, 24
    2    6 C      2, 4, 8-13, 15, 16, 19, 22, 23
    3    1 H      3, 5, 17, 20, 25-46
    4   14 Si     7

           -------------------------------------------------
          |                Calculation Setup                |
           -------------------------------------------------

          program call               : /home/kmoult/orca_6_1/otool_xtb goat_0_XTB.xyz --grad -c 0 -u 0 -P 4 --namespace goat_0 --input goat_0_XTB.input.tmp --alpb ACETONE --acc 0.200000
          hostname                   : node2704
          calculation namespace      : goat_0
          coordinate file            : goat_0_XTB.xyz
          omp threads                :                     4


           -------------------------------------------------
          |                 G F N 2 - x T B                 |
           -------------------------------------------------

        Reference                      10.1021/acs.jctc.8b01176
      * Hamiltonian:
        H0-scaling (s, p, d)           1.850000    2.230000    2.230000
        zeta-weighting                 0.500000
      * Dispersion:
        s8                             2.700000
        a1                             0.520000
        a2                             5.000000
        s9                             5.000000
      * Repulsion:
        kExp                           1.500000    1.000000
        rExp                           1.000000
      * Coulomb:
        alpha                          2.000000
        third order                    shell-resolved
        anisotropic                    true
        a3                             3.000000
        a5                             4.000000
        cn-shift                       1.200000
        cn-exp                         4.000000
        max-rad                        5.000000

      * Solvation model:               ALPB
        Solvent                        ACETONE
        Parameter file                 internal GFN2-xTB/ALPB
        Dielectric constant                2.0700E+01
        Reference state                gsolv [1 M gas/solution]
        Free energy shift                  5.9241E-03 Eh       3.7175E+00 kcal/mol
        Temperature                        2.9815E+02 K
        Density                            7.9000E-01 kg/L
        Solvent mass                       5.8080E+01 g/mol
        Interaction kernel             P16
        Born radius scaling (c1)           1.8274E+00
        Born radii integrator          GBOBC
        Born offset                        0.0000E+00 a0       0.0000E+00 AA
        H-bond correction              true
        Ion screening                  false
        Surface tension                    1.0000E-05 Eh       1.5569E+01 dyn/cm
        Grid points                               230 per atom
q/qsh data taken from xtbrestart
CAMM data taken from xtbrestart

          ...................................................
          :                      SETUP                      :
          :.................................................:
          :  # basis functions                 112          :
          :  # atomic orbitals                 111          :
          :  # shells                           67          :
          :  # electrons                       118          :
          :  max. iterations                   250          :
          :  Hamiltonian                  GFN2-xTB          :
          :  restarted?                       true          :
          :  GBSA solvation                   true          :
          :  PC potential                    false          :
          :  electronic temp.          300.0000000     K    :
          :  accuracy                    0.2000000          :
          :  -> integral cutoff          0.3198970E+02      :
          :  -> integral neglect         0.2000000E-08      :
          :  -> SCF convergence          0.2000000E-06 Eh   :
          :  -> wf. convergence          0.2000000E-04 e    :
          :  Broyden damping             0.4000000          :
          :  net charge                          0          :
          :  unpaired electrons                  0          :
          ...................................................

 iter      E             dE          RMSdq      gap      omega  full diag
   1    -68.0086408 -0.680086E+02  0.891E-03    5.67       0.0  T
   2    -68.0086409 -0.226154E-07  0.611E-03    5.67       2.4  T
   3    -68.0086409  0.264660E-08  0.143E-03    5.67      10.3  T
   4    -68.0086409 -0.522675E-08  0.122E-03    5.67      12.1  T
   5    -68.0086409 -0.686560E-08  0.429E-04    5.67      34.4  T
   6    -68.0086409 -0.168930E-08  0.103E-04    5.67     142.8  T
   7    -68.0086409 -0.161052E-09  0.563E-05    5.67     261.9  T

   *** convergence criteria satisfied after 7 iterations ***

         #    Occupation            Energy/Eh            Energy/eV
      -------------------------------------------------------------
         1        2.0000           -0.8149804             -22.1767
       ...           ...                  ...                  ...
        53        2.0000           -0.4307220             -11.7205
        54        2.0000           -0.4236046             -11.5269
        55        2.0000           -0.4210834             -11.4583
        56        2.0000           -0.4172565             -11.3541
        57        2.0000           -0.4160774             -11.3220
        58        2.0000           -0.4093068             -11.1378
        59        2.0000           -0.3765403             -10.2462 (HOMO)
        60                         -0.1682966              -4.5796 (LUMO)
        61                         -0.1319073              -3.5894
        62                         -0.0950368              -2.5861
        63                         -0.0495185              -1.3475
        64                         -0.0080977              -0.2204
       ...                                ...                  ...
       111                          0.7906024              21.5134
      -------------------------------------------------------------
                  HL-Gap            0.2082437 Eh            5.6666 eV
             Fermi-level           -0.2724185 Eh           -7.4129 eV

 SCC (total)                   0 d,  0 h,  0 min,  0.026 sec
 SCC setup                      ...        0 min,  0.001 sec (  2.236%)
 Dispersion                     ...        0 min,  0.000 sec (  1.079%)
 classical contributions        ...        0 min,  0.000 sec (  0.157%)
 integral evaluation            ...        0 min,  0.005 sec ( 17.718%)
 iterations                     ...        0 min,  0.011 sec ( 43.934%)
 molecular gradient             ...        0 min,  0.009 sec ( 33.571%)
 printout                       ...        0 min,  0.000 sec (  1.241%)

         :::::::::::::::::::::::::::::::::::::::::::::::::::::
         ::                     SUMMARY                     ::
         :::::::::::::::::::::::::::::::::::::::::::::::::::::
         :: total energy             -67.354772834863 Eh    ::
         :: total w/o Gsasa/hb       -67.327162643067 Eh    ::
         :: gradient norm              0.000473028279 Eh/a0 ::
         :: HOMO-LUMO gap              5.666599589796 eV    ::
         ::.................................................::
         :: SCC energy               -68.007756541815 Eh    ::
         :: -> isotropic ES            0.154303932360 Eh    ::
         :: -> anisotropic ES          0.001063407555 Eh    ::
         :: -> anisotropic XC          0.002423228579 Eh    ::
         :: -> dispersion             -0.044922900077 Eh    ::
         :: -> Gsolv                  -0.030566429591 Eh    ::
         ::    -> Gelec               -0.002956237795 Eh    ::
         ::    -> Gsasa               -0.027906080491 Eh    ::
         ::    -> Ghb                 -0.005628252568 Eh    ::
         ::    -> Gshift               0.005924141264 Eh    ::
         :: repulsion energy           0.652983706952 Eh    ::
         :: add. restraining           0.000000000000 Eh    ::
         :: total charge              -0.000000000000 e     ::
         :::::::::::::::::::::::::::::::::::::::::::::::::::::


Property printout bound to 'properties.out'

           -------------------------------------------------
          | TOTAL ENERGY              -67.354772834863 Eh   |
          | GRADIENT NORM               0.000473028279 Eh/α |
          | HOMO-LUMO GAP               5.666599589796 eV   |
           -------------------------------------------------

------------------------------------------------------------------------
 * finished run on 2025/09/10 at 11:29:47.507     
------------------------------------------------------------------------
 total:
 * wall-time:     0 d,  0 h,  0 min,  0.048 sec
 *  cpu-time:     0 d,  0 h,  0 min,  0.174 sec
 * ratio c/w:     3.592 speedup
 SCF:
 * wall-time:     0 d,  0 h,  0 min,  0.026 sec
 *  cpu-time:     0 d,  0 h,  0 min,  0.105 sec
 * ratio c/w:     3.979 speedup


-------------------------   --------------------
FINAL SINGLE POINT ENERGY       -67.354772834860
-------------------------   --------------------


-------------
DIPOLE MOMENT
-------------
                                X             Y             Z
Total Dipole Moment    :      0.31500       0.75400      -0.34700
                        -----------------------------------------
Magnitude (a.u.)       :      0.88778
Magnitude (Debye)      :      2.25655


------------------
CARTESIAN GRADIENT
------------------

   1   O   :    0.000002748    0.000031382    0.000055511
   2   C   :   -0.000108319   -0.000036295   -0.000039361
   3   H   :    0.000030830   -0.000008750    0.000014502
   4   C   :    0.000054302   -0.000004381   -0.000024574
   5   H   :    0.000009031   -0.000040336   -0.000004675
   6   O   :   -0.000001820    0.000082431   -0.000007371
   7   Si  :   -0.000067581    0.000090679   -0.000018343
   8   C   :    0.000022962   -0.000105770    0.000017099
   9   C   :   -0.000013000    0.000056875    0.000031514
  10   C   :    0.000027899    0.000034769    0.000036995
  11   C   :   -0.000013874   -0.000101024   -0.000023915
  12   C   :   -0.000002289    0.000028383   -0.000056363
  13   C   :    0.000040852    0.000013379   -0.000021476
  14   O   :    0.000046675    0.000045241    0.000021837
  15   C   :    0.000020539   -0.000060420   -0.000065334
  16   C   :   -0.000058820    0.000101313    0.000055538
  17   H   :    0.000005440   -0.000032026    0.000008686
  18   O   :    0.000045589   -0.000051802   -0.000005019
  19   C   :    0.000126405   -0.000002637    0.000081664
  20   H   :   -0.000032847    0.000044888   -0.000011014
  21   O   :   -0.000085409   -0.000046169    0.000026372
  22   C   :    0.000007105   -0.000017034    0.000014631
  23   C   :   -0.000047377   -0.000108368   -0.000140025
  24   O   :    0.000022298    0.000114643    0.000050337
  25   H   :    0.000011824    0.000021611   -0.000026434
  26   H   :    0.000013536    0.000009487   -0.000006978
  27   H   :   -0.000009872   -0.000017140    0.000005309
  28   H   :    0.000000071   -0.000002104   -0.000018756
  29   H   :   -0.000005923    0.000001800   -0.000005015
  30   H   :   -0.000022684   -0.000004364    0.000006642
  31   H   :   -0.000010495    0.000005022    0.000000452
  32   H   :    0.000006963   -0.000003069   -0.000015803
  33   H   :    0.000004643    0.000013043    0.000027249
  34   H   :    0.000002160    0.000006461    0.000024460
  35   H   :   -0.000009161    0.000001430    0.000018974
  36   H   :   -0.000002980   -0.000010761   -0.000000091
  37   H   :   -0.000004905    0.000020620    0.000005131
  38   H   :   -0.000002751   -0.000000634   -0.000004936
  39   H   :    0.000004815   -0.000009390    0.000010186
  40   H   :   -0.000006910   -0.000003893   -0.000004713
  41   H   :   -0.000003463   -0.000021566    0.000026804
  42   H   :   -0.000019603   -0.000002039   -0.000004421
  43   H   :    0.000021016    0.000000470   -0.000019078
  44   H   :    0.000015770    0.000017492    0.000007617
  45   H   :    0.000009658    0.000026442    0.000022091
  46   H   :   -0.000023048   -0.000077888   -0.000045906

Difference to translation invariance:
           :    0.0000000000   -0.0000000000   -0.0000000000

Difference to rotation invariance:
           :    0.0002289521   -0.0003058606   -0.0000321140

Norm of the Cartesian gradient     ...    0.0004730283
RMS gradient                       ...    0.0000402668
MAX gradient                       ...    0.0001400254
------------------------------------------------------------------------------
                         ORCA GEOMETRY RELAXATION STEP
------------------------------------------------------------------------------

Reading the OPT-File                    .... done
Getting information on internals        .... done
Copying old internal coords+grads       .... done
Making the new internal coordinates     .... (2022 redundants) done
Validating the new internal coordinates .... (2022 redundants) done
Calculating the B-matrix                .... done
Calculating the G,G- and P matrices     .... done
Transforming gradient to internals      .... done
Projecting the internal gradient        .... done
Number of atoms                         ....  46
Number of internal coordinates          .... 235
Current Energy                          ....   -67.354772835 Eh
Current gradient norm                   ....     0.000473028 Eh/bohr
Maximum allowed component of the step   ....  0.300
Current trust radius                    ....  0.300
Updating the Hessian (BFGS)             .... done
Forming the augmented Hessian           .... done
Diagonalizing the augmented Hessian     .... done
Last element of RFO vector              ....  0.999882665
Lowest eigenvalues of augmented Hessian:
 -0.000001497  0.001700120  0.003584701  0.008469053  0.010437986
Length of the computed step             ....  0.015320323
The final length of the internal step   ....  0.015320323
Converting the step to Cartesian space:
 Initial RMS(Int)=    0.0009993877
Transforming coordinates:
 Iter   0:  RMS(Cart)=    0.0046427043 RMS(Int)=    0.0009993823
done
Storing new coordinates                 .... done
The predicted energy change is          ....    -0.000000749
Previously predicted energy change      ....    -0.000000737
Actually observed energy change         ....    -0.000001082
Ratio of predicted to observed change   ....     1.467283534
New trust radius                        ....     0.300000000

                                .--------------------.
          ----------------------|Geometry convergence|-------------------------
          Item                value                   Tolerance       Converged
          ---------------------------------------------------------------------
          Energy change      -0.0000010817            0.0000050000      YES
          RMS gradient        0.0000211057            0.0001000000      YES
          MAX gradient        0.0000864908            0.0003000000      YES
          RMS step            0.0009993877            0.0020000000      YES
          MAX step            0.0058984461            0.0040000000      NO
          -------------------------------------------------------------------------
          ........................................................
          Max(Bonds)      0.0031      Max(Angles)    0.05
          Max(Dihed)        0.25      Max(Improp)    0.00
          ---------------------------------------------------------------------

    ---------------------------------------------------------------------------
                         Redundant Internal Coordinates
                            (Angstroem and degrees)

        Definition                    Value    dE/dq     Step     New-Value
    ----------------------------------------------------------------------------
     1. B(C   1,O   0)                1.4062 -0.000013  0.0000    1.4063   
     2. B(H   2,C   1)                1.1026  0.000005 -0.0000    1.1026   
     3. B(C   3,C   1)                1.5306  0.000050 -0.0002    1.5305   
     4. B(H   4,C   3)                1.0998 -0.000009  0.0000    1.0999   
     5. B(O   5,C   3)                1.3998  0.000079 -0.0001    1.3997   
     6. B(Si  6,O   5)                1.6485 -0.000010 -0.0000    1.6485   
     7. B(C   7,Si  6)                1.9119  0.000004  0.0003    1.9122   
     8. B(C   8,C   7)                1.5294  0.000045 -0.0001    1.5293   
     9. B(C   9,C   7)                1.5311  0.000018 -0.0000    1.5310   
    10. B(C  10,Si  6)                1.9217  0.000022 -0.0001    1.9216   
    11. B(C  11,C  10)                1.5297  0.000032 -0.0000    1.5297   
    12. B(C  12,C  10)                1.5309  0.000039 -0.0001    1.5308   
    13. B(O  13,Si  6)                1.6455  0.000045 -0.0002    1.6453   
    14. B(C  14,O  13)                1.3973  0.000065 -0.0001    1.3972   
    15. B(C  15,C   3)                1.5318  0.000012 -0.0000    1.5317   
    16. B(C  15,C  14)                1.5344  0.000035 -0.0001    1.5343   
    17. B(H  16,C  15)                1.0963 -0.000009  0.0000    1.0963   
    18. B(O  17,C  15)                1.4093  0.000054 -0.0001    1.4092   
    19. B(C  18,O  17)                1.4193  0.000002  0.0001    1.4194   
    20. B(H  19,C  18)                1.1085 -0.000022 -0.0000    1.1085   
    21. B(O  20,C  18)                1.3815  0.000063 -0.0001    1.3815   
    22. B(C  21,O  20)                1.4201  0.000023  0.0000    1.4202   
    23. B(C  22,C  18)                1.5372  0.000083 -0.0002    1.5369   
    24. B(C  22,C   1)                1.5349 -0.000004 -0.0001    1.5349   
    25. B(O  23,C  22)                1.4018 -0.000063  0.0001    1.4020   
    26. B(H  24,O   0)                0.9672  0.000022 -0.0000    0.9671   
    27. B(H  24,O   5)                2.3744 -0.000005  0.0012    2.3756   
    28. B(H  25,C   7)                1.0935  0.000018 -0.0000    1.0934   
    29. B(H  26,C   8)                1.0866  0.000017 -0.0000    1.0865   
    30. B(H  27,C   8)                1.0855  0.000016 -0.0000    1.0855   
    31. B(H  28,C   8)                1.0891 -0.000002  0.0000    1.0891   
    32. B(H  29,C   9)                1.0881  0.000018 -0.0000    1.0881   
    33. B(H  30,C   9)                1.0890  0.000002  0.0000    1.0890   
    34. B(H  31,C   9)                1.0865  0.000011 -0.0000    1.0865   
    35. B(H  32,C  10)                1.0981 -0.000022  0.0000    1.0982   
    36. B(H  33,C  11)                1.0870  0.000011 -0.0000    1.0870   
    37. B(H  34,C  11)                1.0864  0.000018 -0.0000    1.0863   
    38. B(H  35,C  11)                1.0888  0.000001  0.0000    1.0888   
    39. B(H  36,C  12)                1.0871  0.000017 -0.0000    1.0871   
    40. B(H  37,C  12)                1.0888  0.000007  0.0000    1.0888   
    41. B(H  38,C  12)                1.0864  0.000011 -0.0000    1.0864   
    42. B(H  39,C  14)                1.0948 -0.000006  0.0000    1.0948   
    43. B(H  40,C  14)                1.0951 -0.000009  0.0000    1.0951   
    44. B(H  41,C  21)                1.0872  0.000006 -0.0000    1.0872   
    45. B(H  42,C  21)                1.0921  0.000002 -0.0000    1.0921   
    46. B(H  43,C  21)                1.0953 -0.000003 -0.0000    1.0953   
    47. B(H  44,C  22)                1.0997  0.000009 -0.0000    1.0997   
    48. B(H  45,O   0)                2.5426  0.000043 -0.0031    2.5395   
    49. B(H  45,O  23)                0.9675  0.000027 -0.0000    0.9675   
    50. A(C   1,O   0,H  24)          107.82 -0.000003    0.03    107.84   
    51. A(H   2,C   1,C   3)          109.01 -0.000017    0.01    109.02   
    52. A(O   0,C   1,C   3)          111.17 -0.000009    0.03    111.20   
    53. A(H   2,C   1,C  22)          108.89 -0.000016    0.02    108.91   
    54. A(O   0,C   1,H   2)          109.42  0.000020   -0.02    109.40   
    55. A(O   0,C   1,C  22)          107.77  0.000007   -0.03    107.74   
    56. A(C   3,C   1,C  22)          110.56  0.000016   -0.01    110.54   
    57. A(O   5,C   3,C  15)          113.42  0.000016   -0.01    113.42   
    58. A(C   1,C   3,H   4)          107.84 -0.000017    0.01    107.85   
    59. A(H   4,C   3,C  15)          108.30 -0.000022    0.01    108.31   
    60. A(H   4,C   3,O   5)          106.83  0.000011   -0.00    106.83   
    61. A(C   1,C   3,C  15)          110.24  0.000011   -0.02    110.22   
    62. A(C   1,C   3,O   5)          109.98 -0.000003    0.01    109.99   
    63. A(C   3,O   5,Si  6)          123.57 -0.000015    0.01    123.59   
    64. A(C  10,Si  6,O  13)          108.37 -0.000038    0.05    108.43   
    65. A(O   5,Si  6,C   7)          108.20 -0.000006    0.00    108.20   
    66. A(C   7,Si  6,O  13)          107.40 -0.000011    0.00    107.41   
    67. A(O   5,Si  6,O  13)          107.97  0.000012    0.02    107.99   
    68. A(O   5,Si  6,C  10)          109.54 -0.000026   -0.02    109.52   
    69. A(C   7,Si  6,C  10)          115.12  0.000066   -0.05    115.07   
    70. A(C   8,C   7,H  25)          107.57  0.000004   -0.00    107.57   
    71. A(Si  6,C   7,C   8)          111.75 -0.000010    0.00    111.75   
    72. A(Si  6,C   7,H  25)          107.76 -0.000010    0.01    107.77   
    73. A(C   8,C   7,C   9)          109.61 -0.000020   -0.00    109.61   
    74. A(Si  6,C   7,C   9)          112.43  0.000044   -0.01    112.42   
    75. A(C   9,C   7,H  25)          107.49 -0.000009    0.00    107.50   
    76. A(H  27,C   8,H  28)          108.44 -0.000004   -0.00    108.44   
    77. A(C   7,C   8,H  28)          110.37  0.000013   -0.01    110.36   
    78. A(C   7,C   8,H  27)          111.01 -0.000020    0.00    111.01   
    79. A(C   7,C   8,H  26)          110.25 -0.000006    0.01    110.26   
    80. A(H  26,C   8,H  27)          108.18  0.000008    0.00    108.18   
    81. A(H  26,C   8,H  28)          108.52  0.000010   -0.00    108.52   
    82. A(H  30,C   9,H  31)          108.65  0.000010   -0.01    108.65   
    83. A(C   7,C   9,H  31)          110.60 -0.000017    0.01    110.60   
    84. A(C   7,C   9,H  30)          110.33 -0.000007   -0.00    110.33   
    85. A(C   7,C   9,H  29)          110.33 -0.000011    0.01    110.34   
    86. A(H  29,C   9,H  31)          108.61  0.000020   -0.01    108.60   
    87. A(H  29,C   9,H  30)          108.25  0.000006    0.00    108.26   
    88. A(Si  6,C  10,C  12)          111.14  0.000007    0.02    111.15   
    89. A(Si  6,C  10,H  32)          108.12 -0.000016    0.01    108.13   
    90. A(Si  6,C  10,C  11)          113.58  0.000003   -0.03    113.55   
    91. A(C  11,C  10,C  12)          109.46 -0.000010    0.01    109.47   
    92. A(C  12,C  10,H  32)          107.12  0.000011   -0.01    107.11   
    93. A(C  11,C  10,H  32)          107.14  0.000007   -0.01    107.13   
    94. A(C  10,C  11,H  35)          110.50  0.000001    0.00    110.50   
    95. A(H  34,C  11,H  35)          108.65 -0.000004    0.00    108.65   
    96. A(H  33,C  11,H  35)          108.10  0.000024   -0.01    108.08   
    97. A(H  33,C  11,H  34)          108.37 -0.000004    0.00    108.37   
    98. A(C  10,C  11,H  34)          111.09 -0.000011    0.00    111.09   
    99. A(C  10,C  11,H  33)          110.06 -0.000004    0.00    110.06   
   100. A(H  36,C  12,H  38)          108.12  0.000007    0.00    108.12   
   101. A(C  10,C  12,H  38)          110.77 -0.000008   -0.01    110.76   
   102. A(H  36,C  12,H  37)          108.31  0.000004   -0.00    108.31   
   103. A(C  10,C  12,H  37)          110.55 -0.000002    0.00    110.55   
   104. A(C  10,C  12,H  36)          110.23 -0.000012    0.01    110.24   
   105. A(H  37,C  12,H  38)          108.78  0.000011   -0.01    108.77   
   106. A(Si  6,O  13,C  14)          121.43 -0.000008    0.04    121.46   
   107. A(O  13,C  14,C  15)          111.12 -0.000002    0.02    111.14   
   108. A(H  39,C  14,H  40)          108.56 -0.000005   -0.01    108.56   
   109. A(O  13,C  14,H  40)          109.80  0.000023   -0.02    109.79   
   110. A(C  15,C  14,H  39)          108.95 -0.000002   -0.00    108.94   
   111. A(O  13,C  14,H  39)          107.60  0.000005    0.00    107.61   
   112. A(C  15,C  14,H  40)          110.71 -0.000020    0.01    110.72   
   113. A(H  16,C  15,O  17)          104.81 -0.000001    0.02    104.83   
   114. A(C  14,C  15,O  17)          113.12 -0.000030   -0.01    113.11   
   115. A(C   3,C  15,O  17)          110.40  0.000023    0.01    110.40   
   116. A(C  14,C  15,H  16)          107.12  0.000012   -0.00    107.12   
   117. A(C   3,C  15,H  16)          108.41  0.000014   -0.02    108.39   
   118. A(C   3,C  15,C  14)          112.52 -0.000016    0.01    112.53   
   119. A(C  15,O  17,C  18)          116.80 -0.000011   -0.01    116.79   
   120. A(O  20,C  18,C  22)          107.32 -0.000033    0.01    107.33   
   121. A(H  19,C  18,C  22)          108.46 -0.000034    0.03    108.49   
   122. A(O  17,C  18,C  22)          113.23  0.000015   -0.02    113.21   
   123. A(H  19,C  18,O  20)          110.49  0.000037   -0.01    110.48   
   124. A(O  17,C  18,O  20)          107.52  0.000022   -0.01    107.51   
   125. A(O  17,C  18,H  19)          109.79 -0.000006    0.00    109.79   
   126. A(C  18,O  20,C  21)          114.47 -0.000019   -0.01    114.46   
   127. A(H  42,C  21,H  43)          109.60 -0.000031    0.02    109.61   
   128. A(H  41,C  21,H  43)          110.01  0.000013   -0.00    110.00   
   129. A(O  20,C  21,H  43)          110.48  0.000006   -0.00    110.47   
   130. A(H  41,C  21,H  42)          110.23  0.000017   -0.01    110.22   
   131. A(O  20,C  21,H  42)          110.84  0.000017   -0.01    110.83   
   132. A(O  20,C  21,H  41)          105.63 -0.000021    0.01    105.64   
   133. A(O  23,C  22,H  44)          110.95  0.000051   -0.03    110.92   
   134. A(C  18,C  22,H  44)          107.60 -0.000029    0.01    107.61   
   135. A(C  18,C  22,O  23)          107.10  0.000029    0.02    107.11   
   136. A(C   1,C  22,H  44)          108.67 -0.000021    0.01    108.68   
   137. A(C   1,C  22,O  23)          110.74 -0.000025   -0.01    110.73   
   138. A(C   1,C  22,C  18)          111.75 -0.000005    0.01    111.76   
   139. A(C  22,O  23,H  45)          107.81  0.000086   -0.03    107.78   
   140. D(C   3,C   1,O   0,H  24)     42.55  0.000004   -0.04     42.51   
   141. D(C  22,C   1,O   0,H  24)    163.85  0.000023   -0.06    163.79   
   142. D(H   2,C   1,O   0,H  24)    -77.90  0.000018   -0.06    -77.96   
   143. D(H   4,C   3,C   1,H   2)    176.38  0.000018   -0.01    176.37   
   144. D(H   4,C   3,C   1,C  22)    -63.96 -0.000003    0.02    -63.94   
   145. D(O   5,C   3,C   1,O   0)    -60.46  0.000008   -0.01    -60.47   
   146. D(O   5,C   3,C   1,C  22)    179.89 -0.000006    0.01    179.90   
   147. D(O   5,C   3,C   1,H   2)     60.24  0.000015   -0.02     60.22   
   148. D(H   4,C   3,C   1,O   0)     55.69  0.000011   -0.01     55.68   
   149. D(Si  6,O   5,C   3,C  15)     29.15  0.000012   -0.08     29.06   
   150. D(Si  6,O   5,C   3,C   1)    -94.82 -0.000013   -0.06    -94.88   
   151. D(Si  6,O   5,C   3,H   4)    148.40  0.000002   -0.08    148.32   
   152. D(O  13,Si  6,O   5,C   3)    -10.98 -0.000000    0.19    -10.79   
   153. D(C  10,Si  6,O   5,C   3)    106.85 -0.000053    0.25    107.10   
   154. D(C   7,Si  6,O   5,C   3)   -126.93  0.000009    0.18   -126.75   
   155. D(C   9,C   7,Si  6,O  13)    -35.65 -0.000012    0.07    -35.57   
   156. D(C   8,C   7,Si  6,O   5)    -43.08 -0.000006    0.11    -42.97   
   157. D(C   8,C   7,Si  6,O  13)   -159.40 -0.000012    0.08   -159.31   
   158. D(C   8,C   7,Si  6,C  10)     79.82  0.000002    0.05     79.86   
   159. D(C   9,C   7,Si  6,O   5)     80.67 -0.000006    0.10     80.77   
   160. D(C   9,C   7,Si  6,C  10)   -156.43  0.000002    0.04   -156.40   
   161. D(H  26,C   8,C   7,C   9)    -64.75 -0.000022    0.02    -64.74   
   162. D(H  27,C   8,C   7,C   9)    175.39 -0.000015    0.01    175.40   
   163. D(H  27,C   8,C   7,Si  6)    -59.29  0.000020   -0.00    -59.29   
   164. D(H  26,C   8,C   7,H  25)    178.66 -0.000002    0.02    178.67   
   165. D(H  27,C   8,C   7,H  25)     58.80  0.000004    0.01     58.81   
   166. D(H  26,C   8,C   7,Si  6)     60.57  0.000014    0.00     60.57   
   167. D(H  30,C   9,C   7,Si  6)    176.56  0.000005   -0.03    176.53   
   168. D(H  29,C   9,C   7,H  25)    177.70 -0.000006   -0.03    177.68   
   169. D(H  29,C   9,C   7,C   8)     61.07  0.000005   -0.03     61.04   
   170. D(H  29,C   9,C   7,Si  6)    -63.86  0.000001   -0.02    -63.88   
   171. D(H  30,C   9,C   7,H  25)     58.13 -0.000003   -0.04     58.09   
   172. D(H  30,C   9,C   7,C   8)    -58.51  0.000009   -0.04    -58.54   
   173. D(C  12,C  10,Si  6,C   7)     67.17 -0.000012   -0.02     67.15   
   174. D(C  12,C  10,Si  6,O   5)   -170.66  0.000007   -0.07   -170.73   
   175. D(C  11,C  10,Si  6,O  13)   -177.03 -0.000008   -0.03   -177.07   
   176. D(C  11,C  10,Si  6,C   7)    -56.78 -0.000006   -0.03    -56.80   
   177. D(C  12,C  10,Si  6,O  13)    -53.09 -0.000014   -0.03    -53.11   
   178. D(C  11,C  10,Si  6,O   5)     65.39  0.000014   -0.07     65.32   
   179. D(H  34,C  11,C  10,C  12)   -177.29  0.000011    0.07   -177.21   
   180. D(H  34,C  11,C  10,Si  6)    -52.44  0.000014    0.09    -52.35   
   181. D(H  33,C  11,C  10,H  32)   -173.09 -0.000015    0.09   -173.00   
   182. D(H  33,C  11,C  10,C  12)    -57.27 -0.000004    0.08    -57.19   
   183. D(H  33,C  11,C  10,Si  6)     67.59 -0.000001    0.09     67.68   
   184. D(H  34,C  11,C  10,H  32)     66.88 -0.000000    0.08     66.97   
   185. D(H  37,C  12,C  10,H  32)     57.01  0.000004    0.03     57.04   
   186. D(H  37,C  12,C  10,C  11)    -58.83 -0.000004    0.04    -58.79   
   187. D(H  37,C  12,C  10,Si  6)    174.92 -0.000005    0.05    174.97   
   188. D(H  36,C  12,C  10,H  32)    176.73  0.000001    0.04    176.77   
   189. D(H  36,C  12,C  10,C  11)     60.89 -0.000008    0.04     60.94   
   190. D(H  36,C  12,C  10,Si  6)    -65.36 -0.000008    0.06    -65.31   
   191. D(C  14,O  13,Si  6,C  10)    -99.55  0.000046   -0.25    -99.80   
   192. D(C  14,O  13,Si  6,C   7)    135.50 -0.000005   -0.22    135.27   
   193. D(C  14,O  13,Si  6,O   5)     19.03  0.000001   -0.24     18.79   
   194. D(H  40,C  14,O  13,Si  6)     78.74 -0.000015    0.18     78.93   
   195. D(H  39,C  14,O  13,Si  6)   -163.27 -0.000005    0.17   -163.11   
   196. D(C  15,C  14,O  13,Si  6)    -44.08 -0.000005    0.18    -43.90   
   197. D(H  16,C  15,C   3,H   4)    -53.65 -0.000008   -0.02    -53.67   
   198. D(H  16,C  15,C   3,C   1)   -171.42  0.000018   -0.03   -171.45   
   199. D(C  14,C  15,C   3,O   5)    -53.54 -0.000014   -0.01    -53.55   
   200. D(C  14,C  15,C   3,H   4)   -171.94 -0.000024   -0.01   -171.95   
   201. D(H  16,C  15,C   3,O   5)     64.75  0.000001   -0.02     64.73   
   202. D(C  14,C  15,C   3,C   1)     70.28  0.000003   -0.02     70.27   
   203. D(H  16,C  15,C  14,H  40)    179.86 -0.000026   -0.00    179.86   
   204. D(H  16,C  15,C  14,H  39)     60.55 -0.000007    0.00     60.55   
   205. D(H  16,C  15,C  14,O  13)    -57.84 -0.000011   -0.01    -57.85   
   206. D(C   3,C  15,C  14,H  40)    -61.09 -0.000009   -0.03    -61.12   
   207. D(C   3,C  15,C  14,H  39)    179.60  0.000010   -0.02    179.57   
   208. D(C   3,C  15,C  14,O  13)     61.21  0.000006   -0.03     61.18   
   209. D(C  18,O  17,C  15,H  16)    173.64  0.000002   -0.00    173.64   
   210. D(C  18,O  17,C  15,C  14)    -69.99  0.000001    0.00    -69.99   
   211. D(C  18,O  17,C  15,C   3)     57.10 -0.000025    0.01     57.11   
   212. D(C  22,C  18,O  17,C  15)    -51.90  0.000016   -0.01    -51.90   
   213. D(O  20,C  18,O  17,C  15)   -170.27  0.000033   -0.00   -170.28   
   214. D(H  19,C  18,O  17,C  15)     69.48 -0.000022    0.02     69.50   
   215. D(C  21,O  20,C  18,C  22)    167.11 -0.000020    0.02    167.13   
   216. D(C  21,O  20,C  18,H  19)     49.03  0.000020   -0.01     49.02   
   217. D(C  21,O  20,C  18,O  17)    -70.77 -0.000008    0.00    -70.77   
   218. D(H  43,C  21,O  20,C  18)    -59.65  0.000011    0.01    -59.65   
   219. D(H  42,C  21,O  20,C  18)     62.04 -0.000013    0.01     62.05   
   220. D(H  41,C  21,O  20,C  18)   -178.58  0.000004    0.01   -178.57   
   221. D(O  23,C  22,C  18,O  20)    -73.91 -0.000001    0.01    -73.90   
   222. D(O  23,C  22,C  18,H  19)     45.47  0.000006    0.02     45.49   
   223. D(C   1,C  22,C  18,O  20)    164.64  0.000013    0.01    164.65   
   224. D(C   1,C  22,C  18,H  19)    -75.98  0.000020    0.02    -75.96   
   225. D(C   1,C  22,C  18,O  17)     46.15 -0.000002    0.03     46.18   
   226. D(O  23,C  22,C   1,C   3)   -167.84  0.000010   -0.06   -167.91   
   227. D(O  23,C  22,C   1,H   2)    -48.11 -0.000012   -0.04    -48.15   
   228. D(O  23,C  22,C   1,O   0)     70.48  0.000007   -0.07     70.41   
   229. D(O  23,C  22,C  18,O  17)    167.59 -0.000015    0.03    167.62   
   230. D(C  18,C  22,C   1,C   3)    -48.53  0.000027   -0.05    -48.58   
   231. D(C  18,C  22,C   1,H   2)     71.20  0.000006   -0.02     71.17   
   232. D(C  18,C  22,C   1,O   0)   -170.21  0.000024   -0.05   -170.26   
   233. D(H  45,O  23,C  22,H  44)     60.94 -0.000013    0.13     61.07   
   234. D(H  45,O  23,C  22,C  18)    178.09 -0.000003    0.14    178.23   
   235. D(H  45,O  23,C  22,C   1)    -59.83 -0.000005    0.15    -59.68   
    ----------------------------------------------------------------------------

Geometry step timings:
Preparation and reading OPT file:      0.001 s ( 4.711 %)
Internal coordinates            :      0.000 s ( 0.158 %)
B/P matrices and projection     :      0.004 s (22.057 %)
Hessian update/contruction      :      0.009 s (43.896 %)
Making the step                 :      0.003 s (15.106 %)
Converting the step to Cartesian:      0.000 s ( 1.915 %)
Storing new data                :      0.001 s ( 3.962 %)
Checking convergence            :      0.000 s ( 0.153 %)
Final printing                  :      0.002 s ( 8.038 %)
Total time                      :      0.020 s

Time for energy+gradient        :      0.074 s
Time for complete geometry iter :      0.104 s

         *************************************************************
         *                GEOMETRY OPTIMIZATION CYCLE  15            *
         *************************************************************
---------------------------------
CARTESIAN COORDINATES (ANGSTROEM)
---------------------------------
  O    -3.766526   -0.105516   -0.464805
  C    -2.462916   -0.499682   -0.114327
  H    -1.820147   -0.476470   -1.009835
  C    -1.871024    0.428795    0.948643
  H    -2.559719    0.441972    1.806080
  O    -1.808674    1.738480    0.458827
  Si   -0.466448    2.385266   -0.246512
  C    -0.050035    4.021797    0.650614
  C    -1.303963    4.854254    0.921861
  C     0.708066    3.792894    1.960952
  C    -0.749696    2.544137   -2.140424
  C    -1.851170    3.538275   -2.512420
  C     0.545455    2.923748   -2.862790
  O     0.788626    1.351944    0.006804
  C     0.574305    0.016189    0.355912
  C    -0.518090   -0.107565    1.426202
  H    -0.194581    0.487957    2.287979
  O    -0.657611   -1.418057    1.925307
  C    -1.206340   -2.384104    1.041939
  H    -0.485007   -2.601865    0.228895
  O    -1.461854   -3.523995    1.779403
  C    -0.300626   -4.227578    2.195768
  C    -2.534920   -1.940788    0.409050
  O    -2.813173   -2.834535   -0.634665
  H    -3.772917    0.858137   -0.546258
  H     0.598875    4.606964   -0.006715
  H    -1.992672    4.301784    1.555106
  H    -1.816462    5.098668   -0.003302
  H    -1.040488    5.783287    1.425433
  H     0.085977    3.247340    2.667551
  H     0.980897    4.745987    2.411686
  H     1.614289    3.220502    1.783336
  H    -1.057429    1.562067   -2.523559
  H    -1.539723    4.549800   -2.264632
  H    -2.770565    3.321962   -1.975699
  H    -2.054586    3.499548   -3.581341
  H     0.866372    3.917844   -2.561878
  H     0.395533    2.924458   -3.941184
  H     1.340688    2.224199   -2.620781
  H     1.513566   -0.375337    0.759756
  H     0.310353   -0.562234   -0.535729
  H    -0.663557   -5.099668    2.733951
  H     0.314415   -3.607987    2.851968
  H     0.288894   -4.541531    1.327734
  H    -3.308803   -1.994171    1.188465
  H    -3.662640   -2.580923   -1.022110

----------------------------
CARTESIAN COORDINATES (A.U.)
----------------------------
  NO LB    ZA    FRAG    MASS        X           Y           Z
   0 O   8.0000    1    15.999   -7.117703   -0.199396   -0.878354
   1 C   6.0000    1    12.011   -4.654238   -0.944262   -0.216046
   2 H   1.0000    1     1.008   -3.439579   -0.900397   -1.908311
   3 C   6.0000    1    12.011   -3.535723    0.810305    1.792675
   4 H   1.0000    1     1.008   -4.837168    0.835206    3.412996
   5 O   8.0000    1    15.999   -3.417898    3.285251    0.867058
   6 Si 14.0000    1    28.086   -0.881459    4.507500   -0.465839
   7 C   6.0000    1    12.011   -0.094553    7.600095    1.229483
   8 C   6.0000    1    12.011   -2.464134    9.173211    1.742065
   9 C   6.0000    1    12.011    1.338051    7.167532    3.705662
  10 C   6.0000    1    12.011   -1.416719    4.807723   -4.044816
  11 C   6.0000    1    12.011   -3.498204    6.686371   -4.747786
  12 C   6.0000    1    12.011    1.030761    5.525082   -5.409889
  13 O   8.0000    1    15.999    1.490287    2.554803    0.012857
  14 C   6.0000    1    12.011    1.085279    0.030593    0.672577
  15 C   6.0000    1    12.011   -0.979048   -0.203269    2.695131
  16 H   1.0000    1     1.008   -0.367705    0.922105    4.323654
  17 O   8.0000    1    15.999   -1.242705   -2.679739    3.638304
  18 C   6.0000    1    12.011   -2.279653   -4.505304    1.968980
  19 H   1.0000    1     1.008   -0.916531   -4.916813    0.432548
  20 O   8.0000    1    15.999   -2.762504   -6.659386    3.362584
  21 C   6.0000    1    12.011   -0.568100   -7.988964    4.149401
  22 C   6.0000    1    12.011   -4.790304   -3.667558    0.772992
  23 O   8.0000    1    15.999   -5.316127   -5.356495   -1.199342
  24 H   1.0000    1     1.008   -7.129780    1.621644   -1.032279
  25 H   1.0000    1     1.008    1.131710    8.705899   -0.012690
  26 H   1.0000    1     1.008   -3.765605    8.129193    2.938724
  27 H   1.0000    1     1.008   -3.432615    9.635087   -0.006239
  28 H   1.0000    1     1.008   -1.966237   10.928829    2.693679
  29 H   1.0000    1     1.008    0.162472    6.136583    5.040941
  30 H   1.0000    1     1.008    1.853627    8.968616    4.557427
  31 H   1.0000    1     1.008    3.050564    6.085866    3.370018
  32 H   1.0000    1     1.008   -1.998251    2.951879   -4.768836
  33 H   1.0000    1     1.008   -2.909655    8.597876   -4.279534
  34 H   1.0000    1     1.008   -5.235608    6.277599   -3.733530
  35 H   1.0000    1     1.008   -3.882604    6.613187   -6.767755
  36 H   1.0000    1     1.008    1.637206    7.403652   -4.841248
  37 H   1.0000    1     1.008    0.747450    5.526424   -7.447759
  38 H   1.0000    1     1.008    2.533532    4.203127   -4.952558
  39 H   1.0000    1     1.008    2.860225   -0.709284    1.435731
  40 H   1.0000    1     1.008    0.586482   -1.062468   -1.012382
  41 H   1.0000    1     1.008   -1.253941   -9.636976    5.166420
  42 H   1.0000    1     1.008    0.594158   -6.818107    5.389439
  43 H   1.0000    1     1.008    0.545931   -8.582250    2.509054
  44 H   1.0000    1     1.008   -6.252731   -3.768437    2.245874
  45 H   1.0000    1     1.008   -6.921386   -4.877237   -1.931508

      -----------------------------------------------------------      
     |                   =====================                   |     
     |                           x T B                           |     
     |                   =====================                   |     
     |                         S. Grimme                         |     
     |          Mulliken Center for Theoretical Chemistry        |     
     |                    University of Bonn                     |     
      -----------------------------------------------------------      

   * xtb version 6.7.1 (edcfbbe) compiled by 'albert@albert-system' on 2024-07-22

   xtb is free software: you can redistribute it and/or modify it under
   the terms of the GNU Lesser General Public License as published by
   the Free Software Foundation, either version 3 of the License, or
   (at your option) any later version.
   
   xtb is distributed in the hope that it will be useful,
   but WITHOUT ANY WARRANTY; without even the implied warranty of
   MERCHANTABILITY or FITNESS FOR A PARTICULAR PURPOSE.  See the
   GNU Lesser General Public License for more details.
   
   Cite this work as:
   * C. Bannwarth, E. Caldeweyher, S. Ehlert, A. Hansen, P. Pracht,
     J. Seibert, S. Spicher, S. Grimme, WIREs Comput. Mol. Sci., 2020, 11,
     e01493. DOI: 10.1002/wcms.1493
   
   for GFN2-xTB:
   * C. Bannwarth, S. Ehlert and S. Grimme., J. Chem. Theory Comput., 2019,
     15, 1652-1671. DOI: 10.1021/acs.jctc.8b01176
   for GFN1-xTB:
   * S. Grimme, C. Bannwarth, P. Shushkov, J. Chem. Theory Comput., 2017,
     13, 1989-2009. DOI: 10.1021/acs.jctc.7b00118
   for GFN0-xTB:
   * P. Pracht, E. Caldeweyher, S. Ehlert, S. Grimme, ChemRxiv, 2019, preprint.
     DOI: 10.26434/chemrxiv.8326202.v1
   for GFN-FF:
   * S. Spicher and S. Grimme, Angew. Chem. Int. Ed., 2020, 59, 15665-15673.
     DOI: 10.1002/anie.202004239
   
   for ALPB and GBSA implicit solvation:
   * S. Ehlert, M. Stahn, S. Spicher, S. Grimme, J. Chem. Theory Comput.,
     2021, 17, 4250-4261. DOI: 10.1021/acs.jctc.1c00471
   
   for ddCOSMO and CPCM-X implicit solvation:
   * M. Stahn, S. Ehlert, S. Grimme, J. Phys. Chem. A,
     2023, XX, XXXX-XXXX. DOI: 10.1021/acs.jpca.3c04382
   
   for DFT-D4:
   * E. Caldeweyher, C. Bannwarth and S. Grimme, J. Chem. Phys., 2017,
     147, 034112. DOI: 10.1063/1.4993215
   * E. Caldeweyher, S. Ehlert, A. Hansen, H. Neugebauer, S. Spicher,
     C. Bannwarth and S. Grimme, J. Chem. Phys., 2019, 150, 154122.
     DOI: 10.1063/1.5090222
   * E. Caldeweyher, J.-M. Mewes, S. Ehlert and S. Grimme, Phys. Chem. Chem. Phys.
     2020, 22, 8499-8512. DOI: 10.1039/D0CP00502A
   
   for sTDA-xTB:
   * S. Grimme and C. Bannwarth, J. Chem. Phys., 2016, 145, 054103.
     DOI: 10.1063/1.4959605
   
   in the mass-spec context:
   * V. Asgeirsson, C. Bauer and S. Grimme, Chem. Sci., 2017, 8, 4879.
     DOI: 10.1039/c7sc00601b
   * J. Koopman and S. Grimme, ACS Omega 2019, 4, 12, 15120-15133.
     DOI: 10.1021/acsomega.9b02011
   
   for metadynamics refer to:
   * S. Grimme, J. Chem. Theory Comput., 2019, 155, 2847-2862
     DOI: 10.1021/acs.jctc.9b00143
   
   for SPH calculations refer to:
   * S. Spicher and S. Grimme, J. Chem. Theory Comput., 2021, 17, 1701-1714
     DOI: 10.1021/acs.jctc.0c01306
   
   for ONIOM refer to:
   * C. Plett, A. Katbashev, S. Ehlert, S. Grimme, M. Bursch,
     Phys. Chem. Chem. Phys., 2023, 25, 17860-17868. DOI: 10.1039/D3CP02178E
   
   for DIPRO refer to:
   * J. Kohn, N. Gildemeister, S. Grimme, D. Fazzi, A. Hansen,
     J. Chem. Phys., 2023, just accepted.
   
   for PTB refer to:
   * S. Grimme, M. Mueller, A. Hansen, J. Chem. Phys., 2023, 158, 124111.
     DOI: 10.1063/5.0137838
   
   with help from (in alphabetical order)
   P. Atkinson, C. Bannwarth, F. Bohle, G. Brandenburg, E. Caldeweyher
   M. Checinski, S. Dohm, S. Ehlert, S. Ehrlich, I. Gerasimov, C. Hölzer
   A. Katbashev, J. Kohn, J. Koopman, C. Lavigne, S. Lehtola, F. März, M. Müller,
   F. Musil, H. Neugebauer, J. Pisarek, C. Plett, P. Pracht, F. Pultar,
   J. Seibert, P. Shushkov, S. Spicher, M. Stahn, M. Steiner, T. Strunk,
   J. Stückrath, T. Rose, and J. Unsleber
   
 * started run on 2025/09/10 at 11:29:47.562     
   ID    Z sym.   atoms
    1    8 O      1, 6, 14, 18, 21, 24
    2    6 C      2, 4, 8-13, 15, 16, 19, 22, 23
    3    1 H      3, 5, 17, 20, 25-46
    4   14 Si     7

           -------------------------------------------------
          |                Calculation Setup                |
           -------------------------------------------------

          program call               : /home/kmoult/orca_6_1/otool_xtb goat_0_XTB.xyz --grad -c 0 -u 0 -P 4 --namespace goat_0 --input goat_0_XTB.input.tmp --alpb ACETONE --acc 0.200000
          hostname                   : node2704
          calculation namespace      : goat_0
          coordinate file            : goat_0_XTB.xyz
          omp threads                :                     4


           -------------------------------------------------
          |                 G F N 2 - x T B                 |
           -------------------------------------------------

        Reference                      10.1021/acs.jctc.8b01176
      * Hamiltonian:
        H0-scaling (s, p, d)           1.850000    2.230000    2.230000
        zeta-weighting                 0.500000
      * Dispersion:
        s8                             2.700000
        a1                             0.520000
        a2                             5.000000
        s9                             5.000000
      * Repulsion:
        kExp                           1.500000    1.000000
        rExp                           1.000000
      * Coulomb:
        alpha                          2.000000
        third order                    shell-resolved
        anisotropic                    true
        a3                             3.000000
        a5                             4.000000
        cn-shift                       1.200000
        cn-exp                         4.000000
        max-rad                        5.000000

      * Solvation model:               ALPB
        Solvent                        ACETONE
        Parameter file                 internal GFN2-xTB/ALPB
        Dielectric constant                2.0700E+01
        Reference state                gsolv [1 M gas/solution]
        Free energy shift                  5.9241E-03 Eh       3.7175E+00 kcal/mol
        Temperature                        2.9815E+02 K
        Density                            7.9000E-01 kg/L
        Solvent mass                       5.8080E+01 g/mol
        Interaction kernel             P16
        Born radius scaling (c1)           1.8274E+00
        Born radii integrator          GBOBC
        Born offset                        0.0000E+00 a0       0.0000E+00 AA
        H-bond correction              true
        Ion screening                  false
        Surface tension                    1.0000E-05 Eh       1.5569E+01 dyn/cm
        Grid points                               230 per atom
q/qsh data taken from xtbrestart
CAMM data taken from xtbrestart

          ...................................................
          :                      SETUP                      :
          :.................................................:
          :  # basis functions                 112          :
          :  # atomic orbitals                 111          :
          :  # shells                           67          :
          :  # electrons                       118          :
          :  max. iterations                   250          :
          :  Hamiltonian                  GFN2-xTB          :
          :  restarted?                       true          :
          :  GBSA solvation                   true          :
          :  PC potential                    false          :
          :  electronic temp.          300.0000000     K    :
          :  accuracy                    0.2000000          :
          :  -> integral cutoff          0.3198970E+02      :
          :  -> integral neglect         0.2000000E-08      :
          :  -> SCF convergence          0.2000000E-06 Eh   :
          :  -> wf. convergence          0.2000000E-04 e    :
          :  Broyden damping             0.4000000          :
          :  net charge                          0          :
          :  unpaired electrons                  0          :
          ...................................................

 iter      E             dE          RMSdq      gap      omega  full diag
   1    -68.0087451 -0.680087E+02  0.848E-03    5.67       0.0  T
   2    -68.0087451 -0.253451E-07  0.591E-03    5.67       2.5  T
   3    -68.0087451 -0.215604E-08  0.137E-03    5.67      10.8  T
   4    -68.0087451 -0.583172E-08  0.121E-03    5.67      12.2  T
   5    -68.0087451 -0.265862E-08  0.242E-04    5.67      60.9  T
   6    -68.0087451 -0.287585E-09  0.966E-05    5.67     152.6  T
   7    -68.0087451 -0.512443E-10  0.430E-05    5.67     343.0  T

   *** convergence criteria satisfied after 7 iterations ***

         #    Occupation            Energy/Eh            Energy/eV
      -------------------------------------------------------------
         1        2.0000           -0.8149951             -22.1771
       ...           ...                  ...                  ...
        53        2.0000           -0.4307253             -11.7206
        54        2.0000           -0.4236216             -11.5273
        55        2.0000           -0.4210808             -11.4582
        56        2.0000           -0.4172583             -11.3542
        57        2.0000           -0.4160967             -11.3226
        58        2.0000           -0.4093371             -11.1386
        59        2.0000           -0.3764877             -10.2448 (HOMO)
        60                         -0.1682832              -4.5792 (LUMO)
        61                         -0.1318283              -3.5872
        62                         -0.0950472              -2.5864
        63                         -0.0495455              -1.3482
        64                         -0.0081664              -0.2222
       ...                                ...                  ...
       111                          0.7908489              21.5201
      -------------------------------------------------------------
                  HL-Gap            0.2082045 Eh            5.6655 eV
             Fermi-level           -0.2723854 Eh           -7.4120 eV

 SCC (total)                   0 d,  0 h,  0 min,  0.025 sec
 SCC setup                      ...        0 min,  0.001 sec (  2.234%)
 Dispersion                     ...        0 min,  0.000 sec (  1.393%)
 classical contributions        ...        0 min,  0.000 sec (  0.161%)
 integral evaluation            ...        0 min,  0.004 sec ( 17.363%)
 iterations                     ...        0 min,  0.011 sec ( 44.113%)
 molecular gradient             ...        0 min,  0.009 sec ( 34.180%)
 printout                       ...        0 min,  0.000 sec (  0.502%)

         :::::::::::::::::::::::::::::::::::::::::::::::::::::
         ::                     SUMMARY                     ::
         :::::::::::::::::::::::::::::::::::::::::::::::::::::
         :: total energy             -67.354773786437 Eh    ::
         :: total w/o Gsasa/hb       -67.327165229358 Eh    ::
         :: gradient norm              0.000240088658 Eh/a0 ::
         :: HOMO-LUMO gap              5.665533848287 eV    ::
         ::.................................................::
         :: SCC energy               -68.007861511782 Eh    ::
         :: -> isotropic ES            0.154300611575 Eh    ::
         :: -> anisotropic ES          0.001060699987 Eh    ::
         :: -> anisotropic XC          0.002424846510 Eh    ::
         :: -> dispersion             -0.044922340112 Eh    ::
         :: -> Gsolv                  -0.030564565547 Eh    ::
         ::    -> Gelec               -0.002956008468 Eh    ::
         ::    -> Gsasa               -0.027905564267 Eh    ::
         ::    -> Ghb                 -0.005627134076 Eh    ::
         ::    -> Gshift               0.005924141264 Eh    ::
         :: repulsion energy           0.653087725345 Eh    ::
         :: add. restraining           0.000000000000 Eh    ::
         :: total charge              -0.000000000000 e     ::
         :::::::::::::::::::::::::::::::::::::::::::::::::::::


Property printout bound to 'properties.out'

           -------------------------------------------------
          | TOTAL ENERGY              -67.354773786437 Eh   |
          | GRADIENT NORM               0.000240088658 Eh/α |
          | HOMO-LUMO GAP               5.665533848287 eV   |
           -------------------------------------------------

------------------------------------------------------------------------
 * finished run on 2025/09/10 at 11:29:47.608     
------------------------------------------------------------------------
 total:
 * wall-time:     0 d,  0 h,  0 min,  0.046 sec
 *  cpu-time:     0 d,  0 h,  0 min,  0.166 sec
 * ratio c/w:     3.583 speedup
 SCF:
 * wall-time:     0 d,  0 h,  0 min,  0.026 sec
 *  cpu-time:     0 d,  0 h,  0 min,  0.102 sec
 * ratio c/w:     3.980 speedup


-------------------------   --------------------
FINAL SINGLE POINT ENERGY       -67.354773786440
-------------------------   --------------------


-------------
DIPOLE MOMENT
-------------
                                X             Y             Z
Total Dipole Moment    :      0.31600       0.75600      -0.34600
                        -----------------------------------------
Magnitude (a.u.)       :      0.88944
Magnitude (Debye)      :      2.26078


------------------
CARTESIAN GRADIENT
------------------

   1   O   :    0.000033181    0.000042878    0.000030793
   2   C   :   -0.000001814   -0.000028568    0.000006006
   3   H   :   -0.000000745    0.000007104   -0.000004358
   4   C   :    0.000059546   -0.000012356   -0.000037769
   5   H   :   -0.000012011   -0.000017030    0.000013290
   6   O   :    0.000000000    0.000037418    0.000019754
   7   Si  :   -0.000033034   -0.000059819   -0.000023398
   8   C   :    0.000044844   -0.000002604    0.000015441
   9   C   :   -0.000012267    0.000005860    0.000017085
  10   C   :   -0.000015169    0.000001303    0.000028101
  11   C   :    0.000031269   -0.000010494   -0.000026025
  12   C   :   -0.000016194   -0.000008018   -0.000017577
  13   C   :    0.000006788    0.000038408    0.000002828
  14   O   :   -0.000001852    0.000013626    0.000034727
  15   C   :    0.000012554    0.000002846   -0.000014686
  16   C   :   -0.000072026    0.000047137    0.000007538
  17   H   :   -0.000014383    0.000002003    0.000003205
  18   O   :    0.000032999   -0.000028737    0.000005456
  19   C   :    0.000050186   -0.000000046   -0.000010007
  20   H   :   -0.000019212    0.000014434    0.000008324
  21   O   :   -0.000061781    0.000010638    0.000006255
  22   C   :    0.000021620   -0.000032904    0.000004839
  23   C   :    0.000009930   -0.000020550   -0.000007940
  24   O   :   -0.000018748    0.000067719    0.000012072
  25   H   :   -0.000022707   -0.000005510   -0.000024234
  26   H   :   -0.000003289    0.000005281    0.000007293
  27   H   :    0.000000817    0.000001555   -0.000003170
  28   H   :    0.000004147   -0.000002083   -0.000007984
  29   H   :   -0.000000915   -0.000001683   -0.000003751
  30   H   :    0.000007521   -0.000003637   -0.000002824
  31   H   :   -0.000007596    0.000004687   -0.000011868
  32   H   :   -0.000003098   -0.000003449   -0.000002902
  33   H   :    0.000004964    0.000000212    0.000005908
  34   H   :   -0.000000344    0.000000982    0.000000635
  35   H   :    0.000001452    0.000007207    0.000014037
  36   H   :    0.000003147   -0.000000308    0.000003295
  37   H   :   -0.000009101    0.000000952   -0.000007510
  38   H   :    0.000006380   -0.000008480    0.000000844
  39   H   :   -0.000009313   -0.000014645   -0.000001932
  40   H   :    0.000000929   -0.000005118   -0.000007440
  41   H   :   -0.000001112   -0.000008885    0.000001821
  42   H   :    0.000002795    0.000003242   -0.000001087
  43   H   :   -0.000001043    0.000004927   -0.000005953
  44   H   :   -0.000000442    0.000010810    0.000001090
  45   H   :   -0.000003225   -0.000000953   -0.000007810
  46   H   :    0.000006353   -0.000055350   -0.000020411

Difference to translation invariance:
           :    0.0000000000    0.0000000000    0.0000000000

Difference to rotation invariance:
           :    0.0001946978   -0.0003027928   -0.0000393639

Norm of the Cartesian gradient     ...    0.0002400887
RMS gradient                       ...    0.0000204377
MAX gradient                       ...    0.0000720261
------------------------------------------------------------------------------
                         ORCA GEOMETRY RELAXATION STEP
------------------------------------------------------------------------------

Reading the OPT-File                    .... done
Getting information on internals        .... done
Copying old internal coords+grads       .... done
Making the new internal coordinates     .... (2022 redundants) done
Validating the new internal coordinates .... (2022 redundants) done
Calculating the B-matrix                .... done
Calculating the G,G- and P matrices     .... done
Transforming gradient to internals      .... done
Projecting the internal gradient        .... done
Number of atoms                         ....  46
Number of internal coordinates          .... 235
Current Energy                          ....   -67.354773786 Eh
Current gradient norm                   ....     0.000240089 Eh/bohr
Maximum allowed component of the step   ....  0.300
Current trust radius                    ....  0.300
Updating the Hessian (BFGS)             .... done
Forming the augmented Hessian           .... done
Diagonalizing the augmented Hessian     .... done
Last element of RFO vector              ....  0.999954577
Lowest eigenvalues of augmented Hessian:
 -0.000000508  0.001595595  0.003662186  0.006565406  0.010505312
Length of the computed step             ....  0.009531650
The final length of the internal step   ....  0.009531650
Converting the step to Cartesian space:
 Initial RMS(Int)=    0.0006217763
Transforming coordinates:
 Iter   0:  RMS(Cart)=    0.0033186714 RMS(Int)=    0.0006217383
done
Storing new coordinates                 .... done
The predicted energy change is          ....    -0.000000254
Previously predicted energy change      ....    -0.000000749
Actually observed energy change         ....    -0.000000952
Ratio of predicted to observed change   ....     1.271248211
New trust radius                        ....     0.300000000

                                .--------------------.
          ----------------------|Geometry convergence|-------------------------
          Item                value                   Tolerance       Converged
          ---------------------------------------------------------------------
          Energy change      -0.0000009516            0.0000050000      YES
          RMS gradient        0.0000119351            0.0001000000      YES
          MAX gradient        0.0000608540            0.0003000000      YES
          RMS step            0.0006217763            0.0020000000      YES
          MAX step            0.0031760564            0.0040000000      YES
          -------------------------------------------------------------------------
          ........................................................
          Max(Bonds)      0.0017      Max(Angles)    0.03
          Max(Dihed)        0.17      Max(Improp)    0.00
          ---------------------------------------------------------------------

                    ***********************HURRAY********************
                    ***        THE OPTIMIZATION HAS CONVERGED     ***
                    *************************************************


    ---------------------------------------------------------------------------
                         Redundant Internal Coordinates

                          --- Optimized Parameters ---  
                            (Angstroem and degrees)

        Definition                    OldVal   dE/dq     Step     FinalVal
    ----------------------------------------------------------------------------
     1. B(C   1,O   0)                1.4063 -0.000010  0.0000    1.4063   
     2. B(H   2,C   1)                1.1026  0.000002 -0.0000    1.1025   
     3. B(C   3,C   1)                1.5305 -0.000020 -0.0000    1.5304   
     4. B(H   4,C   3)                1.0999  0.000018 -0.0000    1.0998   
     5. B(O   5,C   3)                1.3997  0.000001 -0.0000    1.3996   
     6. B(Si  6,O   5)                1.6485 -0.000012 -0.0000    1.6484   
     7. B(C   7,Si  6)                1.9122  0.000023  0.0001    1.9123   
     8. B(C   8,C   7)                1.5293  0.000007 -0.0000    1.5293   
     9. B(C   9,C   7)                1.5310 -0.000002 -0.0000    1.5310   
    10. B(C  10,Si  6)                1.9216  0.000029 -0.0001    1.9214   
    11. B(C  11,C  10)                1.5297  0.000012 -0.0000    1.5296   
    12. B(C  12,C  10)                1.5308 -0.000002 -0.0000    1.5308   
    13. B(O  13,Si  6)                1.6453 -0.000010 -0.0001    1.6453   
    14. B(C  14,O  13)                1.3972 -0.000011 -0.0000    1.3971   
    15. B(C  15,C   3)                1.5317 -0.000042  0.0000    1.5318   
    16. B(C  15,C  14)                1.5343  0.000011 -0.0001    1.5343   
    17. B(H  16,C  15)                1.0963 -0.000000  0.0000    1.0964   
    18. B(O  17,C  15)                1.4092  0.000020 -0.0001    1.4092   
    19. B(C  18,O  17)                1.4194  0.000002  0.0000    1.4194   
    20. B(H  19,C  18)                1.1085 -0.000022  0.0000    1.1085   
    21. B(O  20,C  18)                1.3815  0.000012 -0.0000    1.3815   
    22. B(C  21,O  20)                1.4202  0.000028 -0.0000    1.4201   
    23. B(C  22,C  18)                1.5369  0.000006 -0.0001    1.5368   
    24. B(C  22,C   1)                1.5349 -0.000021 -0.0000    1.5349   
    25. B(O  23,C  22)                1.4020 -0.000020  0.0001    1.4021   
    26. B(H  24,O   0)                0.9671 -0.000002 -0.0000    0.9671   
    27. B(H  24,O   5)                2.3756  0.000004  0.0003    2.3759   
    28. B(H  25,C   7)                1.0934 -0.000003 -0.0000    1.0934   
    29. B(H  26,C   8)                1.0865 -0.000004 -0.0000    1.0865   
    30. B(H  27,C   8)                1.0855  0.000004 -0.0000    1.0855   
    31. B(H  28,C   8)                1.0891 -0.000003  0.0000    1.0891   
    32. B(H  29,C   9)                1.0881 -0.000006 -0.0000    1.0881   
    33. B(H  30,C   9)                1.0890 -0.000003  0.0000    1.0890   
    34. B(H  31,C   9)                1.0865  0.000001 -0.0000    1.0865   
    35. B(H  32,C  10)                1.0982 -0.000003  0.0000    1.0982   
    36. B(H  33,C  11)                1.0870  0.000000 -0.0000    1.0870   
    37. B(H  34,C  11)                1.0863  0.000006 -0.0000    1.0863   
    38. B(H  35,C  11)                1.0888 -0.000004  0.0000    1.0888   
    39. B(H  36,C  12)                1.0871 -0.000005 -0.0000    1.0871   
    40. B(H  37,C  12)                1.0888 -0.000000  0.0000    1.0888   
    41. B(H  38,C  12)                1.0864  0.000001 -0.0000    1.0864   
    42. B(H  39,C  14)                1.0948 -0.000000  0.0000    1.0948   
    43. B(H  40,C  14)                1.0951  0.000004  0.0000    1.0951   
    44. B(H  41,C  21)                1.0872 -0.000004  0.0000    1.0872   
    45. B(H  42,C  21)                1.0921 -0.000000 -0.0000    1.0921   
    46. B(H  43,C  21)                1.0953 -0.000004  0.0000    1.0953   
    47. B(H  44,C  22)                1.0997 -0.000002 -0.0000    1.0996   
    48. B(H  45,O   0)                2.5395  0.000023 -0.0017    2.5378   
    49. B(H  45,O  23)                0.9675 -0.000007  0.0000    0.9675   
    50. A(C   1,O   0,H  24)          107.84  0.000044    0.00    107.84   
    51. A(H   2,C   1,C   3)          109.02 -0.000004    0.00    109.02   
    52. A(O   0,C   1,C   3)          111.20 -0.000003    0.01    111.21   
    53. A(H   2,C   1,C  22)          108.91 -0.000002    0.01    108.92   
    54. A(O   0,C   1,H   2)          109.40 -0.000000   -0.01    109.39   
    55. A(O   0,C   1,C  22)          107.74 -0.000000   -0.01    107.73   
    56. A(C   3,C   1,C  22)          110.54  0.000009   -0.01    110.54   
    57. A(O   5,C   3,C  15)          113.42  0.000016   -0.00    113.41   
    58. A(C   1,C   3,H   4)          107.85  0.000001    0.01    107.86   
    59. A(H   4,C   3,C  15)          108.31 -0.000018    0.01    108.32   
    60. A(H   4,C   3,O   5)          106.83  0.000009   -0.00    106.82   
    61. A(C   1,C   3,C  15)          110.23  0.000009   -0.01    110.21   
    62. A(C   1,C   3,O   5)          109.99 -0.000017    0.00    109.99   
    63. A(C   3,O   5,Si  6)          123.58 -0.000023    0.01    123.60   
    64. A(C  10,Si  6,O  13)          108.43  0.000009    0.01    108.44   
    65. A(O   5,Si  6,C   7)          108.20 -0.000007    0.00    108.20   
    66. A(C   7,Si  6,O  13)          107.41 -0.000028    0.01    107.41   
    67. A(O   5,Si  6,O  13)          107.99  0.000015    0.01    108.00   
    68. A(O   5,Si  6,C  10)          109.52 -0.000020   -0.01    109.51   
    69. A(C   7,Si  6,C  10)          115.07  0.000030   -0.03    115.05   
    70. A(C   8,C   7,H  25)          107.57 -0.000003    0.00    107.57   
    71. A(Si  6,C   7,C   8)          111.75 -0.000010    0.00    111.75   
    72. A(Si  6,C   7,H  25)          107.77  0.000004    0.00    107.78   
    73. A(C   8,C   7,C   9)          109.61 -0.000001   -0.00    109.61   
    74. A(Si  6,C   7,C   9)          112.42  0.000012   -0.01    112.41   
    75. A(C   9,C   7,H  25)          107.50 -0.000002    0.00    107.50   
    76. A(H  27,C   8,H  28)          108.44 -0.000002   -0.00    108.43   
    77. A(C   7,C   8,H  28)          110.36  0.000001   -0.00    110.36   
    78. A(C   7,C   8,H  27)          111.01 -0.000015    0.00    111.01   
    79. A(C   7,C   8,H  26)          110.26  0.000006    0.00    110.26   
    80. A(H  26,C   8,H  27)          108.18  0.000004   -0.00    108.18   
    81. A(H  26,C   8,H  28)          108.52  0.000006   -0.00    108.52   
    82. A(H  30,C   9,H  31)          108.65  0.000008   -0.00    108.64   
    83. A(C   7,C   9,H  31)          110.60 -0.000006    0.00    110.61   
    84. A(C   7,C   9,H  30)          110.33 -0.000023    0.00    110.33   
    85. A(C   7,C   9,H  29)          110.34  0.000013    0.00    110.35   
    86. A(H  29,C   9,H  31)          108.60  0.000001   -0.00    108.59   
    87. A(H  29,C   9,H  30)          108.26  0.000008   -0.00    108.25   
    88. A(Si  6,C  10,C  12)          111.15  0.000031   -0.00    111.15   
    89. A(Si  6,C  10,H  32)          108.13 -0.000012    0.01    108.15   
    90. A(Si  6,C  10,C  11)          113.55 -0.000016   -0.01    113.54   
    91. A(C  11,C  10,C  12)          109.47 -0.000006    0.00    109.47   
    92. A(C  12,C  10,H  32)          107.11 -0.000003   -0.00    107.11   
    93. A(C  11,C  10,H  32)          107.13  0.000006   -0.00    107.13   
    94. A(C  10,C  11,H  35)          110.50  0.000001   -0.00    110.50   
    95. A(H  34,C  11,H  35)          108.65  0.000002   -0.00    108.65   
    96. A(H  33,C  11,H  35)          108.08  0.000003   -0.01    108.08   
    97. A(H  33,C  11,H  34)          108.37 -0.000004    0.00    108.37   
    98. A(C  10,C  11,H  34)          111.09 -0.000004    0.00    111.09   
    99. A(C  10,C  11,H  33)          110.06  0.000002    0.00    110.06   
   100. A(H  36,C  12,H  38)          108.12  0.000025   -0.00    108.12   
   101. A(C  10,C  12,H  38)          110.76 -0.000018    0.00    110.77   
   102. A(H  36,C  12,H  37)          108.31 -0.000000   -0.00    108.31   
   103. A(C  10,C  12,H  37)          110.55 -0.000003    0.00    110.55   
   104. A(C  10,C  12,H  36)          110.24  0.000007    0.00    110.24   
   105. A(H  37,C  12,H  38)          108.77 -0.000010   -0.00    108.77   
   106. A(Si  6,O  13,C  14)          121.46 -0.000008    0.02    121.48   
   107. A(O  13,C  14,C  15)          111.14  0.000001    0.01    111.15   
   108. A(H  39,C  14,H  40)          108.56 -0.000005   -0.00    108.56   
   109. A(O  13,C  14,H  40)          109.79  0.000003   -0.01    109.78   
   110. A(C  15,C  14,H  39)          108.95  0.000007   -0.00    108.94   
   111. A(O  13,C  14,H  39)          107.61  0.000002   -0.00    107.61   
   112. A(C  15,C  14,H  40)          110.72 -0.000007    0.00    110.72   
   113. A(H  16,C  15,O  17)          104.83  0.000007    0.01    104.84   
   114. A(C  14,C  15,O  17)          113.11 -0.000030    0.01    113.12   
   115. A(C   3,C  15,O  17)          110.40  0.000020   -0.00    110.40   
   116. A(C  14,C  15,H  16)          107.12  0.000014   -0.00    107.12   
   117. A(C   3,C  15,H  16)          108.39 -0.000009   -0.01    108.38   
   118. A(C   3,C  15,C  14)          112.53 -0.000000    0.00    112.53   
   119. A(C  15,O  17,C  18)          116.79 -0.000021   -0.00    116.79   
   120. A(O  20,C  18,C  22)          107.33 -0.000013    0.01    107.34   
   121. A(H  19,C  18,C  22)          108.49 -0.000009    0.01    108.50   
   122. A(O  17,C  18,C  22)          113.21  0.000001   -0.01    113.20   
   123. A(H  19,C  18,O  20)          110.48  0.000013   -0.01    110.47   
   124. A(O  17,C  18,O  20)          107.51  0.000005   -0.01    107.50   
   125. A(O  17,C  18,H  19)          109.79  0.000003    0.00    109.79   
   126. A(C  18,O  20,C  21)          114.46 -0.000042    0.00    114.46   
   127. A(H  42,C  21,H  43)          109.61 -0.000004    0.01    109.62   
   128. A(H  41,C  21,H  43)          110.00  0.000007   -0.00    110.00   
   129. A(O  20,C  21,H  43)          110.47 -0.000007   -0.00    110.47   
   130. A(H  41,C  21,H  42)          110.22  0.000004   -0.01    110.22   
   131. A(O  20,C  21,H  42)          110.83 -0.000009   -0.00    110.83   
   132. A(O  20,C  21,H  41)          105.64  0.000011    0.00    105.64   
   133. A(O  23,C  22,H  44)          110.92 -0.000005   -0.01    110.91   
   134. A(C  18,C  22,H  44)          107.61  0.000003    0.00    107.61   
   135. A(C  18,C  22,O  23)          107.11  0.000013    0.01    107.12   
   136. A(C   1,C  22,H  44)          108.68  0.000007    0.00    108.68   
   137. A(C   1,C  22,O  23)          110.73 -0.000017   -0.00    110.73   
   138. A(C   1,C  22,C  18)          111.76 -0.000001    0.00    111.76   
   139. A(C  22,O  23,H  45)          107.78  0.000061   -0.03    107.75   
   140. D(C   3,C   1,O   0,H  24)     42.51  0.000004   -0.04     42.47   
   141. D(C  22,C   1,O   0,H  24)    163.79  0.000013   -0.05    163.74   
   142. D(H   2,C   1,O   0,H  24)    -77.96  0.000011   -0.05    -78.01   
   143. D(H   4,C   3,C   1,H   2)    176.37 -0.000002   -0.00    176.37   
   144. D(H   4,C   3,C   1,C  22)    -63.94 -0.000001    0.01    -63.93   
   145. D(O   5,C   3,C   1,O   0)    -60.47  0.000001   -0.00    -60.48   
   146. D(O   5,C   3,C   1,C  22)    179.90 -0.000002    0.01    179.91   
   147. D(O   5,C   3,C   1,H   2)     60.22 -0.000004   -0.00     60.22   
   148. D(H   4,C   3,C   1,O   0)     55.68  0.000003    0.00     55.68   
   149. D(Si  6,O   5,C   3,C  15)     29.06  0.000018   -0.08     28.98   
   150. D(Si  6,O   5,C   3,C   1)    -94.88  0.000008   -0.06    -94.95   
   151. D(Si  6,O   5,C   3,H   4)    148.32  0.000011   -0.07    148.24   
   152. D(O  13,Si  6,O   5,C   3)    -10.79 -0.000016    0.14    -10.64   
   153. D(C  10,Si  6,O   5,C   3)    107.10 -0.000008    0.17    107.27   
   154. D(C   7,Si  6,O   5,C   3)   -126.75  0.000012    0.13   -126.62   
   155. D(C   9,C   7,Si  6,O  13)    -35.57 -0.000001    0.04    -35.53   
   156. D(C   8,C   7,Si  6,O   5)    -42.97 -0.000001    0.06    -42.90   
   157. D(C   8,C   7,Si  6,O  13)   -159.31 -0.000000    0.04   -159.27   
   158. D(C   8,C   7,Si  6,C  10)     79.86 -0.000011    0.04     79.90   
   159. D(C   9,C   7,Si  6,O   5)     80.77 -0.000001    0.06     80.83   
   160. D(C   9,C   7,Si  6,C  10)   -156.40 -0.000011    0.03   -156.36   
   161. D(H  26,C   8,C   7,C   9)    -64.74 -0.000004    0.00    -64.73   
   162. D(H  27,C   8,C   7,C   9)    175.40 -0.000003    0.00    175.40   
   163. D(H  27,C   8,C   7,Si  6)    -59.29  0.000004   -0.01    -59.30   
   164. D(H  26,C   8,C   7,H  25)    178.67  0.000001    0.00    178.68   
   165. D(H  27,C   8,C   7,H  25)     58.81  0.000001   -0.00     58.81   
   166. D(H  26,C   8,C   7,Si  6)     60.57  0.000003   -0.01     60.57   
   167. D(H  30,C   9,C   7,Si  6)    176.53  0.000004   -0.02    176.52   
   168. D(H  29,C   9,C   7,H  25)    177.68 -0.000002   -0.02    177.66   
   169. D(H  29,C   9,C   7,C   8)     61.04  0.000003   -0.02     61.02   
   170. D(H  29,C   9,C   7,Si  6)    -63.88  0.000008   -0.02    -63.90   
   171. D(H  30,C   9,C   7,H  25)     58.09 -0.000006   -0.02     58.07   
   172. D(H  30,C   9,C   7,C   8)    -58.54 -0.000001   -0.02    -58.57   
   173. D(C  12,C  10,Si  6,C   7)     67.15 -0.000009    0.07     67.23   
   174. D(C  12,C  10,Si  6,O   5)   -170.73 -0.000011    0.05   -170.67   
   175. D(C  11,C  10,Si  6,O  13)   -177.07 -0.000003    0.08   -176.99   
   176. D(C  11,C  10,Si  6,C   7)    -56.80 -0.000013    0.08    -56.72   
   177. D(C  12,C  10,Si  6,O  13)    -53.11  0.000001    0.07    -53.04   
   178. D(C  11,C  10,Si  6,O   5)     65.32 -0.000015    0.06     65.38   
   179. D(H  34,C  11,C  10,C  12)   -177.21 -0.000001   -0.00   -177.22   
   180. D(H  34,C  11,C  10,Si  6)    -52.35  0.000023   -0.01    -52.36   
   181. D(H  33,C  11,C  10,H  32)   -173.00 -0.000004    0.01   -173.00   
   182. D(H  33,C  11,C  10,C  12)    -57.19 -0.000008    0.01    -57.18   
   183. D(H  33,C  11,C  10,Si  6)     67.68  0.000016   -0.00     67.68   
   184. D(H  34,C  11,C  10,H  32)     66.97  0.000002   -0.00     66.97   
   185. D(H  37,C  12,C  10,H  32)     57.04 -0.000003    0.03     57.07   
   186. D(H  37,C  12,C  10,C  11)    -58.79 -0.000006    0.03    -58.76   
   187. D(H  37,C  12,C  10,Si  6)    174.97 -0.000003    0.04    175.01   
   188. D(H  36,C  12,C  10,H  32)    176.77 -0.000001    0.03    176.80   
   189. D(H  36,C  12,C  10,C  11)     60.94 -0.000003    0.03     60.97   
   190. D(H  36,C  12,C  10,Si  6)    -65.31 -0.000000    0.04    -65.26   
   191. D(C  14,O  13,Si  6,C  10)    -99.80  0.000023   -0.16    -99.96   
   192. D(C  14,O  13,Si  6,C   7)    135.27 -0.000002   -0.14    135.13   
   193. D(C  14,O  13,Si  6,O   5)     18.79  0.000013   -0.15     18.64   
   194. D(H  40,C  14,O  13,Si  6)     78.93 -0.000003    0.10     79.03   
   195. D(H  39,C  14,O  13,Si  6)   -163.10 -0.000007    0.09   -163.01   
   196. D(C  15,C  14,O  13,Si  6)    -43.90  0.000004    0.09    -43.81   
   197. D(H  16,C  15,C   3,H   4)    -53.67 -0.000004   -0.01    -53.68   
   198. D(H  16,C  15,C   3,C   1)   -171.45  0.000001   -0.02   -171.47   
   199. D(C  14,C  15,C   3,O   5)    -53.55 -0.000006   -0.00    -53.55   
   200. D(C  14,C  15,C   3,H   4)   -171.95 -0.000015   -0.00   -171.96   
   201. D(H  16,C  15,C   3,O   5)     64.73  0.000004   -0.01     64.72   
   202. D(C  14,C  15,C   3,C   1)     70.27 -0.000010   -0.01     70.26   
   203. D(H  16,C  15,C  14,H  40)    179.86 -0.000003    0.01    179.87   
   204. D(H  16,C  15,C  14,H  39)     60.55  0.000004    0.01     60.56   
   205. D(H  16,C  15,C  14,O  13)    -57.85 -0.000004    0.01    -57.84   
   206. D(C   3,C  15,C  14,H  40)    -61.12 -0.000005   -0.00    -61.12   
   207. D(C   3,C  15,C  14,H  39)    179.57  0.000001   -0.00    179.57   
   208. D(C   3,C  15,C  14,O  13)     61.18 -0.000006   -0.00     61.17   
   209. D(C  18,O  17,C  15,H  16)    173.64 -0.000009    0.01    173.65   
   210. D(C  18,O  17,C  15,C  14)    -69.99 -0.000003    0.01    -69.98   
   211. D(C  18,O  17,C  15,C   3)     57.11 -0.000011    0.01     57.12   
   212. D(C  22,C  18,O  17,C  15)    -51.90  0.000005   -0.00    -51.91   
   213. D(O  20,C  18,O  17,C  15)   -170.28  0.000017   -0.00   -170.28   
   214. D(H  19,C  18,O  17,C  15)     69.50 -0.000003    0.01     69.51   
   215. D(C  21,O  20,C  18,C  22)    167.13 -0.000007    0.03    167.16   
   216. D(C  21,O  20,C  18,H  19)     49.02  0.000004    0.01     49.03   
   217. D(C  21,O  20,C  18,O  17)    -70.77 -0.000010    0.02    -70.75   
   218. D(H  43,C  21,O  20,C  18)    -59.65  0.000009   -0.00    -59.65   
   219. D(H  42,C  21,O  20,C  18)     62.05 -0.000007    0.01     62.06   
   220. D(H  41,C  21,O  20,C  18)   -178.57 -0.000001    0.00   -178.57   
   221. D(O  23,C  22,C  18,O  20)    -73.90 -0.000006    0.00    -73.90   
   222. D(O  23,C  22,C  18,H  19)     45.49 -0.000003    0.00     45.49   
   223. D(C   1,C  22,C  18,O  20)    164.65  0.000008    0.00    164.65   
   224. D(C   1,C  22,C  18,H  19)    -75.96  0.000011    0.00    -75.95   
   225. D(C   1,C  22,C  18,O  17)     46.18  0.000010    0.01     46.19   
   226. D(O  23,C  22,C   1,C   3)   -167.91  0.000003   -0.03   -167.94   
   227. D(O  23,C  22,C   1,H   2)    -48.15  0.000003   -0.02    -48.18   
   228. D(O  23,C  22,C   1,O   0)     70.41  0.000002   -0.04     70.37   
   229. D(O  23,C  22,C  18,O  17)    167.62 -0.000004    0.01    167.63   
   230. D(C  18,C  22,C   1,C   3)    -48.58  0.000007   -0.02    -48.60   
   231. D(C  18,C  22,C   1,H   2)     71.17  0.000007   -0.01     71.16   
   232. D(C  18,C  22,C   1,O   0)   -170.26  0.000006   -0.03   -170.29   
   233. D(H  45,O  23,C  22,H  44)     61.07 -0.000010    0.07     61.14   
   234. D(H  45,O  23,C  22,C  18)    178.23 -0.000001    0.07    178.30   
   235. D(H  45,O  23,C  22,C   1)    -59.68 -0.000004    0.08    -59.61   
    ----------------------------------------------------------------------------

Geometry step timings:
Preparation and reading OPT file:      0.001 s ( 4.819 %)
Internal coordinates            :      0.000 s ( 0.163 %)
B/P matrices and projection     :      0.004 s (22.063 %)
Hessian update/contruction      :      0.009 s (43.706 %)
Making the step                 :      0.003 s (14.753 %)
Converting the step to Cartesian:      0.000 s ( 1.879 %)
Storing new data                :      0.001 s ( 4.173 %)
Checking convergence            :      0.000 s ( 0.158 %)
Final printing                  :      0.002 s ( 8.286 %)
Total time                      :      0.020 s
                 *******************************************************
                 *** FINAL ENERGY EVALUATION AT THE STATIONARY POINT ***
                 ***               (AFTER   15 CYCLES)               ***
                 *******************************************************
---------------------------------
CARTESIAN COORDINATES (ANGSTROEM)
---------------------------------
  O    -3.766666   -0.108070   -0.466601
  C    -2.462960   -0.501234   -0.115220
  H    -1.820060   -0.478741   -1.010644
  C    -1.871616    0.428437    0.946950
  H    -2.560394    0.442332    1.804298
  O    -1.809497    1.737649    0.455963
  Si   -0.466919    2.384847   -0.248292
  C    -0.050446    4.020555    0.650508
  C    -1.304390    4.852362    0.923498
  C     0.708371    3.790105    1.960160
  C    -0.750043    2.546467   -2.141882
  C    -1.850095    3.542674   -2.512375
  C     0.545584    2.925210   -2.863759
  O     0.787932    1.351111    0.004016
  C     0.573811    0.015741    0.354583
  C    -0.518506   -0.107194    1.424978
  H    -0.195120    0.489428    2.286055
  O    -0.657812   -1.417111    1.925485
  C    -1.206256   -2.384259    1.043083
  H    -0.484705   -2.602913    0.230434
  O    -1.461487   -3.523349    1.781836
  C    -0.300146   -4.225996    2.199380
  C    -2.534778   -1.941745    0.409775
  O    -2.813189   -2.836644   -0.633016
  H    -3.773669    0.855533   -0.548436
  H     0.597987    4.606681   -0.006415
  H    -1.992639    4.298976    1.556432
  H    -1.817484    5.097917   -0.001013
  H    -1.040803    5.780785    1.428157
  H     0.086647    3.243827    2.666518
  H     0.981587    4.742636    2.411863
  H     1.614452    3.217825    1.781478
  H    -1.059221    1.565383   -2.526428
  H    -1.537162    4.553416   -2.263289
  H    -2.769773    3.326935   -1.975947
  H    -2.053598    3.505775   -3.581353
  H     0.868285    3.918184   -2.561085
  H     0.395495    2.928166   -3.942127
  H     1.339704    2.223903   -2.623205
  H     1.513149   -0.375203    0.758844
  H     0.310043   -0.563591   -0.536539
  H    -0.662874   -5.097590    2.738508
  H     0.314388   -3.605397    2.855101
  H     0.289712   -4.540824    1.331890
  H    -3.308718   -1.994388    1.189178
  H    -3.662175   -2.582362   -1.021083

----------------------------
CARTESIAN COORDINATES (A.U.)
----------------------------
  NO LB    ZA    FRAG    MASS        X           Y           Z
   0 O   8.0000    1    15.999   -7.117967   -0.204222   -0.881748
   1 C   6.0000    1    12.011   -4.654320   -0.947194   -0.217734
   2 H   1.0000    1     1.008   -3.439414   -0.904688   -1.909840
   3 C   6.0000    1    12.011   -3.536841    0.809628    1.789475
   4 H   1.0000    1     1.008   -4.838444    0.835887    3.409629
   5 O   8.0000    1    15.999   -3.419453    3.283680    0.861645
   6 Si 14.0000    1    28.086   -0.882349    4.506707   -0.469203
   7 C   6.0000    1    12.011   -0.095329    7.597748    1.229283
   8 C   6.0000    1    12.011   -2.464940    9.169636    1.745158
   9 C   6.0000    1    12.011    1.338627    7.162261    3.704165
  10 C   6.0000    1    12.011   -1.417376    4.812125   -4.047570
  11 C   6.0000    1    12.011   -3.496172    6.694683   -4.747700
  12 C   6.0000    1    12.011    1.031005    5.527846   -5.411720
  13 O   8.0000    1    15.999    1.488975    2.553230    0.007589
  14 C   6.0000    1    12.011    1.084346    0.029746    0.670065
  15 C   6.0000    1    12.011   -0.979835   -0.202567    2.692818
  16 H   1.0000    1     1.008   -0.368723    0.924884    4.320017
  17 O   8.0000    1    15.999   -1.243084   -2.677951    3.638640
  18 C   6.0000    1    12.011   -2.279494   -4.505596    1.971141
  19 H   1.0000    1     1.008   -0.915959   -4.918793    0.435457
  20 O   8.0000    1    15.999   -2.761810   -6.658165    3.367183
  21 C   6.0000    1    12.011   -0.567193   -7.985975    4.156226
  22 C   6.0000    1    12.011   -4.790036   -3.669366    0.774362
  23 O   8.0000    1    15.999   -5.316157   -5.360479   -1.196227
  24 H   1.0000    1     1.008   -7.131200    1.616724   -1.036394
  25 H   1.0000    1     1.008    1.130032    8.705366   -0.012123
  26 H   1.0000    1     1.008   -3.765542    8.123888    2.941231
  27 H   1.0000    1     1.008   -3.434546    9.633666   -0.001915
  28 H   1.0000    1     1.008   -1.966832   10.924100    2.698826
  29 H   1.0000    1     1.008    0.163739    6.129944    5.038988
  30 H   1.0000    1     1.008    1.854930    8.962284    4.557760
  31 H   1.0000    1     1.008    3.050871    6.080809    3.366505
  32 H   1.0000    1     1.008   -2.001638    2.958145   -4.774258
  33 H   1.0000    1     1.008   -2.904816    8.604710   -4.276996
  34 H   1.0000    1     1.008   -5.234112    6.286995   -3.733999
  35 H   1.0000    1     1.008   -3.880737    6.624954   -6.767777
  36 H   1.0000    1     1.008    1.640821    7.404294   -4.839749
  37 H   1.0000    1     1.008    0.747377    5.533433   -7.449541
  38 H   1.0000    1     1.008    2.531675    4.202568   -4.957138
  39 H   1.0000    1     1.008    2.859437   -0.709032    1.434007
  40 H   1.0000    1     1.008    0.585897   -1.065034   -1.013912
  41 H   1.0000    1     1.008   -1.252650   -9.633050    5.175030
  42 H   1.0000    1     1.008    0.594108   -6.813213    5.395358
  43 H   1.0000    1     1.008    0.547476   -8.580914    2.516908
  44 H   1.0000    1     1.008   -6.252570   -3.768847    2.247220
  45 H   1.0000    1     1.008   -6.920508   -4.879956   -1.929568

      -----------------------------------------------------------      
     |                   =====================                   |     
     |                           x T B                           |     
     |                   =====================                   |     
     |                         S. Grimme                         |     
     |          Mulliken Center for Theoretical Chemistry        |     
     |                    University of Bonn                     |     
      -----------------------------------------------------------      

   * xtb version 6.7.1 (edcfbbe) compiled by 'albert@albert-system' on 2024-07-22

   xtb is free software: you can redistribute it and/or modify it under
   the terms of the GNU Lesser General Public License as published by
   the Free Software Foundation, either version 3 of the License, or
   (at your option) any later version.
   
   xtb is distributed in the hope that it will be useful,
   but WITHOUT ANY WARRANTY; without even the implied warranty of
   MERCHANTABILITY or FITNESS FOR A PARTICULAR PURPOSE.  See the
   GNU Lesser General Public License for more details.
   
   Cite this work as:
   * C. Bannwarth, E. Caldeweyher, S. Ehlert, A. Hansen, P. Pracht,
     J. Seibert, S. Spicher, S. Grimme, WIREs Comput. Mol. Sci., 2020, 11,
     e01493. DOI: 10.1002/wcms.1493
   
   for GFN2-xTB:
   * C. Bannwarth, S. Ehlert and S. Grimme., J. Chem. Theory Comput., 2019,
     15, 1652-1671. DOI: 10.1021/acs.jctc.8b01176
   for GFN1-xTB:
   * S. Grimme, C. Bannwarth, P. Shushkov, J. Chem. Theory Comput., 2017,
     13, 1989-2009. DOI: 10.1021/acs.jctc.7b00118
   for GFN0-xTB:
   * P. Pracht, E. Caldeweyher, S. Ehlert, S. Grimme, ChemRxiv, 2019, preprint.
     DOI: 10.26434/chemrxiv.8326202.v1
   for GFN-FF:
   * S. Spicher and S. Grimme, Angew. Chem. Int. Ed., 2020, 59, 15665-15673.
     DOI: 10.1002/anie.202004239
   
   for ALPB and GBSA implicit solvation:
   * S. Ehlert, M. Stahn, S. Spicher, S. Grimme, J. Chem. Theory Comput.,
     2021, 17, 4250-4261. DOI: 10.1021/acs.jctc.1c00471
   
   for ddCOSMO and CPCM-X implicit solvation:
   * M. Stahn, S. Ehlert, S. Grimme, J. Phys. Chem. A,
     2023, XX, XXXX-XXXX. DOI: 10.1021/acs.jpca.3c04382
   
   for DFT-D4:
   * E. Caldeweyher, C. Bannwarth and S. Grimme, J. Chem. Phys., 2017,
     147, 034112. DOI: 10.1063/1.4993215
   * E. Caldeweyher, S. Ehlert, A. Hansen, H. Neugebauer, S. Spicher,
     C. Bannwarth and S. Grimme, J. Chem. Phys., 2019, 150, 154122.
     DOI: 10.1063/1.5090222
   * E. Caldeweyher, J.-M. Mewes, S. Ehlert and S. Grimme, Phys. Chem. Chem. Phys.
     2020, 22, 8499-8512. DOI: 10.1039/D0CP00502A
   
   for sTDA-xTB:
   * S. Grimme and C. Bannwarth, J. Chem. Phys., 2016, 145, 054103.
     DOI: 10.1063/1.4959605
   
   in the mass-spec context:
   * V. Asgeirsson, C. Bauer and S. Grimme, Chem. Sci., 2017, 8, 4879.
     DOI: 10.1039/c7sc00601b
   * J. Koopman and S. Grimme, ACS Omega 2019, 4, 12, 15120-15133.
     DOI: 10.1021/acsomega.9b02011
   
   for metadynamics refer to:
   * S. Grimme, J. Chem. Theory Comput., 2019, 155, 2847-2862
     DOI: 10.1021/acs.jctc.9b00143
   
   for SPH calculations refer to:
   * S. Spicher and S. Grimme, J. Chem. Theory Comput., 2021, 17, 1701-1714
     DOI: 10.1021/acs.jctc.0c01306
   
   for ONIOM refer to:
   * C. Plett, A. Katbashev, S. Ehlert, S. Grimme, M. Bursch,
     Phys. Chem. Chem. Phys., 2023, 25, 17860-17868. DOI: 10.1039/D3CP02178E
   
   for DIPRO refer to:
   * J. Kohn, N. Gildemeister, S. Grimme, D. Fazzi, A. Hansen,
     J. Chem. Phys., 2023, just accepted.
   
   for PTB refer to:
   * S. Grimme, M. Mueller, A. Hansen, J. Chem. Phys., 2023, 158, 124111.
     DOI: 10.1063/5.0137838
   
   with help from (in alphabetical order)
   P. Atkinson, C. Bannwarth, F. Bohle, G. Brandenburg, E. Caldeweyher
   M. Checinski, S. Dohm, S. Ehlert, S. Ehrlich, I. Gerasimov, C. Hölzer
   A. Katbashev, J. Kohn, J. Koopman, C. Lavigne, S. Lehtola, F. März, M. Müller,
   F. Musil, H. Neugebauer, J. Pisarek, C. Plett, P. Pracht, F. Pultar,
   J. Seibert, P. Shushkov, S. Spicher, M. Stahn, M. Steiner, T. Strunk,
   J. Stückrath, T. Rose, and J. Unsleber
   
 * started run on 2025/09/10 at 11:29:47.670     
   ID    Z sym.   atoms
    1    8 O      1, 6, 14, 18, 21, 24
    2    6 C      2, 4, 8-13, 15, 16, 19, 22, 23
    3    1 H      3, 5, 17, 20, 25-46
    4   14 Si     7

           -------------------------------------------------
          |                Calculation Setup                |
           -------------------------------------------------

          program call               : /home/kmoult/orca_6_1/otool_xtb goat_0_XTB.xyz --grad -c 0 -u 0 -P 4 --namespace goat_0 --input goat_0_XTB.input.tmp --alpb ACETONE --acc 0.200000
          hostname                   : node2704
          calculation namespace      : goat_0
          coordinate file            : goat_0_XTB.xyz
          omp threads                :                     4


           -------------------------------------------------
          |                 G F N 2 - x T B                 |
           -------------------------------------------------

        Reference                      10.1021/acs.jctc.8b01176
      * Hamiltonian:
        H0-scaling (s, p, d)           1.850000    2.230000    2.230000
        zeta-weighting                 0.500000
      * Dispersion:
        s8                             2.700000
        a1                             0.520000
        a2                             5.000000
        s9                             5.000000
      * Repulsion:
        kExp                           1.500000    1.000000
        rExp                           1.000000
      * Coulomb:
        alpha                          2.000000
        third order                    shell-resolved
        anisotropic                    true
        a3                             3.000000
        a5                             4.000000
        cn-shift                       1.200000
        cn-exp                         4.000000
        max-rad                        5.000000

      * Solvation model:               ALPB
        Solvent                        ACETONE
        Parameter file                 internal GFN2-xTB/ALPB
        Dielectric constant                2.0700E+01
        Reference state                gsolv [1 M gas/solution]
        Free energy shift                  5.9241E-03 Eh       3.7175E+00 kcal/mol
        Temperature                        2.9815E+02 K
        Density                            7.9000E-01 kg/L
        Solvent mass                       5.8080E+01 g/mol
        Interaction kernel             P16
        Born radius scaling (c1)           1.8274E+00
        Born radii integrator          GBOBC
        Born offset                        0.0000E+00 a0       0.0000E+00 AA
        H-bond correction              true
        Ion screening                  false
        Surface tension                    1.0000E-05 Eh       1.5569E+01 dyn/cm
        Grid points                               230 per atom
q/qsh data taken from xtbrestart
CAMM data taken from xtbrestart

          ...................................................
          :                      SETUP                      :
          :.................................................:
          :  # basis functions                 112          :
          :  # atomic orbitals                 111          :
          :  # shells                           67          :
          :  # electrons                       118          :
          :  max. iterations                   250          :
          :  Hamiltonian                  GFN2-xTB          :
          :  restarted?                       true          :
          :  GBSA solvation                   true          :
          :  PC potential                    false          :
          :  electronic temp.          300.0000000     K    :
          :  accuracy                    0.2000000          :
          :  -> integral cutoff          0.3198970E+02      :
          :  -> integral neglect         0.2000000E-08      :
          :  -> SCF convergence          0.2000000E-06 Eh   :
          :  -> wf. convergence          0.2000000E-04 e    :
          :  Broyden damping             0.4000000          :
          :  net charge                          0          :
          :  unpaired electrons                  0          :
          ...................................................

 iter      E             dE          RMSdq      gap      omega  full diag
   1    -68.0087809 -0.680088E+02  0.571E-03    5.66       0.0  T
   2    -68.0087809 -0.698991E-08  0.384E-03    5.66       3.8  T
   3    -68.0087809 -0.723801E-09  0.863E-04    5.66      17.1  T
   4    -68.0087809 -0.134352E-08  0.731E-04    5.66      20.2  T
   5    -68.0087809 -0.105801E-08  0.176E-04    5.66      83.9  T
   6    -68.0087809 -0.643894E-09  0.590E-05    5.66     249.9  T

   *** convergence criteria satisfied after 6 iterations ***

         #    Occupation            Energy/Eh            Energy/eV
      -------------------------------------------------------------
         1        2.0000           -0.8150031             -22.1774
       ...           ...                  ...                  ...
        53        2.0000           -0.4307345             -11.7209
        54        2.0000           -0.4236306             -11.5276
        55        2.0000           -0.4210806             -11.4582
        56        2.0000           -0.4172585             -11.3542
        57        2.0000           -0.4161072             -11.3229
        58        2.0000           -0.4093549             -11.1391
        59        2.0000           -0.3764625             -10.2441 (HOMO)
        60                         -0.1682908              -4.5794 (LUMO)
        61                         -0.1317921              -3.5862
        62                         -0.0950478              -2.5864
        63                         -0.0495654              -1.3487
        64                         -0.0082007              -0.2232
       ...                                ...                  ...
       111                          0.7909360              21.5225
      -------------------------------------------------------------
                  HL-Gap            0.2081717 Eh            5.6646 eV
             Fermi-level           -0.2723767 Eh           -7.4117 eV

 SCC (total)                   0 d,  0 h,  0 min,  0.037 sec
 SCC setup                      ...        0 min,  0.001 sec (  1.548%)
 Dispersion                     ...        0 min,  0.000 sec (  0.753%)
 classical contributions        ...        0 min,  0.000 sec (  0.106%)
 integral evaluation            ...        0 min,  0.017 sec ( 46.575%)
 iterations                     ...        0 min,  0.010 sec ( 26.901%)
 molecular gradient             ...        0 min,  0.009 sec ( 23.682%)
 printout                       ...        0 min,  0.000 sec (  0.386%)

         :::::::::::::::::::::::::::::::::::::::::::::::::::::
         ::                     SUMMARY                     ::
         :::::::::::::::::::::::::::::::::::::::::::::::::::::
         :: total energy             -67.354774191500 Eh    ::
         :: total w/o Gsasa/hb       -67.327165344266 Eh    ::
         :: gradient norm              0.000219442506 Eh/a0 ::
         :: HOMO-LUMO gap              5.664640614801 eV    ::
         ::.................................................::
         :: SCC energy               -68.007897824558 Eh    ::
         :: -> isotropic ES            0.154299028075 Eh    ::
         :: -> anisotropic ES          0.001058389954 Eh    ::
         :: -> anisotropic XC          0.002428040486 Eh    ::
         :: -> dispersion             -0.044920720497 Eh    ::
         :: -> Gsolv                  -0.030564533390 Eh    ::
         ::    -> Gelec               -0.002955686156 Eh    ::
         ::    -> Gsasa               -0.027905493854 Eh    ::
         ::    -> Ghb                 -0.005627494643 Eh    ::
         ::    -> Gshift               0.005924141264 Eh    ::
         :: repulsion energy           0.653123633059 Eh    ::
         :: add. restraining           0.000000000000 Eh    ::
         :: total charge               0.000000000000 e     ::
         :::::::::::::::::::::::::::::::::::::::::::::::::::::


Property printout bound to 'properties.out'

           -------------------------------------------------
          | TOTAL ENERGY              -67.354774191500 Eh   |
          | GRADIENT NORM               0.000219442506 Eh/α |
          | HOMO-LUMO GAP               5.664640614801 eV   |
           -------------------------------------------------

------------------------------------------------------------------------
 * finished run on 2025/09/10 at 11:29:47.729     
------------------------------------------------------------------------
 total:
 * wall-time:     0 d,  0 h,  0 min,  0.058 sec
 *  cpu-time:     0 d,  0 h,  0 min,  0.198 sec
 * ratio c/w:     3.428 speedup
 SCF:
 * wall-time:     0 d,  0 h,  0 min,  0.037 sec
 *  cpu-time:     0 d,  0 h,  0 min,  0.135 sec
 * ratio c/w:     3.644 speedup


-------------------------   --------------------
FINAL SINGLE POINT ENERGY       -67.354774191500
-------------------------   --------------------


-------------
DIPOLE MOMENT
-------------
                                X             Y             Z
Total Dipole Moment    :      0.31700       0.75700      -0.34500
                        -----------------------------------------
Magnitude (a.u.)       :      0.89026
Magnitude (Debye)      :      2.26286

                                *** OPTIMIZATION RUN DONE ***

		     ------------------------------
			                   _   
			                  | |  
			  __ _  ___   __ _| |_ 
			 / _` |/ _ \ / _` | __|
			| (_| | (_) | (_| | |_ 
			 \__, |\___/ \__,_|\__|
			 __/ |                
			|___/                 

		      A Global Optimizer Algorithm
		     ------------------------------

Global parameters
-----------------
  GOAT version                               ... default
  Minimum global steps                       ... 3
  Number of base workers                     ... 4
  Split workers by                           ... 2
  Final number of workers                    ... 8
  Number of available CPUs                   ... 4
  Parameter list (worker : temperature)      ...  0 : 2903.97,  1 : 1451.98, 
                                                  2 :  725.99,  3 :  363.00, 
                                                  4 : 2903.97,  5 : 1451.98, 
                                                  6 :  725.99,  7 :  363.00 
  GradComp (mean : sigma)                    ... 1.00 : 0.50
  Number of fragments                        ... 1
  Number of atoms                            ... 46
  Flexibility parameter                      ... 0.69
  Optimizations per global step              ... 856
  Optimizations per worker                   ... 107

Filtering criteria
------------------
  RMSD                                       ... 0.125 Angs (atom. pos.)
  EnDiff                                     ... 0.100 kcal/mol
  RotConst                                   ... 1.00-2.50 %
  Maximum Conf. Energy                       ... 6.000 kcal/mol

Thermodynamics
--------------
  Ensemble temperature                       ... 298.15 K
  Degeneracy of conformers                   ... 1
  *No rotamers will be included in Gconf

------------------------------------------------------------------------------
   Iter  MinTemp     MaxEn       GradComp    NOpt   NProcs    Output
------------------------------------------------------------------------------
List of participating nodes    ...  goat_0.goat.0.hostnames

   3      363.00    138.00    1.00 : 0.50     107        1    goat_0.goat.0.3.out
   2      725.99    138.00    1.00 : 0.50     107        1    goat_0.goat.0.2.out
   0     2903.97    138.00    1.00 : 0.50     107        1    goat_0.goat.0.0.out
   1     1451.98    138.00    1.00 : 0.50     107        1    goat_0.goat.0.1.out
   4     2903.97    138.00    1.00 : 0.50     107        1    goat_0.goat.0.4.out
   5     1451.98    138.00    1.00 : 0.50     107        1    goat_0.goat.0.5.out
   6      725.99    138.00    1.00 : 0.50     107        1    goat_0.goat.0.6.out
   7      363.00    138.00    1.00 : 0.50     107        1    goat_0.goat.0.7.out

			     GOAT Global Iter 1
		Iter    Min En       Sconf       Gconf   
		        Hartree      cal/(molK)  kcal/mol
		=========================================

		   1    -67.364236   5.801       -1.097

List of participating nodes    ...  goat_0.goat.1.hostnames

   3      363.00    138.00    1.00 : 0.50     107        1    goat_0.goat.1.3.out
   1     1451.98    138.00    1.00 : 0.50     107        1    goat_0.goat.1.1.out
   0     2903.97    138.00    1.00 : 0.50     107        1    goat_0.goat.1.0.out
   2      725.99    138.00    1.00 : 0.50     107        1    goat_0.goat.1.2.out
   4     2903.97    138.00    1.00 : 0.50     107        1    goat_0.goat.1.4.out
   5     1451.98    138.00    1.00 : 0.50     107        1    goat_0.goat.1.5.out
   6      725.99    138.00    1.00 : 0.50     107        1    goat_0.goat.1.6.out
   7      363.00    138.00    1.00 : 0.50     107        1    goat_0.goat.1.7.out

			     GOAT Global Iter 2
		Iter    Min En       Sconf       Gconf   
		        Hartree      cal/(molK)  kcal/mol
		=========================================

		   1    -67.364236   5.801       -1.097
		   2    -67.364249   5.954       -1.113

List of participating nodes    ...  goat_0.goat.2.hostnames

   3      363.00    138.00    1.00 : 0.50     107        1    goat_0.goat.2.3.out
   2      725.99    138.00    1.00 : 0.50     107        1    goat_0.goat.2.2.out
   1     1451.98    138.00    1.00 : 0.50     107        1    goat_0.goat.2.1.out
   0     2903.97    138.00    1.00 : 0.50     107        1    goat_0.goat.2.0.out
   4     2903.97    138.00    1.00 : 0.50     107        1    goat_0.goat.2.4.out
   5     1451.98    138.00    1.00 : 0.50     107        1    goat_0.goat.2.5.out
   6      725.99    138.00    1.00 : 0.50     107        1    goat_0.goat.2.6.out
   7      363.00    138.00    1.00 : 0.50     107        1    goat_0.goat.2.7.out

			     GOAT Global Iter 3
		Iter    Min En       Sconf       Gconf   
		        Hartree      cal/(molK)  kcal/mol
		=========================================

		   1    -67.364236   5.801       -1.097
		   2    -67.364249   5.954       -1.113
		   3    -67.364249   6.059       -1.145

		Global minimum found!
		Writing structure to goat_0.globalminimum.xyz

		# Final ensemble info #
		Conformer     Energy     Degen.   % total   % cumul.  
		              (kcal/mol)
		------------------------------------------------------
		        0     0.000	     1      14.48      14.48
		        1     0.052	     1      13.26      27.74
		        2     0.328	     1       8.33      36.07
		        3     0.499	     1       6.24      42.31
		        4     0.543	     1       5.79      48.10
		        5     0.564	     1       5.59      53.69
		        6     0.567	     1       5.56      59.25
		        7     0.571	     1       5.53      64.78
		        8     0.682	     1       4.58      69.36
		        9     0.798	     1       3.77      73.12
		       10     0.890	     1       3.22      76.35
		       11     0.907	     1       3.14      79.48
		       12     1.097	     1       2.28      81.76
		       13     1.265	     1       1.71      83.47
		       14     1.285	     1       1.66      85.13
		       15     1.328	     1       1.54      86.67
		       16     1.340	     1       1.51      88.18
		       17     1.384	     1       1.40      89.58
		       18     1.395	     1       1.38      90.95
		       19     1.561	     1       1.04      91.99
		       20     1.778	     1       0.72      92.71
		       21     1.779	     1       0.72      93.43
		       22     1.810	     1       0.68      94.11
		       23     1.815	     1       0.68      94.79
		       24     1.834	     1       0.65      95.44
		       25     1.896	     1       0.59      96.03
		       26     1.984	     1       0.51      96.54
		       27     2.067	     1       0.44      96.98
		       28     2.082	     1       0.43      97.42
		       29     2.363	     1       0.27      97.68
		       30     2.473	     1       0.22      97.91
		       31     2.498	     1       0.21      98.12
		       32     2.538	     1       0.20      98.32
		       33     2.916	     1       0.11      98.43
		       34     3.010	     1       0.09      98.52
		       35     3.054	     1       0.08      98.60
		       36     3.067	     1       0.08      98.68
		       37     3.226	     1       0.06      98.74
		       38     3.319	     1       0.05      98.80
		       39     3.381	     1       0.05      98.84
		       40     3.390	     1       0.05      98.89
		       41     3.392	     1       0.05      98.94
		       42     3.492	     1       0.04      98.98
		       43     3.510	     1       0.04      99.02
		       44     3.536	     1       0.04      99.06
		       45     3.561	     1       0.04      99.09
		       46     3.623	     1       0.03      99.12
		       47     3.637	     1       0.03      99.15
		       48     3.651	     1       0.03      99.18
		       49     3.671	     1       0.03      99.21
		       50     3.701	     1       0.03      99.24
		       51     3.711	     1       0.03      99.27
		       52     3.840	     1       0.02      99.29
		       53     3.851	     1       0.02      99.31
		       54     3.878	     1       0.02      99.33
		       55     3.891	     1       0.02      99.35
		       56     3.915	     1       0.02      99.37
		       57     3.919	     1       0.02      99.39
		       58     3.923	     1       0.02      99.41
		       59     3.932	     1       0.02      99.43
		       60     3.951	     1       0.02      99.45
		       61     3.991	     1       0.02      99.47
		       62     4.039	     1       0.02      99.48
		       63     4.079	     1       0.01      99.50
		       64     4.118	     1       0.01      99.51
		       65     4.147	     1       0.01      99.53
		       66     4.159	     1       0.01      99.54
		       67     4.215	     1       0.01      99.55
		       68     4.244	     1       0.01      99.56
		       69     4.271	     1       0.01      99.57
		       70     4.272	     1       0.01      99.58
		       71     4.388	     1       0.01      99.59
		       72     4.431	     1       0.01      99.60
		       73     4.449	     1       0.01      99.61
		       74     4.452	     1       0.01      99.62
		       75     4.456	     1       0.01      99.62
		       76     4.475	     1       0.01      99.63
		       77     4.478	     1       0.01      99.64
		       78     4.501	     1       0.01      99.65
		       79     4.521	     1       0.01      99.65
		       80     4.632	     1       0.01      99.66
		       81     4.634	     1       0.01      99.66
		       82     4.648	     1       0.01      99.67
		       83     4.651	     1       0.01      99.68
		       84     4.657	     1       0.01      99.68
		       85     4.668	     1       0.01      99.69
		       86     4.680	     1       0.01      99.69
		       87     4.693	     1       0.01      99.70
		       88     4.710	     1       0.01      99.70
		       89     4.711	     1       0.01      99.71
		       90     4.723	     1       0.00      99.71
		       91     4.727	     1       0.00      99.72
		       92     4.734	     1       0.00      99.72
		       93     4.735	     1       0.00      99.73
		       94     4.746	     1       0.00      99.73
		       95     4.769	     1       0.00      99.74
		       96     4.774	     1       0.00      99.74
		       97     4.785	     1       0.00      99.75
		       98     4.794	     1       0.00      99.75
		       99     4.797	     1       0.00      99.75
		      100     4.843	     1       0.00      99.76
		      101     4.851	     1       0.00      99.76
		      102     4.854	     1       0.00      99.77
		      103     4.858	     1       0.00      99.77
		      104     4.858	     1       0.00      99.77
		      105     4.859	     1       0.00      99.78
		      106     4.861	     1       0.00      99.78
		      107     4.865	     1       0.00      99.79
		      108     4.875	     1       0.00      99.79
		      109     4.900	     1       0.00      99.79
		      110     4.908	     1       0.00      99.80
		      111     4.911	     1       0.00      99.80
		      112     4.926	     1       0.00      99.81
		      113     4.934	     1       0.00      99.81
		      114     4.960	     1       0.00      99.81
		      115     4.961	     1       0.00      99.82
		      116     4.961	     1       0.00      99.82
		      117     4.963	     1       0.00      99.82
		      118     4.967	     1       0.00      99.83
		      119     4.972	     1       0.00      99.83
		      120     4.988	     1       0.00      99.83
		      121     5.000	     1       0.00      99.84
		      122     5.004	     1       0.00      99.84
		      123     5.009	     1       0.00      99.84
		      124     5.018	     1       0.00      99.84
		      125     5.046	     1       0.00      99.85
		      126     5.055	     1       0.00      99.85
		      127     5.065	     1       0.00      99.85
		      128     5.072	     1       0.00      99.86
		      129     5.091	     1       0.00      99.86
		      130     5.098	     1       0.00      99.86
		      131     5.098	     1       0.00      99.86
		      132     5.100	     1       0.00      99.87
		      133     5.118	     1       0.00      99.87
		      134     5.127	     1       0.00      99.87
		      135     5.146	     1       0.00      99.87
		      136     5.147	     1       0.00      99.88
		      137     5.148	     1       0.00      99.88
		      138     5.159	     1       0.00      99.88
		      139     5.163	     1       0.00      99.88
		      140     5.206	     1       0.00      99.89
		      141     5.207	     1       0.00      99.89
		      142     5.209	     1       0.00      99.89
		      143     5.213	     1       0.00      99.89
		      144     5.215	     1       0.00      99.89
		      145     5.217	     1       0.00      99.90
		      146     5.222	     1       0.00      99.90
		      147     5.245	     1       0.00      99.90
		      148     5.266	     1       0.00      99.90
		      149     5.268	     1       0.00      99.90
		      150     5.290	     1       0.00      99.91
		      151     5.299	     1       0.00      99.91
		      152     5.322	     1       0.00      99.91
		      153     5.346	     1       0.00      99.91
		      154     5.356	     1       0.00      99.91
		      155     5.374	     1       0.00      99.92
		      156     5.395	     1       0.00      99.92
		      157     5.396	     1       0.00      99.92
		      158     5.401	     1       0.00      99.92
		      159     5.407	     1       0.00      99.92
		      160     5.413	     1       0.00      99.92
		      161     5.423	     1       0.00      99.93
		      162     5.428	     1       0.00      99.93
		      163     5.487	     1       0.00      99.93
		      164     5.497	     1       0.00      99.93
		      165     5.500	     1       0.00      99.93
		      166     5.500	     1       0.00      99.93
		      167     5.501	     1       0.00      99.93
		      168     5.514	     1       0.00      99.93
		      169     5.516	     1       0.00      99.94
		      170     5.529	     1       0.00      99.94
		      171     5.539	     1       0.00      99.94
		      172     5.551	     1       0.00      99.94
		      173     5.552	     1       0.00      99.94
		      174     5.554	     1       0.00      99.94
		      175     5.560	     1       0.00      99.94
		      176     5.583	     1       0.00      99.94
		      177     5.595	     1       0.00      99.95
		      178     5.598	     1       0.00      99.95
		      179     5.601	     1       0.00      99.95
		      180     5.605	     1       0.00      99.95
		      181     5.606	     1       0.00      99.95
		      182     5.627	     1       0.00      99.95
		      183     5.632	     1       0.00      99.95
		      184     5.632	     1       0.00      99.95
		      185     5.648	     1       0.00      99.95
		      186     5.648	     1       0.00      99.96
		      187     5.656	     1       0.00      99.96
		      188     5.660	     1       0.00      99.96
		      189     5.668	     1       0.00      99.96
		      190     5.674	     1       0.00      99.96
		      191     5.691	     1       0.00      99.96
		      192     5.697	     1       0.00      99.96
		      193     5.703	     1       0.00      99.96
		      194     5.704	     1       0.00      99.96
		      195     5.708	     1       0.00      99.96
		      196     5.709	     1       0.00      99.97
		      197     5.715	     1       0.00      99.97
		      198     5.716	     1       0.00      99.97
		      199     5.727	     1       0.00      99.97
		      200     5.730	     1       0.00      99.97
		      201     5.734	     1       0.00      99.97
		      202     5.734	     1       0.00      99.97
		      203     5.738	     1       0.00      99.97
		      204     5.751	     1       0.00      99.97
		      205     5.755	     1       0.00      99.97
		      206     5.758	     1       0.00      99.97
		      207     5.765	     1       0.00      99.98
		      208     5.768	     1       0.00      99.98
		      209     5.788	     1       0.00      99.98
		      210     5.790	     1       0.00      99.98
		      211     5.791	     1       0.00      99.98
		      212     5.799	     1       0.00      99.98
		      213     5.800	     1       0.00      99.98
		      214     5.805	     1       0.00      99.98
		      215     5.806	     1       0.00      99.98
		      216     5.821	     1       0.00      99.98
		      217     5.825	     1       0.00      99.98
		      218     5.826	     1       0.00      99.98
		      219     5.840	     1       0.00      99.99
		      220     5.843	     1       0.00      99.99
		      221     5.844	     1       0.00      99.99
		      222     5.852	     1       0.00      99.99
		      223     5.863	     1       0.00      99.99
		      224     5.864	     1       0.00      99.99
		      225     5.868	     1       0.00      99.99
		      226     5.880	     1       0.00      99.99
		      227     5.887	     1       0.00      99.99
		      228     5.887	     1       0.00      99.99
		      229     5.890	     1       0.00      99.99
		      230     5.891	     1       0.00      99.99
		      231     5.895	     1       0.00      99.99
		      232     5.911	     1       0.00      99.99
		      233     5.915	     1       0.00     100.00
		      234     5.926	     1       0.00     100.00
		      235     5.927	     1       0.00     100.00
		      236     5.945	     1       0.00     100.00
		      237     5.961	     1       0.00     100.00
		      238     5.968	     1       0.00     100.00
		      239     5.974	     1       0.00     100.00
		      240     5.976	     1       0.00     100.00
		      241     5.986	     1       0.00     100.00

		Conformers below 3 kcal/mol: 34
		Lowest energy conformer    : -67.364249 Eh
		Sconf at 298.15 K          :  6.06 cal/(molK)
		Gconf at 298.15 K          : -1.14 kcal/mol

		Writing final ensemble to goat_0.finalensemble.xyz

--------------------------------
SUGGESTED CITATIONS FOR THIS RUN
--------------------------------

Below you find a list of papers that are relevant to this ORCA run
We neither can nor want to force you to cite these papers, but we appreciate if you do
You receive ORCA, which is the product of decades of hard work by many enthusiastic individuals, for free
The only thing we kindly ask in return is that you cite our papers,
We deeply appreciate it, if you show your appreciation for ORCA by not just citing the generic ORCA reference.

Please note that relegating all ORCA citations to the supporting information does *not* help us.
SI sections are not indexed - citations you put there will not count into any citation statistics
But we need these citations in order to attract the funding resources that allow us to do what we are doing

Therefore, if you are a happy ORCA user, please consider citing a few of the papers listed below in the main body of your paper

In addition to the list printed below, the program has created the file goat_0.bibtex that contains the list in bibtex format
You can import this file easily into all common literature databanks and citation aid programs


List of essential papers. We consider these as the minimum necessary citations

  1. Bannwarth, C.; Ehlert, S.; Grimme, S.
     GFN2-xTB—An Accurate and Broadly Parametrized Self-Consistent Tight-Binding Quantum Chemical Method with Multipole Electrostatics and Density-Dependent Dispersion Contributions
     J. Chem. Theory Comput. 2019 15(3), 1652-1671
     doi.org/10.1021/acs.jctc.8b01176
  2. Neese, F.
     Software update: the ORCA program system, version 6.0
     WIRES Comput. Molec. Sci. 2025 15(1), e70019
     doi.org/10.1002/wcms.7019
  3. de Souza, B.
     GOAT: A Global Optimization Algorithm for Molecules and Atomic Clusters
     Angewandte Chemie 2025 64(18), e202500393
     doi.org/10.1002/anie.202500393

List of papers to cite with high priority. The work reported in these papers was absolutely
necessary for this run to complete.
Our perspective: the developers of density functionals and basis sets usually get cited in chemistry papers
Good! But without the algorithms to do something with them, the functionals or basis sets would not do anything.
Hence, in our opinion, the algorithm design and method developments papers are equally worthy of getting cited

  1. Bannwarth, C.; Caldeweyher, E.; Ehlert, S.; Hansen, A.; Pracht, P.; Seibert, J.; Spicher, S.; Grimme, S.
     Extended tight-binding quantum chemistry methods
     WIRES Comput. Molec. Sci. 2020 11(2), e1493
     doi.org/10.1002/wcms.1493

List of suggested additional citations. These are papers that are important in the 'surrounding' of 
of this run, or papers that preceded the highly important papers. If you like your results we are grateful for a citation.

  1. Neese, F.
     The ORCA program system
     WIRES Comput. Molec. Sci. 2012 2(1), 73-78
     doi.org/10.1002/wcms.81
  2. Neese, F.
     Software update: the ORCA program system, version 4.0
     WIRES Comput. Molec. Sci. 2018 8(1), 1-6
     doi.org/10.1002/wcms.1327
  3. Neese, F.; Wennmohs, F.; Becker, U.; Riplinger, C.
     The ORCA quantum chemistry program package
     J. Chem. Phys. 2020 152(22), 224108
     doi.org/10.1063/5.0004608
  4. Neese, F.
     Software update: The ORCA program system—Version 5.0
     WIRES Comput. Molec. Sci. 2022 12(1), e1606
     doi.org/10.1002/wcms.1606

List of optional additional citations

  1. Neese, F.
     Approximate second-order SCF convergence for spin unrestricted wavefunctions
     Chem. Phys. Lett. 2000 325(1-3), 93-98
     doi.org/10.1016/s0009-2614(00)00662-x

Timings for individual modules:

Sum of individual times          ...     6139.856 sec (= 102.331 min)
Geometry relaxation              ...        0.367 sec (=   0.006 min)   0.0 %
GOAT                             ...     6138.168 sec (= 102.303 min) 100.0 %
XTB module                       ...        1.320 sec (=   0.022 min)   0.0 %
                             ****ORCA TERMINATED NORMALLY****
TOTAL RUN TIME: 0 days 1 hours 42 minutes 21 seconds 181 msec
