52
Coordinates from ORCA-job goat_0_43 E -1331.450047275601
  O          -3.76095028575310      2.10584109381900     -2.13241039840136
  C          -3.07094868445481      1.70753189398225     -0.95152329838096
  H          -3.75386813179104      1.15047236673227     -0.29989700837576
  C          -1.90368640474589      0.77614027904369     -1.25035869679476
  H          -1.44129397371779      1.06930681644053     -2.19934123279205
  C          -0.84987789111632      0.92090887552273     -0.15889067439557
  H          -1.30240301685282      0.75683375091825      0.82652360092229
  C           0.30213318079378     -0.05575733661720     -0.35000520247520
  O          -0.14707229661187     -1.40064302067357     -0.24577158098443
  Si         -1.51926541513434     -1.91476342801509     -1.03295861042569
  C          -2.48232431018309     -2.94434176506231      0.21656196862058
  C          -3.69049385328362     -3.63675278810187     -0.42883242666985
  C          -1.57298702071922     -3.99867996019902      0.86776508861739
  C          -2.98173433941282     -1.98987589072426      1.31485484049524
  C          -1.06786488859734     -2.71233061645099     -2.68139076091693
  C          -2.29796132972850     -2.79778681594756     -3.59844920880878
  C          -0.02127624839483     -1.80951854316626     -3.35778037009959
  C          -0.46620284447971     -4.11180563729015     -2.49739697484855
  O          -2.40518864159224     -0.54766483858839     -1.36896576443791
  O          -0.27543519348961      2.21949782405475     -0.24487772848375
  C          -1.15051066208341      3.33566716763910     -0.19114599768508
  H          -0.95553233451831      3.87209631993754      0.74119658908866
  O          -0.79534356250109      4.25227160024903     -1.18730432827632
  C          -0.90582179052241      3.80148796010855     -2.53704823344672
  C          -2.64777197152474      2.96665027714023     -0.17126841705603
  H          -3.19397801735689      3.82207817175108     -0.58077993123430
  O          -2.94392032647474      2.80622526098085      1.21788821519534
  H          -4.04562421187618      1.30507610642055     -2.58960079783022
  H           1.05145535612480      0.11208694010759      0.42675055934130
  H           0.76914872457338      0.12493036048482     -1.32475700744102
  H          -3.38411802718437     -4.39409557219455     -1.15439400751312
  H          -4.34527925337939     -2.92239224312301     -0.93760792021618
  H          -4.28362720115446     -4.13970951220487      0.34432054034634
  H          -1.20813480682094     -4.73296603532105      0.14664378972253
  H          -2.13555165652631     -4.54125281967797      1.63706495687930
  H          -0.70764584197437     -3.53634917941477      1.35001738697769
  H          -3.66655648001295     -1.23740061008499      0.91599855971546
  H          -2.15245607778656     -1.46916015423245      1.80240672651541
  H          -3.51496556221912     -2.56300750615392      2.08243724439536
  H          -3.07544285300139     -3.44605090320418     -3.18839216053627
  H          -2.00198315922534     -3.20942006511479     -4.57098774290963
  H          -2.73513070310359     -1.81087934788290     -3.77117817776290
  H           0.90374940127714     -1.75939633949322     -2.77775521333936
  H          -0.39248510180518     -0.78980169754309     -3.49990889717387
  H           0.22440741220355     -2.21227400993195     -4.34749018411721
  H           0.38738366296581     -4.10143834032040     -1.81245656001040
  H          -0.11277874486571     -4.49127310138109     -3.46382292419293
  H          -1.20213009858169     -4.82252099737972     -2.11368242284274
  H          -1.93059152301040      3.50932247595922     -2.78019359623195
  H          -0.22985924118760      2.96424295785860     -2.72736337024429
  H          -0.61343341338819      4.64525591767408     -3.16182593535911
  H          -3.88986034579381      2.64064465867072      1.30616369587771
