52
Coordinates from ORCA-job goat_0_32 E -1331.463951394630
  O          -4.07807463794463      1.52491481371287     -2.49475558445123
  C          -3.05642479121470      1.66448999368219     -1.51861518143065
  H          -3.55483315760718      1.52995674749878     -0.55130893929989
  C          -1.98966360870782      0.58559140092565     -1.65183904495124
  H          -1.55383175971980      0.64706667293799     -2.65893333807051
  C          -0.87577047345741      0.82819467326463     -0.63434835119505
  H          -1.29706821694453      0.76257121319808      0.37913442690417
  C           0.24975063341684     -0.18650585629435     -0.77708076916837
  O          -0.21863397165194     -1.50976946001127     -0.55224411898446
  Si         -1.68405321383579     -2.04627522878286     -1.12947639635724
  C          -2.51903014698938     -2.94633053962861      0.29930352955589
  C          -2.85220428662585     -1.89640292465896      1.37333632667304
  C          -3.81775862451347     -3.63387431143511     -0.14438738028985
  C          -1.57118353127008     -3.98649394190457      0.91778857613956
  C          -1.43208855640417     -2.98671449128161     -2.74581099666572
  C          -0.43023915431951     -2.19066742561337     -3.60045585863180
  C          -0.86333738876645     -4.39197530802130     -2.50785280985955
  C          -2.75505757281311     -3.09281623013196     -3.52045798978234
  O          -2.58588996465001     -0.68609826362075     -1.45727420122764
  O          -0.31394232941548      2.11161308625626     -0.85338507629059
  C          -1.24917524825828      3.15055303695111     -0.58729578221644
  H          -1.60416563984950      3.04996010874509      0.45293167231300
  O          -0.60995875319574      4.36484587364445     -0.76984042125108
  C           0.31006239198451      4.68212416807109      0.27534991845187
  C          -2.42732769648957      3.06056659149155     -1.55891918409305
  H          -2.04050276297866      3.25515625237182     -2.56465380037613
  O          -3.38575501205368      4.07288630459100     -1.30046097321014
  H          -3.67777018814221      1.63739078711254     -3.36632183599649
  H           1.02615493884771      0.02827656932088     -0.03925272998301
  H           0.68883874605609     -0.09755952372846     -1.77733027437389
  H          -1.95513976993915     -1.37159472945707      1.71478620760580
  H          -3.30097142490345     -2.39263384309082      2.24192153900962
  H          -3.56117302616624     -1.15164681994475      1.00380154804888
  H          -4.32981380493804     -4.05314061871345      0.73003150115779
  H          -3.62606066158444     -4.45531216191346     -0.83905359172228
  H          -4.50516163791354     -2.93240797456407     -0.62729836367943
  H          -1.32904455533741     -4.79123805430034      0.22103986867014
  H          -2.04920716768337     -4.44000376838270      1.79442510853169
  H          -0.63497811298242     -3.52817507023117      1.24752451477200
  H          -0.78347138727774     -1.17628007592510     -3.80730395421953
  H          -0.29222254796821     -2.69361689824079     -4.56494869300674
  H           0.54720392183767     -2.12041908584950     -3.11640317091181
  H          -0.62870907185358     -4.86188424167155     -3.47069596489952
  H          -1.57830734512969     -5.03690841852407     -1.99168203907048
  H           0.05864571848430     -4.36401869533927     -1.91878012430860
  H          -2.57854908042413     -3.59278275682195     -4.48051314237966
  H          -3.17596980129223     -2.10550557809673     -3.72773942664971
  H          -3.50474117363628     -3.67363689284450     -2.97844617743214
  H          -0.19754226985414      4.67325399379033      1.24613451952447
  H           0.68511474800031      5.68420240524339      0.06983524116439
  H           1.14430632365120      3.97628613701943      0.29367823427031
  H          -3.82836389557534      3.86804835919552     -0.46707704635631
