52
Coordinates from ORCA-job goat_0_40 E -1331.465607132795
  O          -4.10386934134783      1.56619550697982     -2.39907200876653
  C          -3.05035294144580      1.66983065984720     -1.44765206627993
  H          -3.52908894528663      1.55434990877262     -0.46989938939414
  C          -1.99709415534649      0.58548282693667     -1.60045172604042
  H          -1.56481492559777      0.64563935710356     -2.60860739263225
  C          -0.88134000069916      0.82883845063668     -0.58109684569782
  H          -1.30332588488103      0.74495427081854      0.43056042282976
  C           0.25551530319065     -0.17050743300191     -0.74024268505033
  O          -0.19781696241287     -1.50703642764848     -0.57983233286337
  Si         -1.67309970806012     -2.04447227175727     -1.12617175558071
  C          -2.51206017063926     -2.96703444799672      0.28557758225007
  C          -4.01297193354024     -3.14665144019331      0.00599551542096
  C          -1.86605526980834     -4.33833944898311      0.52767523548960
  C          -2.35616574085995     -2.11087334585550      1.55410735745342
  C          -1.39905784516295     -2.96708319512426     -2.74923227226240
  C          -0.22525100632521     -3.95065541994188     -2.62425916962540
  C          -2.65687329928873     -3.72393046896427     -3.19701383643783
  C          -1.04688198905609     -1.92479677102836     -3.82508441055191
  O          -2.59568831107901     -0.68458978226066     -1.39991679472658
  O          -0.32659829775976      2.11995704527893     -0.77848910416656
  C          -1.26760310332808      3.15676429962538     -0.51988453267969
  H          -1.64758464225774      3.04825029287558      0.50907102827212
  O          -0.62772830038237      4.37366570192363     -0.68159457036159
  C           0.26924430941194      4.68605049469029      0.38539377917254
  C          -2.41100774993639      3.05559945904413     -1.51944866218976
  H          -1.99062259482838      3.20931401285114     -2.52346967470724
  O          -3.36836635802746      4.05817421893329     -1.22021650087975
  H          -3.71459130721814      1.56979802094353     -3.28341317090975
  H           1.01687341013254      0.02429740129627      0.01871211444140
  H           0.71131529042973     -0.03779212115975     -1.72839283715228
  H          -4.19973612367628     -3.78517345993786     -0.85953946089032
  H          -4.50481728029692     -2.18572166043219     -0.16726905672800
  H          -4.49130079531773     -3.61665695789582      0.87369515603019
  H          -2.30714439852080     -4.80154426796741      1.41842016666322
  H          -0.78771124103463     -4.25623962108851      0.69576092625569
  H          -2.02866107038213     -5.01783739675895     -0.31238692598927
  H          -2.87063509619500     -2.59951014398396      2.38989982970024
  H          -2.79607166213447     -1.11757718073486      1.42516557076226
  H          -1.30627902070980     -1.98416916251093      1.82881633918207
  H          -0.04706309104113     -4.43285580150589     -3.59305545431071
  H          -0.42210188033334     -4.73914892753367     -1.89440909259582
  H           0.69468051592051     -3.43855053269613     -2.33032239095548
  H          -2.89818917040886     -4.54724326350928     -2.52072334478646
  H          -2.49340020601288     -4.15135593320710     -4.19374669304093
  H          -3.52851785541001     -3.06483810619033     -3.25730003033610
  H          -0.16103168618547     -1.34090953288198     -3.55745562880085
  H          -1.87397475261460     -1.23197670147549     -4.00076111155385
  H          -0.83093615190898     -2.43520180030554     -4.77113521382730
  H           1.10305427386263      3.98027785265009      0.41767966102983
  H          -0.25946099409966      4.67191831784597      1.34467994401484
  H           0.64809073125044      5.68924625191579      0.19300784689161
  H          -4.15892057333981      3.84692867356224     -1.73389233308856
