52
Coordinates from ORCA-job goat_0_28 E -1331.458153922154
  O          -3.84527141310622      1.99148805499630     -2.04129602096162
  C          -3.14439218345000      1.72505376572902     -0.83245152031364
  H          -3.81038751894189      1.25479145071790     -0.10120248510155
  C          -2.03654314964454      0.73424788505591     -1.15116019871736
  H          -1.60002853748161      0.99880868708117     -2.11920434084201
  C          -0.94833181738888      0.79811915909465     -0.08073020634920
  H          -1.39767607642173      0.55220937185434      0.88910240129009
  C           0.18154892382640     -0.18184305120701     -0.37427540654457
  O          -0.27182487618881     -1.52912719965695     -0.34112314435956
  Si         -1.70495662157092     -1.96666924325229     -1.06438884883923
  C          -2.59579981262739     -3.08454474194528      0.16344753053567
  C          -1.65697934285552     -4.19225948667544      0.66828424869532
  C          -3.01037574785148     -2.21758031763483      1.36471323278459
  C          -3.85235139466681     -3.71745623567759     -0.45007756214087
  C          -1.37647424850047     -2.64184742156495     -2.79596192676252
  C          -0.79737197650064     -4.06254242362854     -2.75832716020175
  C          -2.66454339966011     -2.63443457406511     -3.63398681311748
  C          -0.35314481840062     -1.71245273169646     -3.47178563721399
  O          -2.59400167347426     -0.57095431825321     -1.21862032694257
  O          -0.33823286479633      2.08806826311797     -0.00225477701326
  C          -1.10154763725942      3.18750617631676     -0.44886832138552
  H          -0.70697870984150      4.04687497554071      0.10867701745174
  O          -0.95998859335869      3.41356199598566     -1.82595766506221
  C           0.36799655842779      3.76779281446436     -2.20218170728141
  C          -2.59227115734053      3.00423451132300     -0.17593687214813
  H          -3.12349846459861      3.86801748145931     -0.58742913260708
  O          -2.81925598357592      2.88799409833486      1.22501639439245
  H          -4.67580584065814      2.42709139490544     -1.81713035502085
  H           0.95892249287250     -0.06837525540185      0.38495738721599
  H           0.61651723305945      0.05777594888805     -1.35127808471141
  H          -0.75414168047979     -3.77463060654266      1.12180216645091
  H          -1.35310145134535     -4.87312777052737     -0.12933412185567
  H          -2.17228957992181     -4.78630445321868      1.43262367859496
  H          -3.71858587634128     -1.43806531990806      1.07398839772044
  H          -2.14609232857810     -1.73439334998329      1.82964803965000
  H          -3.48979803184155     -2.84853293204881      2.12243100493204
  H          -4.39618870854702     -4.27793621197007      0.31980054758140
  H          -3.60430044305294     -4.41559477567469     -1.25315949250273
  H          -4.53276211851450     -2.96127223798629     -0.85374773885502
  H           0.09768834228432     -4.12134865921390     -2.13121516552145
  H          -0.51424708713821     -4.37183026282479     -3.77179898218941
  H          -1.52392340882862     -4.78747538227432     -2.38357551763424
  H          -2.44161869335097     -2.97793892171249     -4.65144122481234
  H          -3.08828126192496     -1.62919944677870     -3.70399396177638
  H          -3.42941789261210     -3.29643339985753     -3.22197977232843
  H          -0.17339167297353     -2.05181364386487     -4.49879893138250
  H           0.60472617417691     -1.71654257056634     -2.94524763468714
  H          -0.71065209101164     -0.67978716043520     -3.52467254470939
  H           0.71090457441089      4.63693102955113     -1.62880347088301
  H           0.33970134159361      4.01987719063365     -3.26196993612876
  H           1.05802168435249      2.93493155415366     -2.04346593335968
  H          -2.50229113838077      3.69219829684411      1.65312089496853
