52
Coordinates from ORCA-job goat_0_1 E -1331.458657007257
  O          -4.36299801641292      1.54475080902999     -1.98753939049631
  C          -3.37440637515527      1.71427126041518     -0.98142362011784
  H          -3.82248440955457      1.56392065337538      0.01090623968708
  C          -2.23732932965368      0.72646449221463     -1.13175150782490
  H          -1.73064354953150      0.90575541292049     -2.08380877479698
  C          -1.27314975188450      0.91842010024493      0.03664669919854
  H          -1.78193604014729      0.56106419951771      0.93868128398074
  C          -0.01005661786402      0.08992290441355     -0.16414968242216
  O          -0.33504529656947     -1.29749090685282     -0.20908617222324
  Si         -1.69700678935932     -1.88782893588925     -0.95994272289682
  C          -2.49369668220448     -3.10846045148199      0.23291447342187
  C          -3.68471234836898     -3.82980207185413     -0.41394738233625
  C          -1.46990594099551     -4.14226192656485      0.72857777178443
  C          -2.99722953630447     -2.30896239610763      1.44725013494639
  C          -1.25502780745732     -2.49910392139498     -2.69176662318759
  C          -0.59159583530999     -3.88315843037559     -2.65551528389878
  C          -2.51120205791844     -2.55671292495345     -3.57519194002673
  C          -0.26160591638803     -1.50533301516413     -3.31930576847408
  O          -2.75106641854558     -0.59888589249549     -1.10492417852147
  O          -0.93981513089402      2.29044320241783      0.27030040787434
  C          -1.32647497965926      3.21084193141321     -0.73089969484279
  H          -1.10566455891240      4.19202085635183     -0.29788087097765
  O          -0.60450350586794      3.03416273228001     -1.92146814624303
  C           0.77297718162196      3.38212770481081     -1.79474840471009
  C          -2.82812494423495      3.14149829463971     -1.06325836710518
  H          -2.95007540570146      3.49861337135536     -2.08675071085754
  O          -3.57008882692138      4.03954710632424     -0.24756771578778
  H          -4.65914220067957      0.62676417137520     -1.93817675959416
  H           0.67419161418018      0.25045084423912      0.67234505831161
  H           0.49102729578919      0.39376487611853     -1.08939362228819
  H          -3.37236523719480     -4.47962002004844     -1.23490691474636
  H          -4.42502537456418     -3.12337492585265     -0.80207580923711
  H          -4.18443265688320     -4.45802033833702      0.33311486412934
  H          -1.10454651873655     -4.78342682964177     -0.07559261858649
  H          -1.94021644872079     -4.78804830862046      1.47971024616515
  H          -0.60817799482014     -3.65866308613655      1.19669715524317
  H          -2.18293338699426     -1.76916229669364      1.93927514267836
  H          -3.43432329737727     -2.99685732635033      2.18053446494383
  H          -3.76295673940766     -1.58344177266168      1.16344170499265
  H           0.28679437055330     -3.89760055986069     -2.00289098695947
  H          -0.25993931372958     -4.15579122745786     -3.66468770542905
  H          -1.28178214924558     -4.65846042675325     -2.31524612026085
  H          -2.98585319400374     -1.57541599014855     -3.65636113650614
  H          -3.25362521787570     -3.26087210818153     -3.19200273209508
  H          -2.23519472736200     -2.88284347887814     -4.58522999113679
  H          -0.68087401994260     -0.49904646269447     -3.40326982425360
  H          -0.00597636229466     -1.83835384237407     -4.33223612803814
  H           0.66478954232802     -1.44219178908000     -2.74289568811216
  H           1.22442362677981      3.24585586171023     -2.77698005019251
  H           1.28048581352215      2.74083061747634     -1.06962967996281
  H           0.87448114249352      4.42868525305616     -1.48609568106839
  H          -3.51904967561894      3.73427500720551      0.66698275885722
