52
Coordinates from ORCA-job goat_0_18 E -1331.457500070984
  O          -3.72455056632281      2.01437437365282     -2.23642358728310
  C          -3.11384604633318      1.82246534134525     -0.96452278572817
  H          -3.84635990150660      1.44434626289122     -0.24305216689578
  C          -2.03814939374999      0.76373285679908     -1.13921667167117
  H          -1.52530776116184      0.94738053340247     -2.08627447264768
  C          -1.02457340290040      0.82070786475359      0.00406878222504
  H          -1.54390723649686      0.55213511754724      0.93314592868164
  C           0.11968044538767     -0.16059574006039     -0.22495343273888
  O          -0.33802269988505     -1.50386588005359     -0.29081582267655
  Si         -1.76736286713994     -1.92421005265572     -1.02950942971340
  C          -2.72985351738935     -3.03258238527873      0.15208700136565
  C          -2.12091049551041     -4.43939550342248      0.23304355985021
  C          -2.67378884617899     -2.38474949957967      1.54617058451232
  C          -4.20346728800726     -3.13371794427274     -0.27378786228388
  C          -1.36543531735638     -2.60083509105486     -2.74466533405048
  C          -0.21407663438303     -3.61569566108146     -2.66887099553548
  C          -2.58582045761201     -3.25882684340024     -3.40273699280191
  C          -0.91427817490924     -1.41876558919424     -3.62053811648353
  O          -2.65092683238740     -0.52000658169938     -1.16202304544303
  O          -0.42451570071567      2.11169783831847      0.17424653969062
  C          -1.02456671264381      3.19639635859372     -0.50996483962731
  H          -0.63006132086670      4.08592576568946     -0.00607652484364
  O          -0.70406129050727      3.22745891513391     -1.87116878331614
  C           0.68401020288736      3.44323439063221     -2.11695690681352
  C          -2.54177368645185      3.13606860272827     -0.38176544377608
  H          -2.97457472157409      3.97550659395025     -0.92784431065482
  O          -2.90419853430443      3.31304315538799      0.98336585818830
  H          -4.54353045485466      2.50570807763583     -2.10496371734512
  H           0.82846820737713     -0.08334891514395      0.60311186205381
  H           0.64027013176211      0.11374609841305     -1.15000510162220
  H          -2.21845853523206     -4.97923818972851     -0.71192106042993
  H          -2.64112854766954     -5.02217737140129      1.00262792698111
  H          -1.05996635361867     -4.40877945160594      0.50003338758209
  H          -3.09882429938553     -1.37684694553371      1.53805441518531
  H          -1.64918328000410     -2.31844239323739      1.91978350693332
  H          -3.25585092900345     -2.98786292937621      2.25293859560329
  H          -4.32219419550280     -3.62133300788890     -1.24324891070526
  H          -4.67132855437835     -2.14721208848011     -0.32953873393280
  H          -4.75662144223098     -3.72589074786063      0.46513620988009
  H           0.03930807704361     -3.95906198221789     -3.67919152653095
  H          -0.47692888736900     -4.49547008359911     -2.07732889684035
  H           0.68267146798744     -3.16900908258813     -2.23161162237218
  H          -2.88975866794370     -4.16754509971528     -2.87784656857653
  H          -2.34114253593098     -3.53860714292577     -4.43458827047321
  H          -3.44454313875928     -2.58117090479970     -3.43708868726904
  H          -1.71638502093283     -0.68896288985787     -3.75782865673236
  H          -0.62400848550401     -1.78824204947748     -4.61121938764615
  H          -0.04862582277957     -0.90117199467231     -3.19635199348308
  H           0.79823110969829      3.56337142067315     -3.19382552264621
  H           1.28050793545264      2.59178546862578     -1.77936120902376
  H           1.02695628475801      4.35142396138837     -1.60847056941590
  H          -2.35032530495980      2.73837104430137      1.52652380129674
