52
Coordinates from ORCA-job goat_0_33 E -1331.458993979906
  O          -4.39694973237872      1.48823224454002     -1.94608347706552
  C          -3.39973767378123      1.67756251820452     -0.95111019851543
  H          -3.83503431017670      1.54406041408549      0.04783366837509
  C          -2.25549486152437      0.69898571230794     -1.10519692284469
  H          -1.75664812861673      0.88044617492031     -2.06128094074987
  C          -1.28490049855296      0.90191887758709      0.05560502106735
  H          -1.78288536863428      0.53877001593288      0.96132832117302
  C          -0.01408182102451      0.08781239045571     -0.15569875712172
  O          -0.32357107437542     -1.30310124611056     -0.20268647796461
  Si         -1.68622863579801     -1.90782216991733     -0.94086206852003
  C          -2.45568051948517     -3.14113901152787      0.25643196450747
  C          -3.64475695374172     -3.87487878982554     -0.38005387289795
  C          -1.41424078204726     -4.16390593314275      0.73797486780736
  C          -2.95583281452217     -2.35103438496803      1.47832634556350
  C          -1.25472822980784     -2.50927466183228     -2.67888859957494
  C          -0.57807005169517     -3.88719921811176     -2.65396052602173
  C          -2.51882476286067     -2.57552370397862     -3.55035796593496
  C          -0.27615043436416     -1.50471212853698     -3.31268884286506
  O          -2.75681969510859     -0.63070546931478     -1.07154644216640
  O          -0.96591259858512      2.27703989288912      0.28644314262514
  C          -1.36663131789740      3.19182827161248     -0.71184415955962
  H          -1.15760317073699      4.17504462782650     -0.27548809005251
  O          -0.63956980225755      3.03048475413843     -1.90232998220974
  C           0.73336579793904      3.39323912406551     -1.77086907144452
  C          -2.86619647428226      3.10207572904740     -1.05453659813851
  H          -2.98473634515076      3.44173798725666     -2.08754443744528
  O          -3.63471037594306      3.91148678473498     -0.17101195508200
  H          -4.68586588871047      0.56899658862478     -1.88119531830202
  H           0.67398780413747      0.25368943391167      0.67663173514831
  H           0.47726964289989      0.39973714384858     -1.08346459732044
  H          -4.39784432444848     -3.17632463683481     -0.75768455065525
  H          -4.12851566563950     -4.51172739523112      0.37019781911170
  H          -3.33343316167964     -4.51801917870274     -1.20664978792061
  H          -0.55341185943977     -3.67122691772601      1.19817712035264
  H          -1.04981566199085     -4.79818917343968     -0.07204866132208
  H          -1.86857301392647     -4.81749272677802      1.49217535221810
  H          -3.37668113150624     -3.04611249656722      2.21430487252863
  H          -3.73310770376683     -1.63406123506549      1.20441024770813
  H          -2.14285813236853     -1.80260200467131      1.96292765962085
  H           0.30714776014089     -3.89533106374964     -2.01052493824608
  H          -0.25435458460323     -4.15335478125214     -3.66742514735949
  H          -1.25709273630518     -4.67016528352213     -2.30888664244877
  H          -2.24973242340265     -2.89746986510046     -4.56360501861420
  H          -3.00215422893127     -1.59796418334506     -3.62494967738825
  H          -3.25187437353462     -3.28640205462317     -3.16149238443641
  H           0.65493459146485     -1.43544676018781     -2.74460771917523
  H          -0.70461359439412     -0.50175774848234     -3.38914015542317
  H          -0.02722293058309     -1.83225026689778     -4.32906734576401
  H           1.18866740392850      3.26702234069173     -2.75269420652134
  H           1.24658265230466      2.75435144179713     -1.04766960219932
  H           0.82244869207262      4.43939431806594     -1.45672776744039
  H          -3.47434649630712      4.83653770289889     -0.39211523109441
