52
Coordinates from ORCA-job goat_0_7 E -1331.458303189633
  O          -4.01563340033392      1.97078234451524     -2.08365798741579
  C          -3.32835277067410      1.69669131224512     -0.86659941966583
  H          -4.05450129815144      1.22149253673358     -0.20459205734162
  C          -2.17602695110831      0.71931183160004     -1.10144726809723
  H          -1.75830659822019      0.91743184856945     -2.09248697062540
  C          -1.06434451512533      0.88719462847776     -0.06600322774425
  H          -1.45512524886525      0.58583672542149      0.91398816543029
  C           0.13859336192814      0.01524380780219     -0.40818381290084
  O          -0.19808800639488     -1.36435381225575     -0.43407971622515
  Si         -1.65255516363406     -1.92692617117858     -1.01134146352947
  C          -2.37090035036646     -3.10678884967727      0.26999324208624
  C          -1.63328497663241     -4.45293720874619      0.27649462902446
  C          -2.21356328217829     -2.44595067146231      1.65018418817285
  C          -3.86856367058692     -3.34220609245369      0.01567770714598
  C          -1.37885563808228     -2.58235412203119     -2.75989699419904
  C          -2.59646023244498     -3.36065532137080     -3.27683126235297
  C          -1.14574989626506     -1.37297905472501     -3.68253314322420
  C          -0.13381942807821     -3.48132102116091     -2.81403868482682
  O          -2.67404090301826     -0.61202968424379     -1.04992629466598
  O          -0.57204827854726      2.23281185008559      0.02017702024784
  C          -1.39434065081953      3.25450585280358     -0.51284732054822
  H          -1.02549272498773      4.17554473464643     -0.04871702760924
  O          -1.31796658495790      3.34558132669616     -1.90957093349586
  C          -0.02212597111072      3.70213408544862     -2.38874581933851
  C          -2.85375700029614      2.99196476384465     -0.17524638233237
  H          -3.46368949412857      3.81761958396329     -0.54544512952597
  O          -3.02918042254201      2.94458618275881      1.23492454637294
  H          -3.38816971152930      2.41330568712368     -2.67029660077232
  H           0.91575043128500      0.16173692100570      0.34587180488033
  H           0.53659374661116      0.33187886408160     -1.37942189668619
  H          -2.00809598614328     -5.07412505383140      1.09878248651431
  H          -0.55574478489903     -4.32651585558620      0.42072759598860
  H          -1.78943693306016     -5.00662775972055     -0.65242711332821
  H          -2.72421229069588     -1.47954588857934      1.69358283534600
  H          -1.16290094267334     -2.28710809633526      1.90453558786619
  H          -2.65587574984988     -3.09254162104100      2.41720696334719
  H          -4.05326818561565     -3.84714621810180     -0.93447729089208
  H          -4.42565447407409     -2.40163686155847      0.01525632896606
  H          -4.27844563515975     -3.97442084080275      0.81248115841366
  H          -3.51457621005405     -2.76838175727071     -3.21336609648876
  H          -2.75132611338943     -4.28946619199882     -2.72283917402448
  H          -2.44367453007000     -3.62537116519907     -4.33012590275802
  H          -0.93491895426287     -1.72479503799232     -4.69938559051177
  H          -0.29196048130552     -0.76918754601129     -3.36051563493093
  H          -2.02540292591953     -0.72568190775817     -3.72876042768331
  H           0.03930875955773     -3.80589830917146     -3.84724166717249
  H          -0.24528004672142     -4.37790771548948     -2.20037563742151
  H           0.75838124388200     -2.94784819941163     -2.47596111605421
  H          -0.11504974038006      3.85439811691356     -3.46337143972373
  H           0.69976560181573      2.90563375640785     -2.19222331324146
  H           0.31815294893805      4.62895760863578     -1.91423342739830
  H          -2.23886894066424      2.56332366538476      1.63610898494977
