52
Coordinates from ORCA-job goat_0_34 E -1331.461354716398
  O          -3.76746905914334      1.64201622336631     -2.53625673439186
  C          -2.91724109074046      1.70359123860728     -1.40126889582326
  H          -3.57162628639140      1.54883777986105     -0.53545196488028
  C          -1.86676016663489      0.60015295064766     -1.41058889058527
  H          -1.25971821526000      0.70679611252719     -2.32074285797491
  C          -0.94524991924315      0.74873581020669     -0.20000041383048
  H          -1.54186255366782      0.62613410040752      0.71552817063241
  C           0.17050350698066     -0.28676086684343     -0.21309604190735
  O          -0.35451137646228     -1.60650980489807     -0.14948958115927
  Si         -1.70338227625168     -2.06576677488180     -1.00880831440552
  C          -2.79338733034682     -3.02889865272563      0.18801776287072
  C          -3.31411714303135     -2.03614132823128      1.24156026921331
  C          -3.99104300165609     -3.67056472540061     -0.52601811481162
  C          -1.98042670087075     -4.11619892416403      0.90897249191483
  C          -1.18596709597955     -2.91379442973231     -2.61368591089881
  C          -0.03322212790823     -2.10028304857506     -3.22784286365146
  C          -0.69421270563826     -4.34733386207542     -2.37120388035793
  C          -2.35346396124515     -2.93216358048416     -3.61291155570284
  O          -2.50934795744866     -0.66307053401327     -1.40097978165932
  O          -0.33090199931049      2.02722489138833     -0.21406103812875
  C          -1.28578944254273      3.07212106753606     -0.06950159303099
  H          -1.86467332138375      2.90739828036255      0.85008574156273
  O          -0.60619485011698      4.26656985123071      0.12961766798586
  C           0.10878858886450      4.77297882694500     -1.00109632705793
  C          -2.23648413257061      3.06954977866410     -1.27520905828857
  H          -1.65856839940654      3.25156554483537     -2.18579612401565
  O          -3.17403310879548      4.12866432288572     -1.18489576551566
  H          -3.22945693218733      1.78678368411314     -3.32501845917838
  H           0.81418590702721     -0.13551562714296      0.65628937058165
  H           0.77374555662817     -0.15444597075075     -1.11845080264092
  H          -3.92022871309293     -2.57282289770687      1.98091286880966
  H          -3.93622918971663     -1.25928107871331      0.79088841873808
  H          -2.49271633381845     -1.54735652935605      1.77371215162181
  H          -4.57892786782173     -2.93110632910017     -1.07861204518387
  H          -4.65308571294926     -4.13783397531423      0.21281596425870
  H          -3.67761721738581     -4.44826725456283     -1.22654382131056
  H          -1.12468858691561     -3.68879247084045      1.43834487514732
  H          -1.60855191718214     -4.87969980417144      0.22281678530847
  H          -2.61690596512399     -4.61647981357236      1.64865792136335
  H           0.26654597974852     -2.55430709102862     -4.17981151160398
  H           0.84245869509584     -2.08346911937999     -2.57401764945976
  H          -0.32540756617831     -1.06694372965346     -3.43594571628072
  H          -1.49816037222263     -5.00118604577089     -2.02515861542607
  H           0.11386956884193     -4.38091841355783     -1.63384872871341
  H          -0.30701750391938     -4.76647872807086     -3.30784582056011
  H          -2.70961911722536     -1.92107518830461     -3.82712526399176
  H          -3.19981256587728     -3.51843529234646     -3.24823679575895
  H          -2.02166683894056     -3.38033646016765     -4.55730936720930
  H           0.70755081249348      3.99178334890391     -1.47506742765169
  H           0.77076079401369      5.54914387765953     -0.61828869736488
  H          -0.57364982398357      5.21309946224041     -1.73325771182241
  H          -3.74810296310651      3.96435119914856     -0.42599631777416
