52
Coordinates from ORCA-job goat_0_4 E -1331.458854014895
  O          -4.21648059675296      1.81698168375764     -1.65667436348615
  C          -3.13989511599032      1.83937190845215     -0.73060243000917
  H          -3.51958890085793      1.67526480357508      0.28797540116537
  C          -2.11576370123885      0.76401818341228     -1.02472346704031
  H          -1.65917277622375      0.95805067474697     -1.99889551138390
  C          -1.05950303506102      0.78845700612845      0.07817427724818
  H          -1.52940993060813      0.39493821230470      0.98572107519117
  C           0.11812931485972     -0.10592301456494     -0.28698531591968
  O          -0.31687920959372     -1.44941027927782     -0.47259985704873
  Si         -1.80662126169682     -1.88784840063141     -1.06570379940394
  C          -2.60629044898469     -3.08300813150463      0.15148792173108
  C          -1.94764029544435     -4.46861347182795      0.09776638264268
  C          -2.42515892340082     -2.50167844674218      1.56398896684705
  C          -4.11237922168462     -3.21809501849465     -0.12525205990274
  C          -1.56556808467576     -2.46673014370306     -2.84531366889464
  C          -0.38701529628202     -3.44824336147464     -2.94143513464852
  C          -2.83031241989105     -3.12701990558659     -3.41085863659436
  C          -1.23542836321120     -1.22919704811308     -3.69853821307781
  O          -2.75172940469260     -0.50855878290653     -1.03846397115508
  O          -0.61015493136102      2.10951754679046      0.39612960143189
  C          -0.95254231969785      3.12638086279894     -0.52510763861438
  H          -0.62747955841536      4.05290361340163     -0.04057329904637
  O          -0.29771884509193      2.96811753772733     -1.75630638612863
  C           1.10665252317836      3.20485774453602     -1.67496067376756
  C          -2.46749180913142      3.21078419150459     -0.79189083300419
  H          -2.59729370077423      3.61350856936377     -1.79743650533235
  O          -3.08870148301496      4.14391119164756      0.08280085319088
  H          -4.58759038152820      0.92563103577364     -1.63372648659272
  H           0.85650937895511     -0.09406041540090      0.51859946804038
  H           0.59287902856195      0.26332192881344     -1.20225111343892
  H          -0.86613861021680     -4.41139356106510      0.25561467239455
  H          -2.12610480414788     -4.96771135827245     -0.85768749964377
  H          -2.36579338232105     -5.10510055191272      0.88671025367174
  H          -2.89285682611061     -1.51732875618927      1.65659131489297
  H          -1.36944576576681     -2.40389072477613      1.82873832427816
  H          -2.89934793509591     -3.16660870670069      2.29539156338172
  H          -4.61410307963346     -2.24748727932648     -0.08650465775424
  H          -4.56686000413083     -3.86089573105170      0.63815662407591
  H          -4.31608871428875     -3.66725209723008     -1.09918728616684
  H           0.53782972426042     -2.99743998046169     -2.57235548867285
  H          -0.22961378148087     -3.72892511417284     -3.98985968526463
  H          -0.56575358294161     -4.36578656726164     -2.37674857702634
  H          -3.70615770073799     -2.47769507204314     -3.31574051148807
  H          -3.05246501321694     -4.07350472679541     -2.91229202731251
  H          -2.68848857932838     -3.34042088675735     -4.47720122738028
  H          -2.06943236000621     -0.52316189603330     -3.72347066764647
  H          -1.02970439374050     -1.54122990445824     -4.72923231242873
  H          -0.34925063357976     -0.70280652900603     -3.33075477804071
  H           1.30054138117871      4.22490671670385     -1.32493713037404
  H           1.50624375791579      3.08183872932692     -2.68109385163550
  H           1.59218828921073      2.49362827839808     -1.00183839510791
  H          -3.04264821607046      3.79589544457935      0.98213676024967
