52
Coordinates from ORCA-job goat_0_19 E -1331.463492792025
  O          -4.20308140830458      1.32022992040372     -2.15333212288440
  C          -3.24059992476044      1.50423367257833     -1.12470254207942
  H          -3.68980007301737      1.28676710779604     -0.14541157007242
  C          -2.08975299634279      0.54235359323439     -1.34895149413594
  H          -1.68588341047573      0.70702781909707     -2.35586497737884
  C          -0.98586348566207      0.81874988630166     -0.32488527746350
  H          -1.38041090901577      0.61596986748834      0.68085387881617
  C           0.23824115487709     -0.05144546404463     -0.57335329721197
  O          -0.07862690822703     -1.43391544445772     -0.49905642013214
  Si         -1.51155504413828     -2.07244962032156     -1.05074698026208
  C          -2.23080020738846     -3.15166887230039      0.31568237536838
  C          -2.13387566882039     -2.35876302689190      1.63039092513163
  C          -3.71225150742340     -3.46065183390723      0.04601887393014
  C          -1.45240029919262     -4.46586992244811      0.46942930294123
  C          -1.18988768537402     -2.86552130409457     -2.73211844401833
  C          -2.38196885084511     -3.70714014443753     -3.20750652696596
  C          -0.95621177723162     -1.73101639734880     -3.74514968636766
  C           0.07059190381326     -3.74313971519943     -2.68487257363317
  O          -2.56009712683955     -0.79014399426594     -1.22147139245745
  O          -0.55350602854064      2.16836202334659     -0.41385970017770
  C          -1.59482442693563      3.08040293822281     -0.09465399360816
  H          -1.98281673137501      2.86316174133671      0.90882208787471
  O          -1.06109587471980      4.36364380635840     -0.01660184254049
  C          -0.50263177277099      4.88442782213584     -1.22797987752850
  C          -2.72403076767218      2.93614395483093     -1.11687862543660
  H          -2.34712345510647      3.17311493751466     -2.11784082263634
  O          -3.82674491958968      3.76861186931308     -0.78252156673654
  H          -4.88544967116809      1.99059255300117     -2.02304393135817
  H           0.99457918530183      0.16605529788469      0.18437061765571
  H           0.65487752162215      0.19264168865703     -1.55753612054122
  H          -2.57732540123172     -2.94525975066416      2.44362263146786
  H          -2.67514790172115     -1.41016790405852      1.56906126113218
  H          -1.09628785213980     -2.14158447429880      1.89531118885449
  H          -4.29757391328179     -2.54459734099298     -0.07041381587710
  H          -4.12801761342589     -4.01889785587788      0.89342285002774
  H          -3.85093322547832     -4.06888895999837     -0.84980123204263
  H          -1.82961946517710     -5.01762296477100      1.33876685761048
  H          -0.38346873003217     -4.29020272578688      0.62567010130338
  H          -1.56728325538807     -5.11056304524121     -0.40534117561631
  H          -2.52887508475527     -4.59132395655538     -2.58282636866621
  H          -2.20250877075885     -4.05262627869943     -4.23283954469481
  H          -3.31263793668162     -3.13130629169865     -3.20921137726803
  H          -0.12185426761015     -1.08598359030037     -3.45353485464024
  H          -1.84605959896296     -1.10732713583762     -3.86354581610569
  H          -0.71415143732641     -2.16001591588393     -4.72468138041681
  H           0.26987645489239     -4.15261439434432     -3.68259182652666
  H          -0.03933476547447     -4.58513114891659     -1.99786252217306
  H           0.94696420265092     -3.16674475576778     -2.37742461881559
  H           0.05007904140802      5.77905983544020     -0.94356435540287
  H          -1.28281448271538      5.16196129354588     -1.94275693217067
  H           0.17970419184014      4.16804187761665     -1.68922229005772
  H          -3.58281902330680      4.68629072330778     -0.94868505601242
