52
Coordinates from ORCA-job goat_0_42 E -1331.449870192528
  O          -3.79536842132280      2.05377763068721     -2.19900456323025
  C          -3.13147592999683      1.68813247423571     -0.99282480092731
  H          -3.82555471155606      1.13793700863630     -0.34720958396509
  C          -1.94818289845257      0.76065235751485     -1.24110545686218
  H          -1.47585951337663      1.02419628104572     -2.19382702539330
  C          -0.91263824565326      0.94909243863255     -0.13828070754510
  H          -1.37703766355897      0.78894072449419      0.84228602427391
  C           0.26888664473737      0.00104807153613     -0.29767857154877
  O          -0.13967755755234     -1.35741842794230     -0.22279578640359
  Si         -1.49819588776532     -1.91014920268450     -1.00529382848444
  C          -2.46505590285741     -2.96850633710682      0.21717575205173
  C          -3.90389086266285     -3.19581705581248     -0.27336520144893
  C          -1.78382009771388     -4.32280381294968      0.45781220542483
  C          -2.52531119830481     -2.19525683268628      1.54600813665813
  C          -0.97917361537197     -2.68851586166295     -2.64357805622100
  C          -2.13764248380218     -3.44547096846208     -3.30752906723252
  C          -0.53676890240577     -1.54933362925744     -3.57904766212966
  C           0.20837543495306     -3.64223755450429     -2.44238660262647
  O          -2.43849386989705     -0.57156451738407     -1.31008351108793
  O          -0.36153461670279      2.25736828180066     -0.23316844342197
  C          -1.25332684384013      3.36054383471271     -0.22951476596970
  H          -1.08571082594113      3.92615064846135      0.69080996298160
  O          -0.89132687671727      4.25453312718339     -1.24396584318898
  C          -0.95933737102594      3.76295042194629     -2.58219885807202
  C          -2.74350397607940      2.96769146900747     -0.22890209621293
  H          -3.29702281256407      3.80637398932710     -0.66245381235574
  O          -3.06096036557262      2.82561072977762      1.15766324932518
  H          -4.06262429852106      1.24084843732276     -2.64496382255257
  H           0.98794759518072      0.18402458189797      0.50401702620518
  H           0.76279734257238      0.20567072076928     -1.25456505762043
  H          -4.46530799048624     -3.74948098432223      0.48879001254433
  H          -3.94020867477777     -3.77662337358036     -1.19696950482951
  H          -4.42100542277814     -2.24812536385505     -0.44633866006392
  H          -1.79871789471206     -4.94967199861940     -0.43722584007949
  H          -2.31187846369869     -4.86569794771024      1.25095993000245
  H          -0.74254534392079     -4.20420810237928      0.77335980050773
  H          -1.52994056385265     -2.04436371858629      1.97021904974707
  H          -3.12319707268559     -2.76055935186096      2.27052555105374
  H          -2.99265317044079     -1.21398651290207      1.41935926749787
  H          -3.02247270422020     -2.81251130235218     -3.42719072253424
  H          -2.42657825643650     -4.32932857734503     -2.73385862268371
  H          -1.83238735149315     -3.78328238453103     -4.30529612700172
  H           0.29636611823065     -0.97729640110757     -3.16071825378823
  H          -1.35624133260613     -0.85664983938640     -3.78792920606467
  H          -0.20039631591316     -1.97053249375342     -4.53384593337696
  H          -0.04614848845034     -4.48970442360265     -1.80194129750503
  H           1.06328272127350     -3.12607691386546     -1.99765198990466
  H           0.52530856296711     -4.04315048788787     -3.41279071087515
  H          -0.65816145112540      4.59111227078534     -3.22348707170345
  H          -1.97364232604799      3.45205287084628     -2.84472837789888
  H          -0.26943491924810      2.92823303533639     -2.72865920002051
  H          -4.00564092780581      2.64664297214296      1.23216867455746
