52
Coordinates from ORCA-job goat_0_25 E -1331.465365182786
  O          -4.13308169275476      1.49487356040654     -2.32392118590927
  C          -3.09146058908843      1.64296928889350     -1.36945834648017
  H          -3.49081976726170      1.50397739768404     -0.35310637672283
  C          -2.04229628178860      0.57547243067935     -1.61123256969977
  H          -1.69799623483474      0.65063581719372     -2.65032771418220
  C          -0.85117365248693      0.81911853053941     -0.68216199683081
  H          -1.18650602258893      0.72022291184829      0.36006773867861
  C           0.27761392152255     -0.16746259816164     -0.94494198565391
  O          -0.14756512024569     -1.50959889194044     -0.75609813706957
  Si         -1.65779262577094     -2.05714471334649     -1.18358397522581
  C          -2.37595133963131     -2.99239757281872      0.28568214774147
  C          -3.89400983008945     -3.17499665186891      0.12549159785808
  C          -1.70978057162351     -4.36340748472106      0.46681495191385
  C          -2.12103417392267     -2.14429629943964      1.54344180593106
  C          -1.50515928684262     -2.97205094729797     -2.82666254809036
  C          -1.24746289664202     -1.92285065492470     -3.92233313653211
  C          -0.31592744135334     -3.94470880158565     -2.79649455174886
  C          -2.78712736607478     -3.73996268555142     -3.17630191849645
  O          -2.60990544928797     -0.70401199626974     -1.37428105505889
  O          -0.32459293521934      2.11743638206224     -0.90897048088203
  C          -1.25033530676329      3.14091850385822     -0.55944845071167
  H          -1.53646613825977      3.01479171339512      0.49912846791360
  O          -0.64124514007288      4.36734753625879     -0.75781635771526
  C           0.34525975535534      4.67449964933328      0.22875239257471
  C          -2.47563686241785      3.03784182633621     -1.46311277116541
  H          -2.15259156995957      3.22323445419356     -2.49113025660309
  O          -3.45356168592266      4.02740119666399     -1.17307931460596
  H          -4.71482304238133      2.25929773269029     -2.22370489604524
  H           1.09885935355564      0.03051562828374     -0.25218460133651
  H           0.64593097604337     -0.02356295204030     -1.96734207366878
  H          -4.29952974042314     -3.65706031921972      1.02316568604406
  H          -4.14787988707202     -3.80417590588932     -0.72985929207983
  H          -4.40107724526455     -2.21418873901213      0.00357618555591
  H          -0.62181969288712     -4.27920117809104      0.55083880541200
  H          -1.93578129864696     -5.03746953698742     -0.36286060555181
  H          -2.07945544852630     -4.83364184142198      1.38590467242433
  H          -2.56278184728957     -2.64163421239356      2.41498530808685
  H          -2.57481936755658     -1.15245035726437      1.45890210008761
  H          -1.05277280187742     -2.01378886136305      1.73197232737427
  H          -2.08990916969936     -1.23426671999402     -4.02669567646830
  H          -1.10510796062801     -2.42744436086747     -4.88529629996482
  H          -0.34628231002218     -1.33500850331111     -3.72310468940891
  H           0.61897906013239     -3.42444534647539     -2.57244794257121
  H          -0.20855906288030     -4.42259586033929     -3.77780978257229
  H          -0.44854553966508     -4.73707444024779     -2.05639811408947
  H          -3.66648585364921     -3.08847518739309     -3.16825547492110
  H          -2.96779833138262     -4.56500907411136     -2.48329363078594
  H          -2.69797789921912     -4.16623965871953     -4.18290310298713
  H          -0.09238194998439      4.63101892741518      1.23206131672662
  H           0.68811111516357      5.68821029021179      0.02437155246081
  H           1.18985642891479      3.98358778177743      0.16892182422871
  H          -3.74443218072848      3.91251079334354     -0.25867956917665
