52
Coordinates from ORCA-job goat_0_14 E -1331.455234700412
  O          -4.29692214902377      1.38154483266613     -2.02369191719180
  C          -3.35576178380971      1.58668704915363     -0.97771637094034
  H          -3.84385193413315      1.46043583238643     -0.00256460740264
  C          -2.18887320610119      0.62647509573595     -1.05871487775362
  H          -1.62033089301819      0.82628720554247     -1.97155854471289
  C          -1.31532737019386      0.84100734961439      0.17444397400269
  H          -1.86044023513995      0.43573287776213      1.03305935941816
  C           0.00715200953000      0.09831218553190      0.03653356410924
  O          -0.22215666818523     -1.29549897510690     -0.14888434480082
  Si         -1.55430684025740     -1.95565965637545     -0.89033037612178
  C          -2.35176800804064     -3.18756675962684      0.29134720796965
  C          -2.43127381544442     -2.52286896338576      1.67614605844765
  C          -3.77947552998504     -3.53493417658106     -0.16010390364946
  C          -1.52223730015730     -4.47415278855847      0.40640521243441
  C          -1.00990718468640     -2.58302194448876     -2.58442682409568
  C          -2.09823509423532     -3.42937670497750     -3.25831023336230
  C          -0.72485177029676     -1.35615028943084     -3.46854161842879
  C           0.28335340149928     -3.40527616911274     -2.46947501998510
  O          -2.66176534891574     -0.71478955919145     -1.07165903471722
  O          -1.08672024090584      2.22450186690038      0.46185644613807
  C          -1.38432957466584      3.13753081141779     -0.55690374548992
  H          -1.26195291108285      4.12792457833848     -0.10598647441443
  O          -0.44557752862105      2.96540348144683     -1.60057896311755
  C          -0.21926546607006      4.15353806698744     -2.35119507574576
  C          -2.82891188087348      3.01609628864869     -1.07927250605780
  H          -2.82670882906096      3.29693138893651     -2.13769751336520
  O          -3.62216964164335      3.93254002394914     -0.33200245330073
  H          -4.59658721913885      0.46589485031296     -1.95948994878727
  H           0.60195728870756      0.22892131842859      0.94398000376499
  H           0.56815141911461      0.50304365820729     -0.81206480967782
  H          -1.44005948620572     -2.27201594224523      2.06191857637499
  H          -2.90751755842176     -3.21116441847135      2.38421737451145
  H          -3.02867036002623     -1.60706924548528      1.64961031734144
  H          -4.24676283963175     -4.19246062287539      0.58277891082556
  H          -3.79526844050521     -4.05711388368168     -1.11869340638770
  H          -4.39956724218189     -2.63896547688919     -0.25001931048981
  H          -0.48679829155505     -4.26615891211177      0.69350073865469
  H          -1.50955126244029     -5.03473566723630     -0.53127308961126
  H          -1.95654987682472     -5.12443337366926      1.17510335942649
  H          -2.26854103561867     -4.36946452823206     -2.72836437935210
  H          -1.79095314281008     -3.67720373409160     -4.28148778282355
  H          -3.05100399597092     -2.89414164302500     -3.31836101928006
  H           0.03438097604704     -0.70235004363431     -3.02834273678617
  H          -1.62803635948952     -0.76552609317990     -3.64249578127758
  H          -0.34921256707671     -1.68837376898374     -4.44353726450053
  H           1.08799834378161     -2.82024447663389     -2.01664806401177
  H           0.61184955073476     -3.71177448542886     -3.46995210268512
  H           0.14654463276590     -4.31102238221757     -1.87495376154403
  H           0.54901009762612      3.92042274148596     -3.08779099378143
  H           0.13152454689593      4.96119008711357     -1.69868796050427
  H          -1.12483687050471      4.48222676184586     -2.87264778043057
  H          -4.52197451375282      3.89612633251637     -0.67769650683460
