52
Coordinates from ORCA-job goat_0_6 E -1331.458250448633
  O          -3.99237843132652      1.68530175645386     -2.67311210824295
  C          -3.53150759348587      1.53732079150333     -1.33391025202327
  H          -4.32708861806547      1.02393627015220     -0.79069739781070
  C          -2.27397799494982      0.66922031836283     -1.28321014907001
  H          -1.68479103725363      0.87162657255888     -2.18265017205896
  C          -1.41610730120946      0.98949837099761     -0.05977073198718
  H          -1.97677779994782      0.70561945791288      0.83999475999413
  C          -0.10714685863665      0.20842512353227     -0.08591771520033
  O          -0.33612904562093     -1.19361075334187     -0.03558226053189
  Si         -1.56089084834299     -1.91183377897396     -0.90407210249337
  C          -2.42085131287957     -3.10604217939704      0.27154847065426
  C          -3.10318811477257     -2.26679931076842      1.36585055838062
  C          -3.48747653531402     -3.94105978731854     -0.45112779314164
  C          -1.40373732401617     -4.04072970359776      0.94595502906930
  C          -0.88353872735530     -2.59708818504525     -2.52763315170691
  C          -2.02350028446386     -2.81422071283660     -3.53512724187137
  C           0.09163328111413     -1.55995702873365     -3.11178639663952
  C          -0.12388381916390     -3.91480291097539     -2.32178580804841
  O          -2.64848900379293     -0.70147125308156     -1.25746793382033
  O          -1.05862329561900      2.37670472027224      0.02607064969734
  C          -1.84481604376755      3.29051346754269     -0.71685599129779
  H          -1.65565684322993      4.26218204526063     -0.24812578213643
  O          -1.50287070291550      3.32815135139866     -2.07581593140839
  C          -0.17106128966010      3.77891180172588     -2.31811756227292
  C          -3.31463792364012      2.90433928833609     -0.65093536130318
  H          -3.90694471060130      3.64826341373921     -1.18615425454327
  O          -3.76195036651923      2.91067744195781      0.69866635834946
  H          -3.30398206190255      2.15681686414445     -3.16042360605863
  H           0.49399209376382      0.48444749311878      0.78360968829840
  H           0.44951539028691      0.47828243312050     -0.99070433051097
  H          -3.57772547071762     -2.93443742938842      2.09455986516265
  H          -3.87425502517581     -1.61304864620995      0.95166111578517
  H          -2.38219721864352     -1.64364955211702      1.90301131805429
  H          -4.03601036422026     -4.54894390590069      0.27834126159264
  H          -3.04536344597635     -4.62247758663616     -1.18199669847613
  H          -4.21456102624779     -3.30910096184149     -0.97045954273909
  H          -1.91952001473265     -4.66875615687927      1.68220426884623
  H          -0.62978333160986     -3.47613420804251      1.47301048385935
  H          -0.91338659310119     -4.70481051699535      0.23177974872768
  H          -2.74282494027246     -3.56059680299441     -3.19000309184093
  H          -1.60937607199052     -3.16796898140205     -4.48703560700183
  H          -2.56621603011605     -1.88524480525481     -3.72835314594117
  H           0.47513689089989     -1.92137838276971     -4.07334628239768
  H           0.94651546646441     -1.39373194995638     -2.45132054891258
  H          -0.39273804093738     -0.59641067648126     -3.29412531476060
  H           0.34285380928121     -4.22083590905521     -3.26586959423833
  H          -0.78834861409977     -4.72225872773647     -2.00569215356946
  H           0.67066992216111     -3.81499527757605     -1.57580242083685
  H          -0.00450697770556      4.75157704444747     -1.84247293263680
  H          -0.06400270240299      3.87720856069927     -3.39772557275120
  H           0.55976165895265      3.05902752971341     -1.94142605972868
  H          -3.04034875652144      2.61960396435612      1.26912942353841
