52
Coordinates from ORCA-job goat_0_12 E -1331.467203372334
  O          -3.96926389560373      1.82481798206608     -2.02813091238944
  C          -2.84807105915581      1.78622044821441     -1.15628701179927
  H          -3.18197096034286      1.64307352859489     -0.11903276025745
  C          -1.91541494396881      0.64191458725343     -1.52195734767371
  H          -1.62432600866522      0.75234684710724     -2.57443647240881
  C          -0.65267350914909      0.69718880317662     -0.66570623170934
  H          -0.92764759021151      0.59407038012893      0.39358315803020
  C           0.32527994423977     -0.40605723690897     -1.04040709254089
  O          -0.25342257949930     -1.68764065753601     -0.82737866835278
  Si         -1.83037590222792     -2.04010723368414     -1.22207158239618
  C          -2.55564754958187     -2.95635809366244      0.25461349116506
  C          -1.64403012788317     -4.11993333086298      0.67660090963584
  C          -2.63876004411594     -1.95961728863279      1.42352614589147
  C          -3.96333686060216     -3.48928706022460     -0.04658282305380
  C          -1.90027679238002     -2.87765550238943     -2.91084669392598
  C          -0.94932030036115     -2.11582726768331     -3.85055897548395
  C          -1.44880887192035     -4.34285067846547     -2.84198375027513
  C          -3.32061192189366     -2.80373793403641     -3.49308485779155
  O          -2.62144232194290     -0.57698674653738     -1.34136170775219
  O          -0.00429011014740      1.94114868733211     -0.88842497648194
  C          -0.80842703728460      3.02641531708064     -0.44547703411340
  H          -1.03678081691194      2.88909614110934      0.62390158691858
  O          -0.11305366029044      4.20835596758238     -0.64963139564135
  C           0.93772718072615      4.42263437824146      0.29491955820489
  C          -2.10452221759455      3.10597303619587     -1.25092605179871
  H          -1.84286582515142      3.30069732943559     -2.29888298693050
  O          -2.93641997683633      4.13494598231616     -0.73878507120681
  H          -4.38911487549139      0.95659382059494     -1.98042152135227
  H           1.21905370835638     -0.32981620457438     -0.41717737280436
  H           0.62136798283044     -0.28537638461080     -2.08855769401357
  H          -1.57323987982218     -4.89144914964135     -0.09255382818402
  H          -2.04895500136599     -4.58972673443269      1.58093788724019
  H          -0.63278474966973     -3.77262813760406      0.90453680105722
  H          -3.31080998397570     -1.12802953449372      1.19882048296585
  H          -1.65658607155378     -1.54549491677610      1.66954059253385
  H          -3.01834050427655     -2.47340830416786      2.31454947762435
  H          -4.39335723310380     -3.92743561640643      0.86202082649212
  H          -3.94730858213720     -4.26783460641394     -0.81296071908109
  H          -4.63611398793674     -2.69408030741739     -0.38254296993643
  H          -1.22407607271458     -1.06129485602833     -3.94507026200218
  H          -0.99511584810172     -2.55813003492239     -4.85278580514740
  H           0.08700824982011     -2.17055744876916     -3.50761991807029
  H          -1.39635392601483     -4.75934695134664     -3.85517311206638
  H          -2.14718735296727     -4.95722138434027     -2.26890927147410
  H          -0.45689683500416     -4.44260849845167     -2.39036814789572
  H          -4.04527431831791     -3.35025801065211     -2.88540454116410
  H          -3.32851588974184     -3.24597467352693     -4.49659939396546
  H          -3.66232439753380     -1.76891578465638     -3.57944521221189
  H           1.35383136810205      5.40699463374807      0.08374022724086
  H           1.71809850570421      3.66498594927937      0.18898943798189
  H           0.54204546510236      4.40182874853292      1.31580358391644
  H          -2.44338601142973      4.96160400186623     -0.80975999354616
