52
Coordinates from ORCA-job goat_0_39 E -1331.462175233564
  O          -3.96406897780973      1.56661779140733     -2.35653952461592
  C          -3.03528105360595      1.65545668793110     -1.28575281894340
  H          -3.61848995111067      1.48979906987036     -0.37431039528943
  C          -1.95781630082672      0.58091385616899     -1.37438288643427
  H          -1.43191081357913      0.68969507684448     -2.33292565021062
  C          -0.94123073116602      0.75578919976833     -0.24459851581657
  H          -1.45404821766691      0.60810288135686      0.71651964970515
  C           0.20793999379282     -0.23579998650627     -0.36335788588058
  O          -0.25319662827238     -1.57832439656146     -0.32198966845714
  Si         -1.67986460055414     -2.07537357299491     -1.01580104730562
  C          -2.63966079236754     -3.06109941904390      0.27066511449372
  C          -2.60164868581832     -2.26350274619768      1.58562636332139
  C          -4.10833092339789     -3.22711455151840     -0.15112268573071
  C          -2.01302275140209     -4.44204018105217      0.50757022467743
  C          -1.27191485235941     -2.91516842883530     -2.65549249744464
  C          -0.81405685513506     -1.82104619600789     -3.63603940812011
  C          -0.12382505535900     -3.92141488853979     -2.48164008184416
  C          -2.49195723439851     -3.62797123306083     -3.25405819429992
  O          -2.57022109466165     -0.69618683290049     -1.29553761010345
  O          -0.36919222685796      2.05419229715684     -0.29629341615900
  C          -1.34528863043659      3.06026595505133     -0.08519474249828
  H          -1.85136992032667      2.89001133203947      0.87386806372153
  O          -0.70781062606041      4.29253475980327      0.04709615575057
  C           0.03114952182165      4.74063669438689     -1.09592228811964
  C          -2.38348307424617      3.03163952590918     -1.21141648077310
  H          -1.88232398772112      3.22962327236397     -2.16806789077285
  O          -3.39600072975466      3.99448715432438     -0.96488099280366
  H          -3.48530087212493      1.70750966641211     -3.18331775154150
  H           0.89993827671139     -0.08706572757299      0.46884561707135
  H           0.74711327983235     -0.04588679877622     -1.29880828333667
  H          -3.03864144543900     -1.26806421363881      1.46433757819276
  H          -1.58077807842438     -2.14356612637019      1.95622122755108
  H          -3.18171519942622     -2.79304077282241      2.35055857690541
  H          -4.66213119340107     -3.73357668798371      0.64854789273724
  H          -4.21323644552355     -3.82759112828397     -1.05667315328208
  H          -4.58548241900605     -2.25925149773679     -0.32678566015004
  H          -0.95398540950523     -4.36800609088438      0.77377527824846
  H          -2.09868936958708     -5.08373626928662     -0.37270985032031
  H          -2.52935163189402     -4.94416949395762      1.33455508891635
  H          -0.52001916608857     -2.28216548377471     -4.58636320305284
  H           0.05081131312483     -1.26799005278444     -3.25759653353926
  H          -1.61392551941330     -1.10594898919224     -3.84526574988930
  H          -0.39150045189212     -4.74281363663578     -1.81338301227125
  H           0.77273746641825     -3.43894471520231     -2.08379374808835
  H           0.13240620286012     -4.35642141697596     -3.45529191905274
  H          -2.24626204378007     -3.99805407764497     -4.25688272871066
  H          -3.35025097398755     -2.95561074025896     -3.34916581017915
  H          -2.79700516418419     -4.48706144768580     -2.65188900845932
  H          -0.63413515151543      5.08712263380881     -1.89207449016672
  H           0.68364731838939      3.95364583539874     -1.47796650552244
  H           0.63704631039188      5.57798545401366     -0.75184650381040
  H          -2.96745443325483      4.85323865667169     -0.86426823829599
