52
Coordinates from ORCA-job goat_0_23 E -1331.457185387450
  O          -4.57551300150516      1.15307165763977     -1.98998384447995
  C          -3.60280423219339      1.51390052242081     -1.01956180916505
  H          -4.02008266108623      1.40416606059262     -0.01036166077776
  C          -2.39701354847164      0.61008160264179     -1.14750816910094
  H          -1.90037016725272      0.81372923635074     -2.10146644623725
  C          -1.45323136052079      0.90937622095858      0.02043829026774
  H          -1.91026463499593      0.47675979811111      0.91629366527085
  C          -0.09830878306532      0.24823593332941     -0.20274345147977
  O          -0.24057457979404     -1.16375471503060     -0.32152034877883
  Si         -1.57613939114408     -1.92169779658795     -0.95851012651951
  C          -2.21061387983305     -3.17556942733960      0.29710753397493
  C          -3.64381064294607     -3.61362910249098     -0.04516372043179
  C          -1.30006563823323     -4.40898954077593      0.37232102329524
  C          -2.23111652199519     -2.48957567141116      1.67350348934308
  C          -1.10494818811582     -2.55653463635545     -2.67272935130309
  C          -2.17295984248129     -3.49480799485910     -3.25080129624759
  C          -0.96818732668588     -1.33848064913808     -3.60301502165552
  C           0.24812565434022     -3.28372173000233     -2.62952015851929
  O          -2.76747859543284     -0.75926122682849     -1.08394594384838
  O          -1.29474779534268      2.30405777839100      0.29150658759776
  C          -1.69040639306603      3.18616362084187     -0.73660962053137
  H          -1.60531480000832      4.18204461341528     -0.28746644003361
  O          -0.85776959008948      3.09179399017618     -1.86389799320058
  C           0.45908265216797      3.58535973503563     -1.62634849483314
  C          -3.14187342593212      2.96038656953268     -1.19981426457470
  H          -3.18442697470980      3.20076390877382     -2.26615495589633
  O          -4.05093280896233      3.77770192216988     -0.46975525554205
  H          -5.35367835278148      1.70305935977024     -1.84073296315836
  H           0.55618472327144      0.45576563085533      0.64760203793555
  H           0.36547445568872      0.65300445573573     -1.10843892491081
  H          -3.69637289440352     -4.15498392228503     -0.99179792004399
  H          -4.31965745916050     -2.75641992206500     -0.10517658726890
  H          -4.01801782540922     -4.28189558800813      0.73974259794771
  H          -1.63922712196198     -5.06865310516279      1.18002739885685
  H          -0.26119950713530     -4.13545122237312      0.58158264846667
  H          -1.32000481464200     -4.98619534632944     -0.55505601576227
  H          -2.88405533842741     -1.61212851317528      1.67596388212466
  H          -1.23205377848391     -2.17186238163033      1.98199761537489
  H          -2.61229531007451     -3.19097913442265      2.42500945867216
  H          -1.91754317995684     -3.74933369762483     -4.28659289994303
  H          -3.16324398677958     -3.02891312443942     -3.25798172846454
  H          -2.24005138556885     -4.42931417680702     -2.68896539886982
  H          -0.22832259565732     -0.62167937805593     -3.23334962067037
  H          -1.92034673195060     -0.81627936411442     -3.72727232644890
  H          -0.63769080465134     -1.67151069712216     -4.59402504630985
  H           1.03791035715054     -2.63303646823097     -2.24536202178975
  H           0.52983297718637     -3.59242629699692     -3.64355744173915
  H           0.21655069468053     -4.18151251016794     -2.00840095942921
  H           0.96872786141795      3.00558599444217     -0.85251193210537
  H           0.42174097053457      4.63794035787963     -1.32384831269885
  H           1.00491886546844      3.49458455416845     -2.56502609708515
  H          -3.95892334099851      4.68632381659899     -0.77934165927325
