52
Coordinates from ORCA-job goat_0_38 E -1331.457986441410
  O          -3.72977416333807      1.90219841088279     -2.42924381744034
  C          -3.20335500465691      1.71390493370354     -1.12058124269604
  H          -3.96199125347150      1.26655033883503     -0.46774506289699
  C          -2.05192867147958      0.72680761045114     -1.22716553363726
  H          -1.50198948879160      0.93610265748372     -2.14936555298738
  C          -1.10420210839131      0.87836690013133     -0.03803713801019
  H          -1.66186077929898      0.66302178754000      0.88143762475405
  C           0.08201499507089     -0.07368123649158     -0.14587354789371
  O          -0.32525601276094     -1.43509223016836     -0.14322360710975
  Si         -1.66216750670675     -1.94780710819076     -0.98828465790671
  C          -2.68012635584907     -3.04233803479531      0.15933800010932
  C          -4.10289325475898     -3.23762409990577     -0.38861030850897
  C          -2.01836855504707     -4.41096690452628      0.37219914658343
  C          -2.78058425007923     -2.32144069068962      1.51473697972099
  C          -1.08804481478325     -2.67876598304144     -2.63075360439924
  C           0.09393529325252     -3.63631129031550     -2.41494755474849
  C          -2.22126865668322     -3.41872773491991     -3.35462003945153
  C          -0.61653257531875     -1.51554263632752     -3.52110098759070
  O          -2.58287970286177     -0.59178714348031     -1.26944415956444
  O          -0.54021634634556      2.18868051471748      0.05166036379279
  C          -1.25396860478131      3.24195970529987     -0.55964485948145
  H          -0.95064921072763      4.14125471948465     -0.01167269216616
  O          -0.94087521157489      3.38070480585269     -1.91964752525943
  C           0.42014352912700      3.73611244791319     -2.14599731817902
  C          -2.75946436112031      3.03960605600294     -0.46406482528621
  H          -3.25092183002649      3.86972522037180     -0.98121974778612
  O          -3.05963745938084      3.05747837271759      0.92717704571240
  H          -4.58360676213543      2.34266336603412     -2.34906835781300
  H           0.74411582987366      0.08368792470595      0.70896152581640
  H           0.64093077336786      0.16001814103021     -1.05961292739433
  H          -4.11214672328164     -3.78373392438465     -1.33377684434880
  H          -4.60535557073464     -2.27916941161390     -0.54444200127603
  H          -4.69536339692698     -3.81336360904258      0.33265494027969
  H          -2.00398304696189     -5.00350907366677     -0.54581636653661
  H          -2.57956383886959     -4.97904006432017      1.12387655775340
  H          -0.98878280690321     -4.31341638968956      0.73046631756065
  H          -1.79917405116685     -2.19372604704382      1.97746402538045
  H          -3.40477162967804     -2.91114203730819      2.19646541444547
  H          -3.23858018363239     -1.33332269467143      1.41148660061685
  H          -0.18001412328010     -4.49991212923966     -1.80470652756216
  H           0.93270118911384     -3.13065092363460     -1.92937303459244
  H           0.44310998796844     -4.01247060021220     -3.38424326343825
  H          -1.88090608883361     -3.72884376174389     -4.35004976891572
  H          -3.10237134236782     -2.78338588441594     -3.48785847938933
  H          -2.52834399513408     -4.31807953430120     -2.81564150895976
  H          -1.43294776783373     -0.82554587454358     -3.74947119259638
  H          -0.23677642246696     -1.91264697546558     -4.47000236269631
  H           0.19330481345583     -0.94573480301824     -3.05613252209374
  H           0.52323751951929      3.92746364633473     -3.21381530745885
  H           1.09326185485591      2.92570428117481     -1.85421147688891
  H           0.67961576370693      4.64200621218485     -1.58577726730178
  H          -4.01781762087075      3.01902077831623      1.02609844973696
