52
Coordinates from ORCA-job goat_0_10 E -1331.464234036682
  O          -4.07090099269476      1.62667561383927     -2.00197387321219
  C          -3.04090424986488      1.64059688496981     -1.02036947249391
  H          -3.46595259945124      1.43523728936853     -0.02872896464689
  C          -1.96256644201488      0.61292982765323     -1.30862397017369
  H          -1.56628549199755      0.79060204893808     -2.31654900031173
  C          -0.82842300934922      0.78438765131199     -0.29913431690739
  H          -1.22030944291496      0.60183042101053      0.71176297730635
  C           0.31502709673115     -0.18093973766929     -0.57252661978786
  O          -0.12637052786519     -1.52874988516092     -0.46380237565468
  Si         -1.58944763519347     -2.04646684611147     -1.06200888609258
  C          -2.37370317684089     -3.10502345531963      0.28349591052398
  C          -3.66676884759253     -3.77105324312618     -0.20742809495501
  C          -1.39437614913669     -4.18210512856595      0.77684168245122
  C          -2.70781516739189     -2.17817194016514      1.46520186410802
  C          -1.35147842377471     -2.81274122628504     -2.77024664183035
  C          -2.68518593129541     -2.85784156265939     -3.53224907429614
  C          -0.37271324995048     -1.92119835456289     -3.55439949870687
  C          -0.76134622858615     -4.22704448156657     -2.68607765391524
  O          -2.53508517975450     -0.68382523895750     -1.23295432587969
  O          -0.30832181885861      2.10269955933763     -0.39013329408413
  C          -1.27415956565800      3.08574779037307     -0.02978959054521
  H          -1.64926300988061      2.87417287557017      0.97962724775300
  O          -0.63938841060806      4.31722012718656      0.05719957207134
  C          -0.20363000064980      4.88322060073249     -1.18232593724497
  C          -2.43658588844077      3.03628836197528     -1.02329428697523
  H          -2.06101595737161      3.24483824416688     -2.03229598872689
  O          -3.38799205752349      4.01305800277345     -0.63219302149926
  H          -4.53781480747578      0.78611246563379     -1.92460889496123
  H           1.10903102754936     -0.02417017085924      0.16095430322812
  H           0.72166739360805      0.01258648073445     -1.57153941181663
  H          -3.47310757830649     -4.50533469249497     -0.99309495799577
  H          -4.37975024834685     -3.03685779128532     -0.59526252427905
  H          -4.14979263015083     -4.29634233885406      0.62518789946876
  H          -1.84809438603462     -4.73164915392506      1.61030643443408
  H          -0.46166564026736     -3.73984177765549      1.13699673275826
  H          -1.14888377908601     -4.90714700427758     -0.00142932533218
  H          -3.43837246040959     -1.41549838708359      1.18569415450860
  H          -1.81536590020235     -1.67121317112881      1.84356140992613
  H          -3.12994858586756     -2.77066291474115      2.28535042137772
  H          -3.11748657434775     -1.85939572662237     -3.63771069982129
  H          -3.42194899415254     -3.49555935699591     -3.03838003551607
  H          -2.51883642588626     -3.26124879091042     -4.53841127323874
  H          -0.24233867412692     -2.32406699901042     -4.56578552532782
  H           0.61063170589757     -1.88593864121698     -3.07859362078090
  H          -0.74131189706669     -0.89621899935245     -3.65509157758082
  H          -1.45857774908226     -4.93207672748500     -2.22746484711648
  H           0.17033415365039     -4.24623404994572     -2.11216366777201
  H          -0.53747348130977     -4.59226965976990     -3.69568254410464
  H           0.34697798561641      4.15344308079308     -1.78037135856288
  H           0.45918530142923      5.70772884436677     -0.92168930995437
  H          -1.05011097500698      5.27075106995315     -1.75572828178963
  H          -4.17507442269461      3.87202021307642     -1.17328786602475
