52
Coordinates from ORCA-job goat_0_26 E -1331.463691255252
  O          -3.86593936234707      1.64608892562680     -2.32838772211279
  C          -2.98208916297752      1.68399922976609     -1.21649401189214
  H          -3.54086147219077      1.51549977026681     -0.28534885177295
  C          -1.91164021577006      0.61139914539937     -1.33760425414148
  H          -1.38560559474757      0.74610416318300     -2.29098985634885
  C          -0.90054579281506      0.74647883048619     -0.20193093453989
  H          -1.41476532675557      0.59559867576314      0.75777390108126
  C           0.23022852312303     -0.26273088943897     -0.33672706017499
  O          -0.26409989932646     -1.59459742224395     -0.32972761749689
  Si         -1.68735266043284     -2.05639002731819     -1.05286249554497
  C          -2.67520167236801     -3.05607771685758      0.20034983058299
  C          -4.14197099576643     -3.18908518158033     -0.23959596490868
  C          -2.07217467200910     -4.45196126915671      0.41027159696397
  C          -2.63780890869409     -2.29029799428999      1.53411935866704
  C          -1.27585689475464     -2.86033449810812     -2.70880772345355
  C          -0.79542975035469     -1.74922482064810     -3.65902475705801
  C          -0.14251691478235     -3.88552137025379     -2.54857666985164
  C          -2.49973670196310     -3.54331543824409     -3.33390668250635
  O          -2.55554822968642     -0.65520595014571     -1.31182723415941
  O          -0.31431675705446      2.03990400360756     -0.24422911848119
  C          -1.27735753012801      3.06087537576635     -0.03455964010617
  H          -1.78123594449467      2.90080418559050      0.92726595540155
  O          -0.62059516746601      4.28302332294647      0.09095478117576
  C           0.11542941741357      4.71889362921537     -1.05873810608994
  C          -2.32633216807750      3.05078209818848     -1.15421908765505
  H          -1.83945713680162      3.24596984087585     -2.11697612978719
  O          -3.32703097734922      4.02190921927395     -0.88819878053322
  H          -4.21726463142150      0.74781990285150     -2.37422039438037
  H           0.92087147110481     -0.15141121998762      0.50232991134139
  H           0.77838610273991     -0.06351858170721     -1.26482232650879
  H          -4.24701329873152     -3.76504549905254     -1.16089415642516
  H          -4.60300628057428     -2.20998306481831     -0.39515187090870
  H          -4.71112293854316     -3.70673779867263      0.54181561021364
  H          -2.15953230961692     -5.07124399363691     -0.48576832995429
  H          -2.60412040459017     -4.96523451265073      1.22025885390600
  H          -1.01469557844226     -4.40079234438551      0.68762171828478
  H          -3.05490742912555     -1.28416849534259      1.43180998261320
  H          -1.61922986630487     -2.19812541103203      1.91853869564328
  H          -3.23616701610201     -2.82678637211385      2.27978528841477
  H           0.07404886741426     -1.21777340462882     -3.26069135605685
  H          -1.58328236878850     -1.01770316049529     -3.85668693980687
  H          -0.50014574850006     -2.19142329497208     -4.61782839949560
  H           0.75659409838699     -3.42459072898398     -2.13145188541525
  H           0.11685882958610     -4.30079632189982     -3.52990655379563
  H          -0.42729595624463     -4.71878903703205     -1.90241723749374
  H          -3.34830142484743     -2.85770630097970     -3.42179671865290
  H          -2.82141868584907     -4.41099366114403     -2.75317185239544
  H          -2.24977815866782     -3.89430581735655     -4.34241807027586
  H           0.74965111104019      3.92045993737730     -1.44773305023142
  H           0.73982724435868      5.54460777519558     -0.71963342513230
  H          -0.55124365609671      5.07839994373326     -1.84783904801801
  H          -2.89099000360773      4.87851362406418     -0.80295117072707
