52
Coordinates from ORCA-job goat_0_2 E -1331.459636232775
  O          -3.40277469350334      2.35197399196378     -2.21342750947331
  C          -2.91797371464881      1.88379815905645     -0.95967512687847
  H          -3.78190830272407      1.47027242203677     -0.43405333194706
  C          -1.89474116233367      0.76125116429135     -1.14531913266168
  H          -1.34555921345900      0.95182964722803     -2.07365939463806
  C          -0.89024480501345      0.73137966968921      0.00505257276480
  H          -1.42641254845046      0.53271292626029      0.93937155728355
  C           0.16635339633586     -0.34558568514312     -0.20877058262125
  O          -0.41209992629131     -1.64485467761020     -0.22493123470303
  Si         -1.82327832363366     -1.95076957313944     -1.05174649494189
  C          -2.89501680840157     -2.99351969322825      0.09406862495765
  C          -2.10170622464583     -4.19060483121387      0.64259495820903
  C          -3.30845171755912     -2.10381707727096      1.27913102443342
  C          -4.15962631423920     -3.49747236133454     -0.61520895880798
  C          -1.43163529684936     -2.63978360721243     -2.76520674045703
  C          -0.27462134395387     -1.81240955439114     -3.35240417894356
  C          -0.99750337538498     -4.11067075848084     -2.70554583673228
  C          -2.64705858340578     -2.50035046822840     -3.69524762137716
  O          -2.57766443839002     -0.48078575334788     -1.24472045755633
  O          -0.17618248748928      1.96570895709777      0.12043220863253
  C          -0.84511325653180      3.13203112517078     -0.30438332361979
  H          -0.40847571953720      3.94604902836925      0.28414469773344
  O          -0.66455550744811      3.38090530883338     -1.67845557038081
  C           0.69367945753134      3.62137357614032     -2.03840504370962
  C          -2.34887548145252      3.03278037499319     -0.10379686780830
  H          -2.80755219580856      3.96952056143931     -0.43437817347688
  O          -2.56065038750951      2.82428035496677      1.28569200625185
  H          -2.65198094536344      2.75324038212148     -2.67121851139991
  H           0.88886776905127     -0.30792781454278      0.60992083745750
  H           0.69736173333202     -0.14607180171690     -1.14654474824769
  H          -2.72165243962432     -4.73980593844353      1.36140174536503
  H          -1.19624724740897     -3.86565564439852      1.16199188968625
  H          -1.81032841069317     -4.88980677599721     -0.14359358583207
  H          -2.43639869811126     -1.71123576544708      1.81028082641718
  H          -3.89744168694607     -2.69412975957928      1.99097678432519
  H          -3.91717904932906     -1.25653790027171      0.95451050187583
  H          -3.92264662319746     -4.20524876216053     -1.41323891784270
  H          -4.73728032471794     -2.67537507235687     -1.04908973462166
  H          -4.80499802716982     -4.01441020719829      0.10510885729939
  H           0.63584981875215     -1.91206011830906     -2.75593673840276
  H          -0.52419098297559     -0.74954504191150     -3.42139036085661
  H          -0.05219631210254     -2.16462201580941     -4.36665927807270
  H          -1.81575319660042     -4.76403539311820     -2.39356134505549
  H          -0.16020144117243     -4.26037601144430     -2.01682718565573
  H          -0.67279782436722     -4.43909109645717     -3.70033006398518
  H          -2.96018258461001     -1.45707995841958     -3.78716877408556
  H          -3.50361292064533     -3.08117025961874     -3.34604938514428
  H          -2.38578614405897     -2.86340908558160     -4.69666574306862
  H           1.10808331944158      4.43996442330906     -1.43945342537225
  H           0.69637175056829      3.90219812021853     -3.09106065776933
  H           1.30108893525444      2.72396799824454     -1.89701111638024
  H          -3.51018949250823      2.85824027195304      1.44923605983509
