52
Coordinates from ORCA-job goat_0_29 E -1331.463174755747
  O          -3.88356494282111      1.75146355814319     -2.18362087688062
  C          -2.89868013252132      1.72393989086690     -1.15636627352572
  H          -3.45114871992698      1.55726122192054     -0.22615674124969
  C          -1.88504840204301      0.60513558648717     -1.33013933009039
  H          -1.38572381797778      0.72552239426181     -2.30151713795457
  C          -0.82956876092567      0.70655051150076     -0.22520970032431
  H          -1.32199672249892      0.54147339663525      0.74376982692548
  C           0.27644811111429     -0.32239081881454     -0.41069537008153
  O          -0.23623985619084     -1.64709621627571     -0.40425250131815
  Si         -1.70686582735939     -2.06793653148064     -1.05566855240803
  C          -2.66160813992923     -3.04508402130510      0.24156969484879
  C          -2.53093258876656     -2.29300680247501      1.57708865888637
  C          -4.15277370101873     -3.12583756357832     -0.12294344678257
  C          -2.09594363000772     -4.46203238737295      0.41096324441586
  C          -1.39225666769051     -2.88414630189039     -2.72720226106252
  C          -0.92090233104106     -1.78690377572727     -3.69769857500104
  C          -0.28273949193263     -3.94144624406788     -2.61581728834791
  C          -2.66206997107367     -3.53021779521717     -3.29739260491742
  O          -2.54864788386613     -0.64665059576396     -1.27315163332473
  O          -0.21253719408969      1.98466762806090     -0.24524641569837
  C          -1.13730807532971      3.02973229371502      0.03723769408038
  H          -1.63194999118825      2.83104719886504      0.99658053465564
  O          -0.43088642407961      4.21102332619712      0.21742261935756
  C           0.17043885649656      4.76384235171190     -0.95701124550235
  C          -2.18194651365660      3.06939527406007     -1.07660033117008
  H          -1.67535098171563      3.24658539601571     -2.03461380645352
  O          -3.09668864369335      4.11555117632789     -0.79586219840546
  H          -3.43111623657941      1.80312019534979     -3.03602573114074
  H           0.99538445420210     -0.23104667232969      0.40685073504313
  H           0.79805511312288     -0.12033969486052     -1.35356337329508
  H          -1.49114719856729     -2.23474083206449      1.90767201887095
  H          -3.10515775613701     -2.81829818415581      2.34930895794667
  H          -2.92259741390570     -1.27416407380621      1.50476278247458
  H          -4.69759276086364     -3.63377245065086      0.68193687197799
  H          -4.32450190881533     -3.68749543074289     -1.04319733452499
  H          -4.58826416699982     -2.13051633178212     -0.24513679485167
  H          -2.60217136424319     -4.96375224322520      1.24437840604342
  H          -1.02430329959392     -4.44869851598037      0.63293057253138
  H          -2.25082962838306     -5.07040385407391     -0.48334419777056
  H          -1.69580127322140     -1.03376378853704     -3.86289106414188
  H          -0.67826217807057     -2.23672032525333     -4.66771680017044
  H          -0.02118664541689     -1.28013748517036     -3.33593904064773
  H          -0.07484518712683     -4.36024202233231     -3.60789982320657
  H          -0.56423739581536     -4.76863451273119     -1.96058686535690
  H           0.64481302145408     -3.50676365909256     -2.23419549849132
  H          -2.46697520870574     -3.88995365868171     -4.31494531321115
  H          -3.49236869507251     -2.81908908132370     -3.34975443829876
  H          -2.98447889680919     -4.38708385906011     -2.70112170677056
  H           0.85371439924552      5.53851512764298     -0.61048667572665
  H          -0.58274387515810      5.21494796208103     -1.60871475213199
  H           0.73366844287863      4.00761595655056     -1.50871817872040
  H          -3.85365189768496      3.98623528342972     -1.38228873910199
