52
Coordinates from ORCA-job goat_0_31 E -1331.463097959871
  O          -4.02819851804462      1.60385157536229     -2.20259494815947
  C          -3.03062330110299      1.65299554569957     -1.18820105163352
  H          -3.56055826789067      1.47247809773407     -0.24752561865971
  C          -1.95456991128334      0.59325084005725     -1.35657165948473
  H          -1.47218012579035      0.73343744696795     -2.33425357173199
  C          -0.89622443027682      0.77594371817504     -0.26584378315652
  H          -1.36960227455224      0.61176848897181      0.71289521162188
  C           0.25476887764846     -0.20555161292158     -0.43401754227011
  O          -0.19963458160285     -1.54868760082168     -0.32852533812191
  Si         -1.62671316228847     -2.06383061021276     -1.01142541047678
  C          -2.51170085293472     -3.08061363591921      0.30424276542944
  C          -2.93615135728278     -2.11948539754022      1.42790439015859
  C          -3.76195587729509     -3.76991994312380     -0.26018096791051
  C          -1.56807069903674     -4.13650197249000      0.90256542363375
  C          -1.28324184839043     -2.87922111030528     -2.67860483089772
  C          -0.71023515408810     -4.29375076284670     -2.51662023906426
  C          -2.56495842074926     -2.93858460213294     -3.52432739812833
  C          -0.24954570511428     -2.01459945152920     -3.42121639835972
  O          -2.53755804772894     -0.69598627830219     -1.28242131059366
  O          -0.34808194976403      2.08351697213224     -0.32812062225312
  C          -1.32390008638343      3.08318039579377     -0.05214480021757
  H          -1.78831439263134      2.88109682516914      0.92147643979586
  O          -0.68020802966628      4.30534859528421      0.08608761285998
  C          -0.13679997045619      4.86417393778994     -1.11345647429673
  C          -2.39139523774921      3.03910169932141     -1.14450637760834
  H          -1.91501480265354      3.22700592443213     -2.11587467841785
  O          -3.35899388732536      4.03638822774037     -0.86325630809356
  H          -3.59025852804918      1.67054113009004     -3.06158341040666
  H           0.99357210058749     -0.03472064700493      0.35217639541178
  H           0.73545292130127     -0.03646217247486     -1.40443397064688
  H          -3.64887586376771     -1.37176453121301      1.07201760818107
  H          -2.07666111829895     -1.59368996266089      1.85400590540443
  H          -3.41337206057110     -2.68933535708644      2.23382606818899
  H          -4.30635540792121     -4.26749215926094      0.55135058492929
  H          -3.50581838538071     -4.53109227012955     -1.00105145625830
  H          -4.44478578804729     -3.05426943960556     -0.72856059607412
  H          -0.67013926615415     -3.67675713164394      1.32397339520871
  H          -1.25599610747876     -4.87870333202810      0.16523769872940
  H          -2.08315109115970     -4.66900229948146      1.71110240644103
  H          -1.44122108373728     -4.98038190342467     -2.08325669087039
  H           0.18270953911121     -4.30183154030701     -1.88384972176219
  H          -0.42589226093372     -4.68992913670800     -3.49899305805158
  H          -3.33475791717836     -3.56185634050182     -3.06364662177783
  H          -2.33568112378594     -3.36687559188358     -4.50760568617044
  H          -2.98528065690022     -1.94177621906272     -3.68119879726030
  H          -0.05360532966762     -2.44775285342942     -4.40927857276999
  H           0.69963716960379     -1.96767872388963     -2.88139635034070
  H          -0.60609368522041     -0.99218141942239     -3.57672734531725
  H           0.50944319927576      5.68321555981090     -0.79945206447615
  H          -0.92829979505390      5.25788364484610     -1.75685310336499
  H           0.45573042981569      4.12808175216870     -1.66178779105959
  H          -4.11372787595551      3.86228563181750     -1.44071733985053
