52
Coordinates from ORCA-job goat_0_35 E -1331.455231099058
  O          -3.57662774957107      1.93887614946786     -2.37231843907517
  C          -2.98438144335968      1.69898569534619     -1.09974320715610
  H          -3.73516900124932      1.31254779958367     -0.40115818706502
  C          -1.87422220742126      0.66359147154639     -1.18520845460752
  H          -1.26253875742402      0.86180864838884     -2.06984283446885
  C          -0.99702447627346      0.75773420271907      0.05935397559507
  H          -1.62238747010704      0.59249140770189      0.94547520050396
  C           0.12996546167482     -0.26808544275119      0.03359371336694
  O          -0.37186431172073     -1.59703082426008      0.00317761622400
  Si         -1.66489338908805     -2.03006974768659     -0.94715044802879
  C          -2.83421225984719     -3.06056666654651      0.11090212992282
  C          -2.99365572059746     -2.33762732844432      1.45948968519228
  C          -4.21952693657037     -3.16437807382207     -0.54718415731893
  C          -2.27679338847818     -4.46851835763227      0.36266584507920
  C          -1.00833516975903     -2.79015306136251     -2.54452040723139
  C           0.09836215696610     -3.81275268035555     -2.24428855063606
  C          -2.12227055300155     -3.46464398195741     -3.35712605342961
  C          -0.40759655386160     -1.65293493336439     -3.38952937676414
  O          -2.47844780328848     -0.61939517551675     -1.29543794475135
  O          -0.36191249052039      2.03606124245332      0.16251317861864
  C          -0.95338612403850      3.10922287310227     -0.51492981270307
  H          -0.63152775225794      4.01244807776138      0.01832441120254
  O          -0.45046522831852      3.14490992712800     -1.83832190771673
  C          -0.38004162043554      4.45912556810841     -2.38207356478975
  C          -2.48142974118183      3.02860611468678     -0.52833217277108
  H          -2.86401318022944      3.83757282944614     -1.15731076889833
  O          -2.98894954843906      3.14540048294921      0.79891724891312
  H          -3.90427180843473      1.09250667111608     -2.70092174491586
  H           0.74014350960101     -0.15594181977834      0.93295884378513
  H           0.76436023033943     -0.07280627266562     -0.83850731921090
  H          -3.37935840572752     -1.32230036954110      1.32791120846218
  H          -2.04464459408716     -2.27276489564188      1.99687483987901
  H          -3.70446379205942     -2.88803198821112      2.08707303782123
  H          -4.64703312749328     -2.17574620370706     -0.73477666534647
  H          -4.90115608180478     -3.70307705402981      0.12201227732689
  H          -4.18922379383916     -3.70705997763329     -1.49392387226532
  H          -1.27450411194647     -4.43642588253435      0.80117656410295
  H          -2.22673196890498     -5.05652506815306     -0.55705451597312
  H          -2.92959196866523     -5.00371903569321      1.06264615140834
  H          -0.27190619029500     -4.66273657162473     -1.66646814183432
  H           0.92196761624219     -3.35776775213266     -1.68774780853266
  H           0.50289323249708     -4.20273436016049     -3.18617152817049
  H          -1.72485619122737     -3.78930363630548     -4.32642181865845
  H          -2.95491216652864     -2.78152607913636     -3.55151689129170
  H          -2.51736800902447     -4.34797098774619     -2.84992765637960
  H           0.02219923745222     -2.06857765642323     -4.30862953872792
  H           0.39290819351937     -1.12720867629316     -2.86100414219324
  H          -1.16641119908690     -0.92007478187676     -3.67565865461858
  H          -1.37359880168709      4.90318535830647     -2.50306823551650
  H           0.08950066980837      4.37014544736820     -3.36141131318813
  H           0.22889208980019      5.10986083868079     -1.74412350628408
  H          -2.73257731004874      4.00863453712619      1.14552371311511
