52
Coordinates from ORCA-job goat_0_9 E -1331.456744026671
  O          -4.66419131266213      1.31639716808178     -1.68433679516261
  C          -3.53166029415498      1.59909270577714     -0.87484077725758
  H          -3.87884347403810      1.50237772584016      0.15798453901422
  C          -2.36341069977620      0.65538502177838     -1.08982245870422
  H          -1.92037769395306      0.85929102176538     -2.07140341277610
  C          -1.34170747350303      0.91970399968191      0.01877375180029
  H          -1.75965217347076      0.49875043343679      0.93928343595280
  C          -0.02697094658385      0.20961315913401     -0.28075101081048
  O          -0.23134053900196     -1.19980759252414     -0.33531697172988
  Si         -1.60970871181257     -1.90420639924263     -0.94591707943487
  C          -2.19459057915319     -3.15641951918618      0.33521073955985
  C          -3.36929279074615     -3.99551556306994     -0.18687139843923
  C          -1.04461379042483     -4.08503071550289      0.75728059231970
  C          -2.65653553583086     -2.37151369241668      1.57516283277518
  C          -1.27100365578435     -2.52456896775424     -2.69730753467061
  C          -2.58794470360587     -2.75945425183679     -3.45347520969618
  C          -0.46735446770448     -1.44402286244391     -3.44198382712001
  C          -0.44736836685914     -3.82015823148196     -2.69014944795235
  O          -2.76665312120644     -0.70262059471390     -1.02215374325886
  O          -1.12734485735317      2.30837766215708      0.28060889062386
  C          -1.55572140055348      3.20957739364723     -0.71726867633161
  H          -1.42043189734896      4.19877929448439     -0.26795115534964
  O          -0.79033696018785      3.10034988135894     -1.88973630497533
  C           0.55464002557967      3.54304096707804     -1.71750648958994
  C          -3.03297552671494      3.03046772618042     -1.09941097682309
  H          -3.11750508159456      3.25779099264853     -2.16855333532822
  O          -3.78251119854581      3.97125884367431     -0.33957715817878
  H          -4.39374486821623      1.35887702987629     -2.61051846406417
  H           0.69381269966196      0.41782726863708      0.51371526882662
  H           0.38409812451883      0.56901523097467     -1.23014369991110
  H          -3.06996841992688     -4.64589499259140     -1.01224913211579
  H          -4.19689356938405     -3.36745054247340     -0.53096138399567
  H          -3.74983873641283     -4.63614793672442      0.61766282345599
  H          -1.38800732653633     -4.74827325757399      1.56028819030761
  H          -0.19129738377793     -3.51606893762594      1.13593399782938
  H          -0.69632193619307     -4.71438552184586     -0.06364948386267
  H          -2.97053931629963     -3.07516819233177      2.35505309120156
  H          -3.50080656661971     -1.71635756149157      1.34833341494901
  H          -1.84941718449524     -1.75775628328557      1.98563584069667
  H          -2.37001509526631     -3.07526937176429     -4.48091564821717
  H          -3.18795483142306     -1.84694585466383     -3.50258721052757
  H          -3.19609467419681     -3.53949956782324     -2.99006446209454
  H          -1.01741617028834     -0.50224261663987     -3.51781808824258
  H          -0.25979039350135     -1.78429871925860     -4.46348168499684
  H           0.48984029028110     -1.24280142341564     -2.95417913456921
  H           0.47955940077901     -3.71091069465844     -2.11865560814356
  H          -0.17471800891800     -4.08677173305761     -3.71842995667646
  H          -1.00960893250877     -4.65767257785156     -2.27095966114350
  H           1.04245610389274      3.45448658300432     -2.68775594718780
  H           1.08615174731454      2.92861788993424     -0.98637368296056
  H           0.57183580297292      4.58918420061634     -1.39185131169216
  H          -4.71300352846509      3.85423197548255     -0.56721908532188
