52
Coordinates from ORCA-job goat_0_21 E -1331.455296571136
  O          -3.90664305328332      1.89397711373615     -1.76308961712802
  C          -2.92290088101240      1.83435848731449     -0.73933690470197
  H          -3.40742197542512      1.67842974425666      0.23474518620374
  C          -1.94720055381256      0.69830804658645     -0.96000318804076
  H          -1.40391489586705      0.86636414345865     -1.89317085413521
  C          -0.98070471818991      0.65289658851780      0.22082784993069
  H          -1.54291739282632      0.29607147393383      1.09006994869874
  C           0.16578340104864     -0.31114816018968     -0.05604094702634
  O          -0.33081782815866     -1.62208458287422     -0.30798911147403
  Si         -1.79708586802163     -1.96508726652935     -1.00987504773615
  C          -2.75353663206853     -3.11981627327077      0.13084654660004
  C          -2.17980653817947     -4.54328583587803      0.10191776177295
  C          -2.63641728296916     -2.56620461767469      1.56105464073765
  C          -4.24145035474066     -3.15692946692008     -0.25307759501384
  C          -1.46187462892050     -2.54460564622662     -2.77382548529624
  C          -0.33925854996867     -3.59391089714163     -2.79339573963373
  C          -2.71825829889686     -3.12571891614705     -3.43652540316324
  C          -0.99770019827859     -1.32407187585711     -3.58779198250670
  O          -2.65859528690357     -0.53199127355080     -1.03254573805785
  O          -0.46427027410427      1.94190056185305      0.57143118684104
  C          -0.67564721960742      2.97310130534859     -0.35377830003682
  H          -0.31599451970355      3.88428810642226      0.13598254836024
  O           0.09980416547546      2.71104433869894     -1.50724436225681
  C           0.48917064492215      3.89131254619820     -2.20173854959722
  C          -2.16641387499917      3.16334537253837     -0.70314189663782
  H          -2.22186689981279      3.61108483016254     -1.69676089409547
  O          -2.78087460425987      4.10078205082272      0.17310786260067
  H          -4.33257683342114      1.02766981426312     -1.79398594406043
  H           0.82749544487622     -0.35749799133110      0.81244153864373
  H           0.74187329370810      0.04579116802130     -0.91623050692748
  H          -2.31999480982786     -5.01898642413413     -0.87169883072739
  H          -2.69169631801203     -5.16134433148313      0.84921156535706
  H          -1.11084348153791     -4.55583135894796      0.33645850819209
  H          -1.59775738695956     -2.53669283952439      1.89924249142160
  H          -3.19987926119151     -3.20850660754758      2.24808461010985
  H          -3.04857413831076     -1.55591851990853      1.63648255988627
  H          -4.78739815042098     -3.78142825116038      0.46427356768167
  H          -4.40249278028171     -3.57861559559386     -1.24709215990061
  H          -4.68485047038848     -2.15782047452318     -0.23148515512113
  H          -0.11983926177739     -3.87529424560632     -3.83046630639001
  H          -0.61431641627851     -4.50369131657820     -2.25541874287296
  H           0.57989224137947     -3.20226063979683     -2.35017915618608
  H          -3.03398614755742     -4.05770377566597     -2.96181401313430
  H          -2.50968914505808     -3.34554610317221     -4.49055194644287
  H          -3.55742785081012     -2.42392505333706     -3.40344164879276
  H          -0.10965547169014     -0.85491855466116     -3.15285042713699
  H          -1.78300311342919     -0.56763350829739     -3.66437863718927
  H          -0.73832214542771     -1.64122204439641     -4.60479050444772
  H           1.05723175285268      4.55727974540660     -1.54233834147889
  H          -0.37601348411728      4.43337379826893     -2.59849292087694
  H           1.12019758284003      3.57539866441706     -3.03189798028876
  H          -2.80464953059477      3.71817454770082      1.05904646547503
