52
Coordinates from ORCA-job goat_0_36 E -1331.453247420780
  O          -3.98007115903518      1.53671382599253     -2.31691084824634
  C          -3.18581519595948      1.70575702118432     -1.15119482412947
  H          -3.81074015413205      1.59255484691911     -0.25440619492189
  C          -2.11043692086515      0.64217064196428     -1.11460844105702
  H          -1.42011486123520      0.80480315775183     -1.94768546040521
  C          -1.37290146083135      0.75901307035358      0.22169394947528
  H          -2.04830329218242      0.37596142544418      0.99329689977944
  C          -0.10358780907537     -0.08435611868922      0.21541871138366
  O          -0.40636879622764     -1.45401271614386     -0.03067453124899
  Si         -1.69539369168415     -1.98748584550593     -0.93468562846968
  C          -2.71786140680307     -3.17112884829359      0.11691935548077
  C          -2.90886902656924     -2.52126557970752      1.49788368633588
  C          -4.10489815660312     -3.39741402801642     -0.50568289572895
  C          -2.01017896293653     -4.52110720031990      0.29929255131361
  C          -1.00943743503969     -2.62997486324648     -2.57111944012215
  C          -0.52133288312307     -1.41674190792230     -3.38196456534557
  C           0.18866507096746     -3.56118703759294     -2.32864069188442
  C          -2.07632645676567     -3.36879958169106     -3.39037895218773
  O          -2.67081859403371     -0.65967354195866     -1.20290763151115
  O          -1.06739182917926      2.10656158695970      0.59500023609786
  C          -1.13827417255455      3.06262877227514     -0.42503803564724
  H          -0.97508608049086      4.02917348058582      0.06429497428981
  O          -0.09794168221532      2.81115450910706     -1.34989728773169
  C           0.33611630885116      3.98074810983340     -2.03552061207030
  C          -2.51641219603075      3.08696678987580     -1.11802217228248
  H          -2.36442640560006      3.40682786585199     -2.15038979482248
  O          -3.37528850822626      4.06449409592426     -0.54042927722465
  H          -4.69498507395271      2.18327300965000     -2.28155941393987
  H           0.38767883424286     -0.01238779501887      1.18905699603361
  H           0.58130232147827      0.29220453768413     -0.55118904105948
  H          -3.51544138403542     -3.18029646773265      2.13018078220222
  H          -3.42831023525348     -1.56176473729701      1.42232079955618
  H          -1.95377125696401     -2.35320537839257      2.00178771068577
  H          -4.04770821534180     -3.90249818677411     -1.47183496434643
  H          -4.63838601446180     -2.45349863725748     -0.64616247246761
  H          -4.70612312248167     -4.02631481733096      0.16197314848874
  H          -1.93436387819298     -5.07105718122203     -0.64173093298792
  H          -2.57906347647523     -5.14290823971155      1.00092403229911
  H          -1.00116286628028     -4.40019242854161      0.70569704791477
  H          -0.05868651805858     -1.76341679419421     -4.31360796518080
  H           0.22960054147677     -0.83584326549710     -2.83732887468620
  H          -1.34599355273745     -0.75005129330059     -3.64719423805381
  H           0.60922006747877     -3.87458403185047     -3.29187431096202
  H          -0.09280890930129     -4.46374064930591     -1.78197186830584
  H           0.97810421429196     -3.05601996481163     -1.76605938019085
  H          -2.96910642373835     -2.75465504721712     -3.54392730506298
  H          -2.38255095658997     -4.30152912311249     -2.91094303427929
  H          -1.67233975758854     -3.62169066396599     -4.37816364557156
  H          -0.45982153136779      4.40713924244036     -2.65559633407171
  H           1.16377214807852      3.68161355711175     -2.67792623916055
  H           0.68058982507751      4.73957304915552     -1.32370816105027
  H          -3.57923902172238      3.79472937555727      0.36397458507827
