52
Coordinates from ORCA-job goat_0_3 E -1331.467052115476
  O          -4.36475825132936      1.47070300830357     -1.67847179567108
  C          -3.15129839303562      1.60148982778319     -0.95071967751114
  H          -3.32934677403349      1.40730004985623      0.11626016265728
  C          -2.15809906302837      0.57533219738813     -1.46361593075608
  H          -2.04242070438028      0.70868310899390     -2.54661139769002
  C          -0.79798502734019      0.79730561842943     -0.79558065610677
  H          -0.90466691522276      0.63376922108974      0.28605681682135
  C           0.25887703431046     -0.14906358531715     -1.34686616026713
  O          -0.09925628869210     -1.50836106649502     -1.14213857996376
  Si         -1.66046827133813     -2.06747180442865     -1.25797507031231
  C          -2.03628379758798     -3.07644125761968      0.28831328686133
  C          -1.32888335912591     -4.43831312734509      0.26397153841181
  C          -1.53081276395984     -2.27307838600542      1.49891183640303
  C          -3.55107372915613     -3.28546264871313      0.44670213578410
  C          -1.85895336626765     -2.90938102527198     -2.93418366702339
  C          -3.18435806669607     -3.67574200167416     -3.03764985853141
  C          -1.84362898958771     -1.80955285547844     -4.01035836562348
  C          -0.68869441567821     -3.86790256121805     -3.20321620930020
  O          -2.64530553222878     -0.72709088180508     -1.18026252341979
  O          -0.34251238421630      2.11835630446714     -1.04893454711767
  C          -1.20050475505290      3.08601974913233     -0.45712204939265
  H          -1.26693295371564      2.89351769303504      0.62590500446635
  O          -0.68418844612244      4.34892999864804     -0.70030175127014
  C           0.45581733019680      4.66275892171149      0.10215279705301
  C          -2.57906410285042      3.00382506923654     -1.09996501744055
  H          -2.47085002514089      3.23968885544578     -2.16578266998585
  O          -3.49381867135899      3.89502673734869     -0.47772898499994
  H          -4.95677293660918      2.16764442698441     -1.36947819210785
  H           1.20750054164055      0.03387333757810     -0.83678935026942
  H           0.39696746509952      0.05332091093754     -2.41530913771105
  H          -0.24981829645364     -4.33370459494206      0.11378570778508
  H          -1.72094207933875     -5.08579149913793     -0.52410249540446
  H          -1.48329990911501     -4.95118862500605      1.22092057286799
  H          -2.00826071607869     -1.29052043279734      1.55645596116394
  H          -0.44907843405532     -2.12382735712182      1.46106871144274
  H          -1.76802288967328     -2.81507968928630      2.42194384263850
  H          -4.08473679481094     -2.33169726150406      0.47200014702953
  H          -3.75061486430336     -3.80683645175363      1.39062564727660
  H          -3.97249747230191     -3.88943086639307     -0.35911394393306
  H          -4.04285591831893     -3.03657019081142     -2.80903444281845
  H          -3.21069885447540     -4.53576987317203     -2.36434331979455
  H          -3.31273669506840     -4.05188206775419     -4.05988159914742
  H          -1.90806948569946     -2.26963038526465     -5.00352847760267
  H          -0.92233782562959     -1.22018850984952     -3.98072992906873
  H          -2.69076049488566     -1.12726657024033     -3.90248149807678
  H          -0.79514251337175     -4.30446690739914     -4.20371473583005
  H          -0.65484306655230     -4.69084347451415     -2.48584862290095
  H           0.27093320913055     -3.34575298160545     -3.16572376464754
  H           0.71797759810113      5.69746497236142     -0.11559145289153
  H           1.29849184847320      4.01205867357919     -0.14437712867860
  H           0.21274932134799      4.56110074496535      1.16517455036783
  H          -3.21675005441232      4.79539951264986     -0.68393571576374
