52
Coordinates from ORCA-job goat_0_37 E -1331.458079017056
  O          -3.73749619560214      1.78950227856585     -2.62779844618399
  C          -3.29068010391308      1.63570257169196     -1.28578373961941
  H          -4.06626301314499      1.15046038216057     -0.68149925083697
  C          -2.08275541690214      0.71308348554876     -1.30561606818557
  H          -1.47770355244519      0.95544265223927     -2.18470390173012
  C          -1.23768516233822      0.92156713630667     -0.05002574801343
  H          -1.85543081378675      0.69929898853181      0.82849438541774
  C          -0.01194937945382      0.01560457900518     -0.04660445545611
  O          -0.37549889821621     -1.35861675638714     -0.00737987090338
  Si         -1.60600957135235     -1.94564792438647     -0.96107275349364
  C          -2.65585919558270     -3.04779635113618      0.14924125469872
  C          -3.33663642409605     -2.14089316624728      1.18888691616497
  C          -3.73831276339540     -3.79075996433599     -0.64616296438058
  C          -1.77614412680673     -4.06365024237308      0.89533785749200
  C          -0.89748061892087     -2.69610347456275     -2.54087529744194
  C          -0.25579130281341     -4.06721288937304     -2.28987828131877
  C          -1.99071979523341     -2.82906733233039     -3.61263454175717
  C           0.18428301838844     -1.73642569036331     -3.06668407430787
  O          -2.53072131178829     -0.63266958197737     -1.38918319099847
  O          -0.73795061085476      2.25645802103846      0.05235762345108
  C          -1.46639112421264      3.26947408725651     -0.60887265302122
  H          -1.24926979304256      4.18486958685004     -0.04672703446925
  O          -1.07142401152459      3.42395118839818     -1.94581944647196
  C           0.27903674215951      3.85732478970758     -2.08158282731202
  C          -2.96228536880910      2.98706048618189     -0.61263581715967
  H          -3.45984898423493      3.78651953821936     -1.17066878322823
  O          -3.35771874605876      2.99941658484234      0.75467241976282
  H          -4.61634407985083      2.18549961962702     -2.60808319543498
  H           0.58911715477327      0.23146300761238      0.83978718577653
  H           0.59303871237301      0.23260032442197     -0.93422683986719
  H          -3.92801776739229     -2.75512310856933      1.87820632469405
  H          -4.00683865596100     -1.41883168751450      0.71627342517934
  H          -2.60266773284215     -1.58621337250320      1.78061569633090
  H          -4.39192082831310     -4.33793865932848      0.04379104657141
  H          -3.30754420662695     -4.51789993467151     -1.33881797908761
  H          -4.36484254920084     -3.10170600867639     -1.22103122859368
  H          -2.39598334226471     -4.64180579243218      1.59119711365160
  H          -0.99651679010039     -3.56481844050987      1.47731841425863
  H          -1.29433196377614     -4.77058074739193      0.21702880884744
  H           0.24153001092853     -4.41421564176595     -3.20376591931737
  H          -0.99947531976028     -4.81845417974223     -2.01352683893071
  H           0.49771620421823     -4.02543615992465     -1.49722628582755
  H          -2.45020987400395     -1.86229588738935     -3.83432446272258
  H          -2.78187651949291     -3.51918185935606     -3.31118906104587
  H          -1.55000585610977     -3.21391718480992     -4.54030392319186
  H           1.01709109056427     -1.64392058076461     -2.36481494346786
  H          -0.21424590101320     -0.73577610164566     -3.25868747748455
  H           0.58399338733273     -2.11914549306018     -4.01331464928550
  H           0.44565373492261      4.78088109836512     -1.51487039137028
  H           0.44492099971025      4.04689977995188     -3.14179626751538
  H           0.97629748154542      3.09004873951358     -1.73500879061212
  H          -4.31692086567798      2.90823528749283      0.78876892774815
