52
Coordinates from ORCA-job goat_0_0 E -1331.458611606876
  O          -4.38597284400741      1.55403279560609     -1.85809791157391
  C          -3.34529524001343      1.72068219599435     -0.90407144237396
  H          -3.74630309141320      1.61797850177239      0.11269738715429
  C          -2.22952184559810      0.71511160147433     -1.08673321565299
  H          -1.73543974134221      0.90272618403342     -2.04498377725281
  C          -1.24706095123092      0.88660342415800      0.06907366324533
  H          -1.73819181447122      0.50043838814015      0.96868020816971
  C           0.01665857893684      0.07089505617747     -0.17423704882763
  O          -0.30846588788506     -1.31565135086428     -0.24917393830255
  Si         -1.69221735592410     -1.89665510033786     -0.96717392164278
  C          -2.45486149210032     -3.13325319630807      0.23142893260846
  C          -3.66655546354663     -3.84220772950078     -0.39058832660146
  C          -1.41919491750228     -4.17625264925437      0.68075068068277
  C          -2.91987479762156     -2.35133083639011      1.47226955738673
  C          -1.29812051245289     -2.48632340931872     -2.71810289379737
  C          -0.63267955631335     -3.86998105895412     -2.71700029676951
  C          -2.57767457847338     -2.53474797711123     -3.56795245218963
  C          -0.32291029789460     -1.48368947541435     -3.36004072344011
  O          -2.75121854960043     -0.60620042530034     -1.06794363379111
  O          -0.93469873828593      2.25595036498420      0.33814748322602
  C          -1.28792800136532      3.19353607316225     -0.65738866279814
  H          -1.09412501138779      4.16645314590633     -0.19441423740881
  O          -0.51190204783975      3.04594003324259     -1.81838378487185
  C           0.85705427214994      3.39302617079702     -1.61875298013495
  C          -2.76820530763056      3.12474082345296     -1.06626155559592
  H          -2.82692882706563      3.39560653972541     -2.12517038722981
  O          -3.46412113276368      4.08046700467781     -0.27283042328297
  H          -4.71869585307111      0.65294736064474     -1.75958929348031
  H           0.71510239622048      0.21087365635618      0.65422591593319
  H           0.50065902926915      0.39806748886394     -1.10051074242090
  H          -3.38039998972061     -4.47905754602562     -1.23104180515562
  H          -4.41666787282069     -3.12821219945119     -0.74456570050085
  H          -4.14470150327552     -4.48166467191587      0.36103435768986
  H          -1.08051666189724     -4.80702228859639     -0.14302167502384
  H          -1.86770455924971     -4.83126549302576      1.43721827848344
  H          -0.54206128294230     -3.70107508098134      1.12849364523605
  H          -2.08870367881834     -1.82494382978708      1.95040993870422
  H          -3.34094435466430     -3.04892384396789      2.20572134727894
  H          -3.68838475735307     -1.61653873638432      1.22162854382926
  H           0.26288002151445     -3.89146670287058     -2.08834061249035
  H          -0.32798763086978     -4.12945875102518     -3.73805856844624
  H          -1.31274858566373     -4.65027625992225     -2.36791050051315
  H          -3.05475457187999     -1.55293621869400     -3.62498511065174
  H          -3.30917892975833     -3.24390183554888     -3.17314148981030
  H          -2.32840352293485     -2.84893441957539     -4.58866762318997
  H          -0.74688201411641     -0.47792486611795     -3.42308446862364
  H          -0.09172843496342     -1.80563925171764     -4.38237372385510
  H           0.61709993401772     -1.42361906936781     -2.80576677000424
  H           1.33186351581785      2.73675905563334     -0.88502115625849
  H           0.94096549973884      4.43256492589279     -1.28226069024021
  H           1.35446970152000      3.27974686134551     -2.58151577127538
  H          -4.38991074145593      4.06926662168862     -0.54384262414938
