52
Coordinates from ORCA-job goat_0_24 E -1331.462905291786
  O          -4.08235296308936      1.61936233783347     -1.78452224096927
  C          -2.97961746902607      1.65663730005073     -0.89044581222326
  H          -3.31905819946069      1.44469271014035      0.13477827877828
  C          -1.97942320109207      0.58939490618239     -1.29102728910714
  H          -1.69607102202707      0.75171493512116     -2.33866082381986
  C          -0.72833362425603      0.71342736296108     -0.41758976732063
  H          -1.00714036867598      0.51082463187992      0.62620132450454
  C           0.35673888852901     -0.26270095265521     -0.85006276555897
  O          -0.09085080547768     -1.60889031610960     -0.78199005897662
  Si         -1.64464942974546     -2.07901568124116     -1.13900482280950
  C          -2.27750869410309     -3.12901303284986      0.29175596324335
  C          -1.62363223015744     -4.51771085563326      0.30658967370192
  C          -1.91978756759835     -2.39607441297484      1.59622953509120
  C          -3.80593245679975     -3.27909480446313      0.22666062283926
  C          -1.64053255731651     -2.83858183032075     -2.86597117433834
  C          -2.96856329557982     -3.53611903957830     -3.19024966115564
  C          -1.42810792460808     -1.69558861011385     -3.87419300203842
  C          -0.48494221592429     -3.84010798013046     -3.01573212492745
  O          -2.56812276111967     -0.69288507726633     -1.13493678792617
  O          -0.17451368878388      2.01640014419901     -0.52799708511876
  C          -1.06032697574709      3.01742765362462     -0.03837093452926
  H          -1.33584948208782      2.78108211486036      0.99895796155178
  O          -0.37923591100133      4.22503303733427      0.02466448514781
  C          -0.04622842526830      4.81881207721433     -1.23384705697839
  C          -2.31422541596305      3.03041235052118     -0.91661159173939
  H          -2.03218415926755      3.25621548818451     -1.94737196211627
  O          -3.23271618703204      4.04304680152020     -0.52980187369595
  H          -4.62489711476774      2.39478450986337     -1.59148456495624
  H           1.22072231534353     -0.15657199017273     -0.18993677752907
  H           0.67002976556661     -0.01696943273425     -1.87144452913993
  H          -1.91969542392736     -5.11615823367271     -0.55836207039019
  H          -1.93372218514437     -5.06164427151175      1.20690261851135
  H          -0.53116667213299     -4.45249087240595      0.31782346773003
  H          -0.83902475977124     -2.28891413744383      1.71614136748877
  H          -2.30255795205946     -2.96542165165368      2.45141141124842
  H          -2.36699985956283     -1.39845401900868      1.63202567719771
  H          -4.30236180503480     -2.30507591412511      0.21887521453254
  H          -4.15633084481655     -3.82708375498172      1.10961751197980
  H          -4.13108087225411     -3.83335749552627     -0.65585765357671
  H          -3.82443999239019     -2.86888430907986     -3.04866839969233
  H          -3.12214449730014     -4.42365146920651     -2.57193785214479
  H          -2.96815517426757     -3.85924406735252     -4.23831055558604
  H          -0.49789526176563     -1.15055211874601     -3.68671690914962
  H          -2.25444491777337     -0.98048249805030     -3.85227870633613
  H          -1.36882171580670     -2.10901867669178     -4.88793684540016
  H          -0.59162747941880     -4.69574456132697     -2.34527750405335
  H           0.48015115512469     -3.36842445291712     -2.81323894704931
  H          -0.46340034098543     -4.22413847228952     -4.04282731351930
  H           0.42226805220107      4.09346806864242     -1.90298299501052
  H           0.66368388183941      5.61545384294746     -1.01385519072138
  H          -0.93071615868165      5.24812587476540     -1.71194915263314
  H          -3.45729399953498      3.91700884438758      0.40159768869087
