52
Coordinates from ORCA-job goat_0_11 E -1331.458945645509
  O          -4.49653677609968      1.36669833450170     -1.93238191652954
  C          -3.49794982650855      1.60387253136273     -0.94907244854921
  H          -3.91632877972454      1.45603718057106      0.05502346136766
  C          -2.31341383780478      0.67557182008934     -1.11171841023086
  H          -1.83367511187275      0.87351890440774     -2.07439327541207
  C          -1.33947154391123      0.92681363756529      0.03678109543308
  H          -1.81060307998184      0.54678366473930      0.94993869261761
  C          -0.03660974319244      0.16871505196905     -0.18613604248531
  O          -0.28426032446619     -1.23451443108111     -0.22313231709877
  Si         -1.62974512550425     -1.90382306692673     -0.93644585544364
  C          -2.32736269268315     -3.15797633758238      0.28325328939216
  C          -3.48872827632619     -3.95363906201050     -0.32942568377930
  C          -1.23303732760813     -4.12559516754338      0.76160265792536
  C          -2.84796893555478     -2.37878717987455      1.50354031143156
  C          -1.19511298711264     -2.50478402060377     -2.67370148727947
  C          -2.46665626795411     -2.64579385712238     -3.52520216675473
  C          -0.27906959487054     -1.45876438309670     -3.33339805683147
  C          -0.44805990219600     -3.84571841018712     -2.64389668777024
  O          -2.75488648128950     -0.67497080971117     -1.06648889298716
  O          -1.07834940996003      2.31567438723865      0.25763355923703
  C          -1.53072129836798      3.20712278188886     -0.73956948746413
  H          -1.35991271152015      4.20039238579478     -0.30937653319004
  O          -0.81097999183565      3.07294606584954     -1.93765159579778
  C           0.54551227975386      3.49810990663545     -1.82375745307217
  C          -3.02861714329670      3.05003843292809     -1.06422718007599
  H          -3.17387772069071      3.37956135080694     -2.09711720462260
  O          -3.82124360594968      3.82950660553977     -0.17527325759541
  H          -4.75097246924809      0.43838364490025     -1.85420805695468
  H           0.65331152806408      0.36920556861070      0.63703198385818
  H           0.42913493655822      0.49738236491925     -1.12135057220309
  H          -4.27835939055620     -3.29572916573652     -0.70555473624767
  H          -3.93313516904699     -4.60331785161570      0.43404125750438
  H          -3.15778338834350     -4.59136452541800     -1.15261956727061
  H          -0.85010303692141     -4.75147154217437     -0.04646355699491
  H          -1.64565869675353     -4.79110611241770      1.52926026103956
  H          -0.39030059683219     -3.58769489867689      1.20417440658079
  H          -3.66004132516121     -1.70004959068632      1.23295895969846
  H          -2.05454175133358     -1.78965936195450      1.97262509235171
  H          -3.22796747118615     -3.08438638090358      2.25159966176425
  H          -2.19608829642164     -2.96459238796992     -4.53905100180286
  H          -3.00112672384189     -1.69540277475431     -3.60295577728827
  H          -3.15635760275848     -3.38914782415619     -3.11819622997877
  H          -0.03120457696905     -1.78290046551581     -4.35111222247078
  H           0.65692854434801     -1.33744620990136     -2.78229024471786
  H          -0.75888946169507     -0.47939323705743     -3.41082091941838
  H          -0.12632117619512     -4.10743615808438     -3.65914044696171
  H          -1.08024915761627     -4.65839919708020     -2.27914743033736
  H           0.44604348992555     -3.80029743716600     -2.01440397443575
  H           0.99313284954939      3.39382106543775     -2.81167143084638
  H           1.09689981207294      2.88281457988678     -1.10816162111530
  H           0.59055564366944      4.54698299704758     -1.50934085794941
  H          -3.70233029677882      4.75946858431882     -0.40183009023783
