52
Coordinates from ORCA-job goat_0_20 E -1331.465624972238
  O          -4.12259039931975      1.59027933890545     -2.32743331646037
  C          -3.02952622438982      1.68676698502987     -1.42066873238780
  H          -3.46992811297420      1.58908996730002     -0.42317261096988
  C          -2.00007296141697      0.58443784861981     -1.60431971467474
  H          -1.61022134571999      0.62742997820013     -2.63049510312785
  C          -0.83835257347265      0.82132723134090     -0.63579279354992
  H          -1.21784509102014      0.75389802471041      0.39381121363357
  C           0.27483575720061     -0.19777027386682     -0.83200596039483
  O          -0.19241242034524     -1.52418782274262     -0.63077089621982
  Si         -1.69620600112918     -2.04493801298102     -1.11231035700400
  C          -2.49158658277908     -2.93851647560873      0.34280513730297
  C          -2.26745332983765     -2.07313985697928      1.59472685663873
  C          -4.00583254552640     -3.09281998173543      0.12679048321340
  C          -1.86102176208777     -4.31913252284831      0.57282352652830
  C          -1.50081986274395     -2.99080918886160     -2.73330386704984
  C          -1.18148558028592     -1.96739456090414     -3.83696705704413
  C          -0.33388211144851     -3.98633909283695     -2.64213496119316
  C          -2.78473196608993     -3.73875024455518     -3.11765699022539
  O          -2.60864773854971     -0.67411976896988     -1.36455011766124
  O          -0.27348618022737      2.10161959330923     -0.87042277125188
  C          -1.18768387556012      3.15472763177276     -0.58283161689962
  H          -1.52633948950994      3.06041301082176      0.46185513825469
  O          -0.53763525793539      4.36059763030422     -0.78135519277408
  C           0.40673647378949      4.66832495186202      0.24546493971735
  C          -2.37250454761519      3.06155757329715     -1.53351054571270
  H          -1.99134583371844      3.19800237490253     -2.55555296509099
  O          -3.30129179026214      4.08212539507654     -1.20651989602574
  H          -3.77123232165566      1.59055099308170     -3.22761286281626
  H           1.07314752756490     -0.00483281094371     -0.11155385426247
  H           0.68688193709843     -0.08624407606464     -1.84172527662903
  H          -2.69449557758924     -1.07315177810554      1.47437236837740
  H          -1.20480890811324     -1.96314253560785      1.82365467876861
  H          -2.75496346566535     -2.54438690841922      2.45629671631782
  H          -4.45643385543163     -3.54682962929728      1.01755972479542
  H          -4.23982580769282     -3.73472107380924     -0.72473880245402
  H          -4.48682068715635     -2.12437207827206     -0.03463871591602
  H          -2.27411142609836     -4.76533972202841      1.48542059536759
  H          -0.77549034072451     -4.25502355553615      0.69658127282395
  H          -2.06951535892297     -5.00384287737293     -0.25272185466841
  H          -2.00626751096390     -1.26574019098121     -3.98644963371729
  H          -1.01243110826418     -2.49271882363959     -4.78441887244922
  H          -0.27753447278332     -1.39219019311925     -3.61470066235739
  H          -0.50900056147203     -4.76155500446010     -1.89272922375577
  H           0.60291392305816     -3.48060170341182     -2.39397697960955
  H          -0.20137130304875     -4.48488641065033     -3.60999470213547
  H          -3.64988616648424     -3.06942815888046     -3.15430547576703
  H          -3.00889850025286     -4.54706622649844     -2.41780112491448
  H          -2.66664794926771     -4.18509765465425     -4.11250968652630
  H           1.23214105375189      3.95203122647487      0.24821326128584
  H          -0.08199330103456      4.66713542485588      1.22579145449264
  H           0.78981379213773      5.66530903821143      0.03050291220858
  H          -4.11492825801391      3.87872499656568     -1.68623708602988
