38
Coordinates from ORCA-job goat_0_17 E -996.376179887608
  O          -1.39003966180715      2.13845958582798     -3.32860452451177
  C          -1.26842400100851      2.16535970459738     -1.91392152024047
  H          -2.21209790964610      1.85127564837792     -1.44713118942565
  C          -0.17147892539777      1.21530006203942     -1.48600083658279
  H           0.75787648362549      1.48370681663539     -2.00220303257849
  C           0.03719384376797      1.33230217598740      0.02087593463434
  H          -0.90249200687207      1.07197848717544      0.52422997846708
  C           1.15289795411044      0.37232439865082      0.43268400522959
  O           1.41567378319749     -0.56203394672315     -0.62088694123243
  C           0.24541552707734     -1.11274870327613     -1.17371751171522
  H           0.59386979575586     -1.79462681336774     -1.95371416299246
  C          -0.56579169104466     -1.88595369537345     -0.14399774058485
  C           0.06532757276826     -2.91970139456236      0.54660779780773
  C          -0.62806307360291     -3.65582392870562      1.49590536380517
  C          -1.96480867986804     -3.36727897076532      1.76056462933925
  C          -2.59772798954635     -2.34352095637061      1.06900399429870
  C          -1.89984916808693     -1.60465565121257      0.11685049530694
  O          -0.54942911442797     -0.11714573364764     -1.81206043562218
  O           0.40295680975038      2.65870553610473      0.37366554864607
  C          -0.64964383668622      3.56935791099638      0.08002925598173
  H          -1.55970399358098      3.26616963384527      0.61333579127647
  O          -0.31884761707153      4.82086904045449      0.59063481840412
  C           0.83425954807536      5.44702805078098      0.01690842619891
  C          -0.92366079147037      3.56887402981195     -1.42771482944866
  H          -0.02919069034925      3.90503066230983     -1.96311916676044
  O          -2.03776523878786      4.39433527844522     -1.74004593252083
  H          -2.03561240612674      2.81506612908723     -3.56857757597317
  H           0.90619210017159     -0.15745776383948      1.35639235628057
  H           2.07828396087905      0.93176955059723      0.57172153313001
  H           1.10768307895449     -3.14276605033571      0.34141393107941
  H          -0.12805316717571     -4.45654431137050      2.03048769852150
  H          -2.50918065742742     -3.94259278483741      2.50190234935708
  H          -3.63975000150091     -2.11609035273697      1.26794092533991
  H          -2.39499902114359     -0.80826506548031     -0.42481024014743
  H           1.68230585040559      4.76047033391435     -0.01587394714822
  H           1.07423969308901      6.28775370273481      0.66678725416795
  H           0.62648450419315      5.82392118994762     -0.98875938215897
  H          -1.78072086319233      5.31611819428311     -1.62300311762842
