38
Coordinates from ORCA-job goat_0_20 E -996.376696107002
  O          -0.00797315446826      1.66681829114854     -3.79262170907135
  C          -0.33590577495637      1.91639867107879     -2.43457045043651
  H          -1.39034722879686      1.63549562560178     -2.33070545581841
  C           0.48168182121094      1.06849469632737     -1.47495890989006
  H           1.54876936923750      1.27426397475782     -1.63138799015327
  C           0.12069871190866      1.42792705884033     -0.03919050961566
  H          -0.95254096226817      1.25449867939045      0.11102736787127
  C           0.94550735645127      0.55826787114746      0.90919893158586
  O           1.53506733384276     -0.53347636976863      0.19305502270493
  C           0.63169756174530     -1.17393862173983     -0.67418966817268
  H           1.20680020919121     -1.97784095867066     -1.14075672770765
  C          -0.55848362711663     -1.76383937389852      0.06942998114189
  C          -1.87040396620240     -1.46620926199364     -0.27305365456311
  C          -2.92531647601206     -2.03796451054668      0.43387589527559
  C          -2.67180455766523     -2.91075047805324      1.48316591360538
  C          -1.35639966253167     -3.21556671994718      1.82504531666335
  C          -0.30687227939901     -2.64615565322669      1.11927900885594
  O           0.20643041708905     -0.30554340801292     -1.71992935914939
  O           0.41762796536210      2.79558925999138      0.19425591260435
  C          -0.42311441320352      3.64037129768465     -0.58584568068952
  H          -1.47520939895996      3.42542071268672     -0.33124201681306
  O          -0.10798266465113      4.95576148221128     -0.29184430370481
  C          -0.57672986832952      5.37800599513555      0.98951616752269
  C          -0.18391026394612      3.40112406586773     -2.08000617505695
  H           0.83849836872784      3.72210219119076     -2.30456851136219
  O          -1.03616250062834      4.21474187064517     -2.86821095664475
  H           0.91423365115588      1.91785119965975     -3.93079714226987
  H           0.34108030655040      0.18436734852294      1.73954549805275
  H           1.77895120942230      1.14159803835808      1.30124784599534
  H          -2.06879485452942     -0.78850699976777     -1.09416870681673
  H          -3.94773547102798     -1.79897169112406      0.16055927123715
  H          -3.49408084436880     -3.35612492529518      2.03306496284301
  H          -1.15093142784933     -3.89870255541680      2.64238691484283
  H           0.71851563747088     -2.88183655722145      1.38634565469265
  H          -1.65855008534579      5.22500119759692      1.06934668191231
  H          -0.35203785495194      6.44096720728024      1.07097219079291
  H          -0.07161299923250      4.83511208701854      1.79239941498924
  H          -1.93932958292492      3.88421926254093     -2.78187002525340
