38
Coordinates from ORCA-job goat_0_19 E -996.370479671898
  O          -2.02477824749948      2.72317487976801     -2.72306176610848
  C          -1.88422769293433      2.67320403529812     -1.30943475929908
  H          -2.81800376450091      2.34103803907547     -0.84144387828571
  C          -0.79085929525629      1.68470076399394     -0.97983702571359
  H           0.03971591192547      1.83065297082358     -1.67286440499074
  C          -0.32917512049942      1.90183411802362      0.45277962108090
  H          -1.20886407768444      1.88152760429837      1.10865225636058
  C           0.58758808090173      0.73306834975140      0.83466470646556
  O           0.93987631516843     -0.01786811437800     -0.32656838821257
  C          -0.18717537081312     -0.57955725925927     -0.98471420613685
  H           0.17609039359801     -0.79890720116582     -1.99477630641699
  C          -0.66053503598407     -1.84811460939331     -0.30852501734547
  C          -1.71316244136351     -1.85318153741463      0.60022924080280
  C          -2.07550573062074     -3.03345241055113      1.24126491219848
  C          -1.39005310077406     -4.21271601418177      0.97514229986068
  C          -0.33919931450159     -4.21115130000506      0.06281030404593
  C           0.02142622352803     -3.03230489268247     -0.57587647204056
  O          -1.26190568688682      0.34347998773062     -1.04819035785913
  O           0.33299745269885      3.15987219912439      0.61488812412485
  C          -0.05979925915407      4.17279012243188     -0.29973691991648
  H           0.11567058780639      5.11481036308887      0.23190207181456
  O           0.69310476976321      4.14220812834424     -1.48125324257469
  C           2.07803513495437      4.40573208340158     -1.26978320179746
  C          -1.53433857648206      4.05760761934909     -0.69487835284354
  H          -1.73525184217261      4.81919499090262     -1.44943840217835
  O          -2.36091027532501      4.37876137626161      0.41755244352216
  H          -2.83211024139718      3.20915820427751     -2.92825875114416
  H           0.10211720596504      0.08740281089675      1.57207976368799
  H           1.52119182418285      1.10922986376565      1.25256221315151
  H          -2.25386365030831     -0.93622158426913      0.80076853448518
  H          -2.89778298125767     -3.03098177260621      1.94901913759724
  H          -1.67622435375339     -5.13297214168469      1.47334005069111
  H           0.19498939122303     -5.13005325555487     -0.15410639062452
  H           0.83856947231284     -3.02952553759779     -1.29119608532868
  H           2.21139942529304      5.35545088635218     -0.73894367725788
  H           2.54045072682468      4.47105378128523     -2.25425041806627
  H           2.54886504771967      3.60201258830454     -0.69779033619551
  H          -2.08503190469646      3.85801186419484      1.18107268044721
