38
Coordinates from ORCA-job goat_0_11 E -996.372885100696
  O           0.46825726123746      2.40158067403650     -3.22421951953331
  C          -0.58024598713950      2.32639945590911     -2.26676193784756
  H          -1.40618291961650      1.80503854481005     -2.75749015061508
  C          -0.16265658140435      1.54917724505211     -1.02976823918439
  H           0.88812266564703      1.76458314256551     -0.81902989114959
  C          -1.01031954446353      1.96075372847385      0.16206723841898
  H          -2.06738295485926      1.88957183929782     -0.10891251115065
  C          -0.71105171872315      0.99132455074390      1.30953339995064
  O           0.44194964466285      0.20464308671067      1.00617808462572
  C           0.28358989494490     -0.58387513351921     -0.16465937853991
  H           1.30924925854555     -0.83566161840847     -0.45659387652141
  C          -0.50976174243835     -1.84368903637233      0.10728993890656
  C          -1.87415004436175     -1.92748859813372     -0.14815828040648
  C          -2.57386125686250     -3.08614870067566      0.17239398526727
  C          -1.91346430378010     -4.16586803863659      0.74651257170621
  C          -0.54730148373373     -4.08628319480110      0.99878398574071
  C           0.14954987899888     -2.92876059024409      0.67876774570121
  O          -0.34588710847788      0.14867474169677     -1.20441511211849
  O          -0.72601073811744      3.31253447469313      0.53828286465093
  C          -0.43918978896470      4.17971896157344     -0.54392529814233
  H          -0.80676772892465      5.16464825282935     -0.23581494242661
  O           0.93994172789648      4.24600094516360     -0.81759057502077
  C           1.70752029088443      4.77599208934722      0.26003477331598
  C          -1.08663984140750      3.73161280773543     -1.85147925274790
  H          -0.79290806892596      4.43938248342172     -2.63210938334931
  O          -2.49166828002018      3.76474058041869     -1.64294462546911
  H           1.20054644854039      2.87575682821092     -2.80861443072309
  H          -1.57129042419733      0.34320046222732      1.49987146991457
  H          -0.47488227380730      1.54237304023302      2.21980841383921
  H          -2.38705738968207     -1.08944285420445     -0.60432164946049
  H          -3.63820543041615     -3.14575914231381     -0.02931176027911
  H          -2.46034715921169     -5.06987988773487      0.99269759589191
  H          -0.02481682588640     -4.92821807783988      1.44031498855029
  H           1.21650562903742     -2.86613278765902      0.87150929656828
  H           2.72825807276190      4.88741044353154     -0.10440078691896
  H           1.69720791081829      4.10008287313842      1.11874647782658
  H           1.31764999616487      5.75466422441560      0.56203017590741
  H          -2.92296908471832      3.60631218430740     -2.49050140517781
