38
Coordinates from ORCA-job goat_0_15 E -996.370968989573
  O          -2.42445834630278      3.08331365787755     -2.21914619184432
  C          -1.87159956046264      2.88057857139937     -0.92472831628506
  H          -2.71151944230254      2.66552132913067     -0.26061833405173
  C          -0.90092634537582      1.71223277492105     -0.90446974686740
  H          -0.32671523169190      1.71164322890988     -1.83366146305046
  C           0.04079926861407      1.83345216260339      0.28146930060497
  H          -0.56069216439256      1.93133794012157      1.19223923440037
  C           0.85990196691955      0.53992455724828      0.37024208619323
  O           0.64883709123979     -0.25952711974775     -0.79340804478550
  C          -0.70999245417357     -0.62665850334244     -0.97830436802694
  H          -0.76306752914458     -0.92963778948247     -2.02966503387657
  C          -1.11224817857757     -1.77649439286934     -0.07946543337407
  C          -1.77583746974603     -1.57614941002429      1.12585487471989
  C          -2.07550143574663     -2.65948839717903      1.94568036218234
  C          -1.71565504803209     -3.94619388292162      1.56356513301389
  C          -1.05485167775933     -4.14972586903091      0.35576607384840
  C          -0.75614264653107     -3.06753243134771     -0.46101275184876
  O          -1.58069713981619      0.47158394180339     -0.75071750446742
  O           0.89160613101105      2.98223210805538      0.16400989035194
  C           0.33951462995696      4.06955364603504     -0.56425403503783
  H           0.84138964246199      4.95924383992504     -0.16804594599129
  O           0.56352768847240      3.96320463301668     -1.94476480951869
  C           1.94478785737187      3.99385256006790     -2.29969185469048
  C          -1.17362220729826      4.15680703894053     -0.38415642776704
  H          -1.54157669980088      5.00382650704063     -0.96555406634944
  O          -1.49837941377161      4.41608572148554      0.97616799394415
  H          -1.69303230771388      3.27830792129514     -2.81919247307619
  H           0.59752771718226     -0.02329109974151      1.27031552435768
  H           1.92487243443597      0.77032908514985      0.39389888823395
  H          -2.06464432137627     -0.57414772397115      1.41926885567678
  H          -2.59375765211304     -2.49686233157217      2.88484871759306
  H          -1.95340934423270     -4.79022806759041      2.20236012708856
  H          -0.77736860672485     -5.15257326708721      0.04898592685531
  H          -0.24407747881426     -3.22471381470956     -1.40577146496975
  H           2.42442609214230      4.88937259812598     -1.88911004740534
  H           1.98988701866734      4.02165538978429     -3.38779368082314
  H           2.46245700849059      3.10365502970956     -1.93379948418483
  H          -0.82643184506508      4.02447985797079      1.54645848922778
