38
Coordinates from ORCA-job goat_0_18 E -996.367574742334
  O          -0.62083513495270      2.48325705357777     -3.16472127491788
  C          -1.14298250572699      2.43369069712844     -1.84163066896662
  H          -2.17689546447190      2.06899585153076     -1.85444083219345
  C          -0.32853333022391      1.54017084438241     -0.93163689466960
  H           0.73448443466871      1.70988755210916     -1.11425810279066
  C          -0.67091195411961      1.86703082465788      0.51171058129986
  H          -1.76145418487235      1.84920779439986      0.63093932903941
  C          -0.06295020233401      0.77853050838660      1.40252394340626
  O           0.84847872744793     -0.02022807624770      0.64823446652357
  C           0.22934956698047     -0.68912406624813     -0.43973631379164
  H           1.06422173637935     -0.97139426125112     -1.09000426800853
  C          -0.52718270967988     -1.92084533817433      0.01029959780084
  C           0.19699765378731     -3.08216750339264      0.26713429439889
  C          -0.44403965809798     -4.22131870248175      0.73506865081986
  C          -1.81931417185138     -4.20604474728870      0.94782758042776
  C          -2.54549468526307     -3.04997910364360      0.68860965800305
  C          -1.90176126180680     -1.90933974016525      0.21960565413653
  O          -0.65686005702693      0.17163334572945     -1.14041832958795
  O          -0.18750849403739      3.16590310439606      0.87186655626591
  C          -0.10546070488598      4.09549937411146     -0.18241598222453
  H          -0.25600860336670      5.08277940854938      0.26790800815527
  O           1.19378392342831      4.02242446237296     -0.73740392400584
  C           1.64527937918813      5.25901092114458     -1.28091589249037
  C          -1.16821752869065      3.86861462770918     -1.26770358120379
  H          -0.95279770270582      4.55130628869302     -2.09040539980189
  O          -2.45397505648806      4.24540801251637     -0.78829523990976
  H          -0.64288262252421      1.58766051190444     -3.52330918029999
  H          -0.84809352292540      0.15224804487894      1.83536836569421
  H           0.51617673279955      1.22918001138987      2.20810927677226
  H           1.26959277023221     -3.09314528497494      0.09715677498149
  H           0.12720896173349     -5.12277341775230      0.92956261563643
  H          -2.32344801152202     -5.09564205022338      1.31037229619496
  H          -3.61829371972004     -3.03484501904169      0.84971651767436
  H          -2.46909486909071     -1.01084193191470      0.00921785385887
  H           1.05013378649262      5.56295212856904     -2.14850202135947
  H           2.67732568754481      5.10620634934209     -1.59529842787376
  H           1.60773508923307      6.05071868594733     -0.52409006856935
  H          -2.65244229353138      3.75434283937319      0.01775438157534
