38
Coordinates from ORCA-job goat_0_16 E -996.372108099732
  O          -0.86508269346791      2.57650841921760     -3.27779992337654
  C          -1.33357589269921      2.50602689883372     -1.93637378007799
  H          -2.35976259324615      2.12191912545644     -1.91134435116914
  C          -0.46745756047702      1.62441675052217     -1.06308183032025
  H           0.58351559889919      1.80822359001223     -1.29626506888821
  C          -0.74550935111304      1.94851927704150      0.39536306157510
  H          -1.82861801869535      1.95215992687090      0.55956535922130
  C          -0.10471101173776      0.85283650773444      1.25142007564154
  O           0.80107508575198      0.07892061602087      0.46362672792028
  C           0.16246640265398     -0.58965680501055     -0.61465222590535
  H           0.98013960064371     -0.82548124362504     -1.30460032961763
  C          -0.52626286248941     -1.85906436456820     -0.16160708572391
  C           0.25003256704900     -3.00007942782718      0.02399561988304
  C          -0.32504768210145     -4.17339837768450      0.49322162383028
  C          -1.68649736956810     -4.21300316558944      0.77879299557270
  C          -2.46504518822221     -3.07741898369298      0.59041701365303
  C          -1.88735665859814     -1.90255994370137      0.11996333168642
  O          -0.78361299222980      0.25010136904097     -1.25775878211018
  O          -0.23145536940702      3.23946057393992      0.73170889885224
  C          -0.25356247277721      4.18325803131020     -0.32505656038335
  H          -0.40566024381245      5.15484838251141      0.16240523226431
  O           0.95376647000773      4.20291575423734     -1.04062962926853
  C           2.06698262197872      4.61037800903006     -0.24993755026791
  C          -1.37001786266465      3.92872783274875     -1.34645704121622
  H          -1.23459242873380      4.64033659511376     -2.16562661381988
  O          -2.64104292454543      4.10120079587743     -0.72855568614411
  H          -0.88354866510109      1.68265229801231     -3.64062071759721
  H          -0.87250875462064      0.20820893552396      1.68879560888453
  H           0.48560796987431      1.29426547459763      2.05423134597556
  H           1.31161091964719     -2.96770644687902     -0.20292477260039
  H           0.28659416309944     -5.05854470630098      0.63178167342826
  H          -2.13945264473713     -5.12921762866879      1.14263215161185
  H          -3.52752397166984     -3.10511400505259      0.80822995264851
  H          -2.49620508800200     -1.02013242013056     -0.03506648706583
  H           1.87034194223102      5.58195236464267      0.21839974907895
  H           2.91869269163648      4.69772159546251     -0.92405407683805
  H           2.28959777034564      3.87346827539642      0.52614946393838
  H          -2.70298350310151      5.01132011957593     -0.41448737327553
