38
Coordinates from ORCA-job goat_0_3 E -996.380691044019
  O          -2.62972701986053      3.25146818932794     -0.49335596840670
  C          -1.45766540586911      2.95484836475558      0.25584355146763
  H          -1.79232632172040      2.70162404546776      1.26385611062978
  C          -0.70835771458917      1.76614920773660     -0.32930765021918
  H          -0.80001784924564      1.78778251473979     -1.42142698160108
  C           0.76794084475949      1.80119930772414      0.04247921468251
  H           0.85534061726203      1.73802474425192      1.13366551922769
  C           1.43919289857979      0.57998758368978     -0.56636705822396
  O           0.76462782844743     -0.58882952909905     -0.10286153551629
  C          -0.60849573837375     -0.56446849910238     -0.44184560705638
  H          -0.70324202907112     -0.47870615310802     -1.53446357024339
  C          -1.24982589276076     -1.82842936987501      0.05848611299829
  C          -1.83883133880387     -2.71241667367128     -0.83562631698205
  C          -2.43030002200245     -3.88466558315458     -0.37396441569390
  C          -2.43204455966616     -4.17111016268491      0.98496138336328
  C          -1.84165973357420     -3.28473952378795      1.88288631734910
  C          -1.25186589593414     -2.11669936248159      1.42130300216934
  O          -1.25652945763281      0.54328957024125      0.15749812998760
  O           1.42759756892933      2.98169858384980     -0.42386035020373
  C           0.59467536043946      4.10703824636725     -0.65659931299744
  H           1.26625016594742      4.96976288281028     -0.58978133123449
  O          -0.02806335604851      4.06906309692543     -1.91135492195936
  C           0.88744203015573      4.12900385134295     -3.00433988148479
  C          -0.52346290934306      4.18298330295495      0.37633070382579
  H          -1.12126834376848      5.07518212908283      0.18244968879959
  O           0.01915287750172      4.32042255096956      1.68340477416745
  H          -2.34817211805790      3.49389738927085     -1.38513163729719
  H           2.47998656564414      0.49599665772087     -0.25281426935683
  H           1.39240064647015      0.64115399601159     -1.66152533414268
  H          -1.83564632785869     -2.48504229408316     -1.89709212573349
  H          -2.88872434299709     -4.57197363751663     -1.07685398624134
  H          -2.89274836762982     -5.08392709533676      1.34758346262852
  H          -1.84263409533751     -3.50723384560922      2.94467214066250
  H          -0.79148064599653     -1.42461667382018      2.11779881307402
  H           1.52463425839978      5.01608817018963     -2.91954522871294
  H           0.28926961497522      4.19392544764311     -3.91239047446558
  H           1.51251885382755      3.23336709222549     -3.04008992918459
  H           0.87538935480244      3.87787147803129      1.72117896192431
