38
Coordinates from ORCA-job goat_0_1 E -996.388299249711
  O          -2.72576318230087      3.00422697035441      0.27127062737231
  C          -1.31863906892850      2.82904713881837      0.15294071694440
  H          -0.86030417841781      2.77924231612042      1.14891202130443
  C          -0.94105552748497      1.58882656558507     -0.62545782906799
  H          -1.43966595214438      1.60355999861081     -1.60491161356856
  C           0.56749353151908      1.57117761382250     -0.83714171197886
  H           1.06856454360181      1.58142555251599      0.14035697957106
  C           0.93555681836923      0.29369507141128     -1.56972618902401
  O           0.43281711248419     -0.81148084275802     -0.81641353360565
  C          -0.96867138288096     -0.74030386510143     -0.64250087848072
  H          -1.44861827400143     -0.69620940095000     -1.63107382909793
  C          -1.41941422058112     -1.95093803183736      0.12587744788877
  C          -2.31348589272599     -2.84670851041364     -0.44495572830711
  C          -2.72970570596790     -3.96868959578463      0.26593668900551
  C          -2.24993321884006     -4.19286771186654      1.54974468821555
  C          -1.35298229478544     -3.29451789342305      2.12340145175538
  C          -0.93864351910830     -2.17663163807384      1.41371393206046
  O          -1.33007642275108      0.42027734788376      0.08781883532770
  O           0.94685982030727      2.70359574251870     -1.59875181352756
  C           0.70649047487970      3.90983484999596     -0.87515476028781
  H           1.27965453860480      3.87851516951249      0.06548857703356
  O           1.10949210074417      4.97486475433474     -1.66088747724739
  C           2.52925323420751      5.11165739490987     -1.74323408689932
  C          -0.78346980969353      4.05886972071571     -0.57501583409386
  H          -1.31055746539854      4.15966400215568     -1.53292555792785
  O          -0.95784811220223      5.22250817629679      0.21701481349242
  H          -3.05640821643498      2.36083146490405      0.90851794338915
  H           2.01546894232886      0.16572718092888     -1.64370965919427
  H           0.49939469762681      0.30016264391072     -2.57695605135607
  H          -2.68654301411179     -2.66836482974136     -1.44862425085405
  H          -3.42833865371757     -4.66550802319228     -0.18456621992383
  H          -2.57317138416687     -5.06648288862153      2.10587335437265
  H          -0.97756428864338     -3.46835059365814      3.12625450385094
  H          -0.24041486707734     -1.47525111417659      1.85709043405500
  H           2.72395413325716      6.02835590462015     -2.29877862194236
  H           2.97653457105922      4.26389964159469     -2.26821606709413
  H           2.96308398416191      5.19132167414770     -0.74068575364328
  H          -1.88001385078668      5.22998804392965      0.50327445148334
