38
Coordinates from ORCA-job goat_0_0 E -996.382398382368
  O          -2.44095313590169      3.37038101347469     -0.44072188879699
  C          -1.28813281014085      2.95888240296864      0.28290131580818
  H          -1.63587518053726      2.68552437058455      1.28228535141658
  C          -0.62930437549493      1.74147577602712     -0.35361244946231
  H          -0.77436844808155      1.78647547908808     -1.44016399421638
  C           0.86494980649881      1.70046829257799     -0.06244426693034
  H           1.01604661033814      1.66111400075087      1.02053080545085
  C           1.43845766523258      0.44262846969342     -0.69546478196001
  O           0.72445379323182     -0.68850826427476     -0.19730761368731
  C          -0.65728093891265     -0.59176368633741     -0.48096617575325
  H          -0.79071165570102     -0.49651466614458     -1.56886004528291
  C          -1.34352673501865     -1.82279221240923      0.04171188543008
  C          -2.00739493283612     -2.67479814097559     -0.83072390530341
  C          -2.63971347957716     -3.81696606700205     -0.34816316257949
  C          -2.60712009924582     -4.10553436653873      1.00994305938536
  C          -1.94157046890180     -3.25127216824311      1.88617416835335
  C          -1.31128130603065     -2.11318369055810      1.40373430654647
  O          -1.22221940016847      0.54484440197756      0.14635881746074
  O           1.54366346936750      2.83483289864716     -0.59883887278057
  C           0.78867449689526      4.02836903541530     -0.66188324463219
  H           1.52014389934606      4.83897008732733     -0.57720441831362
  O           0.07779742694708      4.14311395365434     -1.87072692465564
  C           0.91827192198117      4.22664454846050     -3.01948181918912
  C          -0.26518581468097      4.10734600612567      0.43561557706181
  H          -0.79984925243058      5.05585876494194      0.32972662363519
  O           0.43009773414324      4.05096471622916      1.67280544260770
  H          -2.14004870421207      3.64990592126852     -1.31556408084902
  H           2.48692207972876      0.30243046522737     -0.43109902813207
  H           1.34432201968872      0.50188717283579     -1.78783942410784
  H          -2.03088748056213     -2.44599061195974     -1.89162444865120
  H          -3.15679791869367     -4.47925995802584     -1.03418919645871
  H          -3.09940174368144     -4.99501802682496      1.38872081022607
  H          -1.91544562998654     -3.47545570611813      2.94730152213034
  H          -0.79224881286492     -1.44600641227500      2.08311091326717
  H           0.26783083268774      4.41276536530321     -3.87342699061492
  H           1.46625319066663      3.29371557962989     -3.17283947309960
  H           1.62911571067235      5.05366129685695     -2.91288793343343
  H          -0.20435233376494      4.21977395862115      2.37891354011042
