38
Coordinates from ORCA-job goat_0_22 E -996.371762866565
  O           0.39018864398404      2.13733411147260     -3.27635737355655
  C          -0.66054727225725      2.19960316355941     -2.32186950058054
  H          -1.54798491879761      1.67365615016659     -2.69422916526190
  C          -0.19220432516605      1.52570669499277     -1.05385026735918
  H           0.84918497161274      1.80265628941490     -0.87369234798928
  C          -1.05966070001405      1.97994476645150      0.10971107095842
  H          -2.11323604056797      1.87185511400340     -0.16803327792491
  C          -0.75376232613726      1.07340430873603      1.30513132543741
  O           0.44507442040977      0.33425730102696      1.07019225379125
  C           0.34816072543102     -0.52432551993606     -0.05832397459678
  H           1.39032131728912     -0.72533582239635     -0.33087234601606
  C          -0.36660201169560     -1.81523038722954      0.27900914772145
  C          -1.71658198384885     -2.00654979261476      0.00605633958853
  C          -2.34522526524374     -3.18713355468205      0.38877709628972
  C          -1.62778485143578     -4.18130346670792      1.04297061838651
  C          -0.27547777776582     -3.99424292787066      1.31312630083866
  C           0.35037309142781     -2.81541532462486      0.93081370434162
  O          -0.31886760996435      0.11017789907814     -1.13615975412140
  O          -0.81098229650298      3.35155428760384      0.42590138231813
  C          -0.49293717609810      4.17173106184775     -0.68588376874208
  H          -0.90828368313147      5.15737059089034     -0.44647465544713
  O           0.89268863462495      4.27410511043505     -0.88118095278169
  C           1.56281199845472      4.91095873331776      0.20293649446184
  C          -1.08960695943431      3.65702666484054     -1.99657563841509
  H          -0.73027373419734      4.30697818374491     -2.80032977682747
  O          -2.50002645389321      3.77073682852922     -1.84616317518712
  H           0.03568548462535      2.40458824258093     -4.13237577534020
  H          -1.58809858899845      0.39172100755687      1.49417717555522
  H          -0.57665327220966      1.67169068229647      2.19877062072359
  H          -2.27385582465019     -1.23511633466576     -0.51130248538449
  H          -3.39877262233835     -3.33053907688531      0.17300345177987
  H          -2.11906764998713     -5.10243183085962      1.33810451015661
  H           0.29147473587218     -4.76936134630171      1.81765704590942
  H           1.40633037123248     -2.66892565736471      1.13806832910280
  H           2.60277563435080      5.03541181728495     -0.09785504744830
  H           1.51542231438051      4.30089519795231      1.10874801379625
  H           1.12032941923082      5.89369600810140      0.40399604967345
  H          -2.91099841859070      3.55782082625464     -2.69182164785045
