38
Coordinates from ORCA-job goat_0_12 E -996.379707328909
  O          -3.08765511754622      2.74506224427501     -1.99163697692474
  C          -1.95296465445787      2.53682996704254     -1.16251607659568
  H          -2.26940926910541      2.37598288273451     -0.12278475817567
  C          -1.20351947409165      1.30984637573162     -1.63706643938968
  H          -0.95453861008964      1.42883308875562     -2.69831559002800
  C           0.08731398515361      1.16204202890933     -0.83584691918436
  H          -0.16773542081573      1.05563276911917      0.22583858630411
  C           0.83408610903145     -0.07273020218300     -1.33749361039942
  O          -0.04522331217200     -0.90664171351076     -2.10211573521193
  C          -1.30764804166376     -1.07030117886754     -1.50432246865140
  H          -1.85964766226621     -1.72915778294819     -2.17938780724987
  C          -1.21289856692804     -1.71457984492675     -0.12802167913632
  C          -1.80521572961857     -1.15463043289622      0.99578400709188
  C          -1.69960657817972     -1.78754926769414      2.23170751406516
  C          -1.00418434455632     -2.98344663558481      2.34730014236756
  C          -0.41429888735254     -3.55052664993570      1.22019891141626
  C          -0.52129063183196     -2.91940994878768     -0.01041689817229
  O          -2.02293558089292      0.16017148347490     -1.45218037236859
  O           0.90590461814132      2.30965423262773     -1.01052101143798
  C           0.27557214008479      3.46106255016946     -0.45885195576791
  H           0.07317574187531      3.28330435856537      0.60963275348363
  O           1.11361665575262      4.55209810939858     -0.62531711236063
  C           2.22904105191760      4.55525078192890      0.26812169973736
  C          -1.02290440344927      3.74381782477527     -1.20782622646329
  H          -0.76921796059527      3.96272553948446     -2.25222334373709
  O          -1.72797060041969      4.82937313594617     -0.62332904350464
  H          -3.49839419217929      3.57022076492407     -1.70448548757123
  H           1.27264337734340     -0.63951737702106     -0.51226905629868
  H           1.62227604560093      0.23704666336123     -2.02424469925047
  H          -2.34986731640881     -0.22289831061476      0.90560587818912
  H          -2.16391759612592     -1.34191735493194      3.10519608831812
  H          -0.92229561019532     -3.47596653685249      3.31042633136711
  H           0.12895755344338     -4.48593517209534      1.30280086614523
  H          -0.05924671997599     -3.35947992569319     -0.88847522076686
  H           1.88493962728519      4.50769487697126      1.30673057543606
  H           2.76175149780659      5.49082089596474      0.10178831347823
  H           2.89531476217285      3.71338095357194      0.06429902457791
  H          -1.21867688469092      5.63280680681162     -0.78198220333099
