38
Coordinates from ORCA-job goat_0_4 E -996.381274629261
  O          -2.33270399000107      3.32419457197549     -1.09976512509898
  C          -1.62532098572941      2.87208882858357      0.04902469973366
  H          -2.32611905212335      2.49127016147816      0.80048765544694
  C          -0.64379021804715      1.76413942709415     -0.28008226187870
  H          -0.14804829145290      1.98213307358645     -1.23233722637618
  C           0.39856362478871      1.64635666108057      0.82274518555983
  H          -0.11471483580921      1.47374801383089      1.77581723504036
  C           1.29722565771731      0.45909485121972      0.51107303141239
  O           0.48908925293378     -0.70503889252206      0.34084303594452
  C          -0.45314088487305     -0.52810085849767     -0.69716371023534
  H           0.08188765468820     -0.27571103233692     -1.62463329211349
  C          -1.24298618148538     -1.79663745947226     -0.85868909135776
  C          -1.98759326267629     -2.29574586837917      0.20751634160025
  C          -2.71722382601656     -3.46635223369068      0.05681493340507
  C          -2.70700003304538     -4.14412297574363     -1.16013150451154
  C          -1.96515045479177     -3.64712007224515     -2.22381293575754
  C          -1.23370931772108     -2.47290794367616     -2.07136956477250
  O          -1.34581957408718      0.52670988201149     -0.38638041106704
  O           1.20489482827798      2.81746545580018      0.92477019607274
  C           0.61887055908063      4.01659701229829      0.45604321729253
  H           1.11476117146865      4.81191063621253      1.02660015375567
  O           0.83396964701166      4.21581765653047     -0.91546261204098
  C           2.20970032539982      4.37874556758485     -1.25017495966722
  C          -0.89422913782553      4.06649269227079      0.68261207130849
  H          -1.27242190247773      4.98311677695273      0.22145350974070
  O          -1.17484170962552      4.04562209551704      2.07795674768992
  H          -2.81881927248057      2.57184088026896     -1.45857886605057
  H           1.98805850559372      0.25356013461740      1.32913018113365
  H           1.86865086690902      0.66273654801511     -0.40407451415695
  H          -1.99348534981005     -1.76575763735450      1.15362871884577
  H          -3.29634277205259     -3.85351056112738      0.88845650999580
  H          -3.27793229386831     -5.05930292609477     -1.27616395233031
  H          -1.95403207267480     -4.17154712527501     -3.17329594790018
  H          -0.65272581025878     -2.08154742705853     -2.90064902016731
  H           2.24899006703923      4.63768118175449     -2.30789660599896
  H           2.76891670452361      3.45516859142873     -1.07924453298164
  H           2.65538992802391      5.18699723728993     -0.65889817716362
  H          -0.77748756452248      4.82888507607174      2.47763088764861
