38
Coordinates from ORCA-job goat_0_21 E -996.371756645665
  O           0.42655796573467      2.12834280235535     -3.26792459887693
  C          -0.63472323174435      2.19599540697081     -2.32569580818550
  H          -1.51935221408764      1.67151381437210     -2.70687735003806
  C          -0.18299945320943      1.52316991741802     -1.05105121622593
  H           0.85701726033113      1.79791722791836     -0.85980562916840
  C          -1.06189052943856      1.98257890416415      0.10191126321370
  H          -2.11265192858105      1.87714105124227     -0.18716289717059
  C          -0.77181645362195      1.07752856021952      1.30228951562531
  O           0.42754317165263      0.33453340616413      1.08219865550624
  C           0.34110506891268     -0.52602952391307     -0.04537818335182
  H           1.38553024557908     -0.73050245961679     -0.30618174577867
  C          -0.38067742385935     -1.81453429028068      0.28610191009163
  C          -1.72990503151272     -2.00011242544335      0.00532157858243
  C          -2.36554420449534     -3.17848919645643      0.38333993974737
  C          -1.65580655037688     -4.17627610434762      1.04057790632333
  C          -0.30428629854827     -3.99496906569618      1.31850474194839
  C           0.32850467929834     -2.81825546308812      0.94095862106586
  O          -0.31241008578634      0.10803227597579     -1.13191654268874
  O          -0.81258397829622      3.35416876824600      0.41773377217547
  C          -0.47964382634010      4.17094745624281     -0.69205177025270
  H          -0.89456429556242      5.15842494635770     -0.45971912979221
  O           0.90836397522835      4.26858428753032     -0.87211720777250
  C           1.56812953852043      4.90828313702214      0.21670148107190
  C          -1.06286548954878      3.65527107327422     -2.00846340470763
  H          -0.69196585301868      4.30253693438957     -2.80914079315906
  O          -2.47451844549909      3.77410694827900     -1.87513882541363
  H           0.08333328144922      2.39538212186398     -4.12858087110802
  H          -1.61015805206678      0.39847173465605      1.48280782213808
  H          -0.60325617124360      1.67668893632993      2.19697318871205
  H          -2.28122938866881     -1.22603186581505     -0.51452218895019
  H          -3.41846269424311     -3.31728996038831      0.16147108203426
  H          -2.15241249112920     -5.09575631588555      1.33199457721026
  H           0.25667218442995     -4.77297693051769      1.82534427034229
  H           1.38392281360564     -2.67625282927052      1.15416206191009
  H           1.12964385497852      5.89529155680910      0.40520101480113
  H           2.61287762764785      5.02357897688925     -0.07085583225699
  H           1.50436675338028      4.30473958362780      1.12588034268802
  H          -2.87651432986997      3.55321660240094     -2.72308975029017
