38
Coordinates from ORCA-job goat_0_9 E -996.372883979684
  O          -2.65984009435918      3.10181053722274     -1.83368699524523
  C          -2.00532947300885      2.79455691136052     -0.60931278798902
  H          -2.78193654883839      2.43899402877653      0.07270288566999
  C          -0.95971999559921      1.70560938526313     -0.78546061007654
  H          -0.48706874182034      1.82984658413383     -1.76322077489756
  C           0.09672998089636      1.80462615453748      0.30207732299094
  H          -0.39649432485747      1.82521553937964      1.27785572330486
  C           0.98891447453741      0.56287499717612      0.20703310401774
  O           0.72037834473161     -0.15022534041700     -1.00119898906330
  C          -0.62394504178698     -0.59714270748340     -1.09536476308440
  H          -0.76044857499869     -0.80825249851004     -2.16167958359481
  C          -0.86133675947799     -1.84912299488610     -0.27794605210396
  C          -0.47963642982725     -3.07390291299296     -0.81926366578759
  C          -0.62493714639424     -4.24341275363269     -0.08515530489285
  C          -1.15629907255712     -4.19445232667515      1.20005564058323
  C          -1.54194453420407     -2.97422702177603      1.74195665294388
  C          -1.39669236161081     -1.80355518798030      1.00468838900845
  O          -1.53720388305904      0.40875390456118     -0.68404726221774
  O           0.86385207245771      3.00410464650484      0.15356228702263
  C           0.13260860329235      4.12046507050020     -0.31909469058592
  H           0.60550968493192      4.99628887179739      0.13835664859059
  O           0.17976516840962      4.22741105721969     -1.72212802765710
  C           1.49462588301222      4.43542774112029     -2.23140347041571
  C          -1.35209484189189      4.04778249553424      0.02666423339789
  H          -1.83920504539847      4.93162377946053     -0.39557149976032
  O          -1.44395172635102      4.04989680284554      1.44441052313590
  H          -1.98640146401602      3.43960683671034     -2.43895350399566
  H           0.83644099243150     -0.08844245302078      1.07233528960410
  H           2.03849226870131      0.85351116766411      0.16349497963056
  H          -0.06846784141532     -3.11019376789789     -1.82381488277870
  H          -0.32873546631880     -5.19377571833880     -0.51630597810522
  H          -1.27374875742109     -5.10689908593603      1.77505846352551
  H          -1.95989431363997     -2.93211624896019      2.74227538279983
  H          -1.70629582041067     -0.85377313356520      1.42372763050473
  H           1.39429265339254      4.61223351862512     -3.30181720029255
  H           2.12394190468280      3.55807760337815     -2.06250455498351
  H           1.95432635827602      5.30994273172094     -1.75716288247922
  H          -2.37492013049048      4.12980378657998      1.68263832327613
