38
Coordinates from ORCA-job goat_0_2 E -996.380336048072
  O          -2.54131249640383      2.73920478014608     -1.88366317147833
  C          -1.76309635296279      2.83416420700648     -0.69577202965822
  H          -2.40938782176882      2.75834180183953      0.18658072680244
  C          -0.71802544725118      1.74012639181580     -0.60999409028658
  H          -0.25373895349934      1.59732379265668     -1.59081400529733
  C           0.34466105754176      2.10871565028602      0.41597732335000
  H          -0.14347765855693      2.23917820732625      1.39028727246621
  C           1.33029462700808      0.95446793222401      0.51607947788091
  O           0.61167652896048     -0.23710590348988      0.83477886527986
  C          -0.37523426995592     -0.52265788484791     -0.13636238773108
  H           0.10872022623695     -0.61525296220085     -1.11970768806475
  C          -1.07554409025048     -1.79663492641978      0.24494858188212
  C          -1.74460244292403     -1.88614359344457      1.46350256608115
  C          -2.39289965042458     -3.06142150397560      1.81485315527112
  C          -2.37568695913026     -4.15365544624525      0.95048413885834
  C          -1.70888180695888     -4.06539445884876     -0.26451812420439
  C          -1.05906390161765     -2.88578932711737     -0.61593813336764
  O          -1.33298830598198      0.52008112003371     -0.19927668817210
  O           1.04661325064594      3.30619361300641      0.07993707502239
  C           0.41729188441033      4.15376880479493     -0.86828266138219
  H           0.86794224191477      5.13750096049142     -0.69808377344356
  O           0.63827937232509      3.74249595601059     -2.18801060924017
  C           2.00942359334530      3.80627560031270     -2.57452717678258
  C          -1.09453366113413      4.22536141063530     -0.65175443351811
  H          -1.52300993789514      4.83087351158598     -1.45071241693253
  O          -1.37006653806054      4.91544539141217      0.56073946482723
  H          -2.97866647842698      1.87890007699106     -1.87880760016111
  H           2.05602423131246      1.11438339029645      1.31379859188930
  H           1.85922596135213      0.83866105785246     -0.43893270212987
  H          -1.75584938076726     -1.03407269124207      2.13424280359226
  H          -2.91343765362713     -3.12903039274759      2.76423093984283
  H          -2.88291886785380     -5.07197797100087      1.22677247310867
  H          -1.69288157034938     -4.91347503809093     -0.94058598876058
  H          -0.53698984508886     -2.81317806513461     -1.56486222760638
  H           2.40709993593053      4.81444067864039     -2.41165800087344
  H           2.04851624423044      3.56663925543295     -3.63669157255552
  H           2.60997243176288      3.08453129784206     -2.01493589656398
  H          -0.89011749608723      4.48768527616658      1.28047792205561
