38
Coordinates from ORCA-job goat_0_6 E -996.378959996629
  O          -2.12096514482966      2.20447041885466     -3.24553894484324
  C          -1.49848369673422      2.19632382837383     -1.96524211171880
  H          -2.25488342928646      2.05887122360885     -1.18185891673558
  C          -0.45133624968777      1.11053288515308     -1.82818598359480
  H           0.27716777884816      1.20204435375698     -2.64241074024092
  C           0.26721472368183      1.28426219593020     -0.49601951638277
  H          -0.46764366150883      1.22590263691136      0.31647665197705
  C           1.31413949239444      0.18065799227572     -0.35653948174071
  O           1.05477562777554     -0.86770939098159     -1.29991079021239
  C          -0.30342855987792     -1.22533352396658     -1.37075620235963
  H          -0.34824789470329     -2.03505373963258     -2.10317326045997
  C          -0.83925796859676     -1.71658607114212     -0.03312248208421
  C          -0.16884137759832     -2.76203512192012      0.60042471368321
  C          -0.62005152459845     -3.24995935988469      1.81794857981944
  C          -1.75204912291882     -2.69820947640701      2.41289208734905
  C          -2.42561203885900     -1.66196013617611      1.78083426251448
  C          -1.97107270119631     -1.17284546453043      0.55878863340906
  O          -1.09478213574371     -0.15834752101543     -1.88674927424969
  O           0.90336295463279      2.55336039181547     -0.46817384067864
  C          -0.05212314644306      3.61147394389099     -0.48712172229605
  H          -0.72641785732047      3.49933766468209      0.37733086893248
  O           0.63069846827174      4.81382068809966     -0.42430626745841
  C           1.17130954945878      5.08903949499356      0.86898379275529
  C          -0.85002382585723      3.56488875073275     -1.78652382495135
  H          -0.15267563547322      3.74109243080215     -2.61596708870133
  O          -1.83845992505716      4.58144018569976     -1.73930157724807
  H          -2.71770463775613      1.44885513192888     -3.29391581750748
  H           1.34171678386888     -0.22230286858353      0.65898078914794
  H           2.29571538618001      0.57794285887860     -0.61632710248269
  H           0.71476454712623     -3.19014069133977      0.13759955347409
  H          -0.09001294543842     -4.06157241854438      2.30503257571617
  H          -2.10670448218195     -3.07894363995198      3.36481533568967
  H          -3.30961513788717     -1.22963830447832      2.23772242748457
  H          -2.49917438853262     -0.36631066211103      0.06531393464182
  H           0.38028932894765      5.06288801751257      1.62626463109203
  H           1.59939020312688      6.08981146072555      0.82316885001074
  H           1.95099045345344      4.36932213233967      1.13057320160280
  H          -2.41863780967938      4.43957970369923     -2.49820594335314
