
                                 *****************
                                 * O   R   C   A *
                                 *****************

                                            #,                                       
                                            ###                                      
                                            ####                                     
                                            #####                                    
                                            ######                                   
                                           ########,                                 
                                     ,,################,,,,,                         
                               ,,#################################,,                 
                          ,,##########################################,,             
                       ,#########################################, ''#####,          
                    ,#############################################,,   '####,        
                  ,##################################################,,,,####,       
                ,###########''''           ''''###############################       
              ,#####''   ,,,,##########,,,,          '''####'''          '####       
            ,##' ,,,,###########################,,,                        '##       
           ' ,,###''''                  '''############,,,                           
         ,,##''                                '''############,,,,        ,,,,,,###''
      ,#''                                            '''#######################'''  
     '                                                          ''''####''''         
             ,#######,   #######,   ,#######,      ##                                
            ,#'     '#,  ##    ##  ,#'     '#,    #''#        ,####,    ,#,          
            ##       ##  ##   ,#'  ##            #'  '#       #'       ,# #          
            ##       ##  #######   ##           ,######,      #####,      #          
            '#,     ,#'  ##    ##  '#,     ,#' ,#      #,     #,   #      #          
             '#######'   ##     ##  '#######'  #'      '#     '####' #    #          



                #########################################################
                #                        -***-                          #
                #          Department of theory and spectroscopy        #
                #                                                       #
                #                      Frank Neese                      #
                #                                                       #
                #     Directorship, Architecture, Infrastructure        #
                #                    SHARK, DRIVERS                     #
                #        Core code/Algorithms in most modules           #
                #                                                       #
                #        Max Planck Institute fuer Kohlenforschung      #
                #                Kaiser Wilhelm Platz 1                 #
                #                 D-45470 Muelheim/Ruhr                 #
                #                      Germany                          #
                #                                                       #
                #                  All rights reserved                  #
                #                        -***-                          #
                #########################################################


                         Program Version 6.1.0  -  RELEASE   -
                                (GIT: $679e74b$)
                          ($2025-06-10 18:02:51 +0200$)


 With contributions from (in alphabetic order):
[Max-Planck-Institut fuer Kohlenforschung]                               
  Daniel Aravena         : Magnetic Suceptibility                        
  Michael Atanasov       : Ab Initio Ligand Field Theory (pilot matlab implementation)
  Alexander A. Auer      : GIAO ZORA, VPT2 properties, NMR spectrum      
  Ute Becker             : All parallelization in ORCA, NUMFREQ, NUMCALC 
  Giovanni Bistoni       : ED, misc. LED, open-shell LED, HFLD           
  Dmytro Bykov           : pre 5.0 version of the SCF Hessian            
  Marcos Casanova-Páez   : Triplet and SCS-CIS(D). UHF-(DLPNO)-IP/EA/STEOM-CCSD. UHF-CVS-IP/STEOM-CCSD   
  Vijay G. Chilkuri      : MRCI spin determinant printing, contributions to CSF-ICE 
  Pauline Colinet        : FMM embedding                                 
  Dipayan Datta          : RHF DLPNO-CCSD density                        
  Achintya Kumar Dutta   : EOM-CC, STEOM-CC                              
  Nicolas Foglia         : Exact transition moments, OPA infrastructure, MCD improvements    
  Dmitry Ganyushin       : Spin-Orbit,Spin-Spin,Magnetic field MRCI      
  Miquel Garcia-Rates    : C-PCM and meta-GGA Hessian, CCSD/C-PCM, Gaussian charge scheme 
  Tiago L. C. Gouveia    : GS-ROHF, GS-ROCIS                             
  Yang Guo               : DLPNO-NEVPT2, F12-NEVPT2, CIM, IAO-localization        
  Andreas Hansen         : Spin unrestricted coupled pair/coupled cluster methods 
  Ingolf Harden          : AUTO-CI MPn and infrastructure                
  Benjamin Helmich-Paris : MC-RPA, TRAH-(SCF,CASSCF), AVAS, COSX integrals, SCF dyn. polar., MC-PDFT, srDFT 
  Lee Huntington         : MR-EOM, pCC                                   
  Robert Izsak           : Overlap fitted RIJCOSX, COSX-SCS-MP3, EOM     
  Riya Kayal             : Wick's Theorem for AUTO-CI, AUTO-CI UHF-CCSDT 
  Emily Kempfer          : AUTO-CI RHF CISDT and CCSDT, approximate NEVPT4
  Christian Kollmar      : KDIIS, OOCD, Brueckner-CCSD(T), CCSD density, CASPT2, CASPT2-K, improved NEVPT2 
  Axel Koslowski         : Symmetry handling                             
  Simone Kossmann        : meta-GGA functionals, TD-DFT gradient, OOMP2, (MP2 Hessian; deprecated post 5.0) 
  Lucas Lang             : DCDCAS, Hyperfine gauge corrections, ICE-SOC+SSC
  Marvin Lechner         : AUTO-CI (C++ implementation), FIC-MRCC        
  Spencer Leger          : CASSCF response                               
  Dagmar Lenk            : GEPOL surface, SMD, ORCA-2-JSON               
  Dimitrios Liakos       : Extrapolation schemes; Compound Job, Property file
  Dimitrios Manganas     : Further ROCIS development; embedding schemes. LFT, Crystal Embedding 
  Dimitrios Pantazis     : SARC Basis sets                               
  Anastasios Papadopoulos: AUTO-CI, single reference methods and gradients 
  Taras Petrenko         : pre 6.0 DFT Hessian and TD-DFT gradient,  ECA, NRVS 
  Petra Pikulova         : Analytic Raman intensities                    
  Peter Pinski           : DLPNO-MP2, DLPNO-MP2 Gradient                 
  Shashank Vittal Rao    : ES-AILFT, MagRelax                            
  Christoph Reimann      : Effective Core Potentials                     
  Marius Retegan         : Local ZFS, SOC                                
  Christoph Riplinger    : Optimizer, TS searches, QM/MM, DLPNO-CCSD(T), (RO)-DLPNO pert. Triples 
  Michael Roemelt        : Original ROCIS implementation, recursive CI coupling coefficients
  Masaaki Saitow         : Open-shell DLPNO-CCSD energy and density      
  Barbara Sandhoefer     : DKH picture change effects                    
  Yorick L. A. Schmerwitz: GMF and freeze-and-release deltaSCF, NEB S-IDPP initial path                    
  Kantharuban Sivalingam : CASSCF convergence/infrastructure, NEVPT2, NEVPT3, NEVPT4(SD), FIC-MRCI and CEPA variants
  Bernardo de Souza      : ESD, SOC TD-DFT                               
  Georgi L. Stoychev     : AutoAux, RI-MP2 NMR, DLPNO-MP2 response, X2C  
  Van Anh Tran           : RI-MP2 g-tensors                              
  Willem Van den Heuvel  : Paramagnetic NMR                              
  Zikuan Wang            : NOTCH, Electric field optimization            
  Frank Wennmohs         : Technical directorship and infrastructure     
  Hang Xu                : AUTO-CI-Response properties                   
                                                                         
[FACCTs GmbH]                                                            
  Markus Bursch, Nicolas Foglia, Miquel Garcia-Rates, Ingolf Harden, Hagen Neugebauer, Anastasios Papadopoulos, 
  Christoph Riplinger, Bernardo de Souza, Georgi L. Stoychev                                                    
                                                                 
  APM, various basis sets, CI-OPT, improved COSX, DLPNO-Multilevel,           
  DOCKER, DRACO, updates on ESD, Fragmentator, GOAT, IRC, LR-CPCM, L-BFGS, MBIS, meta-GGA TD-DFT gradient, ML-optimized integration grids, 
  MM, NACMEs, nearIR, NEB, NEB-TS, NL-DFT gradient (VV10), 2- and 3-layer-ONIOM, interface openCOSMO-RS, QMMM,   
  Crystal-QMMM, RESP, rigid body optimization, SF, symmetry and pop. for TD-DFT, various functionals, SOLVATOR                                   
                                                                         
[Other institutions]                                                     
  V. Asgeirsson          : NEB                                           
  Christoph Bannwarth    : sTDA-DFT, sTD-DFT, PBEh-3c, B97-3c, D3        
  Giovanni Bistoni       : ETS/NOCV, ADLD/ADEX, COVALED                  
  Martin Brehm           : Molecular dynamics                            
  Ronald Cardenas        : ETS/NOCV                                      
  Martina Colucci        : COVALED                                       
  Sebastian Ehlert       : rSCAN, r2SCAN, r2SCAN-3c, D4, dhf basis sets  
  Marvin Friede          : D4 for Fr, Ra, Ac-Lr                          
  Lars Goerigk           : TD-DFT with DH, B97 family of functionals     
  Stefan Grimme          : VdW corrections, initial TS optimization, DFT functionals, gCP, sTDA/sTD-DF 
  Waldemar Hujo          : DFT-NL                                        
  H. Jonsson             : NEB                                           
  Holger Kruse           : gCP                                           
  Marcel Mueller         : wB97X-3c, vDZP basis set                      
  Hagen Neugebauer       : wr2SCAN, Native XTB                           
  Gianluca Regni         : ADLD/ADEX                                     
  Tobias Risthaus        : pre 6.0 range-separated hybrid DFT and stability analysis
  Lukas Wittmann         : regularized MP2, r2SCAN double-hybrids, wr2SCAN        
                                                                         
We gratefully acknowledge several colleagues who have allowed us to      
interface, adapt or use parts of their codes:                            
  Ed Valeev, F. Pavosevic, A. Kumar             : LibInt (2-el integral package), F12 methods 
  Garnet Chan, S. Sharma, J. Yang, R. Olivares  : DMRG                   
  Ulf Ekstrom                                   : XCFun DFT Library      
  Mihaly Kallay                                 : mrcc  (arbitrary order and MRCC methods)
  Frank Weinhold                                : gennbo (NPA and NBO analysis)           
  Simon Mueller                                 : openCOSMO-RS                            
  Christopher J. Cramer and Donald G. Truhlar   : smd solvation model                     
  S Lehtola, MJT Oliveira, MAL Marques          : LibXC Library                           
  Liviu Ungur et al                             : ANISO software                          


 Your calculation uses the libint2 library for the computation of 2-el integrals
 For citations please refer to: http://libint.valeyev.net

 Your ORCA version has been built with support for libXC version: 7.0.0
 For citations please refer to: https://libxc.gitlab.io

 This ORCA versions uses:
   CBLAS   interface :  Fast vector & matrix operations
   LAPACKE interface :  Fast linear algebra routines
   SCALAPACK package :  Parallel linear algebra routines
   Shared memory     :  Shared parallel matrices
   BLAS/LAPACK       :  OpenBLAS 0.3.29  USE64BITINT DYNAMIC_ARCH NO_AFFINITY Cooperlake SINGLE_THREADED
        Core in use  :  Cooperlake
   Copyright (c) 2011-2014, The OpenBLAS Project


  ***********************************
  * Starting time: Thu Mar 26 13:20:37 2026
  * Host name:     node1619
  * Process ID:    4078342
  * Working dir.:  /orcd/pool/006/kmoult/unprotected/new goat search
  ***********************************

Your calculation utilizes the semiempirical GFN2-xTB method
Please cite in your paper:
Bannwarth, C.; Ehlert S.; Grimme, S. J. Chem. Theory Comput. 2019, 15, 1652.
   

================================================================================

================================================================================
                                        WARNINGS
                       Please study these warnings very carefully!
================================================================================


================================================================================
 STARTING AUTOMATIC FRAGMENTATION: 
================================================================================

WARNING: Geometry Optimization
  ===> : Switching off AutoStart
         For restart on a previous wavefunction, please use MOREAD

WARNING: Found dipole moment calculation with XTB calculation
  ===> : Switching off dipole moment calculation


================================================================================
                                       INPUT FILE
================================================================================
NAME = goat_0.inp
|  1> ! xtb alpb(acetone) goat PAL4
|  2> 
|  3> *xyz 0 1
|  4> C       -1.2208502474      0.5259915310     -0.3807333635                 
|  5> C       -1.4460830497     -0.9369932578      0.0343526557                 
|  6> O       -0.0117298145      1.0548557039      0.1980097188                 
|  7> C       -2.3705547620      1.4281668935      0.0858687192                 
|  8> H       -1.1587834772      0.6003026379     -1.4743993345                 
|  9> C        1.1472957254      0.3235261059     -0.1930682759                 
| 10> C        1.0476954638     -1.1341506968      0.2881109671                 
| 11> C       -0.2074273629     -1.7732461757     -0.2943570500                 
| 12> H        1.0173604590     -1.1787782537      1.3839412115                 
| 13> O        2.1917323894     -1.9018875566     -0.1195124641                 
| 14> O       -0.3810624148     -3.1005618539      0.2271074035                 
| 15> H       -0.1078555207     -1.8959245517     -1.3803240472                 
| 16> O       -2.5654678802     -1.4915764343     -0.6642057479                 
| 17> H       -1.6584386357     -1.0102981894      1.1080402147                 
| 18> H       -2.2403904484      2.4395249778     -0.3136377749                 
| 19> O       -2.3683499850      1.5426088604      1.5101352145                 
| 20> H       -3.3457953393      1.0525529581     -0.2366824516                 
| 21> H       -1.4519622650      1.7791982113      1.7514754052                 
| 22> H       -2.5709572770     -2.4401503787     -0.4218836824                 
| 23> H        0.4992179295     -3.5219710600      0.1503905014                 
| 24> H        2.9651348512     -1.3857636416      0.1863637442                 
| 25> O        2.3226604389      0.8759690608      0.4121908276                 
| 26> H        1.2718288031      0.3575439996     -1.2837954691                 
| 27> C        2.5953112277      2.1895933820     -0.0585489831                 
| 28> H        1.7927910415      2.8781765812      0.2216968411                 
| 29> H        2.7321417425      2.1895809778     -1.1442185136                 
| 30> H        3.5225371776      2.5337099690      0.4076817433                 
| 31> **                         ****END OF INPUT****
================================================================================

                       *****************************
                       * Geometry Optimization Run *
                       *****************************


                       *********************************
                       *              GOAT             *
                       * Global Optimization Algorithm *
                       *********************************

Geometry optimization settings:
Update method            Update   .... BFGS
Choice of coordinates    CoordSys .... (2022) Redundant Internals
Initial Hessian          InHess   .... Almloef's Model
Max. no of cycles        MaxIter  .... 81

Convergence Tolerances:
Energy Change            TolE     ....  5.0000e-06 Eh
Max. Gradient            TolMAXG  ....  3.0000e-04 Eh/bohr
RMS Gradient             TolRMSG  ....  1.0000e-04 Eh/bohr
Max. Displacement        TolMAXD  ....  4.0000e-03 bohr
RMS Displacement         TolRMSD  ....  2.0000e-03 bohr
Strict Convergence                .... True

------------------------------------------------------------------------------
                        ORCA OPTIMIZATION COORDINATE SETUP
------------------------------------------------------------------------------

The optimization will be done in redundant internal coordinates (2022)
Making redundant internal coordinates   ...  (2022 redundants) done
Evaluating the initial hessian          ...  (Almloef) done
Evaluating the coordinates              ...  done
Calculating the B-matrix                .... done
Calculating the G-matrix                .... done
The number of degrees of freedom        ....  133

    -----------------------------------------------------------------
                    Redundant Internal Coordinates


    -----------------------------------------------------------------
         Definition                    Initial Value    Approx d2E/dq
    -----------------------------------------------------------------
      1. B(C   1,C   0)                  1.5373         0.363664   
      2. B(O   2,C   0)                  1.4410         0.463911   
      3. B(C   3,C   0)                  1.5341         0.367992   
      4. B(H   4,C   0)                  1.0979         0.349744   
      5. B(C   5,O   2)                  1.4252         0.491762   
      6. B(C   6,C   5)                  1.5383         0.362396   
      7. B(C   7,C   1)                  1.5302         0.373244   
      8. B(C   7,C   6)                  1.5242         0.381684   
      9. B(H   8,C   6)                  1.0972         0.350754   
     10. B(O   9,C   6)                  1.4368         0.471202   
     11. B(O  10,C   7)                  1.4366         0.471537   
     12. B(H  11,C   7)                  1.0974         0.350441   
     13. B(O  12,C   1)                  1.4313         0.480853   
     14. B(H  13,C   1)                  1.0969         0.351038   
     15. B(H  14,C   3)                  1.0952         0.353328   
     16. B(O  15,C   3)                  1.4289         0.485153   
     17. B(H  16,C   3)                  1.0937         0.355215   
     18. B(H  17,O   2)                  2.2388         0.010000   
     19. B(H  17,O  15)                  0.9767         0.488976   
     20. B(H  18,O  10)                  2.3776         0.010000   
     21. B(H  18,O  12)                  0.9791         0.484809   
     22. B(H  19,O   9)                  2.3584         0.010000   
     23. B(H  19,O  10)                  0.9790         0.484971   
     24. B(H  20,O   9)                  0.9788         0.485216   
     25. B(O  21,H  20)                  2.3620         0.010000   
     26. B(O  21,C   5)                  1.4328         0.478119   
     27. B(H  22,C   5)                  1.0983         0.349234   
     28. B(C  23,O  21)                  1.4218         0.497880   
     29. B(H  24,C  23)                  1.0939         0.354914   
     30. B(H  25,C  23)                  1.0943         0.354511   
     31. B(H  26,C  23)                  1.0934         0.355623   
     32. A(C   1,C   0,H   4)          109.9772         0.321351   
     33. A(O   2,C   0,H   4)          109.1339         0.332494   
     34. A(C   3,C   0,H   4)          107.7902         0.321974   
     35. A(C   1,C   0,O   2)          111.3305         0.373030   
     36. A(O   2,C   0,C   3)          106.9082         0.373792   
     37. A(C   1,C   0,C   3)          111.5753         0.360759   
     38. A(O  12,C   1,H  13)          107.4830         0.334684   
     39. A(C   0,C   1,H  13)          110.8696         0.321546   
     40. A(C   0,C   1,O  12)          110.5815         0.375345   
     41. A(C   0,C   1,C   7)          110.0883         0.361632   
     42. A(C   7,C   1,H  13)          109.2953         0.322918   
     43. A(C   7,C   1,O  12)          108.4497         0.377036   
     44. A(C   0,O   2,C   5)          112.5713         0.390605   
     45. A(H  14,C   3,O  15)          106.8262         0.335542   
     46. A(C   0,C   3,O  15)          110.4336         0.376692   
     47. A(C   0,C   3,H  14)          110.0630         0.322513   
     48. A(C   0,C   3,H  16)          112.1225         0.322794   
     49. A(O  15,C   3,H  16)          108.8352         0.335840   
     50. A(H  14,C   3,H  16)          108.3937         0.289354   
     51. A(C   6,C   5,H  22)          110.3240         0.321091   
     52. A(O   2,C   5,H  22)          110.4152         0.335647   
     53. A(O  21,C   5,H  22)          108.3332         0.334081   
     54. A(C   6,C   5,O  21)          106.6388         0.374750   
     55. A(O   2,C   5,C   6)          110.3512         0.376576   
     56. A(O   2,C   5,O  21)          110.6924         0.392672   
     57. A(C   7,C   6,O   9)          108.8578         0.377172   
     58. A(C   5,C   6,O   9)          111.4718         0.373809   
     59. A(C   7,C   6,H   8)          109.9909         0.324062   
     60. A(C   5,C   6,H   8)          110.6563         0.321319   
     61. A(C   5,C   6,C   7)          109.3368         0.362799   
     62. A(H   8,C   6,O   9)          106.4775         0.333515   
     63. A(C   1,C   7,C   6)          110.8140         0.364633   
     64. A(O  10,C   7,H  11)          105.4788         0.333505   
     65. A(C   6,C   7,H  11)          110.5077         0.324015   
     66. A(C   1,C   7,H  11)          110.3105         0.322828   
     67. A(C   6,C   7,O  10)          110.3788         0.377218   
     68. A(C   1,C   7,O  10)          109.2144         0.375763   
     69. A(C   6,O   9,H  20)          104.9947         0.349083   
     70. A(C   7,O  10,H  19)          105.1051         0.349095   
     71. A(C   1,O  12,H  18)          105.0105         0.350230   
     72. A(C   3,O  15,H  17)          105.4945         0.351264   
     73. A(C   5,O  21,C  23)          111.9421         0.393523   
     74. A(H  25,C  23,H  26)          108.4828         0.289557   
     75. A(H  24,C  23,H  26)          108.3469         0.289609   
     76. A(O  21,C  23,H  26)          108.1928         0.337355   
     77. A(H  24,C  23,H  25)          110.2372         0.289467   
     78. A(O  21,C  23,H  25)          110.6375         0.337179   
     79. A(O  21,C  23,H  24)          110.8583         0.337243   
     80. D(O  12,C   1,C   0,H   4)    -52.4823         0.010596   
     81. D(C   7,C   1,C   0,H   4)     67.3375         0.010596   
     82. D(O  12,C   1,C   0,C   3)     67.0776         0.010596   
     83. D(C   7,C   1,C   0,C   3)   -173.1026         0.010596   
     84. D(O  12,C   1,C   0,O   2)   -173.5710         0.010596   
     85. D(C   7,C   1,C   0,O   2)    -53.7511         0.010596   
     86. D(C   5,O   2,C   0,C   1)     59.6424         0.018377   
     87. D(C   5,O   2,C   0,C   3)   -178.2640         0.018377   
     88. D(C   5,O   2,C   0,H   4)    -61.9383         0.018377   
     89. D(H  14,C   3,C   0,O   2)     64.1461         0.010833   
     90. D(O  15,C   3,C   0,C   1)     68.3802         0.010833   
     91. D(H  14,C   3,C   0,H   4)    -53.0689         0.010833   
     92. D(O  15,C   3,C   0,O   2)    -53.5596         0.010833   
     93. D(O  15,C   3,C   0,H   4)   -170.7746         0.010833   
     94. D(H  14,C   3,C   0,C   1)   -173.9141         0.010833   
     95. D(H  22,C   5,O   2,C   0)     60.4946         0.020716   
     96. D(O  21,C   5,O   2,C   0)   -179.5483         0.020716   
     97. D(C   6,C   5,O   2,C   0)    -61.7367         0.020716   
     98. D(H   8,C   6,C   5,H  22)    174.7210         0.010527   
     99. D(H   8,C   6,C   5,O  21)     57.2840         0.010527   
    100. D(H   8,C   6,C   5,O   2)    -62.9941         0.010527   
    101. D(C   7,C   6,C   5,H  22)    -63.9805         0.010527   
    102. D(C   7,C   6,C   5,O  21)    178.5825         0.010527   
    103. D(C   7,C   6,C   5,O   2)     58.3044         0.010527   
    104. D(O  10,C   7,C   1,H  13)     51.9617         0.011125   
    105. D(O  10,C   7,C   1,O  12)    -64.9329         0.011125   
    106. D(O  10,C   7,C   1,C   0)    173.9625         0.011125   
    107. D(C   6,C   7,C   1,H  13)    -69.8414         0.011125   
    108. D(C   6,C   7,C   1,O  12)    173.2640         0.011125   
    109. D(C   1,C   7,C   6,C   5)    -54.2024         0.011606   
    110. D(C   6,C   7,C   1,C   0)     52.1594         0.011125   
    111. D(O  10,C   7,C   6,O   9)     62.6884         0.011606   
    112. D(O  10,C   7,C   6,H   8)    -53.6198         0.011606   
    113. D(O  10,C   7,C   6,C   5)   -175.3204         0.011606   
    114. D(C   1,C   7,C   6,O   9)   -176.1935         0.011606   
    115. D(C   1,C   7,C   6,H   8)     67.4983         0.011606   
    116. D(H  20,O   9,C   6,H   8)    -68.3187         0.018973   
    117. D(H  20,O   9,C   6,C   7)    173.1419         0.018973   
    118. D(H  20,O   9,C   6,C   5)     52.4551         0.018973   
    119. D(H  19,O  10,C   7,H  11)     72.6923         0.019000   
    120. D(H  19,O  10,C   7,C   6)    -46.6917         0.019000   
    121. D(H  19,O  10,C   7,C   1)   -168.7572         0.019000   
    122. D(H  18,O  12,C   1,H  13)    -65.2359         0.018242   
    123. D(H  18,O  12,C   1,C   7)     52.8174         0.018242   
    124. D(H  18,O  12,C   1,C   0)    173.6172         0.018242   
    125. D(H  17,O  15,C   3,H  16)    173.6200         0.018577   
    126. D(H  17,O  15,C   3,H  14)    -69.5421         0.018577   
    127. D(H  17,O  15,C   3,C   0)     50.1364         0.018577   
    128. D(C  23,O  21,C   5,H  22)     55.6599         0.019549   
    129. D(C  23,O  21,C   5,C   6)    174.4053         0.019549   
    130. D(C  23,O  21,C   5,O   2)    -65.5364         0.019549   
    131. D(H  26,C  23,O  21,C   5)   -177.6192         0.021254   
    132. D(H  25,C  23,O  21,C   5)    -58.9103         0.021254   
    133. D(H  24,C  23,O  21,C   5)     63.7089         0.021254   
    -----------------------------------------------------------------

Number of atoms                         .... 27
Number of degrees of freedom            .... 133


         *************************************************************
         *                GEOMETRY OPTIMIZATION CYCLE   1            *
         *************************************************************
---------------------------------
CARTESIAN COORDINATES (ANGSTROEM)
---------------------------------
  C    -1.220850    0.525992   -0.380733
  C    -1.446083   -0.936993    0.034353
  O    -0.011730    1.054856    0.198010
  C    -2.370555    1.428167    0.085869
  H    -1.158783    0.600303   -1.474399
  C     1.147296    0.323526   -0.193068
  C     1.047695   -1.134151    0.288111
  C    -0.207427   -1.773246   -0.294357
  H     1.017360   -1.178778    1.383941
  O     2.191732   -1.901888   -0.119512
  O    -0.381062   -3.100562    0.227107
  H    -0.107856   -1.895925   -1.380324
  O    -2.565468   -1.491576   -0.664206
  H    -1.658439   -1.010298    1.108040
  H    -2.240390    2.439525   -0.313638
  O    -2.368350    1.542609    1.510135
  H    -3.345795    1.052553   -0.236682
  H    -1.451962    1.779198    1.751475
  H    -2.570957   -2.440150   -0.421884
  H     0.499218   -3.521971    0.150391
  H     2.965135   -1.385764    0.186364
  O     2.322660    0.875969    0.412191
  H     1.271829    0.357544   -1.283795
  C     2.595311    2.189593   -0.058549
  H     1.792791    2.878177    0.221697
  H     2.732142    2.189581   -1.144219
  H     3.522537    2.533710    0.407682

----------------------------
CARTESIAN COORDINATES (A.U.)
----------------------------
  NO LB    ZA    FRAG    MASS        X           Y           Z
   0 C   6.0000    1    12.011   -2.307073    0.993980   -0.719482
   1 C   6.0000    1    12.011   -2.732701   -1.770661    0.064917
   2 O   8.0000    1    15.999   -0.022166    1.993388    0.374184
   3 C   6.0000    1    12.011   -4.479699    2.698844    0.162268
   4 H   1.0000    1     1.008   -2.189783    1.134408   -2.786211
   5 C   6.0000    1    12.011    2.168075    0.611376   -0.364846
   6 C   6.0000    1    12.011    1.979857   -2.143234    0.544451
   7 C   6.0000    1    12.011   -0.391981   -3.350950   -0.556254
   8 H   1.0000    1     1.008    1.922533   -2.227568    2.615270
   9 O   8.0000    1    15.999    4.141774   -3.594047   -0.225846
  10 O   8.0000    1    15.999   -0.720104   -5.859213    0.429171
  11 H   1.0000    1     1.008   -0.203817   -3.582778   -2.608434
  12 O   8.0000    1    15.999   -4.848032   -2.818671   -1.255167
  13 H   1.0000    1     1.008   -3.133995   -1.909187    2.093893
  14 H   1.0000    1     1.008   -4.233724    4.610034   -0.592689
  15 O   8.0000    1    15.999   -4.475533    2.915108    2.853742
  16 H   1.0000    1     1.008   -6.322637    1.989037   -0.447265
  17 H   1.0000    1     1.008   -2.743811    3.362197    3.309809
  18 H   1.0000    1     1.008   -4.858405   -4.611216   -0.797245
  19 H   1.0000    1     1.008    0.943385   -6.655561    0.284197
  20 H   1.0000    1     1.008    5.603293   -2.618714    0.352176
  21 O   8.0000    1    15.999    4.389192    1.655342    0.778928
  22 H   1.0000    1     1.008    2.403408    0.675660   -2.426022
  23 C   6.0000    1    12.011    4.904427    4.137732   -0.110642
  24 H   1.0000    1     1.008    3.387884    5.438966    0.418946
  25 H   1.0000    1     1.008    5.163000    4.137708   -2.162260
  26 H   1.0000    1     1.008    6.656631    4.788018    0.770407

      -----------------------------------------------------------      
     |                   =====================                   |     
     |                           x T B                           |     
     |                   =====================                   |     
     |                         S. Grimme                         |     
     |          Mulliken Center for Theoretical Chemistry        |     
     |                    University of Bonn                     |     
      -----------------------------------------------------------      

   * xtb version 6.7.1 (edcfbbe) compiled by 'albert@albert-system' on 2024-07-22

   xtb is free software: you can redistribute it and/or modify it under
   the terms of the GNU Lesser General Public License as published by
   the Free Software Foundation, either version 3 of the License, or
   (at your option) any later version.
   
   xtb is distributed in the hope that it will be useful,
   but WITHOUT ANY WARRANTY; without even the implied warranty of
   MERCHANTABILITY or FITNESS FOR A PARTICULAR PURPOSE.  See the
   GNU Lesser General Public License for more details.
   
   Cite this work as:
   * C. Bannwarth, E. Caldeweyher, S. Ehlert, A. Hansen, P. Pracht,
     J. Seibert, S. Spicher, S. Grimme, WIREs Comput. Mol. Sci., 2020, 11,
     e01493. DOI: 10.1002/wcms.1493
   
   for GFN2-xTB:
   * C. Bannwarth, S. Ehlert and S. Grimme., J. Chem. Theory Comput., 2019,
     15, 1652-1671. DOI: 10.1021/acs.jctc.8b01176
   for GFN1-xTB:
   * S. Grimme, C. Bannwarth, P. Shushkov, J. Chem. Theory Comput., 2017,
     13, 1989-2009. DOI: 10.1021/acs.jctc.7b00118
   for GFN0-xTB:
   * P. Pracht, E. Caldeweyher, S. Ehlert, S. Grimme, ChemRxiv, 2019, preprint.
     DOI: 10.26434/chemrxiv.8326202.v1
   for GFN-FF:
   * S. Spicher and S. Grimme, Angew. Chem. Int. Ed., 2020, 59, 15665-15673.
     DOI: 10.1002/anie.202004239
   
   for ALPB and GBSA implicit solvation:
   * S. Ehlert, M. Stahn, S. Spicher, S. Grimme, J. Chem. Theory Comput.,
     2021, 17, 4250-4261. DOI: 10.1021/acs.jctc.1c00471
   
   for ddCOSMO and CPCM-X implicit solvation:
   * M. Stahn, S. Ehlert, S. Grimme, J. Phys. Chem. A,
     2023, XX, XXXX-XXXX. DOI: 10.1021/acs.jpca.3c04382
   
   for DFT-D4:
   * E. Caldeweyher, C. Bannwarth and S. Grimme, J. Chem. Phys., 2017,
     147, 034112. DOI: 10.1063/1.4993215
   * E. Caldeweyher, S. Ehlert, A. Hansen, H. Neugebauer, S. Spicher,
     C. Bannwarth and S. Grimme, J. Chem. Phys., 2019, 150, 154122.
     DOI: 10.1063/1.5090222
   * E. Caldeweyher, J.-M. Mewes, S. Ehlert and S. Grimme, Phys. Chem. Chem. Phys.
     2020, 22, 8499-8512. DOI: 10.1039/D0CP00502A
   
   for sTDA-xTB:
   * S. Grimme and C. Bannwarth, J. Chem. Phys., 2016, 145, 054103.
     DOI: 10.1063/1.4959605
   
   in the mass-spec context:
   * V. Asgeirsson, C. Bauer and S. Grimme, Chem. Sci., 2017, 8, 4879.
     DOI: 10.1039/c7sc00601b
   * J. Koopman and S. Grimme, ACS Omega 2019, 4, 12, 15120-15133.
     DOI: 10.1021/acsomega.9b02011
   
   for metadynamics refer to:
   * S. Grimme, J. Chem. Theory Comput., 2019, 155, 2847-2862
     DOI: 10.1021/acs.jctc.9b00143
   
   for SPH calculations refer to:
   * S. Spicher and S. Grimme, J. Chem. Theory Comput., 2021, 17, 1701-1714
     DOI: 10.1021/acs.jctc.0c01306
   
   for ONIOM refer to:
   * C. Plett, A. Katbashev, S. Ehlert, S. Grimme, M. Bursch,
     Phys. Chem. Chem. Phys., 2023, 25, 17860-17868. DOI: 10.1039/D3CP02178E
   
   for DIPRO refer to:
   * J. Kohn, N. Gildemeister, S. Grimme, D. Fazzi, A. Hansen,
     J. Chem. Phys., 2023, just accepted.
   
   for PTB refer to:
   * S. Grimme, M. Mueller, A. Hansen, J. Chem. Phys., 2023, 158, 124111.
     DOI: 10.1063/5.0137838
   
   with help from (in alphabetical order)
   P. Atkinson, C. Bannwarth, F. Bohle, G. Brandenburg, E. Caldeweyher
   M. Checinski, S. Dohm, S. Ehlert, S. Ehrlich, I. Gerasimov, C. Hölzer
   A. Katbashev, J. Kohn, J. Koopman, C. Lavigne, S. Lehtola, F. März, M. Müller,
   F. Musil, H. Neugebauer, J. Pisarek, C. Plett, P. Pracht, F. Pultar,
   J. Seibert, P. Shushkov, S. Spicher, M. Stahn, M. Steiner, T. Strunk,
   J. Stückrath, T. Rose, and J. Unsleber
   
 * started run on 2026/03/26 at 13:20:41.409     
   ID    Z sym.   atoms
    1    6 C      1, 2, 4, 6-8, 24
    2    8 O      3, 10, 11, 13, 16, 22
    3    1 H      5, 9, 12, 14, 15, 17-21, 23, 25-27

           -------------------------------------------------
          |                Calculation Setup                |
           -------------------------------------------------

          program call               : /home/kmoult/orca_6_1/otool_xtb goat_0_XTB.xyz --grad -c 0 -u 0 -P 4 --namespace goat_0 --input goat_0_XTB.input.tmp --alpb ACETONE --acc 0.200000
          hostname                   : node1619
          calculation namespace      : goat_0
          coordinate file            : goat_0_XTB.xyz
          omp threads                :                     4


           -------------------------------------------------
          |                 G F N 2 - x T B                 |
           -------------------------------------------------

        Reference                      10.1021/acs.jctc.8b01176
      * Hamiltonian:
        H0-scaling (s, p, d)           1.850000    2.230000    2.230000
        zeta-weighting                 0.500000
      * Dispersion:
        s8                             2.700000
        a1                             0.520000
        a2                             5.000000
        s9                             5.000000
      * Repulsion:
        kExp                           1.500000    1.000000
        rExp                           1.000000
      * Coulomb:
        alpha                          2.000000
        third order                    shell-resolved
        anisotropic                    true
        a3                             3.000000
        a5                             4.000000
        cn-shift                       1.200000
        cn-exp                         4.000000
        max-rad                        5.000000

      * Solvation model:               ALPB
        Solvent                        ACETONE
        Parameter file                 internal GFN2-xTB/ALPB
        Dielectric constant                2.0700E+01
        Reference state                gsolv [1 M gas/solution]
        Free energy shift                  5.9241E-03 Eh       3.7175E+00 kcal/mol
        Temperature                        2.9815E+02 K
        Density                            7.9000E-01 kg/L
        Solvent mass                       5.8080E+01 g/mol
        Interaction kernel             P16
        Born radius scaling (c1)           1.8274E+00
        Born radii integrator          GBOBC
        Born offset                        0.0000E+00 a0       0.0000E+00 AA
        H-bond correction              true
        Ion screening                  false
        Surface tension                    1.0000E-05 Eh       1.5569E+01 dyn/cm
        Grid points                               230 per atom

          ...................................................
          :                      SETUP                      :
          :.................................................:
          :  # basis functions                  66          :
          :  # atomic orbitals                  66          :
          :  # shells                           40          :
          :  # electrons                        78          :
          :  max. iterations                   250          :
          :  Hamiltonian                  GFN2-xTB          :
          :  restarted?                      false          :
          :  GBSA solvation                   true          :
          :  PC potential                    false          :
          :  electronic temp.          300.0000000     K    :
          :  accuracy                    0.2000000          :
          :  -> integral cutoff          0.3198970E+02      :
          :  -> integral neglect         0.2000000E-08      :
          :  -> SCF convergence          0.2000000E-06 Eh   :
          :  -> wf. convergence          0.2000000E-04 e    :
          :  Broyden damping             0.4000000          :
          :  net charge                          0          :
          :  unpaired electrons                  0          :
          ...................................................

 iter      E             dE          RMSdq      gap      omega  full diag
   1    -46.8159803 -0.468160E+02  0.480E+00    9.78       0.0  T
   2    -46.8712479 -0.552676E-01  0.254E+00    9.54       1.0  T
   3    -46.8726141 -0.136627E-02  0.809E-01    9.63       1.0  T
   4    -46.8737885 -0.117441E-02  0.167E-01    9.56       1.0  T
   5    -46.8738995 -0.111004E-03  0.858E-02    9.59       1.0  T
   6    -46.8739117 -0.121148E-04  0.205E-02    9.60       1.0  T
   7    -46.8739131 -0.142309E-05  0.830E-03    9.60       2.3  T
   8    -46.8739134 -0.286346E-06  0.212E-03    9.60       9.1  T
   9    -46.8739134 -0.988089E-08  0.104E-03    9.60      18.5  T
  10    -46.8739134 -0.235749E-08  0.266E-04    9.60      72.4  T
  11    -46.8739134 -0.264421E-09  0.117E-04    9.60     163.9  T
  12    -46.8739134 -0.506191E-10  0.526E-05    9.60     365.8  T

   *** convergence criteria satisfied after 12 iterations ***

         #    Occupation            Energy/Eh            Energy/eV
      -------------------------------------------------------------
         1        2.0000           -0.7284829             -19.8230
       ...           ...                  ...                  ...
        33        2.0000           -0.4569767             -12.4350
        34        2.0000           -0.4459981             -12.1362
        35        2.0000           -0.4311846             -11.7331
        36        2.0000           -0.4259821             -11.5916
        37        2.0000           -0.4205856             -11.4447
        38        2.0000           -0.4178091             -11.3692
        39        2.0000           -0.4122304             -11.2174 (HOMO)
        40                         -0.0594716              -1.6183 (LUMO)
        41                         -0.0345095              -0.9391
        42                         -0.0094891              -0.2582
        43                          0.0175038               0.4763
        44                          0.0280052               0.7621
       ...                                ...                  ...
        66                          0.2660542               7.2397
      -------------------------------------------------------------
                  HL-Gap            0.3527589 Eh            9.5991 eV
             Fermi-level           -0.2358510 Eh           -6.4178 eV

 SCC (total)                   0 d,  0 h,  0 min,  0.097 sec
 SCC setup                      ...        0 min,  0.014 sec ( 14.220%)
 Dispersion                     ...        0 min,  0.002 sec (  2.452%)
 classical contributions        ...        0 min,  0.000 sec (  0.038%)
 integral evaluation            ...        0 min,  0.010 sec ( 10.772%)
 iterations                     ...        0 min,  0.060 sec ( 61.358%)
 molecular gradient             ...        0 min,  0.006 sec (  6.331%)
 printout                       ...        0 min,  0.005 sec (  4.792%)

         :::::::::::::::::::::::::::::::::::::::::::::::::::::
         ::                     SUMMARY                     ::
         :::::::::::::::::::::::::::::::::::::::::::::::::::::
         :: total energy             -46.542589664418 Eh    ::
         :: total w/o Gsasa/hb       -46.517484924924 Eh    ::
         :: gradient norm              0.065345041064 Eh/a0 ::
         :: HOMO-LUMO gap              9.599057026781 eV    ::
         ::.................................................::
         :: SCC energy               -46.873704204004 Eh    ::
         :: -> isotropic ES            0.144519160335 Eh    ::
         :: -> anisotropic ES         -0.006219237690 Eh    ::
         :: -> anisotropic XC         -0.006473336458 Eh    ::
         :: -> dispersion             -0.021281586012 Eh    ::
         :: -> Gsolv                  -0.028624656387 Eh    ::
         ::    -> Gelec               -0.003519916892 Eh    ::
         ::    -> Gsasa               -0.020434551291 Eh    ::
         ::    -> Ghb                 -0.010594329468 Eh    ::
         ::    -> Gshift               0.005924141264 Eh    ::
         :: repulsion energy           0.331114539586 Eh    ::
         :: add. restraining           0.000000000000 Eh    ::
         :: total charge               0.000000000000 e     ::
         :::::::::::::::::::::::::::::::::::::::::::::::::::::


Property printout bound to 'properties.out'

           -------------------------------------------------
          | TOTAL ENERGY              -46.542589664418 Eh   |
          | GRADIENT NORM               0.065345041064 Eh/α |
          | HOMO-LUMO GAP               9.599057026781 eV   |
           -------------------------------------------------

------------------------------------------------------------------------
 * finished run on 2026/03/26 at 13:20:41.654     
------------------------------------------------------------------------
 total:
 * wall-time:     0 d,  0 h,  0 min,  0.245 sec
 *  cpu-time:     0 d,  0 h,  0 min,  0.598 sec
 * ratio c/w:     2.442 speedup
 SCF:
 * wall-time:     0 d,  0 h,  0 min,  0.105 sec
 *  cpu-time:     0 d,  0 h,  0 min,  0.261 sec
 * ratio c/w:     2.483 speedup


-------------------------   --------------------
FINAL SINGLE POINT ENERGY       -46.542589664420
-------------------------   --------------------


-------------
DIPOLE MOMENT
-------------
                                X             Y             Z
Total Dipole Moment    :      1.56900       0.47100      -0.61000
                        -----------------------------------------
Magnitude (a.u.)       :      1.74806
Magnitude (Debye)      :      4.44321


------------------
CARTESIAN GRADIENT
------------------

   1   C   :   -0.002538527   -0.002978574   -0.001481613
   2   C   :    0.009090885    0.010394308    0.007743890
   3   O   :   -0.000856090    0.011089060    0.007799753
   4   C   :   -0.003214767   -0.007536167   -0.018073162
   5   H   :   -0.000861742    0.003506129    0.001324783
   6   C   :   -0.011635447   -0.006576586   -0.020591691
   7   C   :   -0.013860814    0.008761224    0.005119194
   8   C   :   -0.001823937    0.017727533   -0.005695303
   9   H   :    0.004596667   -0.005372491   -0.000833536
  10   O   :    0.004596353   -0.017586646   -0.004531121
  11   O   :   -0.010220183   -0.009774518    0.002076096
  12   H   :   -0.000976879   -0.006987540    0.002747467
  13   O   :   -0.009931986   -0.000299460   -0.006823807
  14   H   :   -0.003235011   -0.003958242   -0.001859427
  15   H   :   -0.001788140   -0.000188205    0.005246673
  16   O   :   -0.004150496    0.002164915    0.009917993
  17   H   :   -0.004539505    0.003540196   -0.003272241
  18   H   :    0.008329050    0.002461070    0.000689448
  19   H   :    0.001457253   -0.009412497    0.003737478
  20   H   :    0.010301654   -0.002172668   -0.001659291
  21   H   :    0.005740270    0.007780541    0.004468709
  22   O   :    0.022452858    0.001339534    0.010716780
  23   H   :    0.002635952    0.000310112    0.004517801
  24   C   :   -0.003316240   -0.003242652   -0.002865918
  25   H   :   -0.000059034    0.001701739    0.001986863
  26   H   :    0.001651504    0.000143033    0.000595687
  27   H   :    0.002156354    0.005166855   -0.001001504

Difference to translation invariance:
           :   -0.0000000000    0.0000000000   -0.0000000000

Difference to rotation invariance:
           :   -0.0008800959   -0.0001919323    0.0005606422

Norm of the Cartesian gradient     ...    0.0653450411
RMS gradient                       ...    0.0072605601
MAX gradient                       ...    0.0224528575
------------------------------------------------------------------------------
                         ORCA GEOMETRY RELAXATION STEP
------------------------------------------------------------------------------

Reading the OPT-File                    .... done
Getting information on internals        .... done
Copying old internal coords+grads       .... done
Making the new internal coordinates     .... (2022 redundants) done
Validating the new internal coordinates .... (2022 redundants) done
Calculating the B-matrix                .... done
Calculating the G,G- and P matrices     .... done
Transforming gradient to internals      .... done
Projecting the internal gradient        .... done
Number of atoms                         ....  27
Number of internal coordinates          .... 133
Current Energy                          ....   -46.542589664 Eh
Current gradient norm                   ....     0.065345041 Eh/bohr
Maximum allowed component of the step   ....  0.300
Current trust radius                    ....  0.300
Evaluating the initial hessian          ....  (Almloef) done
Projecting the Hessian                  .... done
Forming the augmented Hessian           .... done
Diagonalizing the augmented Hessian     .... done
Last element of RFO vector              ....  0.983847611
Lowest eigenvalues of augmented Hessian:
 -0.008024057  0.010687161  0.015497739  0.015968706  0.016939906
Length of the computed step             ....  0.181946914
The final length of the internal step   ....  0.181946914
Converting the step to Cartesian space:
 Initial RMS(Int)=    0.0157767983
Transforming coordinates:
 Iter   0:  RMS(Cart)=    0.0357067326 RMS(Int)=    0.0157918010
done
Storing new coordinates                 .... done

                                .--------------------.
          ----------------------|Geometry convergence|-------------------------
          Item                value                   Tolerance       Converged
          ---------------------------------------------------------------------
          RMS gradient        0.0047162153            0.0001000000      NO
          MAX gradient        0.0249386629            0.0003000000      NO
          RMS step            0.0157767983            0.0020000000      NO
          MAX step            0.0510401295            0.0040000000      NO
          -------------------------------------------------------------------------
          ........................................................
          Max(Bonds)      0.0270      Max(Angles)    1.97
          Max(Dihed)        1.90      Max(Improp)    0.00
          ---------------------------------------------------------------------

    ---------------------------------------------------------------------------
                         Redundant Internal Coordinates
                            (Angstroem and degrees)

        Definition                    Value    dE/dq     Step     New-Value
    ----------------------------------------------------------------------------
     1. B(C   1,C   0)                1.5373  0.006296 -0.0092    1.5281   
     2. B(O   2,C   0)                1.4410  0.013286 -0.0156    1.4255   
     3. B(C   3,C   0)                1.5341  0.003139 -0.0042    1.5299   
     4. B(H   4,C   0)                1.0979 -0.001135  0.0017    1.0996   
     5. B(C   5,O   2)                1.4252  0.013985 -0.0156    1.4096   
     6. B(C   6,C   5)                1.5383  0.006767 -0.0087    1.5296   
     7. B(C   7,C   1)                1.5302  0.003072 -0.0023    1.5279   
     8. B(C   7,C   6)                1.5242  0.003031 -0.0026    1.5215   
     9. B(H   8,C   6)                1.0972 -0.000747  0.0011    1.0983   
    10. B(O   9,C   6)                1.4368  0.014580 -0.0154    1.4214   
    11. B(O  10,C   7)                1.4366  0.012524 -0.0131    1.4235   
    12. B(H  11,C   7)                1.0974 -0.002019  0.0030    1.1004   
    13. B(O  12,C   1)                1.4313  0.013002 -0.0134    1.4179   
    14. B(H  13,C   1)                1.0969 -0.000932  0.0014    1.0983   
    15. B(H  14,C   3)                1.0952 -0.002300  0.0034    1.0985   
    16. B(O  15,C   3)                1.4289  0.011393 -0.0121    1.4167   
    17. B(H  16,C   3)                1.0937  0.003791 -0.0055    1.0882   
    18. B(H  17,O   2)                2.2388 -0.000592  0.0131    2.2519   
    19. B(H  17,O  15)                0.9767  0.008377 -0.0090    0.9677   
    20. B(H  18,O  10)                2.3776 -0.001472  0.0193    2.3969   
    21. B(H  18,O  12)                0.9791  0.009541 -0.0105    0.9685   
    22. B(H  19,O   9)                2.3584 -0.001301  0.0212    2.3796   
    23. B(H  19,O  10)                0.9790  0.009859 -0.0108    0.9682   
    24. B(H  20,O   9)                0.9788  0.009698 -0.0106    0.9682   
    25. B(O  21,H  20)                2.3620 -0.001029  0.0104    2.3724   
    26. B(O  21,C   5)                1.4328  0.024939 -0.0270    1.4058   
    27. B(H  22,C   5)                1.0983 -0.004178  0.0062    1.1045   
    28. B(C  23,O  21)                1.4218  0.003970 -0.0042    1.4177   
    29. B(H  24,C  23)                1.0939  0.001620 -0.0024    1.0916   
    30. B(H  25,C  23)                1.0943 -0.000391  0.0006    1.0948   
    31. B(H  26,C  23)                1.0934  0.003032 -0.0044    1.0890   
    32. A(C   1,C   0,H   4)          109.98  0.002299   -0.41    109.57   
    33. A(O   2,C   0,H   4)          109.13 -0.001091    0.40    109.53   
    34. A(C   3,C   0,H   4)          107.79 -0.003043    0.97    108.76   
    35. A(C   1,C   0,O   2)          111.33 -0.000797   -0.06    111.27   
    36. A(O   2,C   0,C   3)          106.91  0.002611   -0.63    106.27   
    37. A(C   1,C   0,C   3)          111.58 -0.000100   -0.22    111.36   
    38. A(O  12,C   1,H  13)          107.48 -0.003853    1.23    108.71   
    39. A(C   0,C   1,H  13)          110.87  0.000883   -0.70    110.17   
    40. A(C   0,C   1,O  12)          110.58  0.004954   -1.43    109.15   
    41. A(C   0,C   1,C   7)          110.09  0.000195   -0.03    110.06   
    42. A(C   7,C   1,H  13)          109.30  0.001181   -0.01    109.29   
    43. A(C   7,C   1,O  12)          108.45 -0.003561    1.01    109.46   
    44. A(C   0,O   2,C   5)          112.57 -0.002261    0.24    112.81   
    45. A(H  14,C   3,O  15)          106.83 -0.003754    1.66    108.49   
    46. A(C   0,C   3,O  15)          110.43 -0.003594    0.67    111.10   
    47. A(C   0,C   3,H  14)          110.06  0.003086   -0.28    109.79   
    48. A(C   0,C   3,H  16)          112.12  0.003751   -1.40    110.72   
    49. A(O  15,C   3,H  16)          108.84  0.004113   -1.13    107.71   
    50. A(H  14,C   3,H  16)          108.39 -0.003962    0.61    109.00   
    51. A(C   6,C   5,H  22)          110.32  0.000806   -0.02    110.30   
    52. A(O   2,C   5,H  22)          110.42  0.000371   -0.23    110.19   
    53. A(O  21,C   5,H  22)          108.33 -0.002594    0.80    109.13   
    54. A(C   6,C   5,O  21)          106.64 -0.000678    0.22    106.86   
    55. A(O   2,C   5,C   6)          110.35 -0.001299    0.16    110.51   
    56. A(O   2,C   5,O  21)          110.69  0.003361   -0.90    109.79   
    57. A(C   7,C   6,O   9)          108.86  0.003359   -0.41    108.45   
    58. A(C   5,C   6,O   9)          111.47 -0.000296   -0.20    111.27   
    59. A(C   7,C   6,H   8)          109.99 -0.000611    0.02    110.01   
    60. A(C   5,C   6,H   8)          110.66  0.002641   -0.77    109.89   
    61. A(C   5,C   6,C   7)          109.34  0.000453   -0.35    108.98   
    62. A(H   8,C   6,O   9)          106.48 -0.005645    1.76    108.24   
    63. A(C   1,C   7,C   6)          110.81  0.003855   -0.53    110.28   
    64. A(O  10,C   7,H  11)          105.48 -0.010939    1.97    107.44   
    65. A(C   6,C   7,H  11)          110.51  0.004848   -0.64    109.87   
    66. A(C   1,C   7,H  11)          110.31  0.003864   -0.59    109.72   
    67. A(C   6,C   7,O  10)          110.38 -0.003526    0.54    110.92   
    68. A(C   1,C   7,O  10)          109.21  0.001190   -0.63    108.58   
    69. A(C   6,O   9,H  20)          104.99 -0.004945    0.97    105.96   
    70. A(C   7,O  10,H  19)          105.11 -0.002722    0.59    105.69   
    71. A(C   1,O  12,H  18)          105.01 -0.001311    0.42    105.43   
    72. A(C   3,O  15,H  17)          105.49 -0.001738    0.31    105.81   
    73. A(C   5,O  21,C  23)          111.94 -0.007348    1.05    112.99   
    74. A(H  25,C  23,H  26)          108.48 -0.003202    0.59    109.07   
    75. A(H  24,C  23,H  26)          108.35 -0.003443    0.67    109.01   
    76. A(O  21,C  23,H  26)          108.19  0.006587   -1.10    107.09   
    77. A(H  24,C  23,H  25)          110.24  0.000784   -0.21    110.03   
    78. A(O  21,C  23,H  25)          110.64 -0.000245    0.00    110.64   
    79. A(O  21,C  23,H  24)          110.86 -0.000514    0.06    110.92   
    80. D(O  12,C   1,C   0,H   4)    -52.48  0.001193   -0.34    -52.82   
    81. D(C   7,C   1,C   0,H   4)     67.34  0.000045   -0.01     67.33   
    82. D(O  12,C   1,C   0,C   3)     67.08 -0.001163    0.46     67.54   
    83. D(C   7,C   1,C   0,C   3)   -173.10 -0.002311    0.79   -172.31   
    84. D(O  12,C   1,C   0,O   2)   -173.57  0.001542   -0.53   -174.10   
    85. D(C   7,C   1,C   0,O   2)    -53.75  0.000393   -0.20    -53.95   
    86. D(C   5,O   2,C   0,C   1)     59.64  0.000441    0.09     59.73   
    87. D(C   5,O   2,C   0,C   3)   -178.26  0.001537   -0.63   -178.89   
    88. D(C   5,O   2,C   0,H   4)    -61.94 -0.001193    0.37    -61.57   
    89. D(H  14,C   3,C   0,O   2)     64.15 -0.003013    1.01     65.16   
    90. D(O  15,C   3,C   0,C   1)     68.38  0.002560   -1.89     66.49   
    91. D(H  14,C   3,C   0,H   4)    -53.07 -0.001549    0.38    -52.69   
    92. D(O  15,C   3,C   0,O   2)    -53.56  0.001893   -1.27    -54.83   
    93. D(O  15,C   3,C   0,H   4)   -170.77  0.003357   -1.90   -172.67   
    94. D(H  14,C   3,C   0,C   1)   -173.91 -0.002346    0.39   -173.52   
    95. D(H  22,C   5,O   2,C   0)     60.49  0.000346   -0.41     60.08   
    96. D(O  21,C   5,O   2,C   0)   -179.55 -0.000478   -0.15   -179.70   
    97. D(C   6,C   5,O   2,C   0)    -61.74 -0.000045   -0.34    -62.08   
    98. D(H   8,C   6,C   5,H  22)    174.72 -0.002094    1.29    176.01   
    99. D(H   8,C   6,C   5,O  21)     57.28  0.000956    0.22     57.51   
   100. D(H   8,C   6,C   5,O   2)    -62.99 -0.001957    1.09    -61.91   
   101. D(C   7,C   6,C   5,H  22)    -63.98 -0.000869    0.59    -63.39   
   102. D(C   7,C   6,C   5,O  21)    178.58  0.002181   -0.48    178.11   
   103. D(C   7,C   6,C   5,O   2)     58.30 -0.000732    0.39     58.70   
   104. D(O  10,C   7,C   1,H  13)     51.96 -0.003409    1.16     53.12   
   105. D(O  10,C   7,C   1,O  12)    -64.93  0.002542   -0.87    -65.81   
   106. D(O  10,C   7,C   1,C   0)    173.96 -0.001418    0.26    174.22   
   107. D(C   6,C   7,C   1,H  13)    -69.84 -0.002281    1.25    -68.59   
   108. D(C   6,C   7,C   1,O  12)    173.26  0.003670   -0.78    172.48   
   109. D(C   1,C   7,C   6,C   5)    -54.20  0.000130   -0.28    -54.48   
   110. D(C   6,C   7,C   1,C   0)     52.16 -0.000290    0.35     52.51   
   111. D(O  10,C   7,C   6,O   9)     62.69 -0.003592    1.23     63.92   
   112. D(O  10,C   7,C   6,H   8)    -53.62  0.001610   -0.66    -54.28   
   113. D(O  10,C   7,C   6,C   5)   -175.32 -0.001568    0.51   -174.81   
   114. D(C   1,C   7,C   6,O   9)   -176.19 -0.001894    0.45   -175.75   
   115. D(C   1,C   7,C   6,H   8)     67.50  0.003308   -1.45     66.05   
   116. D(H  20,O   9,C   6,H   8)    -68.32 -0.000295    0.10    -68.22   
   117. D(H  20,O   9,C   6,C   7)    173.14  0.001774   -0.68    172.46   
   118. D(H  20,O   9,C   6,C   5)     52.46 -0.000821    0.16     52.61   
   119. D(H  19,O  10,C   7,H  11)     72.69 -0.000645    0.22     72.91   
   120. D(H  19,O  10,C   7,C   6)    -46.69  0.001813   -0.44    -47.13   
   121. D(H  19,O  10,C   7,C   1)   -168.76 -0.001500    0.29   -168.47   
   122. D(H  18,O  12,C   1,H  13)    -65.24  0.001832   -1.24    -66.47   
   123. D(H  18,O  12,C   1,C   7)     52.82 -0.000779   -0.03     52.79   
   124. D(H  18,O  12,C   1,C   0)    173.62  0.000229   -0.30    173.32   
   125. D(H  17,O  15,C   3,H  16)    173.62  0.003608   -1.79    171.83   
   126. D(H  17,O  15,C   3,H  14)    -69.54 -0.000949   -0.76    -70.30   
   127. D(H  17,O  15,C   3,C   0)     50.14 -0.001500    0.28     50.42   
   128. D(C  23,O  21,C   5,H  22)     55.66  0.001009   -1.24     54.42   
   129. D(C  23,O  21,C   5,C   6)    174.41  0.000233   -0.73    173.68   
   130. D(C  23,O  21,C   5,O   2)    -65.54  0.000146   -0.91    -66.45   
   131. D(H  26,C  23,O  21,C   5)   -177.62  0.000037   -0.31   -177.93   
   132. D(H  25,C  23,O  21,C   5)    -58.91  0.000014   -0.26    -59.17   
   133. D(H  24,C  23,O  21,C   5)     63.71  0.000488   -0.48     63.23   
    ----------------------------------------------------------------------------

Geometry step timings:
Preparation and reading OPT file:      0.000 s ( 2.216 %)
Internal coordinates            :      0.000 s ( 0.519 %)
B/P matrices and projection     :      0.001 s (17.919 %)
Hessian update/contruction      :      0.002 s (30.384 %)
Making the step                 :      0.002 s (28.592 %)
Converting the step to Cartesian:      0.000 s ( 1.949 %)
Storing new data                :      0.000 s ( 5.266 %)
Checking convergence            :      0.000 s ( 0.503 %)
Final printing                  :      0.001 s (12.638 %)
Total time                      :      0.006 s

Time for energy+gradient        :      0.267 s
Time for complete geometry iter :      0.277 s

         *************************************************************
         *                GEOMETRY OPTIMIZATION CYCLE   2            *
         *************************************************************
---------------------------------
CARTESIAN COORDINATES (ANGSTROEM)
---------------------------------
  C    -1.204740    0.517527   -0.385299
  C    -1.431276   -0.934274    0.034330
  O    -0.008424    1.040519    0.186756
  C    -2.341252    1.420800    0.097379
  H    -1.145501    0.579021   -1.481600
  C     1.140473    0.317592   -0.193196
  C     1.049647   -1.128866    0.295955
  C    -0.196762   -1.773060   -0.292873
  H     1.000902   -1.149830    1.392933
  O     2.182351   -1.883740   -0.113565
  O    -0.386894   -3.083366    0.230039
  H    -0.089447   -1.865887   -1.384068
  O    -2.552013   -1.450852   -0.663898
  H    -1.631945   -0.989922    1.112719
  H    -2.213259    2.431178   -0.314369
  O    -2.356042    1.510515    1.511221
  H    -3.305632    1.028611   -0.219368
  H    -1.450954    1.734101    1.770731
  H    -2.581403   -2.393338   -0.442859
  H     0.475892   -3.518115    0.167753
  H     2.956917   -1.379867    0.175427
  O     2.278432    0.881301    0.409838
  H     1.261837    0.344076   -1.290717
  C     2.569040    2.184677   -0.066093
  H     1.761916    2.877782    0.178277
  H     2.737698    2.171869   -1.147777
  H     3.480437    2.511548    0.432321

----------------------------
CARTESIAN COORDINATES (A.U.)
----------------------------
  NO LB    ZA    FRAG    MASS        X           Y           Z
   0 C   6.0000    1    12.011   -2.276629    0.977984   -0.728110
   1 C   6.0000    1    12.011   -2.704720   -1.765521    0.064874
   2 O   8.0000    1    15.999   -0.015918    1.966296    0.352918
   3 C   6.0000    1    12.011   -4.424326    2.684922    0.184021
   4 H   1.0000    1     1.008   -2.164683    1.094191   -2.799819
   5 C   6.0000    1    12.011    2.155182    0.600162   -0.365087
   6 C   6.0000    1    12.011    1.983546   -2.133247    0.559274
   7 C   6.0000    1    12.011   -0.371827   -3.350598   -0.553450
   8 H   1.0000    1     1.008    1.891431   -2.172864    2.632262
   9 O   8.0000    1    15.999    4.124046   -3.559754   -0.214607
  10 O   8.0000    1    15.999   -0.731123   -5.826718    0.434711
  11 H   1.0000    1     1.008   -0.169031   -3.526015   -2.615509
  12 O   8.0000    1    15.999   -4.822606   -2.741713   -1.254585
  13 H   1.0000    1     1.008   -3.083928   -1.870681    2.102734
  14 H   1.0000    1     1.008   -4.182453    4.594260   -0.594072
  15 O   8.0000    1    15.999   -4.452273    2.854459    2.855794
  16 H   1.0000    1     1.008   -6.246739    1.943793   -0.414545
  17 H   1.0000    1     1.008   -2.741906    3.276975    3.346197
  18 H   1.0000    1     1.008   -4.878146   -4.522753   -0.836882
  19 H   1.0000    1     1.008    0.899306   -6.648274    0.317008
  20 H   1.0000    1     1.008    5.587764   -2.607570    0.331509
  21 O   8.0000    1    15.999    4.305612    1.665418    0.774482
  22 H   1.0000    1     1.008    2.384526    0.650210   -2.439102
  23 C   6.0000    1    12.011    4.854782    4.128441   -0.124898
  24 H   1.0000    1     1.008    3.329539    5.438220    0.336894
  25 H   1.0000    1     1.008    5.173500    4.104237   -2.168984
  26 H   1.0000    1     1.008    6.577072    4.746138    0.816969

      -----------------------------------------------------------      
     |                   =====================                   |     
     |                           x T B                           |     
     |                   =====================                   |     
     |                         S. Grimme                         |     
     |          Mulliken Center for Theoretical Chemistry        |     
     |                    University of Bonn                     |     
      -----------------------------------------------------------      

   * xtb version 6.7.1 (edcfbbe) compiled by 'albert@albert-system' on 2024-07-22

   xtb is free software: you can redistribute it and/or modify it under
   the terms of the GNU Lesser General Public License as published by
   the Free Software Foundation, either version 3 of the License, or
   (at your option) any later version.
   
   xtb is distributed in the hope that it will be useful,
   but WITHOUT ANY WARRANTY; without even the implied warranty of
   MERCHANTABILITY or FITNESS FOR A PARTICULAR PURPOSE.  See the
   GNU Lesser General Public License for more details.
   
   Cite this work as:
   * C. Bannwarth, E. Caldeweyher, S. Ehlert, A. Hansen, P. Pracht,
     J. Seibert, S. Spicher, S. Grimme, WIREs Comput. Mol. Sci., 2020, 11,
     e01493. DOI: 10.1002/wcms.1493
   
   for GFN2-xTB:
   * C. Bannwarth, S. Ehlert and S. Grimme., J. Chem. Theory Comput., 2019,
     15, 1652-1671. DOI: 10.1021/acs.jctc.8b01176
   for GFN1-xTB:
   * S. Grimme, C. Bannwarth, P. Shushkov, J. Chem. Theory Comput., 2017,
     13, 1989-2009. DOI: 10.1021/acs.jctc.7b00118
   for GFN0-xTB:
   * P. Pracht, E. Caldeweyher, S. Ehlert, S. Grimme, ChemRxiv, 2019, preprint.
     DOI: 10.26434/chemrxiv.8326202.v1
   for GFN-FF:
   * S. Spicher and S. Grimme, Angew. Chem. Int. Ed., 2020, 59, 15665-15673.
     DOI: 10.1002/anie.202004239
   
   for ALPB and GBSA implicit solvation:
   * S. Ehlert, M. Stahn, S. Spicher, S. Grimme, J. Chem. Theory Comput.,
     2021, 17, 4250-4261. DOI: 10.1021/acs.jctc.1c00471
   
   for ddCOSMO and CPCM-X implicit solvation:
   * M. Stahn, S. Ehlert, S. Grimme, J. Phys. Chem. A,
     2023, XX, XXXX-XXXX. DOI: 10.1021/acs.jpca.3c04382
   
   for DFT-D4:
   * E. Caldeweyher, C. Bannwarth and S. Grimme, J. Chem. Phys., 2017,
     147, 034112. DOI: 10.1063/1.4993215
   * E. Caldeweyher, S. Ehlert, A. Hansen, H. Neugebauer, S. Spicher,
     C. Bannwarth and S. Grimme, J. Chem. Phys., 2019, 150, 154122.
     DOI: 10.1063/1.5090222
   * E. Caldeweyher, J.-M. Mewes, S. Ehlert and S. Grimme, Phys. Chem. Chem. Phys.
     2020, 22, 8499-8512. DOI: 10.1039/D0CP00502A
   
   for sTDA-xTB:
   * S. Grimme and C. Bannwarth, J. Chem. Phys., 2016, 145, 054103.
     DOI: 10.1063/1.4959605
   
   in the mass-spec context:
   * V. Asgeirsson, C. Bauer and S. Grimme, Chem. Sci., 2017, 8, 4879.
     DOI: 10.1039/c7sc00601b
   * J. Koopman and S. Grimme, ACS Omega 2019, 4, 12, 15120-15133.
     DOI: 10.1021/acsomega.9b02011
   
   for metadynamics refer to:
   * S. Grimme, J. Chem. Theory Comput., 2019, 155, 2847-2862
     DOI: 10.1021/acs.jctc.9b00143
   
   for SPH calculations refer to:
   * S. Spicher and S. Grimme, J. Chem. Theory Comput., 2021, 17, 1701-1714
     DOI: 10.1021/acs.jctc.0c01306
   
   for ONIOM refer to:
   * C. Plett, A. Katbashev, S. Ehlert, S. Grimme, M. Bursch,
     Phys. Chem. Chem. Phys., 2023, 25, 17860-17868. DOI: 10.1039/D3CP02178E
   
   for DIPRO refer to:
   * J. Kohn, N. Gildemeister, S. Grimme, D. Fazzi, A. Hansen,
     J. Chem. Phys., 2023, just accepted.
   
   for PTB refer to:
   * S. Grimme, M. Mueller, A. Hansen, J. Chem. Phys., 2023, 158, 124111.
     DOI: 10.1063/5.0137838
   
   with help from (in alphabetical order)
   P. Atkinson, C. Bannwarth, F. Bohle, G. Brandenburg, E. Caldeweyher
   M. Checinski, S. Dohm, S. Ehlert, S. Ehrlich, I. Gerasimov, C. Hölzer
   A. Katbashev, J. Kohn, J. Koopman, C. Lavigne, S. Lehtola, F. März, M. Müller,
   F. Musil, H. Neugebauer, J. Pisarek, C. Plett, P. Pracht, F. Pultar,
   J. Seibert, P. Shushkov, S. Spicher, M. Stahn, M. Steiner, T. Strunk,
   J. Stückrath, T. Rose, and J. Unsleber
   
 * started run on 2026/03/26 at 13:20:41.682     
   ID    Z sym.   atoms
    1    6 C      1, 2, 4, 6-8, 24
    2    8 O      3, 10, 11, 13, 16, 22
    3    1 H      5, 9, 12, 14, 15, 17-21, 23, 25-27

           -------------------------------------------------
          |                Calculation Setup                |
           -------------------------------------------------

          program call               : /home/kmoult/orca_6_1/otool_xtb goat_0_XTB.xyz --grad -c 0 -u 0 -P 4 --namespace goat_0 --input goat_0_XTB.input.tmp --alpb ACETONE --acc 0.200000
          hostname                   : node1619
          calculation namespace      : goat_0
          coordinate file            : goat_0_XTB.xyz
          omp threads                :                     4


           -------------------------------------------------
          |                 G F N 2 - x T B                 |
           -------------------------------------------------

        Reference                      10.1021/acs.jctc.8b01176
      * Hamiltonian:
        H0-scaling (s, p, d)           1.850000    2.230000    2.230000
        zeta-weighting                 0.500000
      * Dispersion:
        s8                             2.700000
        a1                             0.520000
        a2                             5.000000
        s9                             5.000000
      * Repulsion:
        kExp                           1.500000    1.000000
        rExp                           1.000000
      * Coulomb:
        alpha                          2.000000
        third order                    shell-resolved
        anisotropic                    true
        a3                             3.000000
        a5                             4.000000
        cn-shift                       1.200000
        cn-exp                         4.000000
        max-rad                        5.000000

      * Solvation model:               ALPB
        Solvent                        ACETONE
        Parameter file                 internal GFN2-xTB/ALPB
        Dielectric constant                2.0700E+01
        Reference state                gsolv [1 M gas/solution]
        Free energy shift                  5.9241E-03 Eh       3.7175E+00 kcal/mol
        Temperature                        2.9815E+02 K
        Density                            7.9000E-01 kg/L
        Solvent mass                       5.8080E+01 g/mol
        Interaction kernel             P16
        Born radius scaling (c1)           1.8274E+00
        Born radii integrator          GBOBC
        Born offset                        0.0000E+00 a0       0.0000E+00 AA
        H-bond correction              true
        Ion screening                  false
        Surface tension                    1.0000E-05 Eh       1.5569E+01 dyn/cm
        Grid points                               230 per atom
q/qsh data taken from xtbrestart
CAMM data taken from xtbrestart

          ...................................................
          :                      SETUP                      :
          :.................................................:
          :  # basis functions                  66          :
          :  # atomic orbitals                  66          :
          :  # shells                           40          :
          :  # electrons                        78          :
          :  max. iterations                   250          :
          :  Hamiltonian                  GFN2-xTB          :
          :  restarted?                       true          :
          :  GBSA solvation                   true          :
          :  PC potential                    false          :
          :  electronic temp.          300.0000000     K    :
          :  accuracy                    0.2000000          :
          :  -> integral cutoff          0.3198970E+02      :
          :  -> integral neglect         0.2000000E-08      :
          :  -> SCF convergence          0.2000000E-06 Eh   :
          :  -> wf. convergence          0.2000000E-04 e    :
          :  Broyden damping             0.4000000          :
          :  net charge                          0          :
          :  unpaired electrons                  0          :
          ...................................................

 iter      E             dE          RMSdq      gap      omega  full diag
   1    -46.8933201 -0.468933E+02  0.162E-01   10.14       0.0  T
   2    -46.8933518 -0.317126E-04  0.971E-02   10.13       1.0  T
   3    -46.8933529 -0.105688E-05  0.212E-02   10.13       1.0  T
   4    -46.8933564 -0.351421E-05  0.632E-03   10.13       3.0  T
   5    -46.8933565 -0.126221E-06  0.286E-03   10.13       6.7  T
   6    -46.8933565 -0.203953E-07  0.139E-03   10.13      13.8  T
   7    -46.8933565 -0.629769E-08  0.264E-04   10.13      72.8  T
   8    -46.8933565 -0.244498E-09  0.125E-04   10.13     154.3  T
   9    -46.8933565 -0.416094E-10  0.508E-05   10.13     379.1  T

   *** convergence criteria satisfied after 9 iterations ***

         #    Occupation            Energy/Eh            Energy/eV
      -------------------------------------------------------------
         1        2.0000           -0.7317921             -19.9131
       ...           ...                  ...                  ...
        33        2.0000           -0.4558142             -12.4033
        34        2.0000           -0.4458254             -12.1315
        35        2.0000           -0.4306613             -11.7189
        36        2.0000           -0.4259344             -11.5903
        37        2.0000           -0.4194006             -11.4125
        38        2.0000           -0.4170845             -11.3494
        39        2.0000           -0.4114426             -11.1959 (HOMO)
        40                         -0.0391108              -1.0643 (LUMO)
        41                         -0.0203669              -0.5542
        42                          0.0059281               0.1613
        43                          0.0315172               0.8576
        44                          0.0488295               1.3287
       ...                                ...                  ...
        66                          0.2776810               7.5561
      -------------------------------------------------------------
                  HL-Gap            0.3723318 Eh           10.1317 eV
             Fermi-level           -0.2252767 Eh           -6.1301 eV

 SCC (total)                   0 d,  0 h,  0 min,  0.017 sec
 SCC setup                      ...        0 min,  0.001 sec (  3.032%)
 Dispersion                     ...        0 min,  0.000 sec (  1.279%)
 classical contributions        ...        0 min,  0.000 sec (  0.337%)
 integral evaluation            ...        0 min,  0.002 sec (  8.613%)
 iterations                     ...        0 min,  0.012 sec ( 71.096%)
 molecular gradient             ...        0 min,  0.003 sec ( 14.715%)
 printout                       ...        0 min,  0.000 sec (  0.779%)

         :::::::::::::::::::::::::::::::::::::::::::::::::::::
         ::                     SUMMARY                     ::
         :::::::::::::::::::::::::::::::::::::::::::::::::::::
         :: total energy             -46.548213585951 Eh    ::
         :: total w/o Gsasa/hb       -46.523168864000 Eh    ::
         :: gradient norm              0.037665884812 Eh/a0 ::
         :: HOMO-LUMO gap             10.131664580963 eV    ::
         ::.................................................::
         :: SCC energy               -46.893145879952 Eh    ::
         :: -> isotropic ES            0.142439135679 Eh    ::
         :: -> anisotropic ES         -0.007187681999 Eh    ::
         :: -> anisotropic XC         -0.007631609643 Eh    ::
         :: -> dispersion             -0.021546988582 Eh    ::
         :: -> Gsolv                  -0.028413490712 Eh    ::
         ::    -> Gelec               -0.003368768761 Eh    ::
         ::    -> Gsasa               -0.020278630005 Eh    ::
         ::    -> Ghb                 -0.010690233210 Eh    ::
         ::    -> Gshift               0.005924141264 Eh    ::
         :: repulsion energy           0.344932294001 Eh    ::
         :: add. restraining           0.000000000000 Eh    ::
         :: total charge              -0.000000000000 e     ::
         :::::::::::::::::::::::::::::::::::::::::::::::::::::


Property printout bound to 'properties.out'

           -------------------------------------------------
          | TOTAL ENERGY              -46.548213585951 Eh   |
          | GRADIENT NORM               0.037665884812 Eh/α |
          | HOMO-LUMO GAP              10.131664580963 eV   |
           -------------------------------------------------

------------------------------------------------------------------------
 * finished run on 2026/03/26 at 13:20:41.711     
------------------------------------------------------------------------
 total:
 * wall-time:     0 d,  0 h,  0 min,  0.028 sec
 *  cpu-time:     0 d,  0 h,  0 min,  0.098 sec
 * ratio c/w:     3.446 speedup
 SCF:
 * wall-time:     0 d,  0 h,  0 min,  0.018 sec
 *  cpu-time:     0 d,  0 h,  0 min,  0.067 sec
 * ratio c/w:     3.785 speedup


-------------------------   --------------------
FINAL SINGLE POINT ENERGY       -46.548213585950
-------------------------   --------------------


-------------
DIPOLE MOMENT
-------------
                                X             Y             Z
Total Dipole Moment    :      1.60100       0.40800      -0.56700
                        -----------------------------------------
Magnitude (a.u.)       :      1.74676
Magnitude (Debye)      :      4.43990


------------------
CARTESIAN GRADIENT
------------------

   1   C   :   -0.001529440   -0.005022239   -0.000141387
   2   C   :    0.007785909    0.007128534    0.005035175
   3   O   :    0.000548679    0.003328001    0.003811222
   4   C   :    0.000085930   -0.006430025   -0.011102624
   5   H   :   -0.000037088    0.002246659    0.000718466
   6   C   :   -0.008684170   -0.005653289   -0.011402980
   7   C   :   -0.009198723    0.008154005    0.003771141
   8   C   :    0.000832594    0.012447718   -0.003983171
   9   H   :    0.002987992   -0.003467545   -0.000553693
  10   O   :    0.004421907   -0.007530450   -0.001650118
  11   O   :   -0.003057099   -0.007269157    0.001506053
  12   H   :   -0.000824409   -0.004028577    0.001036747
  13   O   :   -0.005178710   -0.002523133   -0.002898631
  14   H   :   -0.002342850   -0.002115906   -0.001307978
  15   H   :   -0.001104917    0.000892958    0.002604752
  16   O   :   -0.000094678    0.001714124    0.006989981
  17   H   :   -0.000135527    0.002581865   -0.000402307
  18   H   :    0.001330426    0.000299045   -0.001416342
  19   H   :    0.001819604   -0.000996014    0.001590366
  20   H   :    0.002411721    0.001502681   -0.000768154
  21   H   :   -0.000666570    0.002835575    0.001382581
  22   O   :    0.009166310    0.001310129    0.004383844
  23   H   :    0.002277531    0.000922669    0.003064842
  24   C   :   -0.002818453   -0.003287198   -0.000946106
  25   H   :    0.000640828    0.000473409    0.001256787
  26   H   :    0.001169841    0.000060405    0.000472149
  27   H   :    0.000193362    0.002425755   -0.001050613

Difference to translation invariance:
           :    0.0000000000    0.0000000000   -0.0000000000

Difference to rotation invariance:
           :   -0.0009477077    0.0000150206    0.0003312557

Norm of the Cartesian gradient     ...    0.0376658848
RMS gradient                       ...    0.0041850983
MAX gradient                       ...    0.0124477183
------------------------------------------------------------------------------
                         ORCA GEOMETRY RELAXATION STEP
------------------------------------------------------------------------------

Reading the OPT-File                    .... done
Getting information on internals        .... done
Copying old internal coords+grads       .... done
Making the new internal coordinates     .... (2022 redundants) done
Validating the new internal coordinates .... (2022 redundants) done
Calculating the B-matrix                .... done
Calculating the G,G- and P matrices     .... done
Transforming gradient to internals      .... done
Projecting the internal gradient        .... done
Number of atoms                         ....  27
Number of internal coordinates          .... 133
Current Energy                          ....   -46.548213586 Eh
Current gradient norm                   ....     0.037665885 Eh/bohr
Maximum allowed component of the step   ....  0.300
Current trust radius                    ....  0.300
Updating the Hessian (BFGS)             .... done
Forming the augmented Hessian           .... done
Diagonalizing the augmented Hessian     .... done
Last element of RFO vector              ....  0.980663684
Lowest eigenvalues of augmented Hessian:
 -0.003355936  0.010677742  0.015495365  0.015966934  0.016943936
Length of the computed step             ....  0.199559378
The final length of the internal step   ....  0.199559378
Converting the step to Cartesian space:
 Initial RMS(Int)=    0.0173039926
Transforming coordinates:
 Iter   0:  RMS(Cart)=    0.0295866813 RMS(Int)=    0.0173251145
done
Storing new coordinates                 .... done
The predicted energy change is          ....    -0.001744792
Previously predicted energy change      ....    -0.004144845
Actually observed energy change         ....    -0.005623922
Ratio of predicted to observed change   ....     1.356847162
New trust radius                        ....     0.300000000

                                .--------------------.
          ----------------------|Geometry convergence|-------------------------
          Item                value                   Tolerance       Converged
          ---------------------------------------------------------------------
          Energy change      -0.0056239215            0.0000050000      NO
          RMS gradient        0.0019892428            0.0001000000      NO
          MAX gradient        0.0091934796            0.0003000000      NO
          RMS step            0.0173039926            0.0020000000      NO
          MAX step            0.0623717690            0.0040000000      NO
          -------------------------------------------------------------------------
          ........................................................
          Max(Bonds)      0.0330      Max(Angles)    1.91
          Max(Dihed)        2.19      Max(Improp)    0.00
          ---------------------------------------------------------------------

    ---------------------------------------------------------------------------
                         Redundant Internal Coordinates
                            (Angstroem and degrees)

        Definition                    Value    dE/dq     Step     New-Value
    ----------------------------------------------------------------------------
     1. B(C   1,C   0)                1.5281 -0.001485  0.0018    1.5299   
     2. B(O   2,C   0)                1.4255  0.003301 -0.0088    1.4166   
     3. B(C   3,C   0)                1.5299 -0.000900  0.0022    1.5321   
     4. B(H   4,C   0)                1.0996 -0.000595  0.0017    1.1013   
     5. B(C   5,O   2)                1.4096  0.002437 -0.0072    1.4024   
     6. B(C   6,C   5)                1.5296 -0.000277  0.0014    1.5310   
     7. B(C   7,C   1)                1.5280 -0.000784  0.0037    1.5317   
     8. B(C   7,C   6)                1.5216 -0.001153  0.0044    1.5260   
     9. B(H   8,C   6)                1.0983 -0.000625  0.0017    1.0999   
    10. B(O   9,C   6)                1.4215  0.006908 -0.0133    1.4082   
    11. B(O  10,C   7)                1.4235  0.007129 -0.0133    1.4102   
    12. B(H  11,C   7)                1.1004 -0.000761  0.0023    1.1027   
    13. B(O  12,C   1)                1.4179  0.005638 -0.0109    1.4069   
    14. B(H  13,C   1)                1.0983 -0.000753  0.0020    1.1003   
    15. B(H  14,C   3)                1.0985 -0.000285  0.0012    1.0997   
    16. B(O  15,C   3)                1.4168  0.006323 -0.0125    1.4042   
    17. B(H  16,C   3)                1.0882 -0.000697  0.0008    1.0890   
    18. B(H  17,O   2)                2.2519 -0.000865  0.0279    2.2798   
    19. B(H  17,O  15)                0.9677  0.000643 -0.0028    0.9650   
    20. B(H  18,O  10)                2.3968 -0.001385  0.0296    2.4264   
    21. B(H  18,O  12)                0.9685  0.000832 -0.0036    0.9649   
    22. B(H  19,O   9)                2.3796 -0.001468  0.0330    2.4126   
    23. B(H  19,O  10)                0.9681  0.001026 -0.0041    0.9641   
    24. B(H  20,O   9)                0.9682  0.000966 -0.0039    0.9643   
    25. B(O  21,H  20)                2.3724 -0.001293  0.0242    2.3966   
    26. B(O  21,C   5)                1.4058  0.009193 -0.0203    1.3855   
    27. B(H  22,C   5)                1.1045 -0.002774  0.0077    1.1122   
    28. B(C  23,O  21)                1.4177 -0.000398  0.0000    1.4177   
    29. B(H  24,C  23)                1.0916  0.000107 -0.0006    1.0910   
    30. B(H  25,C  23)                1.0948 -0.000296  0.0008    1.0956   
    31. B(H  26,C  23)                1.0890  0.000415 -0.0017    1.0873   
    32. A(C   1,C   0,H   4)          109.57  0.001719   -0.85    108.71   
    33. A(O   2,C   0,H   4)          109.53 -0.000658    0.36    109.89   
    34. A(C   3,C   0,H   4)          108.76 -0.001384    0.74    109.50   
    35. A(C   1,C   0,O   2)          111.27 -0.000152    0.16    111.43   
    36. A(O   2,C   0,C   3)          106.27  0.000722   -0.19    106.09   
    37. A(C   1,C   0,C   3)          111.36 -0.000342   -0.17    111.19   
    38. A(O  12,C   1,H  13)          108.70 -0.002384    1.30    110.00   
    39. A(C   0,C   1,H  13)          110.17  0.000813   -0.94    109.23   
    40. A(C   0,C   1,O  12)          109.15  0.001682   -1.16    107.99   
    41. A(C   0,C   1,C   7)          110.06 -0.000256    0.16    110.21   
    42. A(C   7,C   1,H  13)          109.27  0.001374   -0.40    108.87   
    43. A(C   7,C   1,O  12)          109.46 -0.001273    1.10    110.56   
    44. A(C   0,O   2,C   5)          112.81 -0.001617    0.64    113.45   
    45. A(H  14,C   3,O  15)          108.48 -0.002365    1.65    110.13   
    46. A(C   0,C   3,O  15)          111.10 -0.000944    0.60    111.70   
    47. A(C   0,C   3,H  14)          109.77  0.002098   -0.55    109.22   
    48. A(C   0,C   3,H  16)          110.72  0.001768   -1.34    109.37   
    49. A(O  15,C   3,H  16)          107.70  0.001067   -0.82    106.88   
    50. A(H  14,C   3,H  16)          109.00 -0.001765    0.57    109.58   
    51. A(C   6,C   5,H  22)          110.30  0.001211   -0.64    109.66   
    52. A(O   2,C   5,H  22)          110.19  0.000741   -0.63    109.56   
    53. A(O  21,C   5,H  22)          109.13 -0.001627    0.94    110.07   
    54. A(C   6,C   5,O  21)          106.86 -0.000108    0.48    107.34   
    55. A(O   2,C   5,C   6)          110.51 -0.000336    0.20    110.71   
    56. A(O   2,C   5,O  21)          109.78  0.000066   -0.31    109.48   
    57. A(C   7,C   6,O   9)          108.45  0.001315   -0.15    108.29   
    58. A(C   5,C   6,O   9)          111.27 -0.000060    0.04    111.31   
    59. A(C   7,C   6,H   8)          110.00 -0.000009   -0.27    109.74   
    60. A(C   5,C   6,H   8)          109.88  0.002109   -1.24    108.65   
    61. A(C   5,C   6,C   7)          108.98 -0.000513   -0.13    108.84   
    62. A(H   8,C   6,O   9)          108.24 -0.002856    1.78    110.02   
    63. A(C   1,C   7,C   6)          110.28  0.001379   -0.29    109.98   
    64. A(O  10,C   7,H  11)          107.44 -0.005928    1.91    109.35   
    65. A(C   6,C   7,H  11)          109.85  0.003237   -1.01    108.84   
    66. A(C   1,C   7,H  11)          109.72  0.002251   -0.79    108.93   
    67. A(C   6,C   7,O  10)          110.91 -0.001597    0.75    111.66   
    68. A(C   1,C   7,O  10)          108.59  0.000492   -0.49    108.10   
    69. A(C   6,O   9,H  20)          105.97 -0.003258    1.39    107.36   
    70. A(C   7,O  10,H  19)          105.70 -0.002161    1.05    106.75   
    71. A(C   1,O  12,H  18)          105.43 -0.001948    0.94    106.37   
    72. A(C   3,O  15,H  17)          105.81 -0.001797    0.68    106.49   
    73. A(C   5,O  21,C  23)          112.99 -0.005368    1.42    114.41   
    74. A(H  25,C  23,H  26)          109.07 -0.001878    0.68    109.76   
    75. A(H  24,C  23,H  26)          109.01 -0.002049    0.80    109.81   
    76. A(O  21,C  23,H  26)          107.09  0.003407   -1.08    106.01   
    77. A(H  24,C  23,H  25)          110.03  0.000749   -0.38    109.65   
    78. A(O  21,C  23,H  25)          110.64  0.000072   -0.07    110.57   
    79. A(O  21,C  23,H  24)          110.92 -0.000325    0.07    110.98   
    80. D(O  12,C   1,C   0,H   4)    -52.82  0.000515   -0.17    -52.99   
    81. D(C   7,C   1,C   0,H   4)     67.33 -0.000157    0.56     67.89   
    82. D(O  12,C   1,C   0,C   3)     67.53 -0.000298    0.09     67.63   
    83. D(C   7,C   1,C   0,C   3)   -172.32 -0.000970    0.82   -171.49   
    84. D(O  12,C   1,C   0,O   2)   -174.10  0.000286   -0.15   -174.25   
    85. D(C   7,C   1,C   0,O   2)    -53.95 -0.000386    0.58    -53.37   
    86. D(C   5,O   2,C   0,C   1)     59.73  0.000853   -0.67     59.05   
    87. D(C   5,O   2,C   0,C   3)   -178.89  0.000806   -0.90   -179.79   
    88. D(C   5,O   2,C   0,H   4)    -61.57 -0.000765    0.06    -61.51   
    89. D(H  14,C   3,C   0,O   2)     65.15 -0.001495    1.02     66.17   
    90. D(O  15,C   3,C   0,C   1)     66.50  0.000761   -1.08     65.42   
    91. D(H  14,C   3,C   0,H   4)    -52.69 -0.000407    0.32    -52.37   
    92. D(O  15,C   3,C   0,O   2)    -54.83  0.000687   -1.06    -55.89   
    93. D(O  15,C   3,C   0,H   4)   -172.67  0.001775   -1.75   -174.42   
    94. D(H  14,C   3,C   0,C   1)   -173.52 -0.001420    0.99   -172.53   
    95. D(H  22,C   5,O   2,C   0)     60.08  0.000907   -0.79     59.29   
    96. D(O  21,C   5,O   2,C   0)   -179.70 -0.000598   -0.22   -179.92   
    97. D(C   6,C   5,O   2,C   0)    -62.08 -0.000892    0.30    -61.78   
    98. D(H   8,C   6,C   5,H  22)    176.00 -0.001748    2.19    178.19   
    99. D(H   8,C   6,C   5,O  21)     57.50 -0.000397    1.13     58.63   
   100. D(H   8,C   6,C   5,O   2)    -61.91 -0.000224    1.10    -60.80   
   101. D(C   7,C   6,C   5,H  22)    -63.39 -0.000785    0.99    -62.41   
   102. D(C   7,C   6,C   5,O  21)    178.10  0.000566   -0.07    178.03   
   103. D(C   7,C   6,C   5,O   2)     58.70  0.000739   -0.10     58.60   
   104. D(O  10,C   7,C   1,H  13)     53.12 -0.002120    1.58     54.70   
   105. D(O  10,C   7,C   1,O  12)    -65.81  0.000717   -0.39    -66.20   
   106. D(O  10,C   7,C   1,C   0)    174.23 -0.000399    0.25    174.48   
   107. D(C   6,C   7,C   1,H  13)    -68.59 -0.001323    1.15    -67.44   
   108. D(C   6,C   7,C   1,O  12)    172.48  0.001513   -0.82    171.66   
   109. D(C   1,C   7,C   6,C   5)    -54.48 -0.000391    0.02    -54.46   
   110. D(C   6,C   7,C   1,C   0)     52.51  0.000397   -0.18     52.34   
   111. D(O  10,C   7,C   6,O   9)     63.92 -0.001290    0.45     64.38   
   112. D(O  10,C   7,C   6,H   8)    -54.28  0.001389   -1.45    -55.73   
   113. D(O  10,C   7,C   6,C   5)   -174.80 -0.000876    0.33   -174.47   
   114. D(C   1,C   7,C   6,O   9)   -175.75 -0.000806    0.14   -175.61   
   115. D(C   1,C   7,C   6,H   8)     66.05  0.001873   -1.76     64.29   
   116. D(H  20,O   9,C   6,H   8)    -68.22 -0.000352    0.39    -67.83   
   117. D(H  20,O   9,C   6,C   7)    172.47  0.000537   -0.20    172.27   
   118. D(H  20,O   9,C   6,C   5)     52.61  0.000365    0.04     52.65   
   119. D(H  19,O  10,C   7,H  11)     72.92 -0.000157   -0.28     72.64   
   120. D(H  19,O  10,C   7,C   6)    -47.15  0.000523   -0.62    -47.76   
   121. D(H  19,O  10,C   7,C   1)   -168.47 -0.000508   -0.41   -168.88   
   122. D(H  18,O  12,C   1,H  13)    -66.49  0.000644   -1.00    -67.49   
   123. D(H  18,O  12,C   1,C   7)     52.80  0.000144   -0.14     52.67   
   124. D(H  18,O  12,C   1,C   0)    173.32  0.000087    0.04    173.35   
   125. D(H  17,O  15,C   3,H  16)    171.84  0.001938   -1.58    170.26   
   126. D(H  17,O  15,C   3,H  14)    -70.32 -0.000838   -0.45    -70.77   
   127. D(H  17,O  15,C   3,C   0)     50.43 -0.000358    0.25     50.68   
   128. D(C  23,O  21,C   5,H  22)     54.41  0.000170   -1.51     52.91   
   129. D(C  23,O  21,C   5,C   6)    173.68  0.000667   -1.50    172.18   
   130. D(C  23,O  21,C   5,O   2)    -66.45  0.000237   -1.14    -67.59   
   131. D(H  26,C  23,O  21,C   5)   -177.93 -0.000005   -0.41   -178.34   
   132. D(H  25,C  23,O  21,C   5)    -59.17 -0.000188   -0.28    -59.45   
   133. D(H  24,C  23,O  21,C   5)     63.23  0.000591   -0.76     62.47   
    ----------------------------------------------------------------------------

Geometry step timings:
Preparation and reading OPT file:      0.000 s ( 3.288 %)
Internal coordinates            :      0.000 s ( 0.565 %)
B/P matrices and projection     :      0.001 s (22.408 %)
Hessian update/contruction      :      0.002 s (31.646 %)
Making the step                 :      0.001 s (16.761 %)
Converting the step to Cartesian:      0.000 s ( 2.198 %)
Storing new data                :      0.000 s ( 6.797 %)
Checking convergence            :      0.000 s ( 0.766 %)
Final printing                  :      0.001 s (15.571 %)
Total time                      :      0.005 s

Time for energy+gradient        :      0.043 s
Time for complete geometry iter :      0.051 s

         *************************************************************
         *                GEOMETRY OPTIMIZATION CYCLE   3            *
         *************************************************************
---------------------------------
CARTESIAN COORDINATES (ANGSTROEM)
---------------------------------
  C    -1.200806    0.515924   -0.384555
  C    -1.426069   -0.939060    0.031192
  O    -0.009421    1.036360    0.178049
  C    -2.335117    1.416657    0.114978
  H    -1.148947    0.565423   -1.483545
  C     1.139695    0.320575   -0.187984
  C     1.056298   -1.126452    0.305343
  C    -0.187005   -1.779712   -0.291599
  H     0.981304   -1.119867    1.402710
  O     2.182626   -1.870063   -0.096603
  O    -0.391313   -3.076821    0.222875
  H    -0.068152   -1.835884   -1.386415
  O    -2.547092   -1.422365   -0.668291
  H    -1.611949   -0.981785    1.114882
  H    -2.212511    2.422674   -0.311996
  O    -2.362971    1.486932    1.517214
  H    -3.291258    1.000968   -0.199657
  H    -1.466338    1.706285    1.798447
  H    -2.604501   -2.365329   -0.471986
  H     0.455927   -3.533721    0.169631
  H     2.965211   -1.380505    0.182257
  O     2.251120    0.896150    0.406270
  H     1.249276    0.332805   -1.294737
  C     2.572785    2.188150   -0.080687
  H     1.765900    2.893997    0.121634
  H     2.772047    2.155069   -1.157534
  H     3.471260    2.493597    0.450104

----------------------------
CARTESIAN COORDINATES (A.U.)
----------------------------
  NO LB    ZA    FRAG    MASS        X           Y           Z
   0 C   6.0000    1    12.011   -2.269194    0.974955   -0.726704
   1 C   6.0000    1    12.011   -2.694881   -1.774567    0.058944
   2 O   8.0000    1    15.999   -0.017804    1.958436    0.336463
   3 C   6.0000    1    12.011   -4.412732    2.677093    0.217277
   4 H   1.0000    1     1.008   -2.171195    1.068494   -2.803493
   5 C   6.0000    1    12.011    2.153711    0.605799   -0.355238
   6 C   6.0000    1    12.011    1.996114   -2.128685    0.577015
   7 C   6.0000    1    12.011   -0.353389   -3.363168   -0.551042
   8 H   1.0000    1     1.008    1.854396   -2.116242    2.650738
   9 O   8.0000    1    15.999    4.124565   -3.533906   -0.182552
  10 O   8.0000    1    15.999   -0.739474   -5.814348    0.421172
  11 H   1.0000    1     1.008   -0.128788   -3.469318   -2.619945
  12 O   8.0000    1    15.999   -4.813306   -2.687881   -1.262886
  13 H   1.0000    1     1.008   -3.046141   -1.855305    2.106822
  14 H   1.0000    1     1.008   -4.181040    4.578191   -0.589587
  15 O   8.0000    1    15.999   -4.465368    2.809895    2.867119
  16 H   1.0000    1     1.008   -6.219576    1.891554   -0.377297
  17 H   1.0000    1     1.008   -2.770977    3.224410    3.398572
  18 H   1.0000    1     1.008   -4.921794   -4.469824   -0.891925
  19 H   1.0000    1     1.008    0.861577   -6.677766    0.320555
  20 H   1.0000    1     1.008    5.603437   -2.608776    0.344416
  21 O   8.0000    1    15.999    4.254000    1.693478    0.767739
  22 H   1.0000    1     1.008    2.360790    0.628910   -2.446698
  23 C   6.0000    1    12.011    4.861860    4.135003   -0.152476
  24 H   1.0000    1     1.008    3.337067    5.468862    0.229855
  25 H   1.0000    1     1.008    5.238410    4.072490   -2.187422
  26 H   1.0000    1     1.008    6.559730    4.712215    0.850572

      -----------------------------------------------------------      
     |                   =====================                   |     
     |                           x T B                           |     
     |                   =====================                   |     
     |                         S. Grimme                         |     
     |          Mulliken Center for Theoretical Chemistry        |     
     |                    University of Bonn                     |     
      -----------------------------------------------------------      

   * xtb version 6.7.1 (edcfbbe) compiled by 'albert@albert-system' on 2024-07-22

   xtb is free software: you can redistribute it and/or modify it under
   the terms of the GNU Lesser General Public License as published by
   the Free Software Foundation, either version 3 of the License, or
   (at your option) any later version.
   
   xtb is distributed in the hope that it will be useful,
   but WITHOUT ANY WARRANTY; without even the implied warranty of
   MERCHANTABILITY or FITNESS FOR A PARTICULAR PURPOSE.  See the
   GNU Lesser General Public License for more details.
   
   Cite this work as:
   * C. Bannwarth, E. Caldeweyher, S. Ehlert, A. Hansen, P. Pracht,
     J. Seibert, S. Spicher, S. Grimme, WIREs Comput. Mol. Sci., 2020, 11,
     e01493. DOI: 10.1002/wcms.1493
   
   for GFN2-xTB:
   * C. Bannwarth, S. Ehlert and S. Grimme., J. Chem. Theory Comput., 2019,
     15, 1652-1671. DOI: 10.1021/acs.jctc.8b01176
   for GFN1-xTB:
   * S. Grimme, C. Bannwarth, P. Shushkov, J. Chem. Theory Comput., 2017,
     13, 1989-2009. DOI: 10.1021/acs.jctc.7b00118
   for GFN0-xTB:
   * P. Pracht, E. Caldeweyher, S. Ehlert, S. Grimme, ChemRxiv, 2019, preprint.
     DOI: 10.26434/chemrxiv.8326202.v1
   for GFN-FF:
   * S. Spicher and S. Grimme, Angew. Chem. Int. Ed., 2020, 59, 15665-15673.
     DOI: 10.1002/anie.202004239
   
   for ALPB and GBSA implicit solvation:
   * S. Ehlert, M. Stahn, S. Spicher, S. Grimme, J. Chem. Theory Comput.,
     2021, 17, 4250-4261. DOI: 10.1021/acs.jctc.1c00471
   
   for ddCOSMO and CPCM-X implicit solvation:
   * M. Stahn, S. Ehlert, S. Grimme, J. Phys. Chem. A,
     2023, XX, XXXX-XXXX. DOI: 10.1021/acs.jpca.3c04382
   
   for DFT-D4:
   * E. Caldeweyher, C. Bannwarth and S. Grimme, J. Chem. Phys., 2017,
     147, 034112. DOI: 10.1063/1.4993215
   * E. Caldeweyher, S. Ehlert, A. Hansen, H. Neugebauer, S. Spicher,
     C. Bannwarth and S. Grimme, J. Chem. Phys., 2019, 150, 154122.
     DOI: 10.1063/1.5090222
   * E. Caldeweyher, J.-M. Mewes, S. Ehlert and S. Grimme, Phys. Chem. Chem. Phys.
     2020, 22, 8499-8512. DOI: 10.1039/D0CP00502A
   
   for sTDA-xTB:
   * S. Grimme and C. Bannwarth, J. Chem. Phys., 2016, 145, 054103.
     DOI: 10.1063/1.4959605
   
   in the mass-spec context:
   * V. Asgeirsson, C. Bauer and S. Grimme, Chem. Sci., 2017, 8, 4879.
     DOI: 10.1039/c7sc00601b
   * J. Koopman and S. Grimme, ACS Omega 2019, 4, 12, 15120-15133.
     DOI: 10.1021/acsomega.9b02011
   
   for metadynamics refer to:
   * S. Grimme, J. Chem. Theory Comput., 2019, 155, 2847-2862
     DOI: 10.1021/acs.jctc.9b00143
   
   for SPH calculations refer to:
   * S. Spicher and S. Grimme, J. Chem. Theory Comput., 2021, 17, 1701-1714
     DOI: 10.1021/acs.jctc.0c01306
   
   for ONIOM refer to:
   * C. Plett, A. Katbashev, S. Ehlert, S. Grimme, M. Bursch,
     Phys. Chem. Chem. Phys., 2023, 25, 17860-17868. DOI: 10.1039/D3CP02178E
   
   for DIPRO refer to:
   * J. Kohn, N. Gildemeister, S. Grimme, D. Fazzi, A. Hansen,
     J. Chem. Phys., 2023, just accepted.
   
   for PTB refer to:
   * S. Grimme, M. Mueller, A. Hansen, J. Chem. Phys., 2023, 158, 124111.
     DOI: 10.1063/5.0137838
   
   with help from (in alphabetical order)
   P. Atkinson, C. Bannwarth, F. Bohle, G. Brandenburg, E. Caldeweyher
   M. Checinski, S. Dohm, S. Ehlert, S. Ehrlich, I. Gerasimov, C. Hölzer
   A. Katbashev, J. Kohn, J. Koopman, C. Lavigne, S. Lehtola, F. März, M. Müller,
   F. Musil, H. Neugebauer, J. Pisarek, C. Plett, P. Pracht, F. Pultar,
   J. Seibert, P. Shushkov, S. Spicher, M. Stahn, M. Steiner, T. Strunk,
   J. Stückrath, T. Rose, and J. Unsleber
   
 * started run on 2026/03/26 at 13:20:41.733     
   ID    Z sym.   atoms
    1    6 C      1, 2, 4, 6-8, 24
    2    8 O      3, 10, 11, 13, 16, 22
    3    1 H      5, 9, 12, 14, 15, 17-21, 23, 25-27

           -------------------------------------------------
          |                Calculation Setup                |
           -------------------------------------------------

          program call               : /home/kmoult/orca_6_1/otool_xtb goat_0_XTB.xyz --grad -c 0 -u 0 -P 4 --namespace goat_0 --input goat_0_XTB.input.tmp --alpb ACETONE --acc 0.200000
          hostname                   : node1619
          calculation namespace      : goat_0
          coordinate file            : goat_0_XTB.xyz
          omp threads                :                     4


           -------------------------------------------------
          |                 G F N 2 - x T B                 |
           -------------------------------------------------

        Reference                      10.1021/acs.jctc.8b01176
      * Hamiltonian:
        H0-scaling (s, p, d)           1.850000    2.230000    2.230000
        zeta-weighting                 0.500000
      * Dispersion:
        s8                             2.700000
        a1                             0.520000
        a2                             5.000000
        s9                             5.000000
      * Repulsion:
        kExp                           1.500000    1.000000
        rExp                           1.000000
      * Coulomb:
        alpha                          2.000000
        third order                    shell-resolved
        anisotropic                    true
        a3                             3.000000
        a5                             4.000000
        cn-shift                       1.200000
        cn-exp                         4.000000
        max-rad                        5.000000

      * Solvation model:               ALPB
        Solvent                        ACETONE
        Parameter file                 internal GFN2-xTB/ALPB
        Dielectric constant                2.0700E+01
        Reference state                gsolv [1 M gas/solution]
        Free energy shift                  5.9241E-03 Eh       3.7175E+00 kcal/mol
        Temperature                        2.9815E+02 K
        Density                            7.9000E-01 kg/L
        Solvent mass                       5.8080E+01 g/mol
        Interaction kernel             P16
        Born radius scaling (c1)           1.8274E+00
        Born radii integrator          GBOBC
        Born offset                        0.0000E+00 a0       0.0000E+00 AA
        H-bond correction              true
        Ion screening                  false
        Surface tension                    1.0000E-05 Eh       1.5569E+01 dyn/cm
        Grid points                               230 per atom
q/qsh data taken from xtbrestart
CAMM data taken from xtbrestart

          ...................................................
          :                      SETUP                      :
          :.................................................:
          :  # basis functions                  66          :
          :  # atomic orbitals                  66          :
          :  # shells                           40          :
          :  # electrons                        78          :
          :  max. iterations                   250          :
          :  Hamiltonian                  GFN2-xTB          :
          :  restarted?                       true          :
          :  GBSA solvation                   true          :
          :  PC potential                    false          :
          :  electronic temp.          300.0000000     K    :
          :  accuracy                    0.2000000          :
          :  -> integral cutoff          0.3198970E+02      :
          :  -> integral neglect         0.2000000E-08      :
          :  -> SCF convergence          0.2000000E-06 Eh   :
          :  -> wf. convergence          0.2000000E-04 e    :
          :  Broyden damping             0.4000000          :
          :  net charge                          0          :
          :  unpaired electrons                  0          :
          ...................................................

 iter      E             dE          RMSdq      gap      omega  full diag
   1    -46.8995314 -0.468995E+02  0.143E-01   10.43       0.0  T
   2    -46.8995463 -0.148971E-04  0.848E-02   10.43       1.0  T
   3    -46.8995469 -0.640806E-06  0.147E-02   10.43       1.3  T
   4    -46.8995490 -0.203241E-05  0.495E-03   10.44       3.9  T
   5    -46.8995491 -0.787040E-07  0.205E-03   10.43       9.4  T
   6    -46.8995491 -0.104307E-07  0.103E-03   10.43      18.7  T
   7    -46.8995491 -0.328819E-08  0.204E-04   10.43      94.3  T
   8    -46.8995491 -0.137597E-09  0.937E-05   10.43     205.5  T
   9    -46.8995491 -0.185381E-10  0.370E-05   10.43     520.5  T

   *** convergence criteria satisfied after 9 iterations ***

         #    Occupation            Energy/Eh            Energy/eV
      -------------------------------------------------------------
         1        2.0000           -0.7327238             -19.9384
       ...           ...                  ...                  ...
        33        2.0000           -0.4542584             -12.3610
        34        2.0000           -0.4449330             -12.1072
        35        2.0000           -0.4299556             -11.6997
        36        2.0000           -0.4248356             -11.5604
        37        2.0000           -0.4178964             -11.3715
        38        2.0000           -0.4158275             -11.3152
        39        2.0000           -0.4101120             -11.1597 (HOMO)
        40                         -0.0266430              -0.7250 (LUMO)
        41                         -0.0121229              -0.3299
        42                          0.0154323               0.4199
        43                          0.0370322               1.0077
        44                          0.0552532               1.5035
       ...                                ...                  ...
        66                          0.2861112               7.7855
      -------------------------------------------------------------
                  HL-Gap            0.3834690 Eh           10.4347 eV
             Fermi-level           -0.2183775 Eh           -5.9424 eV

 SCC (total)                   0 d,  0 h,  0 min,  0.017 sec
 SCC setup                      ...        0 min,  0.000 sec (  2.078%)
 Dispersion                     ...        0 min,  0.000 sec (  1.053%)
 classical contributions        ...        0 min,  0.000 sec (  0.132%)
 integral evaluation            ...        0 min,  0.001 sec (  7.316%)
 iterations                     ...        0 min,  0.013 sec ( 72.368%)
 molecular gradient             ...        0 min,  0.003 sec ( 16.129%)
 printout                       ...        0 min,  0.000 sec (  0.782%)

         :::::::::::::::::::::::::::::::::::::::::::::::::::::
         ::                     SUMMARY                     ::
         :::::::::::::::::::::::::::::::::::::::::::::::::::::
         :: total energy             -46.550182086408 Eh    ::
         :: total w/o Gsasa/hb       -46.524959081292 Eh    ::
         :: gradient norm              0.013076330599 Eh/a0 ::
         :: HOMO-LUMO gap             10.434721914716 eV    ::
         ::.................................................::
         :: SCC energy               -46.899338685831 Eh    ::
         :: -> isotropic ES            0.140648257359 Eh    ::
         :: -> anisotropic ES         -0.007650572258 Eh    ::
         :: -> anisotropic XC         -0.008446800081 Eh    ::
         :: -> dispersion             -0.021673704864 Eh    ::
         :: -> Gsolv                  -0.028569185925 Eh    ::
         ::    -> Gelec               -0.003346180809 Eh    ::
         ::    -> Gsasa               -0.020236128409 Eh    ::
         ::    -> Ghb                 -0.010911017971 Eh    ::
         ::    -> Gshift               0.005924141264 Eh    ::
         :: repulsion energy           0.349156599423 Eh    ::
         :: add. restraining           0.000000000000 Eh    ::
         :: total charge               0.000000000000 e     ::
         :::::::::::::::::::::::::::::::::::::::::::::::::::::


Property printout bound to 'properties.out'

           -------------------------------------------------
          | TOTAL ENERGY              -46.550182086408 Eh   |
          | GRADIENT NORM               0.013076330599 Eh/α |
          | HOMO-LUMO GAP              10.434721914716 eV   |
           -------------------------------------------------

------------------------------------------------------------------------
 * finished run on 2026/03/26 at 13:20:41.762     
------------------------------------------------------------------------
 total:
 * wall-time:     0 d,  0 h,  0 min,  0.028 sec
 *  cpu-time:     0 d,  0 h,  0 min,  0.104 sec
 * ratio c/w:     3.722 speedup
 SCF:
 * wall-time:     0 d,  0 h,  0 min,  0.018 sec
 *  cpu-time:     0 d,  0 h,  0 min,  0.070 sec
 * ratio c/w:     3.972 speedup


-------------------------   --------------------
FINAL SINGLE POINT ENERGY       -46.550182086410
-------------------------   --------------------


-------------
DIPOLE MOMENT
-------------
                                X             Y             Z
Total Dipole Moment    :      1.62700       0.33600      -0.52700
                        -----------------------------------------
Magnitude (a.u.)       :      1.74292
Magnitude (Debye)      :      4.43014


------------------
CARTESIAN GRADIENT
------------------

   1   C   :   -0.000768995   -0.003040027    0.000371537
   2   C   :    0.003434823    0.001910501    0.001629613
   3   O   :    0.001732143   -0.001232685    0.000425252
   4   C   :    0.001911290   -0.001791749   -0.002755058
   5   H   :    0.000429503    0.000683609   -0.000038092
   6   C   :   -0.003118505   -0.001825125   -0.000951947
   7   C   :   -0.002759483    0.003773932    0.001548881
   8   C   :    0.001680548    0.003472302   -0.001567538
   9   H   :    0.001014662   -0.001129363   -0.000233157
  10   O   :    0.002114630   -0.000736223    0.000111347
  11   O   :    0.000239924   -0.003074861    0.000519533
  12   H   :   -0.000550899   -0.000892043    0.000106229
  13   O   :   -0.001714269   -0.001513790   -0.000379940
  14   H   :   -0.000929313   -0.000330950   -0.000353170
  15   H   :   -0.000395561    0.000850534    0.000487282
  16   O   :    0.000565108    0.000465946    0.002045140
  17   H   :    0.000664306    0.000611762    0.000997058
  18   H   :   -0.001225124   -0.000603499   -0.001779987
  19   H   :    0.001410514    0.001976815    0.000310802
  20   H   :   -0.001090269    0.002384680   -0.000122437
  21   H   :   -0.002375676    0.000106602   -0.000275631
  22   O   :   -0.000973180    0.000553280   -0.001080226
  23   H   :    0.001274631    0.000760883    0.000584986
  24   C   :   -0.001359193   -0.001871563    0.000429130
  25   H   :    0.000452123   -0.000012154    0.000394080
  26   H   :    0.000509293    0.000071397   -0.000018843
  27   H   :   -0.000173031    0.000431789   -0.000404842

Difference to translation invariance:
           :    0.0000000000   -0.0000000000   -0.0000000000

Difference to rotation invariance:
           :   -0.0011310593    0.0004558863    0.0002862362

Norm of the Cartesian gradient     ...    0.0130763306
RMS gradient                       ...    0.0014529256
MAX gradient                       ...    0.0037739319
------------------------------------------------------------------------------
                         ORCA GEOMETRY RELAXATION STEP
------------------------------------------------------------------------------

Reading the OPT-File                    .... done
Getting information on internals        .... done
Copying old internal coords+grads       .... done
Making the new internal coordinates     .... (2022 redundants) done
Validating the new internal coordinates .... (2022 redundants) done
Calculating the B-matrix                .... done
Calculating the G,G- and P matrices     .... done
Transforming gradient to internals      .... done
Projecting the internal gradient        .... done
Number of atoms                         ....  27
Number of internal coordinates          .... 133
Current Energy                          ....   -46.550182086 Eh
Current gradient norm                   ....     0.013076331 Eh/bohr
Maximum allowed component of the step   ....  0.300
Current trust radius                    ....  0.300
Updating the Hessian (BFGS)             .... done
Forming the augmented Hessian           .... done
Diagonalizing the augmented Hessian     .... done
Last element of RFO vector              ....  0.995557042
Lowest eigenvalues of augmented Hessian:
 -0.000451519  0.010653091  0.015450361  0.015956440  0.016933634
Length of the computed step             ....  0.094580591
The final length of the internal step   ....  0.094580591
Converting the step to Cartesian space:
 Initial RMS(Int)=    0.0082011773
Transforming coordinates:
 Iter   0:  RMS(Cart)=    0.0162518848 RMS(Int)=    0.7699826409
done
Storing new coordinates                 .... done
The predicted energy change is          ....    -0.000227779
Previously predicted energy change      ....    -0.001744792
Actually observed energy change         ....    -0.001968500
Ratio of predicted to observed change   ....     1.128215282
New trust radius                        ....     0.450000000

                                .--------------------.
          ----------------------|Geometry convergence|-------------------------
          Item                value                   Tolerance       Converged
          ---------------------------------------------------------------------
          Energy change      -0.0019685005            0.0000050000      NO
          RMS gradient        0.0008298220            0.0001000000      NO
          MAX gradient        0.0033711985            0.0003000000      NO
          RMS step            0.0082011773            0.0020000000      NO
          MAX step            0.0383242406            0.0040000000      NO
          -------------------------------------------------------------------------
          ........................................................
          Max(Bonds)      0.0203      Max(Angles)    0.63
          Max(Dihed)        1.23      Max(Improp)    0.00
          ---------------------------------------------------------------------

    ---------------------------------------------------------------------------
                         Redundant Internal Coordinates
                            (Angstroem and degrees)

        Definition                    Value    dE/dq     Step     New-Value
    ----------------------------------------------------------------------------
     1. B(C   1,C   0)                1.5299 -0.002721  0.0039    1.5338   
     2. B(O   2,C   0)                1.4166 -0.001254 -0.0004    1.4162   
     3. B(C   3,C   0)                1.5322 -0.001080  0.0023    1.5344   
     4. B(H   4,C   0)                1.1013  0.000088  0.0001    1.1015   
     5. B(C   5,O   2)                1.4024 -0.003371  0.0023    1.4047   
     6. B(C   6,C   5)                1.5311 -0.001969  0.0036    1.5347   
     7. B(C   7,C   1)                1.5317 -0.001122  0.0026    1.5343   
     8. B(C   7,C   6)                1.5261 -0.001248  0.0029    1.5290   
     9. B(H   8,C   6)                1.0999 -0.000313  0.0008    1.1007   
    10. B(O   9,C   6)                1.4082  0.000958 -0.0030    1.4052   
    11. B(O  10,C   7)                1.4103  0.001656 -0.0038    1.4065   
    12. B(H  11,C   7)                1.1027 -0.000109  0.0007    1.1033   
    13. B(O  12,C   1)                1.4070  0.000611 -0.0025    1.4045   
    14. B(H  13,C   1)                1.1003 -0.000185  0.0006    1.1010   
    15. B(H  14,C   3)                1.0997  0.000544 -0.0006    1.0992   
    16. B(O  15,C   3)                1.4043  0.000824 -0.0028    1.4015   
    17. B(H  16,C   3)                1.0890 -0.001108  0.0015    1.0905   
    18. B(H  17,O   2)                2.2797 -0.000735  0.0203    2.3000   
    19. B(H  17,O  15)                0.9650 -0.002030  0.0014    0.9663   
    20. B(H  18,O  10)                2.4264 -0.000627  0.0140    2.4404   
    21. B(H  18,O  12)                0.9649 -0.002143  0.0013    0.9662   
    22. B(H  19,O   9)                2.4125 -0.000786  0.0152    2.4277   
    23. B(H  19,O  10)                0.9641 -0.002325  0.0014    0.9655   
    24. B(H  20,O   9)                0.9643 -0.002165  0.0013    0.9656   
    25. B(O  21,H  20)                2.3965 -0.000777  0.0136    2.4101   
    26. B(O  21,C   5)                1.3855 -0.001685 -0.0018    1.3837   
    27. B(H  22,C   5)                1.1122 -0.000452  0.0020    1.1142   
    28. B(C  23,O  21)                1.4177 -0.001552  0.0016    1.4193   
    29. B(H  24,C  23)                1.0910 -0.000269  0.0002    1.0912   
    30. B(H  25,C  23)                1.0956  0.000094 -0.0001    1.0956   
    31. B(H  26,C  23)                1.0873 -0.000210 -0.0002    1.0872   
    32. A(C   1,C   0,H   4)          108.71  0.000642   -0.43    108.28   
    33. A(O   2,C   0,H   4)          109.89 -0.000283    0.12    110.01   
    34. A(C   3,C   0,H   4)          109.50 -0.000114    0.09    109.58   
    35. A(C   1,C   0,O   2)          111.43  0.000032    0.17    111.60   
    36. A(O   2,C   0,C   3)          106.09 -0.000177    0.15    106.24   
    37. A(C   1,C   0,C   3)          111.19 -0.000134   -0.08    111.11   
    38. A(O  12,C   1,H  13)          109.98 -0.000812    0.43    110.41   
    39. A(C   0,C   1,H  13)          109.23  0.000374   -0.34    108.89   
    40. A(C   0,C   1,O  12)          107.99 -0.000359   -0.22    107.78   
    41. A(C   0,C   1,C   7)          110.22 -0.000275    0.12    110.34   
    42. A(C   7,C   1,H  13)          108.84  0.000751   -0.28    108.56   
    43. A(C   7,C   1,O  12)          110.56  0.000307    0.28    110.85   
    44. A(C   0,O   2,C   5)          113.45 -0.000159    0.25    113.70   
    45. A(H  14,C   3,O  15)          110.13 -0.000735    0.46    110.59   
    46. A(C   0,C   3,O  15)          111.69  0.000377    0.22    111.92   
    47. A(C   0,C   3,H  14)          109.19  0.000902   -0.34    108.85   
    48. A(C   0,C   3,H  16)          109.35  0.000420   -0.42    108.94   
    49. A(O  15,C   3,H  16)          106.87 -0.001182    0.03    106.89   
    50. A(H  14,C   3,H  16)          109.57  0.000184    0.07    109.63   
    51. A(C   6,C   5,H  22)          109.66  0.000728   -0.44    109.21   
    52. A(O   2,C   5,H  22)          109.56  0.000552   -0.35    109.21   
    53. A(O  21,C   5,H  22)          110.07 -0.000690    0.42    110.49   
    54. A(C   6,C   5,O  21)          107.34  0.000471    0.18    107.53   
    55. A(O   2,C   5,C   6)          110.71  0.000196    0.02    110.73   
    56. A(O   2,C   5,O  21)          109.47 -0.001278    0.20    109.67   
    57. A(C   7,C   6,O   9)          108.30  0.000128    0.03    108.32   
    58. A(C   5,C   6,O   9)          111.32 -0.000047    0.15    111.46   
    59. A(C   7,C   6,H   8)          109.71  0.000139   -0.20    109.51   
    60. A(C   5,C   6,H   8)          108.63  0.000843   -0.54    108.10   
    61. A(C   5,C   6,C   7)          108.84 -0.000518    0.00    108.84   
    62. A(H   8,C   6,O   9)          110.03 -0.000549    0.56    110.59   
    63. A(C   1,C   7,C   6)          109.98 -0.000368    0.04    110.02   
    64. A(O  10,C   7,H  11)          109.33 -0.001198    0.52    109.84   
    65. A(C   6,C   7,H  11)          108.81  0.001087   -0.46    108.35   
    66. A(C   1,C   7,H  11)          108.93  0.000411   -0.25    108.68   
    67. A(C   6,C   7,O  10)          111.66 -0.000006    0.26    111.92   
    68. A(C   1,C   7,O  10)          108.10  0.000066   -0.10    108.00   
    69. A(C   6,O   9,H  20)          107.37 -0.001211    0.62    107.99   
    70. A(C   7,O  10,H  19)          106.76 -0.001527    0.63    107.39   
    71. A(C   1,O  12,H  18)          106.38 -0.001641    0.57    106.95   
    72. A(C   3,O  15,H  17)          106.50 -0.001252    0.46    106.95   
    73. A(C   5,O  21,C  23)          114.41 -0.000812    0.35    114.76   
    74. A(H  25,C  23,H  26)          109.75 -0.000578    0.26    110.02   
    75. A(H  24,C  23,H  26)          109.81 -0.000574    0.29    110.09   
    76. A(O  21,C  23,H  26)          106.01  0.000584   -0.29    105.72   
    77. A(H  24,C  23,H  25)          109.65  0.000304   -0.17    109.48   
    78. A(O  21,C  23,H  25)          110.57  0.000244   -0.07    110.50   
    79. A(O  21,C  23,H  24)          110.98  0.000002   -0.00    110.98   
    80. D(O  12,C   1,C   0,H   4)    -52.99 -0.000149    0.22    -52.77   
    81. D(C   7,C   1,C   0,H   4)     67.89 -0.000161    0.51     68.39   
    82. D(O  12,C   1,C   0,C   3)     67.63  0.000045   -0.01     67.62   
    83. D(C   7,C   1,C   0,C   3)   -171.50  0.000032    0.28   -171.22   
    84. D(O  12,C   1,C   0,O   2)   -174.24 -0.000244    0.24   -174.00   
    85. D(C   7,C   1,C   0,O   2)    -53.37 -0.000256    0.53    -52.83   
    86. D(C   5,O   2,C   0,C   1)     59.05  0.000447   -0.49     58.56   
    87. D(C   5,O   2,C   0,C   3)   -179.79  0.000190   -0.39   -180.19   
    88. D(C   5,O   2,C   0,H   4)    -61.51 -0.000192   -0.15    -61.66   
    89. D(H  14,C   3,C   0,O   2)     66.16 -0.000233    0.22     66.38   
    90. D(O  15,C   3,C   0,C   1)     65.42 -0.000322   -0.02     65.41   
    91. D(H  14,C   3,C   0,H   4)    -52.38  0.000259   -0.05    -52.42   
    92. D(O  15,C   3,C   0,O   2)    -55.88 -0.000173   -0.28    -56.16   
    93. D(O  15,C   3,C   0,H   4)   -174.42  0.000319   -0.55   -174.97   
    94. D(H  14,C   3,C   0,C   1)   -172.53 -0.000381    0.48   -172.05   
    95. D(H  22,C   5,O   2,C   0)     59.28  0.000741   -0.54     58.74   
    96. D(O  21,C   5,O   2,C   0)   -179.92 -0.000561   -0.12   -180.05   
    97. D(C   6,C   5,O   2,C   0)    -61.78 -0.000655    0.24    -61.54   
    98. D(H   8,C   6,C   5,H  22)    178.18 -0.000837    1.23    179.42   
    99. D(H   8,C   6,C   5,O  21)     58.62 -0.000694    0.87     59.49   
   100. D(H   8,C   6,C   5,O   2)    -60.81  0.000456    0.51    -60.30   
   101. D(C   7,C   6,C   5,H  22)    -62.40 -0.000480    0.66    -61.74   
   102. D(C   7,C   6,C   5,O  21)    178.04 -0.000337    0.30    178.33   
   103. D(C   7,C   6,C   5,O   2)     58.60  0.000813   -0.07     58.54   
   104. D(O  10,C   7,C   1,H  13)     54.70 -0.000525    0.51     55.21   
   105. D(O  10,C   7,C   1,O  12)    -66.20 -0.000194   -0.03    -66.23   
   106. D(O  10,C   7,C   1,C   0)    174.48  0.000233   -0.01    174.46   
   107. D(C   6,C   7,C   1,H  13)    -67.44 -0.000334    0.23    -67.21   
   108. D(C   6,C   7,C   1,O  12)    171.66 -0.000002   -0.31    171.35   
   109. D(C   1,C   7,C   6,C   5)    -54.46 -0.000336    0.04    -54.42   
   110. D(C   6,C   7,C   1,C   0)     52.34  0.000424   -0.30     52.04   
   111. D(O  10,C   7,C   6,O   9)     64.38  0.000119   -0.22     64.16   
   112. D(O  10,C   7,C   6,H   8)    -55.72  0.000626   -0.80    -56.53   
   113. D(O  10,C   7,C   6,C   5)   -174.46 -0.000169   -0.02   -174.49   
   114. D(C   1,C   7,C   6,O   9)   -175.61 -0.000048   -0.16   -175.77   
   115. D(C   1,C   7,C   6,H   8)     64.28  0.000459   -0.74     63.54   
   116. D(H  20,O   9,C   6,H   8)    -67.83 -0.000236    0.51    -67.31   
   117. D(H  20,O   9,C   6,C   7)    172.27 -0.000159    0.42    172.68   
   118. D(H  20,O   9,C   6,C   5)     52.66  0.000426    0.30     52.96   
   119. D(H  19,O  10,C   7,H  11)     72.67  0.000329   -0.70     71.96   
   120. D(H  19,O  10,C   7,C   6)    -47.78 -0.000230   -0.63    -48.41   
   121. D(H  19,O  10,C   7,C   1)   -168.89  0.000187   -0.78   -169.66   
   122. D(H  18,O  12,C   1,H  13)    -67.52 -0.000256    0.09    -67.44   
   123. D(H  18,O  12,C   1,C   7)     52.70  0.000350    0.19     52.88   
   124. D(H  18,O  12,C   1,C   0)    173.36 -0.000028    0.38    173.73   
   125. D(H  17,O  15,C   3,H  16)    170.27  0.000320   -0.07    170.19   
   126. D(H  17,O  15,C   3,H  14)    -70.80 -0.000556    0.26    -70.54   
   127. D(H  17,O  15,C   3,C   0)     50.71  0.000335    0.28     50.99   
   128. D(C  23,O  21,C   5,H  22)     52.89 -0.000276   -0.67     52.22   
   129. D(C  23,O  21,C   5,C   6)    172.19  0.000492   -0.87    171.32   
   130. D(C  23,O  21,C   5,O   2)    -67.59  0.000281   -0.62    -68.21   
   131. D(H  26,C  23,O  21,C   5)   -178.34  0.000004   -0.17   -178.52   
   132. D(H  25,C  23,O  21,C   5)    -59.45 -0.000213   -0.07    -59.52   
   133. D(H  24,C  23,O  21,C   5)     62.47  0.000342   -0.34     62.13   
    ----------------------------------------------------------------------------

Geometry step timings:
Preparation and reading OPT file:      0.000 s ( 3.091 %)
Internal coordinates            :      0.000 s ( 0.584 %)
B/P matrices and projection     :      0.001 s (23.822 %)
Hessian update/contruction      :      0.001 s (28.340 %)
Making the step                 :      0.001 s (17.834 %)
Converting the step to Cartesian:      0.000 s ( 2.205 %)
Storing new data                :      0.000 s ( 6.701 %)
Checking convergence            :      0.000 s ( 0.757 %)
Final printing                  :      0.001 s (16.623 %)
Total time                      :      0.005 s

Time for energy+gradient        :      0.041 s
Time for complete geometry iter :      0.049 s

         *************************************************************
         *                GEOMETRY OPTIMIZATION CYCLE   4            *
         *************************************************************
---------------------------------
CARTESIAN COORDINATES (ANGSTROEM)
---------------------------------
  C    -1.203889    0.519175   -0.380505
  C    -1.427411   -0.942245    0.028031
  O    -0.012066    1.040538    0.179371
  C    -2.343002    1.414618    0.124591
  H    -1.156322    0.567286   -1.479883
  C     1.141641    0.326008   -0.183317
  C     1.059643   -1.124864    0.310235
  C    -0.183283   -1.781508   -0.291268
  H     0.971941   -1.108263    1.407356
  O     2.185983   -1.866693   -0.084333
  O    -0.390618   -3.076632    0.216597
  H    -0.057663   -1.824461   -1.386593
  O    -2.545540   -1.418142   -0.676085
  H    -1.609974   -0.985164    1.112907
  H    -2.222640    2.418843   -0.305788
  O    -2.376466    1.479019    1.524194
  H    -3.295196    0.990502   -0.195922
  H    -1.483768    1.704676    1.817345
  H    -2.615597   -2.363224   -0.487731
  H     0.450706   -3.546845    0.159902
  H     2.973889   -1.385732    0.198842
  O     2.252132    0.904406    0.405760
  H     1.241859    0.330610   -1.293025
  C     2.587195    2.190489   -0.092293
  H     1.782265    2.903367    0.093605
  H     2.792934    2.143899   -1.167368
  H     3.483249    2.490337    0.445373

----------------------------
CARTESIAN COORDINATES (A.U.)
----------------------------
  NO LB    ZA    FRAG    MASS        X           Y           Z
   0 C   6.0000    1    12.011   -2.275020    0.981098   -0.719051
   1 C   6.0000    1    12.011   -2.697416   -1.780585    0.052970
   2 O   8.0000    1    15.999   -0.022802    1.966332    0.338962
   3 C   6.0000    1    12.011   -4.427632    2.673241    0.235443
   4 H   1.0000    1     1.008   -2.185132    1.072014   -2.796573
   5 C   6.0000    1    12.011    2.157388    0.616066   -0.346419
   6 C   6.0000    1    12.011    2.002435   -2.125685    0.586259
   7 C   6.0000    1    12.011   -0.346355   -3.366562   -0.550417
   8 H   1.0000    1     1.008    1.836702   -2.094313    2.659517
   9 O   8.0000    1    15.999    4.130909   -3.527538   -0.159367
  10 O   8.0000    1    15.999   -0.738160   -5.813992    0.409309
  11 H   1.0000    1     1.008   -0.108967   -3.447731   -2.620281
  12 O   8.0000    1    15.999   -4.810374   -2.679899   -1.277615
  13 H   1.0000    1     1.008   -3.042410   -1.861691    2.103090
  14 H   1.0000    1     1.008   -4.200181    4.570951   -0.577855
  15 O   8.0000    1    15.999   -4.490871    2.794941    2.880309
  16 H   1.0000    1     1.008   -6.227019    1.871778   -0.370239
  17 H   1.0000    1     1.008   -2.803916    3.221371    3.434285
  18 H   1.0000    1     1.008   -4.942761   -4.465847   -0.921679
  19 H   1.0000    1     1.008    0.851710   -6.702567    0.302171
  20 H   1.0000    1     1.008    5.619837   -2.618655    0.375757
  21 O   8.0000    1    15.999    4.255913    1.709080    0.766775
  22 H   1.0000    1     1.008    2.346773    0.624763   -2.443462
  23 C   6.0000    1    12.011    4.889091    4.139425   -0.174409
  24 H   1.0000    1     1.008    3.367993    5.486568    0.176888
  25 H   1.0000    1     1.008    5.277879    4.051382   -2.206006
  26 H   1.0000    1     1.008    6.582386    4.706055    0.841634

      -----------------------------------------------------------      
     |                   =====================                   |     
     |                           x T B                           |     
     |                   =====================                   |     
     |                         S. Grimme                         |     
     |          Mulliken Center for Theoretical Chemistry        |     
     |                    University of Bonn                     |     
      -----------------------------------------------------------      

   * xtb version 6.7.1 (edcfbbe) compiled by 'albert@albert-system' on 2024-07-22

   xtb is free software: you can redistribute it and/or modify it under
   the terms of the GNU Lesser General Public License as published by
   the Free Software Foundation, either version 3 of the License, or
   (at your option) any later version.
   
   xtb is distributed in the hope that it will be useful,
   but WITHOUT ANY WARRANTY; without even the implied warranty of
   MERCHANTABILITY or FITNESS FOR A PARTICULAR PURPOSE.  See the
   GNU Lesser General Public License for more details.
   
   Cite this work as:
   * C. Bannwarth, E. Caldeweyher, S. Ehlert, A. Hansen, P. Pracht,
     J. Seibert, S. Spicher, S. Grimme, WIREs Comput. Mol. Sci., 2020, 11,
     e01493. DOI: 10.1002/wcms.1493
   
   for GFN2-xTB:
   * C. Bannwarth, S. Ehlert and S. Grimme., J. Chem. Theory Comput., 2019,
     15, 1652-1671. DOI: 10.1021/acs.jctc.8b01176
   for GFN1-xTB:
   * S. Grimme, C. Bannwarth, P. Shushkov, J. Chem. Theory Comput., 2017,
     13, 1989-2009. DOI: 10.1021/acs.jctc.7b00118
   for GFN0-xTB:
   * P. Pracht, E. Caldeweyher, S. Ehlert, S. Grimme, ChemRxiv, 2019, preprint.
     DOI: 10.26434/chemrxiv.8326202.v1
   for GFN-FF:
   * S. Spicher and S. Grimme, Angew. Chem. Int. Ed., 2020, 59, 15665-15673.
     DOI: 10.1002/anie.202004239
   
   for ALPB and GBSA implicit solvation:
   * S. Ehlert, M. Stahn, S. Spicher, S. Grimme, J. Chem. Theory Comput.,
     2021, 17, 4250-4261. DOI: 10.1021/acs.jctc.1c00471
   
   for ddCOSMO and CPCM-X implicit solvation:
   * M. Stahn, S. Ehlert, S. Grimme, J. Phys. Chem. A,
     2023, XX, XXXX-XXXX. DOI: 10.1021/acs.jpca.3c04382
   
   for DFT-D4:
   * E. Caldeweyher, C. Bannwarth and S. Grimme, J. Chem. Phys., 2017,
     147, 034112. DOI: 10.1063/1.4993215
   * E. Caldeweyher, S. Ehlert, A. Hansen, H. Neugebauer, S. Spicher,
     C. Bannwarth and S. Grimme, J. Chem. Phys., 2019, 150, 154122.
     DOI: 10.1063/1.5090222
   * E. Caldeweyher, J.-M. Mewes, S. Ehlert and S. Grimme, Phys. Chem. Chem. Phys.
     2020, 22, 8499-8512. DOI: 10.1039/D0CP00502A
   
   for sTDA-xTB:
   * S. Grimme and C. Bannwarth, J. Chem. Phys., 2016, 145, 054103.
     DOI: 10.1063/1.4959605
   
   in the mass-spec context:
   * V. Asgeirsson, C. Bauer and S. Grimme, Chem. Sci., 2017, 8, 4879.
     DOI: 10.1039/c7sc00601b
   * J. Koopman and S. Grimme, ACS Omega 2019, 4, 12, 15120-15133.
     DOI: 10.1021/acsomega.9b02011
   
   for metadynamics refer to:
   * S. Grimme, J. Chem. Theory Comput., 2019, 155, 2847-2862
     DOI: 10.1021/acs.jctc.9b00143
   
   for SPH calculations refer to:
   * S. Spicher and S. Grimme, J. Chem. Theory Comput., 2021, 17, 1701-1714
     DOI: 10.1021/acs.jctc.0c01306
   
   for ONIOM refer to:
   * C. Plett, A. Katbashev, S. Ehlert, S. Grimme, M. Bursch,
     Phys. Chem. Chem. Phys., 2023, 25, 17860-17868. DOI: 10.1039/D3CP02178E
   
   for DIPRO refer to:
   * J. Kohn, N. Gildemeister, S. Grimme, D. Fazzi, A. Hansen,
     J. Chem. Phys., 2023, just accepted.
   
   for PTB refer to:
   * S. Grimme, M. Mueller, A. Hansen, J. Chem. Phys., 2023, 158, 124111.
     DOI: 10.1063/5.0137838
   
   with help from (in alphabetical order)
   P. Atkinson, C. Bannwarth, F. Bohle, G. Brandenburg, E. Caldeweyher
   M. Checinski, S. Dohm, S. Ehlert, S. Ehrlich, I. Gerasimov, C. Hölzer
   A. Katbashev, J. Kohn, J. Koopman, C. Lavigne, S. Lehtola, F. März, M. Müller,
   F. Musil, H. Neugebauer, J. Pisarek, C. Plett, P. Pracht, F. Pultar,
   J. Seibert, P. Shushkov, S. Spicher, M. Stahn, M. Steiner, T. Strunk,
   J. Stückrath, T. Rose, and J. Unsleber
   
 * started run on 2026/03/26 at 13:20:41.781     
   ID    Z sym.   atoms
    1    6 C      1, 2, 4, 6-8, 24
    2    8 O      3, 10, 11, 13, 16, 22
    3    1 H      5, 9, 12, 14, 15, 17-21, 23, 25-27

           -------------------------------------------------
          |                Calculation Setup                |
           -------------------------------------------------

          program call               : /home/kmoult/orca_6_1/otool_xtb goat_0_XTB.xyz --grad -c 0 -u 0 -P 4 --namespace goat_0 --input goat_0_XTB.input.tmp --alpb ACETONE --acc 0.200000
          hostname                   : node1619
          calculation namespace      : goat_0
          coordinate file            : goat_0_XTB.xyz
          omp threads                :                     4


           -------------------------------------------------
          |                 G F N 2 - x T B                 |
           -------------------------------------------------

        Reference                      10.1021/acs.jctc.8b01176
      * Hamiltonian:
        H0-scaling (s, p, d)           1.850000    2.230000    2.230000
        zeta-weighting                 0.500000
      * Dispersion:
        s8                             2.700000
        a1                             0.520000
        a2                             5.000000
        s9                             5.000000
      * Repulsion:
        kExp                           1.500000    1.000000
        rExp                           1.000000
      * Coulomb:
        alpha                          2.000000
        third order                    shell-resolved
        anisotropic                    true
        a3                             3.000000
        a5                             4.000000
        cn-shift                       1.200000
        cn-exp                         4.000000
        max-rad                        5.000000

      * Solvation model:               ALPB
        Solvent                        ACETONE
        Parameter file                 internal GFN2-xTB/ALPB
        Dielectric constant                2.0700E+01
        Reference state                gsolv [1 M gas/solution]
        Free energy shift                  5.9241E-03 Eh       3.7175E+00 kcal/mol
        Temperature                        2.9815E+02 K
        Density                            7.9000E-01 kg/L
        Solvent mass                       5.8080E+01 g/mol
        Interaction kernel             P16
        Born radius scaling (c1)           1.8274E+00
        Born radii integrator          GBOBC
        Born offset                        0.0000E+00 a0       0.0000E+00 AA
        H-bond correction              true
        Ion screening                  false
        Surface tension                    1.0000E-05 Eh       1.5569E+01 dyn/cm
        Grid points                               230 per atom
q/qsh data taken from xtbrestart
CAMM data taken from xtbrestart

          ...................................................
          :                      SETUP                      :
          :.................................................:
          :  # basis functions                  66          :
          :  # atomic orbitals                  66          :
          :  # shells                           40          :
          :  # electrons                        78          :
          :  max. iterations                   250          :
          :  Hamiltonian                  GFN2-xTB          :
          :  restarted?                       true          :
          :  GBSA solvation                   true          :
          :  PC potential                    false          :
          :  electronic temp.          300.0000000     K    :
          :  accuracy                    0.2000000          :
          :  -> integral cutoff          0.3198970E+02      :
          :  -> integral neglect         0.2000000E-08      :
          :  -> SCF convergence          0.2000000E-06 Eh   :
          :  -> wf. convergence          0.2000000E-04 e    :
          :  Broyden damping             0.4000000          :
          :  net charge                          0          :
          :  unpaired electrons                  0          :
          ...................................................

 iter      E             dE          RMSdq      gap      omega  full diag
   1    -46.8977330 -0.468977E+02  0.588E-02   10.44       0.0  T
   2    -46.8977353 -0.230745E-05  0.351E-02   10.45       1.0  T
   3    -46.8977352  0.168664E-06  0.593E-03   10.45       3.2  T
   4    -46.8977356 -0.466823E-06  0.135E-03   10.45      14.3  T
   5    -46.8977356 -0.718081E-08  0.495E-04   10.45      38.9  T
   6    -46.8977356 -0.290441E-09  0.196E-04   10.45      98.2  T
   7    -46.8977356 -0.196131E-09  0.597E-05   10.45     322.6  T

   *** convergence criteria satisfied after 7 iterations ***

         #    Occupation            Energy/Eh            Energy/eV
      -------------------------------------------------------------
         1        2.0000           -0.7318621             -19.9150
       ...           ...                  ...                  ...
        33        2.0000           -0.4538007             -12.3485
        34        2.0000           -0.4442505             -12.0887
        35        2.0000           -0.4297156             -11.6932
        36        2.0000           -0.4241167             -11.5408
        37        2.0000           -0.4172095             -11.3528
        38        2.0000           -0.4153919             -11.3034
        39        2.0000           -0.4096307             -11.1466 (HOMO)
        40                         -0.0256119              -0.6969 (LUMO)
        41                         -0.0119957              -0.3264
        42                          0.0156541               0.4260
        43                          0.0359730               0.9789
        44                          0.0527001               1.4340
       ...                                ...                  ...
        66                          0.2862291               7.7887
      -------------------------------------------------------------
                  HL-Gap            0.3840188 Eh           10.4497 eV
             Fermi-level           -0.2176213 Eh           -5.9218 eV

 SCC (total)                   0 d,  0 h,  0 min,  0.016 sec
 SCC setup                      ...        0 min,  0.000 sec (  2.435%)
 Dispersion                     ...        0 min,  0.000 sec (  1.403%)
 classical contributions        ...        0 min,  0.000 sec (  0.147%)
 integral evaluation            ...        0 min,  0.001 sec (  8.198%)
 iterations                     ...        0 min,  0.011 sec ( 69.027%)
 molecular gradient             ...        0 min,  0.003 sec ( 17.740%)
 printout                       ...        0 min,  0.000 sec (  0.886%)

         :::::::::::::::::::::::::::::::::::::::::::::::::::::
         ::                     SUMMARY                     ::
         :::::::::::::::::::::::::::::::::::::::::::::::::::::
         :: total energy             -46.550478934434 Eh    ::
         :: total w/o Gsasa/hb       -46.525086147958 Eh    ::
         :: gradient norm              0.005041080282 Eh/a0 ::
         :: HOMO-LUMO gap             10.449683020070 eV    ::
         ::.................................................::
         :: SCC energy               -46.897526006105 Eh    ::
         :: -> isotropic ES            0.140309092219 Eh    ::
         :: -> anisotropic ES         -0.007519633322 Eh    ::
         :: -> anisotropic XC         -0.008560236671 Eh    ::
         :: -> dispersion             -0.021657523669 Eh    ::
         :: -> Gsolv                  -0.028781377017 Eh    ::
         ::    -> Gelec               -0.003388590541 Eh    ::
         ::    -> Gsasa               -0.020267052261 Eh    ::
         ::    -> Ghb                 -0.011049875479 Eh    ::
         ::    -> Gshift               0.005924141264 Eh    ::
         :: repulsion energy           0.347047071671 Eh    ::
         :: add. restraining           0.000000000000 Eh    ::
         :: total charge              -0.000000000000 e     ::
         :::::::::::::::::::::::::::::::::::::::::::::::::::::


Property printout bound to 'properties.out'

           -------------------------------------------------
          | TOTAL ENERGY              -46.550478934434 Eh   |
          | GRADIENT NORM               0.005041080282 Eh/α |
          | HOMO-LUMO GAP              10.449683020070 eV   |
           -------------------------------------------------

------------------------------------------------------------------------
 * finished run on 2026/03/26 at 13:20:41.808     
------------------------------------------------------------------------
 total:
 * wall-time:     0 d,  0 h,  0 min,  0.026 sec
 *  cpu-time:     0 d,  0 h,  0 min,  0.096 sec
 * ratio c/w:     3.672 speedup
 SCF:
 * wall-time:     0 d,  0 h,  0 min,  0.016 sec
 *  cpu-time:     0 d,  0 h,  0 min,  0.063 sec
 * ratio c/w:     3.972 speedup


-------------------------   --------------------
FINAL SINGLE POINT ENERGY       -46.550478934430
-------------------------   --------------------


-------------
DIPOLE MOMENT
-------------
                                X             Y             Z
Total Dipole Moment    :      1.62600       0.31000      -0.51900
                        -----------------------------------------
Magnitude (a.u.)       :      1.73474
Magnitude (Debye)      :      4.40937


------------------
CARTESIAN GRADIENT
------------------

   1   C   :   -0.000787152   -0.001006808    0.000039204
   2   C   :    0.001178991    0.000072363    0.000388758
   3   O   :    0.001064429   -0.000895236   -0.000169087
   4   C   :    0.001294225    0.000110991   -0.000509569
   5   H   :    0.000362921    0.000103576   -0.000084927
   6   C   :   -0.001096423   -0.000328433    0.001274589
   7   C   :   -0.000647691    0.001168181    0.000338391
   8   C   :    0.001068564    0.000325301   -0.000411484
   9   H   :    0.000219012   -0.000247206   -0.000064727
  10   O   :    0.000713718   -0.000090865    0.000196941
  11   O   :   -0.000155059   -0.000991364    0.000089807
  12   H   :   -0.000321677    0.000023130   -0.000032171
  13   O   :   -0.000852128   -0.000213637   -0.000046283
  14   H   :   -0.000280223    0.000151996   -0.000022495
  15   H   :   -0.000161668    0.000270646   -0.000017006
  16   O   :   -0.000239156    0.000019642    0.000490085
  17   H   :    0.000143854   -0.000056592    0.000654573
  18   H   :   -0.000300441   -0.000392785   -0.000872666
  19   H   :    0.000721586    0.000755712    0.000100450
  20   H   :   -0.000375551    0.001150702    0.000073133
  21   H   :   -0.000959870    0.000058181   -0.000291459
  22   O   :   -0.000966331    0.000457210   -0.001103913
  23   H   :    0.000514102    0.000216339   -0.000350097
  24   C   :   -0.000388179   -0.000727123    0.000504997
  25   H   :    0.000155017    0.000001917    0.000040825
  26   H   :    0.000167082    0.000076263   -0.000100057
  27   H   :   -0.000071952   -0.000012102   -0.000115813

Difference to translation invariance:
           :    0.0000000000    0.0000000000    0.0000000000

Difference to rotation invariance:
           :   -0.0012832089    0.0005214507    0.0004417862

Norm of the Cartesian gradient     ...    0.0050410803
RMS gradient                       ...    0.0005601200
MAX gradient                       ...    0.0012942253
------------------------------------------------------------------------------
                         ORCA GEOMETRY RELAXATION STEP
------------------------------------------------------------------------------

Reading the OPT-File                    .... done
Getting information on internals        .... done
Copying old internal coords+grads       .... done
Making the new internal coordinates     .... (2022 redundants) done
Validating the new internal coordinates .... (2022 redundants) done
Calculating the B-matrix                .... done
Calculating the G,G- and P matrices     .... done
Transforming gradient to internals      .... done
Projecting the internal gradient        .... done
Number of atoms                         ....  27
Number of internal coordinates          .... 133
Current Energy                          ....   -46.550478934 Eh
Current gradient norm                   ....     0.005041080 Eh/bohr
Maximum allowed component of the step   ....  0.300
Current trust radius                    ....  0.450
Updating the Hessian (BFGS)             .... done
Forming the augmented Hessian           .... done
Diagonalizing the augmented Hessian     .... done
Last element of RFO vector              ....  0.997530364
Lowest eigenvalues of augmented Hessian:
 -0.000120702  0.010424769  0.014054277  0.015760861  0.016188380
Length of the computed step             ....  0.070410442
The final length of the internal step   ....  0.070410442
Converting the step to Cartesian space:
 Initial RMS(Int)=    0.0061053596
Transforming coordinates:
 Iter   0:  RMS(Cart)=    0.0127810715 RMS(Int)=    0.5437301067
done
Storing new coordinates                 .... done
The predicted energy change is          ....    -0.000060650
Previously predicted energy change      ....    -0.000227779
Actually observed energy change         ....    -0.000296848
Ratio of predicted to observed change   ....     1.303228487
New trust radius                        ....     0.450000000

                                .--------------------.
          ----------------------|Geometry convergence|-------------------------
          Item                value                   Tolerance       Converged
          ---------------------------------------------------------------------
          Energy change      -0.0002968480            0.0000050000      NO
          RMS gradient        0.0003720700            0.0001000000      NO
          MAX gradient        0.0019370718            0.0003000000      NO
          RMS step            0.0061053596            0.0020000000      NO
          MAX step            0.0323424926            0.0040000000      NO
          -------------------------------------------------------------------------
          ........................................................
          Max(Bonds)      0.0171      Max(Angles)    0.40
          Max(Dihed)        0.88      Max(Improp)    0.00
          ---------------------------------------------------------------------

    ---------------------------------------------------------------------------
                         Redundant Internal Coordinates
                            (Angstroem and degrees)

        Definition                    Value    dE/dq     Step     New-Value
    ----------------------------------------------------------------------------
     1. B(C   1,C   0)                1.5338 -0.000995  0.0023    1.5361   
     2. B(O   2,C   0)                1.4162 -0.000526  0.0002    1.4164   
     3. B(C   3,C   0)                1.5344 -0.000280  0.0012    1.5356   
     4. B(H   4,C   0)                1.1015  0.000104 -0.0001    1.1013   
     5. B(C   5,O   2)                1.4047 -0.001937  0.0026    1.4072   
     6. B(C   6,C   5)                1.5347 -0.000792  0.0021    1.5368   
     7. B(C   7,C   1)                1.5343 -0.000224  0.0010    1.5353   
     8. B(C   7,C   6)                1.5290 -0.000274  0.0012    1.5302   
     9. B(H   8,C   6)                1.1007 -0.000091  0.0004    1.1011   
    10. B(O   9,C   6)                1.4052  0.000160 -0.0010    1.4042   
    11. B(O  10,C   7)                1.4065  0.000265 -0.0012    1.4053   
    12. B(H  11,C   7)                1.1033  0.000006  0.0002    1.1035   
    13. B(O  12,C   1)                1.4044  0.000067 -0.0009    1.4035   
    14. B(H  13,C   1)                1.1010  0.000010  0.0001    1.1011   
    15. B(H  14,C   3)                1.0992  0.000237 -0.0004    1.0987   
    16. B(O  15,C   3)                1.4015 -0.000057 -0.0006    1.4009   
    17. B(H  16,C   3)                1.0905 -0.000300  0.0006    1.0912   
    18. B(H  17,O   2)                2.3000 -0.000427  0.0171    2.3171   
    19. B(H  17,O  15)                0.9663 -0.000766  0.0008    0.9672   
    20. B(H  18,O  10)                2.4404 -0.000208  0.0089    2.4493   
    21. B(H  18,O  12)                0.9662 -0.000839  0.0010    0.9672   
    22. B(H  19,O   9)                2.4277 -0.000304  0.0089    2.4366   
    23. B(H  19,O  10)                0.9655 -0.000983  0.0011    0.9666   
    24. B(H  20,O   9)                0.9656 -0.000924  0.0010    0.9666   
    25. B(O  21,H  20)                2.4101 -0.000310  0.0086    2.4187   
    26. B(O  21,C   5)                1.3837 -0.001197  0.0005    1.3843   
    27. B(H  22,C   5)                1.1142  0.000392 -0.0003    1.1139   
    28. B(C  23,O  21)                1.4193 -0.000781  0.0012    1.4205   
    29. B(H  24,C  23)                1.0912 -0.000107  0.0002    1.0913   
    30. B(H  25,C  23)                1.0956  0.000109 -0.0002    1.0954   
    31. B(H  26,C  23)                1.0872 -0.000109  0.0000    1.0872   
    32. A(C   1,C   0,H   4)          108.29  0.000141   -0.21    108.08   
    33. A(O   2,C   0,H   4)          110.01 -0.000127    0.07    110.07   
    34. A(C   3,C   0,H   4)          109.58  0.000122   -0.09    109.49   
    35. A(C   1,C   0,O   2)          111.60 -0.000053    0.15    111.75   
    36. A(O   2,C   0,C   3)          106.25 -0.000145    0.17    106.41   
    37. A(C   1,C   0,C   3)          111.11  0.000058   -0.08    111.03   
    38. A(O  12,C   1,H  13)          110.41 -0.000243    0.17    110.58   
    39. A(C   0,C   1,H  13)          108.89  0.000063   -0.09    108.80   
    40. A(C   0,C   1,O  12)          107.78 -0.000341   -0.03    107.75   
    41. A(C   0,C   1,C   7)          110.34 -0.000110    0.09    110.43   
    42. A(C   7,C   1,H  13)          108.55  0.000288   -0.16    108.39   
    43. A(C   7,C   1,O  12)          110.85  0.000333    0.02    110.87   
    44. A(C   0,O   2,C   5)          113.69  0.000254    0.02    113.72   
    45. A(H  14,C   3,O  15)          110.59 -0.000101    0.09    110.68   
    46. A(C   0,C   3,O  15)          111.92  0.000248    0.12    112.04   
    47. A(C   0,C   3,H  14)          108.84  0.000298   -0.20    108.64   
    48. A(C   0,C   3,H  16)          108.93  0.000145   -0.16    108.78   
    49. A(O  15,C   3,H  16)          106.89 -0.000955    0.19    107.08   
    50. A(H  14,C   3,H  16)          109.62  0.000359   -0.05    109.57   
    51. A(C   6,C   5,H  22)          109.21  0.000162   -0.19    109.01   
    52. A(O   2,C   5,H  22)          109.20  0.000205   -0.17    109.03   
    53. A(O  21,C   5,H  22)          110.49 -0.000238    0.22    110.71   
    54. A(C   6,C   5,O  21)          107.53  0.000307    0.06    107.59   
    55. A(O   2,C   5,C   6)          110.73  0.000105   -0.05    110.68   
    56. A(O   2,C   5,O  21)          109.67 -0.000541    0.14    109.81   
    57. A(C   7,C   6,O   9)          108.32  0.000023    0.02    108.34   
    58. A(C   5,C   6,O   9)          111.47 -0.000078    0.12    111.58   
    59. A(C   7,C   6,H   8)          109.50  0.000013   -0.10    109.40   
    60. A(C   5,C   6,H   8)          108.09  0.000177   -0.21    107.88   
    61. A(C   5,C   6,C   7)          108.84 -0.000114   -0.02    108.81   
    62. A(H   8,C   6,O   9)          110.59 -0.000023    0.19    110.79   
    63. A(C   1,C   7,C   6)          110.02 -0.000323    0.08    110.10   
    64. A(O  10,C   7,H  11)          109.84  0.000056    0.11    109.95   
    65. A(C   6,C   7,H  11)          108.34  0.000241   -0.21    108.13   
    66. A(C   1,C   7,H  11)          108.68 -0.000138   -0.04    108.64   
    67. A(C   6,C   7,O  10)          111.92  0.000171    0.08    111.99   
    68. A(C   1,C   7,O  10)          108.00 -0.000019   -0.02    107.98   
    69. A(C   6,O   9,H  20)          107.98 -0.000371    0.30    108.28   
    70. A(C   7,O  10,H  19)          107.39 -0.000866    0.40    107.79   
    71. A(C   1,O  12,H  18)          106.94 -0.000891    0.35    107.30   
    72. A(C   3,O  15,H  17)          106.96 -0.000640    0.32    107.27   
    73. A(C   5,O  21,C  23)          114.76  0.000633   -0.04    114.72   
    74. A(H  25,C  23,H  26)          110.01 -0.000155    0.12    110.13   
    75. A(H  24,C  23,H  26)          110.09 -0.000096    0.11    110.20   
    76. A(O  21,C  23,H  26)          105.72 -0.000063   -0.06    105.66   
    77. A(H  24,C  23,H  25)          109.48  0.000035   -0.07    109.41   
    78. A(O  21,C  23,H  25)          110.50  0.000179   -0.06    110.44   
    79. A(O  21,C  23,H  24)          110.98  0.000093   -0.03    110.95   
    80. D(O  12,C   1,C   0,H   4)    -52.77 -0.000236    0.37    -52.40   
    81. D(C   7,C   1,C   0,H   4)     68.39 -0.000109    0.43     68.82   
    82. D(O  12,C   1,C   0,C   3)     67.62  0.000040    0.08     67.70   
    83. D(C   7,C   1,C   0,C   3)   -171.22  0.000167    0.14   -171.08   
    84. D(O  12,C   1,C   0,O   2)   -173.99 -0.000139    0.34   -173.66   
    85. D(C   7,C   1,C   0,O   2)    -52.83 -0.000011    0.39    -52.44   
    86. D(C   5,O   2,C   0,C   1)     58.56  0.000080   -0.25     58.31   
    87. D(C   5,O   2,C   0,C   3)    179.81  0.000028   -0.15    179.66   
    88. D(C   5,O   2,C   0,H   4)    -61.66  0.000022   -0.13    -61.79   
    89. D(H  14,C   3,C   0,O   2)     66.38  0.000069   -0.12     66.26   
    90. D(O  15,C   3,C   0,C   1)     65.41 -0.000298    0.06     65.47   
    91. D(H  14,C   3,C   0,H   4)    -52.43  0.000237   -0.24    -52.67   
    92. D(O  15,C   3,C   0,O   2)    -56.16 -0.000175   -0.18    -56.34   
    93. D(O  15,C   3,C   0,H   4)   -174.97 -0.000007   -0.31   -175.27   
    94. D(H  14,C   3,C   0,C   1)   -172.05 -0.000054    0.12   -171.93   
    95. D(H  22,C   5,O   2,C   0)     58.74  0.000278   -0.40     58.35   
    96. D(O  21,C   5,O   2,C   0)    179.95 -0.000224   -0.15    179.81   
    97. D(C   6,C   5,O   2,C   0)    -61.54 -0.000119   -0.01    -61.56   
    98. D(H   8,C   6,C   5,H  22)    179.41 -0.000266    0.74    180.15   
    99. D(H   8,C   6,C   5,O  21)     59.49 -0.000250    0.56     60.05   
   100. D(H   8,C   6,C   5,O   2)    -60.31  0.000157    0.38    -59.93   
   101. D(C   7,C   6,C   5,H  22)    -61.74 -0.000213    0.50    -61.25   
   102. D(C   7,C   6,C   5,O  21)    178.34 -0.000198    0.31    178.65   
   103. D(C   7,C   6,C   5,O   2)     58.54  0.000210    0.13     58.67   
   104. D(O  10,C   7,C   1,H  13)     55.21 -0.000006   -0.00     55.20   
   105. D(O  10,C   7,C   1,O  12)    -66.23 -0.000101   -0.13    -66.35   
   106. D(O  10,C   7,C   1,C   0)    174.46  0.000183   -0.16    174.30   
   107. D(C   6,C   7,C   1,H  13)    -67.21 -0.000004   -0.13    -67.34   
   108. D(C   6,C   7,C   1,O  12)    171.36 -0.000099   -0.26    171.10   
   109. D(C   1,C   7,C   6,C   5)    -54.42 -0.000104    0.00    -54.42   
   110. D(C   6,C   7,C   1,C   0)     52.04  0.000184   -0.29     51.75   
   111. D(O  10,C   7,C   6,O   9)     64.16  0.000175   -0.21     63.95   
   112. D(O  10,C   7,C   6,H   8)    -56.53  0.000182   -0.40    -56.92   
   113. D(O  10,C   7,C   6,C   5)   -174.49  0.000027   -0.07   -174.56   
   114. D(C   1,C   7,C   6,O   9)   -175.77  0.000045   -0.13   -175.90   
   115. D(C   1,C   7,C   6,H   8)     63.55  0.000051   -0.32     63.22   
   116. D(H  20,O   9,C   6,H   8)    -67.31 -0.000133    0.66    -66.65   
   117. D(H  20,O   9,C   6,C   7)    172.68 -0.000149    0.65    173.33   
   118. D(H  20,O   9,C   6,C   5)     52.96  0.000024    0.60     53.56   
   119. D(H  19,O  10,C   7,H  11)     71.97  0.000334   -0.88     71.09   
   120. D(H  19,O  10,C   7,C   6)    -48.42 -0.000119   -0.75    -49.16   
   121. D(H  19,O  10,C   7,C   1)   -169.66  0.000189   -0.88   -170.54   
   122. D(H  18,O  12,C   1,H  13)    -67.44 -0.000303    0.47    -66.97   
   123. D(H  18,O  12,C   1,C   7)     52.89  0.000116    0.40     53.29   
   124. D(H  18,O  12,C   1,C   0)    173.73 -0.000035    0.50    174.23   
   125. D(H  17,O  15,C   3,H  16)    170.18 -0.000093    0.49    170.68   
   126. D(H  17,O  15,C   3,H  14)    -70.54 -0.000291    0.59    -69.96   
   127. D(H  17,O  15,C   3,C   0)     50.99  0.000190    0.48     51.48   
   128. D(C  23,O  21,C   5,H  22)     52.22 -0.000077   -0.47     51.75   
   129. D(C  23,O  21,C   5,C   6)    171.32  0.000167   -0.55    170.77   
   130. D(C  23,O  21,C   5,O   2)    -68.21  0.000167   -0.49    -68.70   
   131. D(H  26,C  23,O  21,C   5)   -178.52  0.000020   -0.09   -178.61   
   132. D(H  25,C  23,O  21,C   5)    -59.52 -0.000106   -0.02    -59.54   
   133. D(H  24,C  23,O  21,C   5)     62.13  0.000123   -0.16     61.96   
    ----------------------------------------------------------------------------

Geometry step timings:
Preparation and reading OPT file:      0.000 s ( 3.316 %)
Internal coordinates            :      0.000 s ( 0.697 %)
B/P matrices and projection     :      0.001 s (23.400 %)
Hessian update/contruction      :      0.001 s (28.701 %)
Making the step                 :      0.001 s (17.466 %)
Converting the step to Cartesian:      0.000 s ( 2.175 %)
Storing new data                :      0.000 s ( 6.589 %)
Checking convergence            :      0.000 s ( 0.739 %)
Final printing                  :      0.001 s (16.917 %)
Total time                      :      0.005 s

Time for energy+gradient        :      0.039 s
Time for complete geometry iter :      0.047 s

         *************************************************************
         *                GEOMETRY OPTIMIZATION CYCLE   5            *
         *************************************************************
---------------------------------
CARTESIAN COORDINATES (ANGSTROEM)
---------------------------------
  C    -1.204995    0.522687   -0.375804
  C    -1.427998   -0.943317    0.025139
  O    -0.013174    1.044416    0.184195
  C    -2.348797    1.412851    0.131546
  H    -1.159893    0.573240   -1.475044
  C     1.143241    0.329888   -0.179811
  C     1.061504   -1.123076    0.314181
  C    -0.180607   -1.780869   -0.290743
  H     0.967048   -1.102432    1.411029
  O     2.188307   -1.865079   -0.075070
  O    -0.388638   -3.075954    0.213513
  H    -0.049862   -1.819654   -1.385833
  O    -2.541456   -1.416900   -0.686101
  H    -1.612679   -0.990425    1.109611
  H    -2.227952    2.417717   -0.296075
  O    -2.388121    1.471961    1.530669
  H    -3.297890    0.987171   -0.198051
  H    -1.500042    1.706859    1.833238
  H    -2.620580   -2.362695   -0.499921
  H     0.448060   -3.555706    0.149270
  H     2.978799   -1.391881    0.217409
  O     2.256112    0.908646    0.405628
  H     1.236603    0.331098   -1.289815
  C     2.596260    2.190458   -0.103385
  H     1.792226    2.906751    0.073984
  H     2.802264    2.133033   -1.177666
  H     3.492261    2.491215    0.433902

----------------------------
CARTESIAN COORDINATES (A.U.)
----------------------------
  NO LB    ZA    FRAG    MASS        X           Y           Z
   0 C   6.0000    1    12.011   -2.277111    0.987734   -0.710166
   1 C   6.0000    1    12.011   -2.698526   -1.782612    0.047507
   2 O   8.0000    1    15.999   -0.024895    1.973661    0.348078
   3 C   6.0000    1    12.011   -4.438583    2.669902    0.248587
   4 H   1.0000    1     1.008   -2.191881    1.083266   -2.787429
   5 C   6.0000    1    12.011    2.160412    0.623397   -0.339794
   6 C   6.0000    1    12.011    2.005953   -2.122305    0.593716
   7 C   6.0000    1    12.011   -0.341298   -3.365355   -0.549424
   8 H   1.0000    1     1.008    1.827455   -2.083295    2.666459
   9 O   8.0000    1    15.999    4.135301   -3.524489   -0.141861
  10 O   8.0000    1    15.999   -0.734420   -5.812711    0.403481
  11 H   1.0000    1     1.008   -0.094225   -3.438647   -2.618845
  12 O   8.0000    1    15.999   -4.802656   -2.677554   -1.296542
  13 H   1.0000    1     1.008   -3.047521   -1.871632    2.096861
  14 H   1.0000    1     1.008   -4.210219    4.568823   -0.559500
  15 O   8.0000    1    15.999   -4.512895    2.781602    2.892546
  16 H   1.0000    1     1.008   -6.232109    1.865482   -0.374262
  17 H   1.0000    1     1.008   -2.834669    3.225497    3.464318
  18 H   1.0000    1     1.008   -4.952178   -4.464847   -0.944714
  19 H   1.0000    1     1.008    0.846711   -6.719311    0.282079
  20 H   1.0000    1     1.008    5.629115   -2.630275    0.410844
  21 O   8.0000    1    15.999    4.263433    1.717091    0.766525
  22 H   1.0000    1     1.008    2.336841    0.625685   -2.437396
  23 C   6.0000    1    12.011    4.906220    4.139365   -0.195369
  24 H   1.0000    1     1.008    3.386817    5.492964    0.139810
  25 H   1.0000    1     1.008    5.295512    4.030848   -2.225467
  26 H   1.0000    1     1.008    6.599416    4.707714    0.819956

      -----------------------------------------------------------      
     |                   =====================                   |     
     |                           x T B                           |     
     |                   =====================                   |     
     |                         S. Grimme                         |     
     |          Mulliken Center for Theoretical Chemistry        |     
     |                    University of Bonn                     |     
      -----------------------------------------------------------      

   * xtb version 6.7.1 (edcfbbe) compiled by 'albert@albert-system' on 2024-07-22

   xtb is free software: you can redistribute it and/or modify it under
   the terms of the GNU Lesser General Public License as published by
   the Free Software Foundation, either version 3 of the License, or
   (at your option) any later version.
   
   xtb is distributed in the hope that it will be useful,
   but WITHOUT ANY WARRANTY; without even the implied warranty of
   MERCHANTABILITY or FITNESS FOR A PARTICULAR PURPOSE.  See the
   GNU Lesser General Public License for more details.
   
   Cite this work as:
   * C. Bannwarth, E. Caldeweyher, S. Ehlert, A. Hansen, P. Pracht,
     J. Seibert, S. Spicher, S. Grimme, WIREs Comput. Mol. Sci., 2020, 11,
     e01493. DOI: 10.1002/wcms.1493
   
   for GFN2-xTB:
   * C. Bannwarth, S. Ehlert and S. Grimme., J. Chem. Theory Comput., 2019,
     15, 1652-1671. DOI: 10.1021/acs.jctc.8b01176
   for GFN1-xTB:
   * S. Grimme, C. Bannwarth, P. Shushkov, J. Chem. Theory Comput., 2017,
     13, 1989-2009. DOI: 10.1021/acs.jctc.7b00118
   for GFN0-xTB:
   * P. Pracht, E. Caldeweyher, S. Ehlert, S. Grimme, ChemRxiv, 2019, preprint.
     DOI: 10.26434/chemrxiv.8326202.v1
   for GFN-FF:
   * S. Spicher and S. Grimme, Angew. Chem. Int. Ed., 2020, 59, 15665-15673.
     DOI: 10.1002/anie.202004239
   
   for ALPB and GBSA implicit solvation:
   * S. Ehlert, M. Stahn, S. Spicher, S. Grimme, J. Chem. Theory Comput.,
     2021, 17, 4250-4261. DOI: 10.1021/acs.jctc.1c00471
   
   for ddCOSMO and CPCM-X implicit solvation:
   * M. Stahn, S. Ehlert, S. Grimme, J. Phys. Chem. A,
     2023, XX, XXXX-XXXX. DOI: 10.1021/acs.jpca.3c04382
   
   for DFT-D4:
   * E. Caldeweyher, C. Bannwarth and S. Grimme, J. Chem. Phys., 2017,
     147, 034112. DOI: 10.1063/1.4993215
   * E. Caldeweyher, S. Ehlert, A. Hansen, H. Neugebauer, S. Spicher,
     C. Bannwarth and S. Grimme, J. Chem. Phys., 2019, 150, 154122.
     DOI: 10.1063/1.5090222
   * E. Caldeweyher, J.-M. Mewes, S. Ehlert and S. Grimme, Phys. Chem. Chem. Phys.
     2020, 22, 8499-8512. DOI: 10.1039/D0CP00502A
   
   for sTDA-xTB:
   * S. Grimme and C. Bannwarth, J. Chem. Phys., 2016, 145, 054103.
     DOI: 10.1063/1.4959605
   
   in the mass-spec context:
   * V. Asgeirsson, C. Bauer and S. Grimme, Chem. Sci., 2017, 8, 4879.
     DOI: 10.1039/c7sc00601b
   * J. Koopman and S. Grimme, ACS Omega 2019, 4, 12, 15120-15133.
     DOI: 10.1021/acsomega.9b02011
   
   for metadynamics refer to:
   * S. Grimme, J. Chem. Theory Comput., 2019, 155, 2847-2862
     DOI: 10.1021/acs.jctc.9b00143
   
   for SPH calculations refer to:
   * S. Spicher and S. Grimme, J. Chem. Theory Comput., 2021, 17, 1701-1714
     DOI: 10.1021/acs.jctc.0c01306
   
   for ONIOM refer to:
   * C. Plett, A. Katbashev, S. Ehlert, S. Grimme, M. Bursch,
     Phys. Chem. Chem. Phys., 2023, 25, 17860-17868. DOI: 10.1039/D3CP02178E
   
   for DIPRO refer to:
   * J. Kohn, N. Gildemeister, S. Grimme, D. Fazzi, A. Hansen,
     J. Chem. Phys., 2023, just accepted.
   
   for PTB refer to:
   * S. Grimme, M. Mueller, A. Hansen, J. Chem. Phys., 2023, 158, 124111.
     DOI: 10.1063/5.0137838
   
   with help from (in alphabetical order)
   P. Atkinson, C. Bannwarth, F. Bohle, G. Brandenburg, E. Caldeweyher
   M. Checinski, S. Dohm, S. Ehlert, S. Ehrlich, I. Gerasimov, C. Hölzer
   A. Katbashev, J. Kohn, J. Koopman, C. Lavigne, S. Lehtola, F. März, M. Müller,
   F. Musil, H. Neugebauer, J. Pisarek, C. Plett, P. Pracht, F. Pultar,
   J. Seibert, P. Shushkov, S. Spicher, M. Stahn, M. Steiner, T. Strunk,
   J. Stückrath, T. Rose, and J. Unsleber
   
 * started run on 2026/03/26 at 13:20:41.828     
   ID    Z sym.   atoms
    1    6 C      1, 2, 4, 6-8, 24
    2    8 O      3, 10, 11, 13, 16, 22
    3    1 H      5, 9, 12, 14, 15, 17-21, 23, 25-27

           -------------------------------------------------
          |                Calculation Setup                |
           -------------------------------------------------

          program call               : /home/kmoult/orca_6_1/otool_xtb goat_0_XTB.xyz --grad -c 0 -u 0 -P 4 --namespace goat_0 --input goat_0_XTB.input.tmp --alpb ACETONE --acc 0.200000
          hostname                   : node1619
          calculation namespace      : goat_0
          coordinate file            : goat_0_XTB.xyz
          omp threads                :                     4


           -------------------------------------------------
          |                 G F N 2 - x T B                 |
           -------------------------------------------------

        Reference                      10.1021/acs.jctc.8b01176
      * Hamiltonian:
        H0-scaling (s, p, d)           1.850000    2.230000    2.230000
        zeta-weighting                 0.500000
      * Dispersion:
        s8                             2.700000
        a1                             0.520000
        a2                             5.000000
        s9                             5.000000
      * Repulsion:
        kExp                           1.500000    1.000000
        rExp                           1.000000
      * Coulomb:
        alpha                          2.000000
        third order                    shell-resolved
        anisotropic                    true
        a3                             3.000000
        a5                             4.000000
        cn-shift                       1.200000
        cn-exp                         4.000000
        max-rad                        5.000000

      * Solvation model:               ALPB
        Solvent                        ACETONE
        Parameter file                 internal GFN2-xTB/ALPB
        Dielectric constant                2.0700E+01
        Reference state                gsolv [1 M gas/solution]
        Free energy shift                  5.9241E-03 Eh       3.7175E+00 kcal/mol
        Temperature                        2.9815E+02 K
        Density                            7.9000E-01 kg/L
        Solvent mass                       5.8080E+01 g/mol
        Interaction kernel             P16
        Born radius scaling (c1)           1.8274E+00
        Born radii integrator          GBOBC
        Born offset                        0.0000E+00 a0       0.0000E+00 AA
        H-bond correction              true
        Ion screening                  false
        Surface tension                    1.0000E-05 Eh       1.5569E+01 dyn/cm
        Grid points                               230 per atom
q/qsh data taken from xtbrestart
CAMM data taken from xtbrestart

          ...................................................
          :                      SETUP                      :
          :.................................................:
          :  # basis functions                  66          :
          :  # atomic orbitals                  66          :
          :  # shells                           40          :
          :  # electrons                        78          :
          :  max. iterations                   250          :
          :  Hamiltonian                  GFN2-xTB          :
          :  restarted?                       true          :
          :  GBSA solvation                   true          :
          :  PC potential                    false          :
          :  electronic temp.          300.0000000     K    :
          :  accuracy                    0.2000000          :
          :  -> integral cutoff          0.3198970E+02      :
          :  -> integral neglect         0.2000000E-08      :
          :  -> SCF convergence          0.2000000E-06 Eh   :
          :  -> wf. convergence          0.2000000E-04 e    :
          :  Broyden damping             0.4000000          :
          :  net charge                          0          :
          :  unpaired electrons                  0          :
          ...................................................

 iter      E             dE          RMSdq      gap      omega  full diag
   1    -46.8964350 -0.468964E+02  0.379E-02   10.44       0.0  T
   2    -46.8964360 -0.969506E-06  0.228E-02   10.44       1.0  T
   3    -46.8964359  0.734010E-07  0.408E-03   10.44       4.7  T
   4    -46.8964361 -0.210341E-06  0.862E-04   10.44      22.3  T
   5    -46.8964361 -0.213304E-08  0.377E-04   10.44      51.0  T
   6    -46.8964361 -0.193623E-09  0.148E-04   10.44     129.9  T
   7    -46.8964361 -0.102546E-09  0.366E-05   10.44     526.5  T

   *** convergence criteria satisfied after 7 iterations ***

         #    Occupation            Energy/Eh            Energy/eV
      -------------------------------------------------------------
         1        2.0000           -0.7311290             -19.8950
       ...           ...                  ...                  ...
        33        2.0000           -0.4536430             -12.3443
        34        2.0000           -0.4436899             -12.0734
        35        2.0000           -0.4296238             -11.6907
        36        2.0000           -0.4237126             -11.5298
        37        2.0000           -0.4167597             -11.3406
        38        2.0000           -0.4152611             -11.2998
        39        2.0000           -0.4094087             -11.1406 (HOMO)
        40                         -0.0256692              -0.6985 (LUMO)
        41                         -0.0122129              -0.3323
        42                          0.0151121               0.4112
        43                          0.0351369               0.9561
        44                          0.0507711               1.3816
       ...                                ...                  ...
        66                          0.2858479               7.7783
      -------------------------------------------------------------
                  HL-Gap            0.3837395 Eh           10.4421 eV
             Fermi-level           -0.2175389 Eh           -5.9195 eV

 SCC (total)                   0 d,  0 h,  0 min,  0.028 sec
 SCC setup                      ...        0 min,  0.000 sec (  1.354%)
 Dispersion                     ...        0 min,  0.000 sec (  0.581%)
 classical contributions        ...        0 min,  0.000 sec (  0.079%)
 integral evaluation            ...        0 min,  0.001 sec (  4.511%)
 iterations                     ...        0 min,  0.023 sec ( 82.646%)
 molecular gradient             ...        0 min,  0.003 sec ( 10.236%)
 printout                       ...        0 min,  0.000 sec (  0.498%)

         :::::::::::::::::::::::::::::::::::::::::::::::::::::
         ::                     SUMMARY                     ::
         :::::::::::::::::::::::::::::::::::::::::::::::::::::
         :: total energy             -46.550552970287 Eh    ::
         :: total w/o Gsasa/hb       -46.525036663882 Eh    ::
         :: gradient norm              0.002142148858 Eh/a0 ::
         :: HOMO-LUMO gap             10.442082355678 eV    ::
         ::.................................................::
         :: SCC energy               -46.896226923898 Eh    ::
         :: -> isotropic ES            0.140300644729 Eh    ::
         :: -> anisotropic ES         -0.007385566751 Eh    ::
         :: -> anisotropic XC         -0.008583974742 Eh    ::
         :: -> dispersion             -0.021636774792 Eh    ::
         :: -> Gsolv                  -0.028938152631 Eh    ::
         ::    -> Gelec               -0.003421846226 Eh    ::
         ::    -> Gsasa               -0.020293284644 Eh    ::
         ::    -> Ghb                 -0.011147163025 Eh    ::
         ::    -> Gshift               0.005924141264 Eh    ::
         :: repulsion energy           0.345673953612 Eh    ::
         :: add. restraining           0.000000000000 Eh    ::
         :: total charge              -0.000000000000 e     ::
         :::::::::::::::::::::::::::::::::::::::::::::::::::::


Property printout bound to 'properties.out'

           -------------------------------------------------
          | TOTAL ENERGY              -46.550552970287 Eh   |
          | GRADIENT NORM               0.002142148858 Eh/α |
          | HOMO-LUMO GAP              10.442082355678 eV   |
           -------------------------------------------------

------------------------------------------------------------------------
 * finished run on 2026/03/26 at 13:20:41.867     
------------------------------------------------------------------------
 total:
 * wall-time:     0 d,  0 h,  0 min,  0.038 sec
 *  cpu-time:     0 d,  0 h,  0 min,  0.132 sec
 * ratio c/w:     3.474 speedup
 SCF:
 * wall-time:     0 d,  0 h,  0 min,  0.028 sec
 *  cpu-time:     0 d,  0 h,  0 min,  0.099 sec
 * ratio c/w:     3.553 speedup


-------------------------   --------------------
FINAL SINGLE POINT ENERGY       -46.550552970290
-------------------------   --------------------


-------------
DIPOLE MOMENT
-------------
                                X             Y             Z
Total Dipole Moment    :      1.61700       0.29900      -0.51700
                        -----------------------------------------
Magnitude (a.u.)       :      1.72377
Magnitude (Debye)      :      4.38147


------------------
CARTESIAN GRADIENT
------------------

   1   C   :   -0.000588304    0.000139467   -0.000189997
   2   C   :    0.000038730   -0.000434705   -0.000117469
   3   O   :    0.000371254   -0.000130679   -0.000155019
   4   C   :    0.000419431    0.000491299    0.000079188
   5   H   :    0.000205351   -0.000087922    0.000021813
   6   C   :   -0.000240043    0.000270241    0.001063681
   7   C   :    0.000141906   -0.000096139   -0.000274424
   8   C   :    0.000363523   -0.000543641    0.000152543
   9   H   :   -0.000081945    0.000068548    0.000037194
  10   O   :   -0.000050656   -0.000134019    0.000162582
  11   O   :   -0.000366750    0.000050446   -0.000168020
  12   H   :   -0.000145068    0.000198264   -0.000035093
  13   O   :   -0.000264457    0.000267557    0.000109361
  14   H   :   -0.000002389    0.000221466    0.000073978
  15   H   :   -0.000058886   -0.000111331   -0.000095772
  16   O   :   -0.000404999   -0.000000748    0.000017728
  17   H   :   -0.000124926   -0.000181720    0.000135094
  18   H   :    0.000300206   -0.000163003   -0.000159164
  19   H   :    0.000217456   -0.000144200   -0.000005032
  20   H   :    0.000223766    0.000171477    0.000141854
  21   H   :    0.000028428    0.000167642   -0.000143987
  22   O   :   -0.000047751    0.000178078   -0.000358428
  23   H   :    0.000066706   -0.000103402   -0.000361385
  24   C   :    0.000023786   -0.000083420    0.000230116
  25   H   :   -0.000011599    0.000038840   -0.000106766
  26   H   :   -0.000026013    0.000059264   -0.000065053
  27   H   :    0.000013242   -0.000107661    0.000010479

Difference to translation invariance:
           :   -0.0000000000    0.0000000000    0.0000000000

Difference to rotation invariance:
           :   -0.0013706656    0.0005337765    0.0005299633

Norm of the Cartesian gradient     ...    0.0021421489
RMS gradient                       ...    0.0002380165
MAX gradient                       ...    0.0010636810
------------------------------------------------------------------------------
                         ORCA GEOMETRY RELAXATION STEP
------------------------------------------------------------------------------

Reading the OPT-File                    .... done
Getting information on internals        .... done
Copying old internal coords+grads       .... done
Making the new internal coordinates     .... (2022 redundants) done
Validating the new internal coordinates .... (2022 redundants) done
Calculating the B-matrix                .... done
Calculating the G,G- and P matrices     .... done
Transforming gradient to internals      .... done
Projecting the internal gradient        .... done
Number of atoms                         ....  27
Number of internal coordinates          .... 133
Current Energy                          ....   -46.550552970 Eh
Current gradient norm                   ....     0.002142149 Eh/bohr
Maximum allowed component of the step   ....  0.300
Current trust radius                    ....  0.450
Updating the Hessian (BFGS)             .... done
Forming the augmented Hessian           .... done
Diagonalizing the augmented Hessian     .... done
Last element of RFO vector              ....  0.998932896
Lowest eigenvalues of augmented Hessian:
 -0.000026056  0.008686125  0.011752291  0.015654505  0.016233143
Length of the computed step             ....  0.046234500
The final length of the internal step   ....  0.046234500
Converting the step to Cartesian space:
 Initial RMS(Int)=    0.0040090396
Transforming coordinates:
 Iter   0:  RMS(Cart)=    0.0070901526 RMS(Int)=    0.0040131502
done
Storing new coordinates                 .... done
The predicted energy change is          ....    -0.000013056
Previously predicted energy change      ....    -0.000060650
Actually observed energy change         ....    -0.000074036
Ratio of predicted to observed change   ....     1.220698447
New trust radius                        ....     0.675000000

                                .--------------------.
          ----------------------|Geometry convergence|-------------------------
          Item                value                   Tolerance       Converged
          ---------------------------------------------------------------------
          Energy change      -0.0000740359            0.0000050000      NO
          RMS gradient        0.0001157307            0.0001000000      NO
          MAX gradient        0.0005690831            0.0003000000      NO
          RMS step            0.0040090396            0.0020000000      NO
          MAX step            0.0198430734            0.0040000000      NO
          -------------------------------------------------------------------------
          ........................................................
          Max(Bonds)      0.0105      Max(Angles)    0.15
          Max(Dihed)        0.66      Max(Improp)    0.00
          ---------------------------------------------------------------------

    ---------------------------------------------------------------------------
                         Redundant Internal Coordinates
                            (Angstroem and degrees)

        Definition                    Value    dE/dq     Step     New-Value
    ----------------------------------------------------------------------------
     1. B(C   1,C   0)                1.5361  0.000159  0.0003    1.5364   
     2. B(O   2,C   0)                1.4164  0.000198 -0.0003    1.4161   
     3. B(C   3,C   0)                1.5356  0.000075  0.0003    1.5359   
     4. B(H   4,C   0)                1.1013 -0.000019  0.0000    1.1013   
     5. B(C   5,O   2)                1.4072 -0.000383  0.0010    1.4083   
     6. B(C   6,C   5)                1.5368  0.000017  0.0005    1.5373   
     7. B(C   7,C   1)                1.5353  0.000202  0.0000    1.5354   
     8. B(C   7,C   6)                1.5302  0.000140  0.0002    1.5304   
     9. B(H   8,C   6)                1.1011  0.000040  0.0000    1.1011   
    10. B(O   9,C   6)                1.4042  0.000037 -0.0002    1.4040   
    11. B(O  10,C   7)                1.4053 -0.000135 -0.0001    1.4052   
    12. B(H  11,C   7)                1.1035  0.000023  0.0000    1.1036   
    13. B(O  12,C   1)                1.4035 -0.000007 -0.0002    1.4033   
    14. B(H  13,C   1)                1.1011  0.000055 -0.0001    1.1010   
    15. B(H  14,C   3)                1.0987 -0.000070  0.0000    1.0988   
    16. B(O  15,C   3)                1.4009  0.000000 -0.0001    1.4008   
    17. B(H  16,C   3)                1.0912  0.000134 -0.0001    1.0911   
    18. B(H  17,O   2)                2.3171 -0.000177  0.0105    2.3276   
    19. B(H  17,O  15)                0.9672  0.000134 -0.0000    0.9672   
    20. B(H  18,O  10)                2.4493 -0.000045  0.0054    2.4547   
    21. B(H  18,O  12)                0.9672  0.000099  0.0001    0.9673   
    22. B(H  19,O   9)                2.4366 -0.000075  0.0045    2.4411   
    23. B(H  19,O  10)                0.9666  0.000075  0.0002    0.9668   
    24. B(H  20,O   9)                0.9666  0.000037  0.0002    0.9668   
    25. B(O  21,H  20)                2.4187 -0.000073  0.0045    2.4232   
    26. B(O  21,C   5)                1.3843 -0.000065  0.0002    1.3845   
    27. B(H  22,C   5)                1.1139  0.000361 -0.0007    1.1132   
    28. B(C  23,O  21)                1.4205 -0.000146  0.0005    1.4210   
    29. B(H  24,C  23)                1.0913  0.000015  0.0000    1.0913   
    30. B(H  25,C  23)                1.0954  0.000038 -0.0001    1.0952   
    31. B(H  26,C  23)                1.0872 -0.000002  0.0000    1.0872   
    32. A(C   1,C   0,H   4)          108.08 -0.000056   -0.05    108.03   
    33. A(O   2,C   0,H   4)          110.07 -0.000043    0.04    110.11   
    34. A(C   3,C   0,H   4)          109.49  0.000118   -0.09    109.40   
    35. A(C   1,C   0,O   2)          111.75 -0.000076    0.08    111.82   
    36. A(O   2,C   0,C   3)          106.42 -0.000046    0.09    106.50   
    37. A(C   1,C   0,C   3)          111.03  0.000109   -0.05    110.98   
    38. A(O  12,C   1,H  13)          110.59 -0.000007    0.03    110.62   
    39. A(C   0,C   1,H  13)          108.80 -0.000075    0.02    108.82   
    40. A(C   0,C   1,O  12)          107.75 -0.000067   -0.01    107.75   
    41. A(C   0,C   1,C   7)          110.42 -0.000007    0.04    110.47   
    42. A(C   7,C   1,H  13)          108.39  0.000056   -0.05    108.34   
    43. A(C   7,C   1,O  12)          110.87  0.000095   -0.04    110.83   
    44. A(C   0,O   2,C   5)          113.71  0.000184   -0.05    113.66   
    45. A(H  14,C   3,O  15)          110.68  0.000107   -0.03    110.65   
    46. A(C   0,C   3,O  15)          112.04  0.000022    0.06    112.10   
    47. A(C   0,C   3,H  14)          108.64 -0.000019   -0.05    108.59   
    48. A(C   0,C   3,H  16)          108.78  0.000038   -0.04    108.74   
    49. A(O  15,C   3,H  16)          107.08 -0.000282    0.10    107.18   
    50. A(H  14,C   3,H  16)          109.57  0.000136   -0.04    109.52   
    51. A(C   6,C   5,H  22)          109.01 -0.000128    0.01    109.02   
    52. A(O   2,C   5,H  22)          109.03 -0.000001   -0.03    109.00   
    53. A(O  21,C   5,H  22)          110.71  0.000003    0.06    110.77   
    54. A(C   6,C   5,O  21)          107.58  0.000045    0.02    107.60   
    55. A(O   2,C   5,C   6)          110.68  0.000061   -0.06    110.62   
    56. A(O   2,C   5,O  21)          109.81  0.000019    0.01    109.83   
    57. A(C   7,C   6,O   9)          108.34  0.000010   -0.01    108.33   
    58. A(C   5,C   6,O   9)          111.58 -0.000034    0.04    111.62   
    59. A(C   7,C   6,H   8)          109.40 -0.000040   -0.01    109.39   
    60. A(C   5,C   6,H   8)          107.88 -0.000094   -0.02    107.87   
    61. A(C   5,C   6,C   7)          108.82  0.000087   -0.03    108.78   
    62. A(H   8,C   6,O   9)          110.79  0.000070    0.03    110.81   
    63. A(C   1,C   7,C   6)          110.10 -0.000090    0.05    110.15   
    64. A(O  10,C   7,H  11)          109.95  0.000268   -0.03    109.93   
    65. A(C   6,C   7,H  11)          108.13 -0.000054   -0.05    108.09   
    66. A(C   1,C   7,H  11)          108.64 -0.000214    0.04    108.68   
    67. A(C   6,C   7,O  10)          111.99  0.000080   -0.01    111.99   
    68. A(C   1,C   7,O  10)          107.98  0.000000   -0.02    107.96   
    69. A(C   6,O   9,H  20)          108.28  0.000040    0.07    108.35   
    70. A(C   7,O  10,H  19)          107.78 -0.000212    0.15    107.93   
    71. A(C   1,O  12,H  18)          107.30 -0.000202    0.12    107.42   
    72. A(C   3,O  15,H  17)          107.27 -0.000142    0.12    107.40   
    73. A(C   5,O  21,C  23)          114.72  0.000569   -0.10    114.62   
    74. A(H  25,C  23,H  26)          110.13  0.000022    0.03    110.16   
    75. A(H  24,C  23,H  26)          110.20  0.000072    0.01    110.21   
    76. A(O  21,C  23,H  26)          105.66 -0.000193    0.02    105.68   
    77. A(H  24,C  23,H  25)          109.41 -0.000090    0.00    109.42   
    78. A(O  21,C  23,H  25)          110.44  0.000083   -0.03    110.41   
    79. A(O  21,C  23,H  24)          110.95  0.000106   -0.03    110.92   
    80. D(O  12,C   1,C   0,H   4)    -52.40 -0.000149    0.28    -52.12   
    81. D(C   7,C   1,C   0,H   4)     68.82 -0.000079    0.25     69.07   
    82. D(O  12,C   1,C   0,C   3)     67.70  0.000025    0.10     67.80   
    83. D(C   7,C   1,C   0,C   3)   -171.08  0.000095    0.07   -171.01   
    84. D(O  12,C   1,C   0,O   2)   -173.66 -0.000011    0.22   -173.44   
    85. D(C   7,C   1,C   0,O   2)    -52.44  0.000059    0.19    -52.25   
    86. D(C   5,O   2,C   0,C   1)     58.31 -0.000082   -0.03     58.28   
    87. D(C   5,O   2,C   0,C   3)    179.66 -0.000023    0.00    179.66   
    88. D(C   5,O   2,C   0,H   4)    -61.79  0.000068   -0.04    -61.83   
    89. D(H  14,C   3,C   0,O   2)     66.26  0.000087   -0.20     66.06   
    90. D(O  15,C   3,C   0,C   1)     65.47 -0.000107   -0.05     65.42   
    91. D(H  14,C   3,C   0,H   4)    -52.68  0.000102   -0.24    -52.92   
    92. D(O  15,C   3,C   0,O   2)    -56.34 -0.000048   -0.17    -56.50   
    93. D(O  15,C   3,C   0,H   4)   -175.27 -0.000034   -0.20   -175.48   
    94. D(H  14,C   3,C   0,C   1)   -171.93  0.000029   -0.09   -172.02   
    95. D(H  22,C   5,O   2,C   0)     58.35  0.000002   -0.19     58.15   
    96. D(O  21,C   5,O   2,C   0)    179.81  0.000018   -0.13    179.68   
    97. D(C   6,C   5,O   2,C   0)    -61.56  0.000123   -0.14    -61.70   
    98. D(H   8,C   6,C   5,H  22)   -179.85  0.000002    0.27   -179.58   
    99. D(H   8,C   6,C   5,O  21)     60.05  0.000044    0.18     60.23   
   100. D(H   8,C   6,C   5,O   2)    -59.93 -0.000042    0.19    -59.74   
   101. D(C   7,C   6,C   5,H  22)    -61.25 -0.000050    0.23    -61.01   
   102. D(C   7,C   6,C   5,O  21)    178.65 -0.000008    0.15    178.80   
   103. D(C   7,C   6,C   5,O   2)     58.67 -0.000095    0.16     58.83   
   104. D(O  10,C   7,C   1,H  13)     55.20  0.000124   -0.21     55.00   
   105. D(O  10,C   7,C   1,O  12)    -66.35  0.000036   -0.19    -66.54   
   106. D(O  10,C   7,C   1,C   0)    174.30  0.000063   -0.18    174.11   
   107. D(C   6,C   7,C   1,H  13)    -67.34  0.000080   -0.22    -67.56   
   108. D(C   6,C   7,C   1,O  12)    171.10 -0.000008   -0.20    170.90   
   109. D(C   1,C   7,C   6,C   5)    -54.42  0.000046    0.00    -54.41   
   110. D(C   6,C   7,C   1,C   0)     51.75  0.000019   -0.20     51.55   
   111. D(O  10,C   7,C   6,O   9)     63.95  0.000036   -0.03     63.92   
   112. D(O  10,C   7,C   6,H   8)    -56.93 -0.000032   -0.05    -56.97   
   113. D(O  10,C   7,C   6,C   5)   -174.57  0.000053   -0.00   -174.57   
   114. D(C   1,C   7,C   6,O   9)   -175.90  0.000028   -0.02   -175.92   
   115. D(C   1,C   7,C   6,H   8)     63.22 -0.000040   -0.04     63.19   
   116. D(H  20,O   9,C   6,H   8)    -66.66 -0.000073    0.55    -66.11   
   117. D(H  20,O   9,C   6,C   7)    173.33 -0.000073    0.55    173.88   
   118. D(H  20,O   9,C   6,C   5)     53.56 -0.000166    0.57     54.13   
   119. D(H  19,O  10,C   7,H  11)     71.08  0.000203   -0.66     70.42   
   120. D(H  19,O  10,C   7,C   6)    -49.16  0.000036   -0.58    -49.75   
   121. D(H  19,O  10,C   7,C   1)   -170.54  0.000097   -0.63   -171.17   
   122. D(H  18,O  12,C   1,H  13)    -66.97 -0.000179    0.49    -66.48   
   123. D(H  18,O  12,C   1,C   7)     53.29 -0.000051    0.42     53.71   
   124. D(H  18,O  12,C   1,C   0)    174.23 -0.000044    0.44    174.68   
   125. D(H  17,O  15,C   3,H  16)    170.67 -0.000153    0.56    171.23   
   126. D(H  17,O  15,C   3,H  14)    -69.95 -0.000098    0.55    -69.40   
   127. D(H  17,O  15,C   3,C   0)     51.48 -0.000032    0.50     51.98   
   128. D(C  23,O  21,C   5,H  22)     51.75  0.000079   -0.25     51.50   
   129. D(C  23,O  21,C   5,C   6)    170.77 -0.000047   -0.20    170.57   
   130. D(C  23,O  21,C   5,O   2)    -68.70  0.000065   -0.26    -68.95   
   131. D(H  26,C  23,O  21,C   5)   -178.61  0.000029   -0.05   -178.66   
   132. D(H  25,C  23,O  21,C   5)    -59.54 -0.000013   -0.02    -59.56   
   133. D(H  24,C  23,O  21,C   5)     61.96  0.000000   -0.06     61.91   
    ----------------------------------------------------------------------------

Geometry step timings:
Preparation and reading OPT file:      0.000 s ( 2.799 %)
Internal coordinates            :      0.000 s ( 0.622 %)
B/P matrices and projection     :      0.001 s (24.856 %)
Hessian update/contruction      :      0.001 s (27.543 %)
Making the step                 :      0.001 s (18.436 %)
Converting the step to Cartesian:      0.000 s ( 2.243 %)
Storing new data                :      0.000 s ( 6.086 %)
Checking convergence            :      0.000 s ( 0.822 %)
Final printing                  :      0.001 s (16.570 %)
Total time                      :      0.005 s

Time for energy+gradient        :      0.052 s
Time for complete geometry iter :      0.059 s

         *************************************************************
         *                GEOMETRY OPTIMIZATION CYCLE   6            *
         *************************************************************
---------------------------------
CARTESIAN COORDINATES (ANGSTROEM)
---------------------------------
  C    -1.204059    0.524362   -0.373001
  C    -1.427536   -0.943164    0.023341
  O    -0.012774    1.045592    0.187939
  C    -2.350120    1.411713    0.135037
  H    -1.159929    0.577591   -1.472168
  C     1.144152    0.331174   -0.178558
  C     1.062492   -1.122010    0.316203
  C    -0.179036   -1.780002   -0.290144
  H     0.966231   -1.100562    1.412888
  O     2.189412   -1.864337   -0.071193
  O    -0.387449   -3.074949    0.214085
  H    -0.045721   -1.819603   -1.384903
  O    -2.537779   -1.415485   -0.693367
  H    -1.615495   -0.993816    1.107021
  H    -2.227785    2.418257   -0.288272
  O    -2.394263    1.466116    1.534128
  H    -3.297466    0.987467   -0.201099
  H    -1.510073    1.708482    1.842135
  H    -2.622872   -2.360572   -0.505679
  H     0.446077   -3.559588    0.143252
  H     2.980239   -1.396341    0.229270
  O     2.258143    0.910121    0.405053
  H     1.234342    0.332102   -1.288129
  C     2.598541    2.189997   -0.109955
  H     1.794216    2.906745    0.064297
  H     2.803937    2.127198   -1.183938
  H     3.494571    2.493513    0.425754

----------------------------
CARTESIAN COORDINATES (A.U.)
----------------------------
  NO LB    ZA    FRAG    MASS        X           Y           Z
   0 C   6.0000    1    12.011   -2.275342    0.990901   -0.704869
   1 C   6.0000    1    12.011   -2.697651   -1.782323    0.044108
   2 O   8.0000    1    15.999   -0.024140    1.975883    0.355152
   3 C   6.0000    1    12.011   -4.441084    2.667751    0.255182
   4 H   1.0000    1     1.008   -2.191947    1.091489   -2.781995
   5 C   6.0000    1    12.011    2.162134    0.625828   -0.337426
   6 C   6.0000    1    12.011    2.007819   -2.120292    0.597536
   7 C   6.0000    1    12.011   -0.338328   -3.363716   -0.548292
   8 H   1.0000    1     1.008    1.825913   -2.079761    2.669971
   9 O   8.0000    1    15.999    4.137390   -3.523087   -0.134535
  10 O   8.0000    1    15.999   -0.732172   -5.810811    0.404563
  11 H   1.0000    1     1.008   -0.086400   -3.438551   -2.617087
  12 O   8.0000    1    15.999   -4.795707   -2.674880   -1.310274
  13 H   1.0000    1     1.008   -3.052843   -1.878040    2.091967
  14 H   1.0000    1     1.008   -4.209903    4.569844   -0.544755
  15 O   8.0000    1    15.999   -4.524501    2.770558    2.899082
  16 H   1.0000    1     1.008   -6.231307    1.866042   -0.380021
  17 H   1.0000    1     1.008   -2.853625    3.228564    3.481131
  18 H   1.0000    1     1.008   -4.956509   -4.460834   -0.955594
  19 H   1.0000    1     1.008    0.842964   -6.726646    0.270708
  20 H   1.0000    1     1.008    5.631836   -2.638703    0.433258
  21 O   8.0000    1    15.999    4.267272    1.719879    0.765440
  22 H   1.0000    1     1.008    2.332568    0.627582   -2.434211
  23 C   6.0000    1    12.011    4.910531    4.138494   -0.207785
  24 H   1.0000    1     1.008    3.390577    5.492952    0.121503
  25 H   1.0000    1     1.008    5.298672    4.019821   -2.237319
  26 H   1.0000    1     1.008    6.603781    4.712056    0.804559

      -----------------------------------------------------------      
     |                   =====================                   |     
     |                           x T B                           |     
     |                   =====================                   |     
     |                         S. Grimme                         |     
     |          Mulliken Center for Theoretical Chemistry        |     
     |                    University of Bonn                     |     
      -----------------------------------------------------------      

   * xtb version 6.7.1 (edcfbbe) compiled by 'albert@albert-system' on 2024-07-22

   xtb is free software: you can redistribute it and/or modify it under
   the terms of the GNU Lesser General Public License as published by
   the Free Software Foundation, either version 3 of the License, or
   (at your option) any later version.
   
   xtb is distributed in the hope that it will be useful,
   but WITHOUT ANY WARRANTY; without even the implied warranty of
   MERCHANTABILITY or FITNESS FOR A PARTICULAR PURPOSE.  See the
   GNU Lesser General Public License for more details.
   
   Cite this work as:
   * C. Bannwarth, E. Caldeweyher, S. Ehlert, A. Hansen, P. Pracht,
     J. Seibert, S. Spicher, S. Grimme, WIREs Comput. Mol. Sci., 2020, 11,
     e01493. DOI: 10.1002/wcms.1493
   
   for GFN2-xTB:
   * C. Bannwarth, S. Ehlert and S. Grimme., J. Chem. Theory Comput., 2019,
     15, 1652-1671. DOI: 10.1021/acs.jctc.8b01176
   for GFN1-xTB:
   * S. Grimme, C. Bannwarth, P. Shushkov, J. Chem. Theory Comput., 2017,
     13, 1989-2009. DOI: 10.1021/acs.jctc.7b00118
   for GFN0-xTB:
   * P. Pracht, E. Caldeweyher, S. Ehlert, S. Grimme, ChemRxiv, 2019, preprint.
     DOI: 10.26434/chemrxiv.8326202.v1
   for GFN-FF:
   * S. Spicher and S. Grimme, Angew. Chem. Int. Ed., 2020, 59, 15665-15673.
     DOI: 10.1002/anie.202004239
   
   for ALPB and GBSA implicit solvation:
   * S. Ehlert, M. Stahn, S. Spicher, S. Grimme, J. Chem. Theory Comput.,
     2021, 17, 4250-4261. DOI: 10.1021/acs.jctc.1c00471
   
   for ddCOSMO and CPCM-X implicit solvation:
   * M. Stahn, S. Ehlert, S. Grimme, J. Phys. Chem. A,
     2023, XX, XXXX-XXXX. DOI: 10.1021/acs.jpca.3c04382
   
   for DFT-D4:
   * E. Caldeweyher, C. Bannwarth and S. Grimme, J. Chem. Phys., 2017,
     147, 034112. DOI: 10.1063/1.4993215
   * E. Caldeweyher, S. Ehlert, A. Hansen, H. Neugebauer, S. Spicher,
     C. Bannwarth and S. Grimme, J. Chem. Phys., 2019, 150, 154122.
     DOI: 10.1063/1.5090222
   * E. Caldeweyher, J.-M. Mewes, S. Ehlert and S. Grimme, Phys. Chem. Chem. Phys.
     2020, 22, 8499-8512. DOI: 10.1039/D0CP00502A
   
   for sTDA-xTB:
   * S. Grimme and C. Bannwarth, J. Chem. Phys., 2016, 145, 054103.
     DOI: 10.1063/1.4959605
   
   in the mass-spec context:
   * V. Asgeirsson, C. Bauer and S. Grimme, Chem. Sci., 2017, 8, 4879.
     DOI: 10.1039/c7sc00601b
   * J. Koopman and S. Grimme, ACS Omega 2019, 4, 12, 15120-15133.
     DOI: 10.1021/acsomega.9b02011
   
   for metadynamics refer to:
   * S. Grimme, J. Chem. Theory Comput., 2019, 155, 2847-2862
     DOI: 10.1021/acs.jctc.9b00143
   
   for SPH calculations refer to:
   * S. Spicher and S. Grimme, J. Chem. Theory Comput., 2021, 17, 1701-1714
     DOI: 10.1021/acs.jctc.0c01306
   
   for ONIOM refer to:
   * C. Plett, A. Katbashev, S. Ehlert, S. Grimme, M. Bursch,
     Phys. Chem. Chem. Phys., 2023, 25, 17860-17868. DOI: 10.1039/D3CP02178E
   
   for DIPRO refer to:
   * J. Kohn, N. Gildemeister, S. Grimme, D. Fazzi, A. Hansen,
     J. Chem. Phys., 2023, just accepted.
   
   for PTB refer to:
   * S. Grimme, M. Mueller, A. Hansen, J. Chem. Phys., 2023, 158, 124111.
     DOI: 10.1063/5.0137838
   
   with help from (in alphabetical order)
   P. Atkinson, C. Bannwarth, F. Bohle, G. Brandenburg, E. Caldeweyher
   M. Checinski, S. Dohm, S. Ehlert, S. Ehrlich, I. Gerasimov, C. Hölzer
   A. Katbashev, J. Kohn, J. Koopman, C. Lavigne, S. Lehtola, F. März, M. Müller,
   F. Musil, H. Neugebauer, J. Pisarek, C. Plett, P. Pracht, F. Pultar,
   J. Seibert, P. Shushkov, S. Spicher, M. Stahn, M. Steiner, T. Strunk,
   J. Stückrath, T. Rose, and J. Unsleber
   
 * started run on 2026/03/26 at 13:20:41.887     
   ID    Z sym.   atoms
    1    6 C      1, 2, 4, 6-8, 24
    2    8 O      3, 10, 11, 13, 16, 22
    3    1 H      5, 9, 12, 14, 15, 17-21, 23, 25-27

           -------------------------------------------------
          |                Calculation Setup                |
           -------------------------------------------------

          program call               : /home/kmoult/orca_6_1/otool_xtb goat_0_XTB.xyz --grad -c 0 -u 0 -P 4 --namespace goat_0 --input goat_0_XTB.input.tmp --alpb ACETONE --acc 0.200000
          hostname                   : node1619
          calculation namespace      : goat_0
          coordinate file            : goat_0_XTB.xyz
          omp threads                :                     4


           -------------------------------------------------
          |                 G F N 2 - x T B                 |
           -------------------------------------------------

        Reference                      10.1021/acs.jctc.8b01176
      * Hamiltonian:
        H0-scaling (s, p, d)           1.850000    2.230000    2.230000
        zeta-weighting                 0.500000
      * Dispersion:
        s8                             2.700000
        a1                             0.520000
        a2                             5.000000
        s9                             5.000000
      * Repulsion:
        kExp                           1.500000    1.000000
        rExp                           1.000000
      * Coulomb:
        alpha                          2.000000
        third order                    shell-resolved
        anisotropic                    true
        a3                             3.000000
        a5                             4.000000
        cn-shift                       1.200000
        cn-exp                         4.000000
        max-rad                        5.000000

      * Solvation model:               ALPB
        Solvent                        ACETONE
        Parameter file                 internal GFN2-xTB/ALPB
        Dielectric constant                2.0700E+01
        Reference state                gsolv [1 M gas/solution]
        Free energy shift                  5.9241E-03 Eh       3.7175E+00 kcal/mol
        Temperature                        2.9815E+02 K
        Density                            7.9000E-01 kg/L
        Solvent mass                       5.8080E+01 g/mol
        Interaction kernel             P16
        Born radius scaling (c1)           1.8274E+00
        Born radii integrator          GBOBC
        Born offset                        0.0000E+00 a0       0.0000E+00 AA
        H-bond correction              true
        Ion screening                  false
        Surface tension                    1.0000E-05 Eh       1.5569E+01 dyn/cm
        Grid points                               230 per atom
q/qsh data taken from xtbrestart
CAMM data taken from xtbrestart

          ...................................................
          :                      SETUP                      :
          :.................................................:
          :  # basis functions                  66          :
          :  # atomic orbitals                  66          :
          :  # shells                           40          :
          :  # electrons                        78          :
          :  max. iterations                   250          :
          :  Hamiltonian                  GFN2-xTB          :
          :  restarted?                       true          :
          :  GBSA solvation                   true          :
          :  PC potential                    false          :
          :  electronic temp.          300.0000000     K    :
          :  accuracy                    0.2000000          :
          :  -> integral cutoff          0.3198970E+02      :
          :  -> integral neglect         0.2000000E-08      :
          :  -> SCF convergence          0.2000000E-06 Eh   :
          :  -> wf. convergence          0.2000000E-04 e    :
          :  Broyden damping             0.4000000          :
          :  net charge                          0          :
          :  unpaired electrons                  0          :
          ...................................................

 iter      E             dE          RMSdq      gap      omega  full diag
   1    -46.8963260 -0.468963E+02  0.203E-02   10.45       0.0  T
   2    -46.8963261 -0.130786E-06  0.122E-02   10.45       1.6  T
   3    -46.8963261 -0.134685E-07  0.139E-03   10.45      13.8  T
   4    -46.8963261 -0.243036E-07  0.533E-04   10.45      36.1  T
   5    -46.8963261 -0.427512E-09  0.190E-04   10.45     101.5  T
   6    -46.8963261 -0.101586E-09  0.651E-05   10.45     295.5  T

   *** convergence criteria satisfied after 6 iterations ***

         #    Occupation            Energy/Eh            Energy/eV
      -------------------------------------------------------------
         1        2.0000           -0.7308414             -19.8872
       ...           ...                  ...                  ...
        33        2.0000           -0.4535888             -12.3428
        34        2.0000           -0.4433613             -12.0645
        35        2.0000           -0.4295739             -11.6893
        36        2.0000           -0.4236030             -11.5268
        37        2.0000           -0.4165354             -11.3345
        38        2.0000           -0.4152780             -11.3003
        39        2.0000           -0.4093231             -11.1382 (HOMO)
        40                         -0.0254237              -0.6918 (LUMO)
        41                         -0.0121132              -0.3296
        42                          0.0150322               0.4090
        43                          0.0351254               0.9558
        44                          0.0503903               1.3712
       ...                                ...                  ...
        66                          0.2860784               7.7846
      -------------------------------------------------------------
                  HL-Gap            0.3838994 Eh           10.4464 eV
             Fermi-level           -0.2173734 Eh           -5.9150 eV

 SCC (total)                   0 d,  0 h,  0 min,  0.015 sec
 SCC setup                      ...        0 min,  0.000 sec (  2.550%)
 Dispersion                     ...        0 min,  0.000 sec (  1.125%)
 classical contributions        ...        0 min,  0.000 sec (  0.176%)
 integral evaluation            ...        0 min,  0.001 sec (  8.586%)
 iterations                     ...        0 min,  0.010 sec ( 67.507%)
 molecular gradient             ...        0 min,  0.003 sec ( 19.064%)
 printout                       ...        0 min,  0.000 sec (  0.833%)

         :::::::::::::::::::::::::::::::::::::::::::::::::::::
         ::                     SUMMARY                     ::
         :::::::::::::::::::::::::::::::::::::::::::::::::::::
         :: total energy             -46.550571876172 Eh    ::
         :: total w/o Gsasa/hb       -46.524999060770 Eh    ::
         :: gradient norm              0.001526480358 Eh/a0 ::
         :: HOMO-LUMO gap             10.446434061533 eV    ::
         ::.................................................::
         :: SCC energy               -46.896117024183 Eh    ::
         :: -> isotropic ES            0.140357168471 Eh    ::
         :: -> anisotropic ES         -0.007339038913 Eh    ::
         :: -> anisotropic XC         -0.008595108017 Eh    ::
         :: -> dispersion             -0.021630103495 Eh    ::
         :: -> Gsolv                  -0.029007130469 Eh    ::
         ::    -> Gelec               -0.003434315067 Eh    ::
         ::    -> Gsasa               -0.020303113673 Eh    ::
         ::    -> Ghb                 -0.011193842993 Eh    ::
         ::    -> Gshift               0.005924141264 Eh    ::
         :: repulsion energy           0.345545148011 Eh    ::
         :: add. restraining           0.000000000000 Eh    ::
         :: total charge               0.000000000000 e     ::
         :::::::::::::::::::::::::::::::::::::::::::::::::::::


Property printout bound to 'properties.out'

           -------------------------------------------------
          | TOTAL ENERGY              -46.550571876172 Eh   |
          | GRADIENT NORM               0.001526480358 Eh/α |
          | HOMO-LUMO GAP              10.446434061533 eV   |
           -------------------------------------------------

------------------------------------------------------------------------
 * finished run on 2026/03/26 at 13:20:41.913     
------------------------------------------------------------------------
 total:
 * wall-time:     0 d,  0 h,  0 min,  0.025 sec
 *  cpu-time:     0 d,  0 h,  0 min,  0.093 sec
 * ratio c/w:     3.673 speedup
 SCF:
 * wall-time:     0 d,  0 h,  0 min,  0.015 sec
 *  cpu-time:     0 d,  0 h,  0 min,  0.059 sec
 * ratio c/w:     3.969 speedup


-------------------------   --------------------
FINAL SINGLE POINT ENERGY       -46.550571876170
-------------------------   --------------------


-------------
DIPOLE MOMENT
-------------
                                X             Y             Z
Total Dipole Moment    :      1.60700       0.29800      -0.51300
                        -----------------------------------------
Magnitude (a.u.)       :      1.71302
Magnitude (Debye)      :      4.35414


------------------
CARTESIAN GRADIENT
------------------

   1   C   :   -0.000290443    0.000327161   -0.000172097
   2   C   :   -0.000231258   -0.000333511   -0.000192703
   3   O   :    0.000065965    0.000131415   -0.000048436
   4   C   :   -0.000013093    0.000213752    0.000152993
   5   H   :    0.000096729   -0.000084127    0.000053994
   6   C   :    0.000007478    0.000331125    0.000430243
   7   C   :    0.000270448   -0.000343478   -0.000334949
   8   C   :    0.000024818   -0.000415282    0.000260316
   9   H   :   -0.000099967    0.000083746    0.000062781
  10   O   :   -0.000235750   -0.000086578    0.000159656
  11   O   :   -0.000208925    0.000255024   -0.000239872
  12   H   :   -0.000060710    0.000106601   -0.000030517
  13   O   :    0.000010323    0.000212472    0.000190277
  14   H   :    0.000040283    0.000156751    0.000067095
  15   H   :   -0.000029059   -0.000129410   -0.000065335
  16   O   :   -0.000183911    0.000097641   -0.000058224
  17   H   :   -0.000087471   -0.000105903   -0.000075501
  18   H   :    0.000283593   -0.000087110    0.000030588
  19   H   :    0.000052265   -0.000270719   -0.000051219
  20   H   :    0.000247754   -0.000099226    0.000137807
  21   H   :    0.000214897    0.000145505   -0.000068109
  22   O   :    0.000192966   -0.000056653    0.000014125
  23   H   :   -0.000059423   -0.000137420   -0.000133199
  24   C   :    0.000078237    0.000105068    0.000032513
  25   H   :   -0.000036201    0.000029064   -0.000111739
  26   H   :   -0.000073928    0.000033315   -0.000034718
  27   H   :    0.000024382   -0.000079224    0.000024228

Difference to translation invariance:
           :   -0.0000000000    0.0000000000    0.0000000000

Difference to rotation invariance:
           :   -0.0013954782    0.0005358745    0.0005383500

Norm of the Cartesian gradient     ...    0.0015264804
RMS gradient                       ...    0.0001696089
MAX gradient                       ...    0.0004302430
------------------------------------------------------------------------------
                         ORCA GEOMETRY RELAXATION STEP
------------------------------------------------------------------------------

Reading the OPT-File                    .... done
Getting information on internals        .... done
Copying old internal coords+grads       .... done
Making the new internal coordinates     .... (2022 redundants) done
Validating the new internal coordinates .... (2022 redundants) done
Calculating the B-matrix                .... done
Calculating the G,G- and P matrices     .... done
Transforming gradient to internals      .... done
Projecting the internal gradient        .... done
Number of atoms                         ....  27
Number of internal coordinates          .... 133
Current Energy                          ....   -46.550571876 Eh
Current gradient norm                   ....     0.001526480 Eh/bohr
Maximum allowed component of the step   ....  0.300
Current trust radius                    ....  0.675
Updating the Hessian (BFGS)             .... done
Forming the augmented Hessian           .... done
Diagonalizing the augmented Hessian     .... done
Last element of RFO vector              ....  0.998401057
Lowest eigenvalues of augmented Hessian:
 -0.000019430  0.004739936  0.011398035  0.015603902  0.016408603
Length of the computed step             ....  0.056617782
The final length of the internal step   ....  0.056617782
Converting the step to Cartesian space:
 Initial RMS(Int)=    0.0049093843
Transforming coordinates:
 Iter   0:  RMS(Cart)=    0.0071872197 RMS(Int)=    0.0049138639
done
Storing new coordinates                 .... done
The predicted energy change is          ....    -0.000009746
Previously predicted energy change      ....    -0.000013056
Actually observed energy change         ....    -0.000018906
Ratio of predicted to observed change   ....     1.448055955
New trust radius                        ....     0.675000000

                                .--------------------.
          ----------------------|Geometry convergence|-------------------------
          Item                value                   Tolerance       Converged
          ---------------------------------------------------------------------
          Energy change      -0.0000189059            0.0000050000      NO
          RMS gradient        0.0000905975            0.0001000000      YES
          MAX gradient        0.0003351728            0.0003000000      NO
          RMS step            0.0049093843            0.0020000000      NO
          MAX step            0.0227390866            0.0040000000      NO
          -------------------------------------------------------------------------
          ........................................................
          Max(Bonds)      0.0120      Max(Angles)    0.11
          Max(Dihed)        0.78      Max(Improp)    0.00
          ---------------------------------------------------------------------

    ---------------------------------------------------------------------------
                         Redundant Internal Coordinates
                            (Angstroem and degrees)

        Definition                    Value    dE/dq     Step     New-Value
    ----------------------------------------------------------------------------
     1. B(C   1,C   0)                1.5364  0.000335 -0.0003    1.5362   
     2. B(O   2,C   0)                1.4162  0.000271 -0.0006    1.4156   
     3. B(C   3,C   0)                1.5359  0.000083  0.0001    1.5360   
     4. B(H   4,C   0)                1.1013 -0.000055  0.0001    1.1015   
     5. B(C   5,O   2)                1.4083  0.000101  0.0006    1.4088   
     6. B(C   6,C   5)                1.5373  0.000187  0.0000    1.5373   
     7. B(C   7,C   1)                1.5354  0.000190 -0.0002    1.5352   
     8. B(C   7,C   6)                1.5304  0.000133  0.0001    1.5304   
     9. B(H   8,C   6)                1.1011  0.000067 -0.0001    1.1010   
    10. B(O   9,C   6)                1.4039 -0.000046  0.0000    1.4040   
    11. B(O  10,C   7)                1.4052 -0.000175  0.0003    1.4054   
    12. B(H  11,C   7)                1.1036  0.000031 -0.0001    1.1035   
    13. B(O  12,C   1)                1.4034 -0.000065  0.0001    1.4034   
    14. B(H  13,C   1)                1.1010  0.000043 -0.0001    1.1009   
    15. B(H  14,C   3)                1.0988 -0.000096  0.0002    1.0989   
    16. B(O  15,C   3)                1.4008  0.000041 -0.0001    1.4008   
    17. B(H  16,C   3)                1.0911  0.000136 -0.0002    1.0908   
    18. B(H  17,O   2)                2.3276 -0.000077  0.0120    2.3396   
    19. B(H  17,O  15)                0.9672  0.000225 -0.0002    0.9669   
    20. B(H  18,O  10)                2.4547 -0.000026  0.0068    2.4615   
    21. B(H  18,O  12)                0.9673  0.000232 -0.0002    0.9671   
    22. B(H  19,O   9)                2.4411 -0.000022  0.0051    2.4462   
    23. B(H  19,O  10)                0.9668  0.000245 -0.0001    0.9666   
    24. B(H  20,O   9)                0.9668  0.000213 -0.0001    0.9667   
    25. B(O  21,H  20)                2.4232 -0.000024  0.0052    2.4284   
    26. B(O  21,C   5)                1.3845  0.000182  0.0000    1.3845   
    27. B(H  22,C   5)                1.1132  0.000124 -0.0007    1.1126   
    28. B(C  23,O  21)                1.4210  0.000073  0.0002    1.4212   
    29. B(H  24,C  23)                1.0913  0.000026 -0.0000    1.0913   
    30. B(H  25,C  23)                1.0952 -0.000000 -0.0001    1.0952   
    31. B(H  26,C  23)                1.0872  0.000022 -0.0000    1.0872   
    32. A(C   1,C   0,H   4)          108.03 -0.000069   -0.01    108.01   
    33. A(O   2,C   0,H   4)          110.11 -0.000014    0.04    110.15   
    34. A(C   3,C   0,H   4)          109.40  0.000067   -0.11    109.29   
    35. A(C   1,C   0,O   2)          111.82 -0.000039    0.06    111.89   
    36. A(O   2,C   0,C   3)          106.50 -0.000004    0.07    106.57   
    37. A(C   1,C   0,C   3)          110.98  0.000063   -0.05    110.92   
    38. A(O  12,C   1,H  13)          110.62  0.000035    0.00    110.62   
    39. A(C   0,C   1,H  13)          108.82 -0.000076    0.06    108.88   
    40. A(C   0,C   1,O  12)          107.75  0.000047   -0.03    107.72   
    41. A(C   0,C   1,C   7)          110.47  0.000012    0.05    110.51   
    42. A(C   7,C   1,H  13)          108.34  0.000005   -0.04    108.31   
    43. A(C   7,C   1,O  12)          110.83 -0.000023   -0.04    110.79   
    44. A(C   0,O   2,C   5)          113.66  0.000051   -0.07    113.59   
    45. A(H  14,C   3,O  15)          110.65  0.000077   -0.04    110.61   
    46. A(C   0,C   3,O  15)          112.11 -0.000036    0.06    112.16   
    47. A(C   0,C   3,H  14)          108.59 -0.000078   -0.01    108.57   
    48. A(C   0,C   3,H  16)          108.74 -0.000015   -0.02    108.73   
    49. A(O  15,C   3,H  16)          107.18  0.000063    0.05    107.23   
    50. A(H  14,C   3,H  16)          109.52 -0.000010   -0.03    109.49   
    51. A(C   6,C   5,H  22)          109.02 -0.000140    0.07    109.09   
    52. A(O   2,C   5,H  22)          109.00 -0.000042   -0.00    109.00   
    53. A(O  21,C   5,H  22)          110.77  0.000061    0.03    110.80   
    54. A(C   6,C   5,O  21)          107.60 -0.000056    0.03    107.63   
    55. A(O   2,C   5,C   6)          110.62  0.000051   -0.08    110.54   
    56. A(O   2,C   5,O  21)          109.83  0.000124   -0.04    109.79   
    57. A(C   7,C   6,O   9)          108.33  0.000011   -0.02    108.31   
    58. A(C   5,C   6,O   9)          111.62  0.000006    0.01    111.62   
    59. A(C   7,C   6,H   8)          109.39 -0.000029    0.01    109.41   
    60. A(C   5,C   6,H   8)          107.87 -0.000097    0.03    107.89   
    61. A(C   5,C   6,C   7)          108.78  0.000077   -0.03    108.76   
    62. A(H   8,C   6,O   9)          110.81  0.000032   -0.00    110.81   
    63. A(C   1,C   7,C   6)          110.15  0.000008    0.05    110.20   
    64. A(O  10,C   7,H  11)          109.93  0.000138   -0.04    109.89   
    65. A(C   6,C   7,H  11)          108.09 -0.000060   -0.01    108.07   
    66. A(C   1,C   7,H  11)          108.68 -0.000123    0.07    108.75   
    67. A(C   6,C   7,O  10)          111.99  0.000008   -0.03    111.96   
    68. A(C   1,C   7,O  10)          107.96  0.000025   -0.04    107.93   
    69. A(C   6,O   9,H  20)          108.35  0.000131    0.02    108.37   
    70. A(C   7,O  10,H  19)          107.93  0.000077    0.08    108.00   
    71. A(C   1,O  12,H  18)          107.42  0.000071    0.06    107.48   
    72. A(C   3,O  15,H  17)          107.40  0.000032    0.08    107.48   
    73. A(C   5,O  21,C  23)          114.62  0.000190   -0.10    114.53   
    74. A(H  25,C  23,H  26)          110.16  0.000057    0.00    110.16   
    75. A(H  24,C  23,H  26)          110.21  0.000078   -0.02    110.18   
    76. A(O  21,C  23,H  26)          105.68 -0.000137    0.05    105.73   
    77. A(H  24,C  23,H  25)          109.42 -0.000092    0.03    109.45   
    78. A(O  21,C  23,H  25)          110.41  0.000026   -0.02    110.38   
    79. A(O  21,C  23,H  24)          110.92  0.000071   -0.04    110.89   
    80. D(O  12,C   1,C   0,H   4)    -52.12 -0.000063    0.30    -51.83   
    81. D(C   7,C   1,C   0,H   4)     69.07 -0.000054    0.26     69.33   
    82. D(O  12,C   1,C   0,C   3)     67.80  0.000014    0.13     67.92   
    83. D(C   7,C   1,C   0,C   3)   -171.01  0.000022    0.09   -170.92   
    84. D(O  12,C   1,C   0,O   2)   -173.44  0.000026    0.22   -173.22   
    85. D(C   7,C   1,C   0,O   2)    -52.24  0.000034    0.18    -52.06   
    86. D(C   5,O   2,C   0,C   1)     58.28 -0.000077    0.04     58.32   
    87. D(C   5,O   2,C   0,C   3)    179.66 -0.000025    0.06    179.72   
    88. D(C   5,O   2,C   0,H   4)    -61.83  0.000045   -0.01    -61.84   
    89. D(H  14,C   3,C   0,O   2)     66.06  0.000038   -0.31     65.75   
    90. D(O  15,C   3,C   0,C   1)     65.42  0.000006   -0.20     65.23   
    91. D(H  14,C   3,C   0,H   4)    -52.92  0.000022   -0.33    -53.25   
    92. D(O  15,C   3,C   0,O   2)    -56.50  0.000019   -0.28    -56.79   
    93. D(O  15,C   3,C   0,H   4)   -175.48  0.000003   -0.31   -175.79   
    94. D(H  14,C   3,C   0,C   1)   -172.02  0.000025   -0.22   -172.24   
    95. D(H  22,C   5,O   2,C   0)     58.15 -0.000054   -0.17     57.98   
    96. D(O  21,C   5,O   2,C   0)    179.68  0.000072   -0.16    179.51   
    97. D(C   6,C   5,O   2,C   0)    -61.70  0.000113   -0.21    -61.91   
    98. D(H   8,C   6,C   5,H  22)   -179.58  0.000050    0.15   -179.43   
    99. D(H   8,C   6,C   5,O  21)     60.23  0.000089    0.07     60.30   
   100. D(H   8,C   6,C   5,O   2)    -59.74 -0.000058    0.15    -59.59   
   101. D(C   7,C   6,C   5,H  22)    -61.01  0.000004    0.17    -60.84   
   102. D(C   7,C   6,C   5,O  21)    178.80  0.000043    0.09    178.89   
   103. D(C   7,C   6,C   5,O   2)     58.83 -0.000104    0.16     58.99   
   104. D(O  10,C   7,C   1,H  13)     55.00  0.000094   -0.34     54.66   
   105. D(O  10,C   7,C   1,O  12)    -66.54  0.000063   -0.30    -66.84   
   106. D(O  10,C   7,C   1,C   0)    174.11  0.000012   -0.26    173.85   
   107. D(C   6,C   7,C   1,H  13)    -67.56  0.000063   -0.31    -67.88   
   108. D(C   6,C   7,C   1,O  12)    170.90  0.000032   -0.27    170.63   
   109. D(C   1,C   7,C   6,C   5)    -54.41  0.000064    0.05    -54.36   
   110. D(C   6,C   7,C   1,C   0)     51.55 -0.000019   -0.24     51.31   
   111. D(O  10,C   7,C   6,O   9)     63.92 -0.000038    0.10     64.02   
   112. D(O  10,C   7,C   6,H   8)    -56.97 -0.000066    0.10    -56.87   
   113. D(O  10,C   7,C   6,C   5)   -174.57  0.000022    0.08   -174.50   
   114. D(C   1,C   7,C   6,O   9)   -175.92  0.000004    0.07   -175.85   
   115. D(C   1,C   7,C   6,H   8)     63.19 -0.000024    0.08     63.26   
   116. D(H  20,O   9,C   6,H   8)    -66.11 -0.000046    0.68    -65.43   
   117. D(H  20,O   9,C   6,C   7)    173.88 -0.000036    0.68    174.56   
   118. D(H  20,O   9,C   6,C   5)     54.13 -0.000143    0.72     54.85   
   119. D(H  19,O  10,C   7,H  11)     70.42  0.000100   -0.78     69.65   
   120. D(H  19,O  10,C   7,C   6)    -49.74  0.000077   -0.71    -50.46   
   121. D(H  19,O  10,C   7,C   1)   -171.17  0.000045   -0.74   -171.91   
   122. D(H  18,O  12,C   1,H  13)    -66.48 -0.000095    0.68    -65.80   
   123. D(H  18,O  12,C   1,C   7)     53.71 -0.000081    0.61     54.32   
   124. D(H  18,O  12,C   1,C   0)    174.68 -0.000051    0.63    175.31   
   125. D(H  17,O  15,C   3,H  16)    171.23 -0.000102    0.75    171.98   
   126. D(H  17,O  15,C   3,H  14)    -69.40 -0.000032    0.72    -68.68   
   127. D(H  17,O  15,C   3,C   0)     51.98 -0.000103    0.71     52.69   
   128. D(C  23,O  21,C   5,H  22)     51.50  0.000087   -0.23     51.27   
   129. D(C  23,O  21,C   5,C   6)    170.57 -0.000081   -0.12    170.46   
   130. D(C  23,O  21,C   5,O   2)    -68.95  0.000019   -0.22    -69.18   
   131. D(H  26,C  23,O  21,C   5)   -178.66  0.000024   -0.08   -178.74   
   132. D(H  25,C  23,O  21,C   5)    -59.56  0.000026   -0.06    -59.62   
   133. D(H  24,C  23,O  21,C   5)     61.91 -0.000025   -0.06     61.85   
    ----------------------------------------------------------------------------

Geometry step timings:
Preparation and reading OPT file:      0.000 s ( 3.050 %)
Internal coordinates            :      0.000 s ( 0.593 %)
B/P matrices and projection     :      0.001 s (23.258 %)
Hessian update/contruction      :      0.001 s (29.464 %)
Making the step                 :      0.001 s (17.983 %)
Converting the step to Cartesian:      0.000 s ( 2.139 %)
Storing new data                :      0.000 s ( 6.588 %)
Checking convergence            :      0.000 s ( 0.784 %)
Final printing                  :      0.001 s (16.141 %)
Total time                      :      0.005 s

Time for energy+gradient        :      0.039 s
Time for complete geometry iter :      0.046 s

         *************************************************************
         *                GEOMETRY OPTIMIZATION CYCLE   7            *
         *************************************************************
---------------------------------
CARTESIAN COORDINATES (ANGSTROEM)
---------------------------------
  C    -1.202147    0.525572   -0.370608
  C    -1.426561   -0.942680    0.021378
  O    -0.011658    1.045767    0.191565
  C    -2.349927    1.410631    0.137990
  H    -1.158806    0.581881   -1.469782
  C     1.145234    0.331799   -0.178120
  C     1.063803   -1.121039    0.317678
  C    -0.177401   -1.779301   -0.289146
  H     0.967340   -1.099393    1.414202
  O     2.190640   -1.863683   -0.069334
  O    -0.386563   -3.073513    0.217353
  H    -0.041956   -1.821851   -1.383451
  O    -2.533696   -1.413224   -0.701394
  H    -1.618796   -0.997012    1.103995
  H    -2.225045    2.419683   -0.279019
  O    -2.400591    1.458020    1.537050
  H    -3.295659    0.989322   -0.205525
  H    -1.521338    1.709388    1.851182
  H    -2.626411   -2.356552   -0.509361
  H     0.443254   -3.562940    0.138351
  H     2.981216   -1.401576    0.240473
  O     2.259778    0.911471    0.403806
  H     1.232825    0.333381   -1.287243
  C     2.599187    2.189888   -0.116134
  H     1.793908    2.906123    0.055689
  H     2.804589    2.122740   -1.189780
  H     3.494780    2.497099    0.418183

----------------------------
CARTESIAN COORDINATES (A.U.)
----------------------------
  NO LB    ZA    FRAG    MASS        X           Y           Z
   0 C   6.0000    1    12.011   -2.271729    0.993187   -0.700348
   1 C   6.0000    1    12.011   -2.695810   -1.781406    0.040399
   2 O   8.0000    1    15.999   -0.022031    1.976213    0.362006
   3 C   6.0000    1    12.011   -4.440718    2.665706    0.260762
   4 H   1.0000    1     1.008   -2.189827    1.099596   -2.777485
   5 C   6.0000    1    12.011    2.164178    0.627009   -0.336598
   6 C   6.0000    1    12.011    2.010296   -2.118457    0.600325
   7 C   6.0000    1    12.011   -0.335239   -3.362393   -0.546407
   8 H   1.0000    1     1.008    1.828008   -2.077552    2.672455
   9 O   8.0000    1    15.999    4.139709   -3.521851   -0.131022
  10 O   8.0000    1    15.999   -0.730498   -5.808098    0.410737
  11 H   1.0000    1     1.008   -0.079285   -3.442799   -2.614344
  12 O   8.0000    1    15.999   -4.787992   -2.670606   -1.325442
  13 H   1.0000    1     1.008   -3.059081   -1.884080    2.086248
  14 H   1.0000    1     1.008   -4.204725    4.572538   -0.527269
  15 O   8.0000    1    15.999   -4.536459    2.755259    2.904603
  16 H   1.0000    1     1.008   -6.227893    1.869548   -0.388386
  17 H   1.0000    1     1.008   -2.874912    3.230276    3.498226
  18 H   1.0000    1     1.008   -4.963198   -4.453238   -0.962554
  19 H   1.0000    1     1.008    0.837629   -6.732981    0.261445
  20 H   1.0000    1     1.008    5.633681   -2.648595    0.454429
  21 O   8.0000    1    15.999    4.270362    1.722431    0.763083
  22 H   1.0000    1     1.008    2.329702    0.629998   -2.432536
  23 C   6.0000    1    12.011    4.911752    4.138288   -0.219462
  24 H   1.0000    1     1.008    3.389995    5.491776    0.105237
  25 H   1.0000    1     1.008    5.299905    4.011397   -2.248359
  26 H   1.0000    1     1.008    6.604177    4.718833    0.790252

      -----------------------------------------------------------      
     |                   =====================                   |     
     |                           x T B                           |     
     |                   =====================                   |     
     |                         S. Grimme                         |     
     |          Mulliken Center for Theoretical Chemistry        |     
     |                    University of Bonn                     |     
      -----------------------------------------------------------      

   * xtb version 6.7.1 (edcfbbe) compiled by 'albert@albert-system' on 2024-07-22

   xtb is free software: you can redistribute it and/or modify it under
   the terms of the GNU Lesser General Public License as published by
   the Free Software Foundation, either version 3 of the License, or
   (at your option) any later version.
   
   xtb is distributed in the hope that it will be useful,
   but WITHOUT ANY WARRANTY; without even the implied warranty of
   MERCHANTABILITY or FITNESS FOR A PARTICULAR PURPOSE.  See the
   GNU Lesser General Public License for more details.
   
   Cite this work as:
   * C. Bannwarth, E. Caldeweyher, S. Ehlert, A. Hansen, P. Pracht,
     J. Seibert, S. Spicher, S. Grimme, WIREs Comput. Mol. Sci., 2020, 11,
     e01493. DOI: 10.1002/wcms.1493
   
   for GFN2-xTB:
   * C. Bannwarth, S. Ehlert and S. Grimme., J. Chem. Theory Comput., 2019,
     15, 1652-1671. DOI: 10.1021/acs.jctc.8b01176
   for GFN1-xTB:
   * S. Grimme, C. Bannwarth, P. Shushkov, J. Chem. Theory Comput., 2017,
     13, 1989-2009. DOI: 10.1021/acs.jctc.7b00118
   for GFN0-xTB:
   * P. Pracht, E. Caldeweyher, S. Ehlert, S. Grimme, ChemRxiv, 2019, preprint.
     DOI: 10.26434/chemrxiv.8326202.v1
   for GFN-FF:
   * S. Spicher and S. Grimme, Angew. Chem. Int. Ed., 2020, 59, 15665-15673.
     DOI: 10.1002/anie.202004239
   
   for ALPB and GBSA implicit solvation:
   * S. Ehlert, M. Stahn, S. Spicher, S. Grimme, J. Chem. Theory Comput.,
     2021, 17, 4250-4261. DOI: 10.1021/acs.jctc.1c00471
   
   for ddCOSMO and CPCM-X implicit solvation:
   * M. Stahn, S. Ehlert, S. Grimme, J. Phys. Chem. A,
     2023, XX, XXXX-XXXX. DOI: 10.1021/acs.jpca.3c04382
   
   for DFT-D4:
   * E. Caldeweyher, C. Bannwarth and S. Grimme, J. Chem. Phys., 2017,
     147, 034112. DOI: 10.1063/1.4993215
   * E. Caldeweyher, S. Ehlert, A. Hansen, H. Neugebauer, S. Spicher,
     C. Bannwarth and S. Grimme, J. Chem. Phys., 2019, 150, 154122.
     DOI: 10.1063/1.5090222
   * E. Caldeweyher, J.-M. Mewes, S. Ehlert and S. Grimme, Phys. Chem. Chem. Phys.
     2020, 22, 8499-8512. DOI: 10.1039/D0CP00502A
   
   for sTDA-xTB:
   * S. Grimme and C. Bannwarth, J. Chem. Phys., 2016, 145, 054103.
     DOI: 10.1063/1.4959605
   
   in the mass-spec context:
   * V. Asgeirsson, C. Bauer and S. Grimme, Chem. Sci., 2017, 8, 4879.
     DOI: 10.1039/c7sc00601b
   * J. Koopman and S. Grimme, ACS Omega 2019, 4, 12, 15120-15133.
     DOI: 10.1021/acsomega.9b02011
   
   for metadynamics refer to:
   * S. Grimme, J. Chem. Theory Comput., 2019, 155, 2847-2862
     DOI: 10.1021/acs.jctc.9b00143
   
   for SPH calculations refer to:
   * S. Spicher and S. Grimme, J. Chem. Theory Comput., 2021, 17, 1701-1714
     DOI: 10.1021/acs.jctc.0c01306
   
   for ONIOM refer to:
   * C. Plett, A. Katbashev, S. Ehlert, S. Grimme, M. Bursch,
     Phys. Chem. Chem. Phys., 2023, 25, 17860-17868. DOI: 10.1039/D3CP02178E
   
   for DIPRO refer to:
   * J. Kohn, N. Gildemeister, S. Grimme, D. Fazzi, A. Hansen,
     J. Chem. Phys., 2023, just accepted.
   
   for PTB refer to:
   * S. Grimme, M. Mueller, A. Hansen, J. Chem. Phys., 2023, 158, 124111.
     DOI: 10.1063/5.0137838
   
   with help from (in alphabetical order)
   P. Atkinson, C. Bannwarth, F. Bohle, G. Brandenburg, E. Caldeweyher
   M. Checinski, S. Dohm, S. Ehlert, S. Ehrlich, I. Gerasimov, C. Hölzer
   A. Katbashev, J. Kohn, J. Koopman, C. Lavigne, S. Lehtola, F. März, M. Müller,
   F. Musil, H. Neugebauer, J. Pisarek, C. Plett, P. Pracht, F. Pultar,
   J. Seibert, P. Shushkov, S. Spicher, M. Stahn, M. Steiner, T. Strunk,
   J. Stückrath, T. Rose, and J. Unsleber
   
 * started run on 2026/03/26 at 13:20:41.933     
   ID    Z sym.   atoms
    1    6 C      1, 2, 4, 6-8, 24
    2    8 O      3, 10, 11, 13, 16, 22
    3    1 H      5, 9, 12, 14, 15, 17-21, 23, 25-27

           -------------------------------------------------
          |                Calculation Setup                |
           -------------------------------------------------

          program call               : /home/kmoult/orca_6_1/otool_xtb goat_0_XTB.xyz --grad -c 0 -u 0 -P 4 --namespace goat_0 --input goat_0_XTB.input.tmp --alpb ACETONE --acc 0.200000
          hostname                   : node1619
          calculation namespace      : goat_0
          coordinate file            : goat_0_XTB.xyz
          omp threads                :                     4


           -------------------------------------------------
          |                 G F N 2 - x T B                 |
           -------------------------------------------------

        Reference                      10.1021/acs.jctc.8b01176
      * Hamiltonian:
        H0-scaling (s, p, d)           1.850000    2.230000    2.230000
        zeta-weighting                 0.500000
      * Dispersion:
        s8                             2.700000
        a1                             0.520000
        a2                             5.000000
        s9                             5.000000
      * Repulsion:
        kExp                           1.500000    1.000000
        rExp                           1.000000
      * Coulomb:
        alpha                          2.000000
        third order                    shell-resolved
        anisotropic                    true
        a3                             3.000000
        a5                             4.000000
        cn-shift                       1.200000
        cn-exp                         4.000000
        max-rad                        5.000000

      * Solvation model:               ALPB
        Solvent                        ACETONE
        Parameter file                 internal GFN2-xTB/ALPB
        Dielectric constant                2.0700E+01
        Reference state                gsolv [1 M gas/solution]
        Free energy shift                  5.9241E-03 Eh       3.7175E+00 kcal/mol
        Temperature                        2.9815E+02 K
        Density                            7.9000E-01 kg/L
        Solvent mass                       5.8080E+01 g/mol
        Interaction kernel             P16
        Born radius scaling (c1)           1.8274E+00
        Born radii integrator          GBOBC
        Born offset                        0.0000E+00 a0       0.0000E+00 AA
        H-bond correction              true
        Ion screening                  false
        Surface tension                    1.0000E-05 Eh       1.5569E+01 dyn/cm
        Grid points                               230 per atom
q/qsh data taken from xtbrestart
CAMM data taken from xtbrestart

          ...................................................
          :                      SETUP                      :
          :.................................................:
          :  # basis functions                  66          :
          :  # atomic orbitals                  66          :
          :  # shells                           40          :
          :  # electrons                        78          :
          :  max. iterations                   250          :
          :  Hamiltonian                  GFN2-xTB          :
          :  restarted?                       true          :
          :  GBSA solvation                   true          :
          :  PC potential                    false          :
          :  electronic temp.          300.0000000     K    :
          :  accuracy                    0.2000000          :
          :  -> integral cutoff          0.3198970E+02      :
          :  -> integral neglect         0.2000000E-08      :
          :  -> SCF convergence          0.2000000E-06 Eh   :
          :  -> wf. convergence          0.2000000E-04 e    :
          :  Broyden damping             0.4000000          :
          :  net charge                          0          :
          :  unpaired electrons                  0          :
          ...................................................

 iter      E             dE          RMSdq      gap      omega  full diag
   1    -46.8965422 -0.468965E+02  0.220E-02   10.46       0.0  T
   2    -46.8965424 -0.119559E-06  0.134E-02   10.46       1.4  T
   3    -46.8965424 -0.389035E-07  0.116E-03   10.46      16.6  T
   4    -46.8965424 -0.104143E-07  0.608E-04   10.46      31.7  T
   5    -46.8965424 -0.576748E-09  0.181E-04   10.46     106.4  T
   6    -46.8965424 -0.126136E-09  0.701E-05   10.46     274.5  T

   *** convergence criteria satisfied after 6 iterations ***

         #    Occupation            Energy/Eh            Energy/eV
      -------------------------------------------------------------
         1        2.0000           -0.7306272             -19.8814
       ...           ...                  ...                  ...
        33        2.0000           -0.4535318             -12.3412
        34        2.0000           -0.4430134             -12.0550
        35        2.0000           -0.4294898             -11.6870
        36        2.0000           -0.4235737             -11.5260
        37        2.0000           -0.4163191             -11.3286
        38        2.0000           -0.4153408             -11.3020
        39        2.0000           -0.4092550             -11.1364 (HOMO)
        40                         -0.0249342              -0.6785 (LUMO)
        41                         -0.0119139              -0.3242
        42                          0.0151625               0.4126
        43                          0.0353739               0.9626
        44                          0.0504581               1.3730
       ...                                ...                  ...
        66                          0.2865977               7.7987
      -------------------------------------------------------------
                  HL-Gap            0.3843208 Eh           10.4579 eV
             Fermi-level           -0.2170946 Eh           -5.9074 eV

 SCC (total)                   0 d,  0 h,  0 min,  0.015 sec
 SCC setup                      ...        0 min,  0.000 sec (  2.515%)
 Dispersion                     ...        0 min,  0.000 sec (  1.043%)
 classical contributions        ...        0 min,  0.000 sec (  0.164%)
 integral evaluation            ...        0 min,  0.001 sec (  8.423%)
 iterations                     ...        0 min,  0.010 sec ( 67.647%)
 molecular gradient             ...        0 min,  0.003 sec ( 19.089%)
 printout                       ...        0 min,  0.000 sec (  0.960%)

         :::::::::::::::::::::::::::::::::::::::::::::::::::::
         ::                     SUMMARY                     ::
         :::::::::::::::::::::::::::::::::::::::::::::::::::::
         :: total energy             -46.550584319347 Eh    ::
         :: total w/o Gsasa/hb       -46.524960939015 Eh    ::
         :: gradient norm              0.001164928385 Eh/a0 ::
         :: HOMO-LUMO gap             10.457901536052 eV    ::
         ::.................................................::
         :: SCC energy               -46.896333301589 Eh    ::
         :: -> isotropic ES            0.140436723551 Eh    ::
         :: -> anisotropic ES         -0.007305160121 Eh    ::
         :: -> anisotropic XC         -0.008602390883 Eh    ::
         :: -> dispersion             -0.021626227129 Eh    ::
         :: -> Gsolv                  -0.029066905732 Eh    ::
         ::    -> Gelec               -0.003443525401 Eh    ::
         ::    -> Gsasa               -0.020310693449 Eh    ::
         ::    -> Ghb                 -0.011236828146 Eh    ::
         ::    -> Gshift               0.005924141264 Eh    ::
         :: repulsion energy           0.345748982242 Eh    ::
         :: add. restraining           0.000000000000 Eh    ::
         :: total charge               0.000000000000 e     ::
         :::::::::::::::::::::::::::::::::::::::::::::::::::::


Property printout bound to 'properties.out'

           -------------------------------------------------
          | TOTAL ENERGY              -46.550584319347 Eh   |
          | GRADIENT NORM               0.001164928385 Eh/α |
          | HOMO-LUMO GAP              10.457901536052 eV   |
           -------------------------------------------------

------------------------------------------------------------------------
 * finished run on 2026/03/26 at 13:20:41.958     
------------------------------------------------------------------------
 total:
 * wall-time:     0 d,  0 h,  0 min,  0.025 sec
 *  cpu-time:     0 d,  0 h,  0 min,  0.091 sec
 * ratio c/w:     3.682 speedup
 SCF:
 * wall-time:     0 d,  0 h,  0 min,  0.015 sec
 *  cpu-time:     0 d,  0 h,  0 min,  0.059 sec
 * ratio c/w:     3.969 speedup


-------------------------   --------------------
FINAL SINGLE POINT ENERGY       -46.550584319350
-------------------------   --------------------


-------------
DIPOLE MOMENT
-------------
                                X             Y             Z
Total Dipole Moment    :      1.59500       0.30000      -0.50600
                        -----------------------------------------
Magnitude (a.u.)       :      1.70002
Magnitude (Debye)      :      4.32110


------------------
CARTESIAN GRADIENT
------------------

   1   C   :    0.000083797    0.000213103   -0.000056902
   2   C   :   -0.000248804   -0.000082000   -0.000142374
   3   O   :   -0.000161432    0.000186803    0.000064090
   4   C   :   -0.000273013   -0.000167144    0.000152733
   5   H   :   -0.000010587   -0.000031939    0.000034349
   6   C   :    0.000145350    0.000195219   -0.000225485
   7   C   :    0.000222003   -0.000304709   -0.000180906
   8   C   :   -0.000187090   -0.000054811    0.000215343
   9   H   :   -0.000053196    0.000038588    0.000052843
  10   O   :   -0.000218286    0.000024420    0.000130507
  11   O   :    0.000034231    0.000209322   -0.000215465
  12   H   :    0.000009565   -0.000033154   -0.000021037
  13   O   :    0.000163227    0.000035032    0.000212544
  14   H   :    0.000030256    0.000055323    0.000037070
  15   H   :   -0.000016979   -0.000025641   -0.000026328
  16   O   :    0.000090351    0.000177437   -0.000082147
  17   H   :    0.000021747    0.000001448   -0.000165356
  18   H   :    0.000100366   -0.000040293    0.000074174
  19   H   :   -0.000030373   -0.000163962   -0.000067297
  20   H   :    0.000093692   -0.000161526    0.000099444
  21   H   :    0.000155367    0.000059970   -0.000005052
  22   O   :    0.000166352   -0.000214995    0.000218891
  23   H   :   -0.000100484   -0.000075053    0.000088494
  24   C   :    0.000074280    0.000179724   -0.000120867
  25   H   :   -0.000026517    0.000001659   -0.000063894
  26   H   :   -0.000072008   -0.000005824   -0.000009633
  27   H   :    0.000008186   -0.000017000    0.000002259

Difference to translation invariance:
           :    0.0000000000    0.0000000000   -0.0000000000

Difference to rotation invariance:
           :   -0.0014077572    0.0005164087    0.0004996268

Norm of the Cartesian gradient     ...    0.0011649284
RMS gradient                       ...    0.0001294365
MAX gradient                       ...    0.0003047089
------------------------------------------------------------------------------
                         ORCA GEOMETRY RELAXATION STEP
------------------------------------------------------------------------------

Reading the OPT-File                    .... done
Getting information on internals        .... done
Copying old internal coords+grads       .... done
Making the new internal coordinates     .... (2022 redundants) done
Validating the new internal coordinates .... (2022 redundants) done
Calculating the B-matrix                .... done
Calculating the G,G- and P matrices     .... done
Transforming gradient to internals      .... done
Projecting the internal gradient        .... done
Number of atoms                         ....  27
Number of internal coordinates          .... 133
Current Energy                          ....   -46.550584319 Eh
Current gradient norm                   ....     0.001164928 Eh/bohr
Maximum allowed component of the step   ....  0.300
Current trust radius                    ....  0.675
Updating the Hessian (BFGS)             .... done
Forming the augmented Hessian           .... done
Diagonalizing the augmented Hessian     .... done
Last element of RFO vector              ....  0.999543962
Lowest eigenvalues of augmented Hessian:
 -0.000005778  0.003504607  0.011468996  0.015555951  0.016456438
Length of the computed step             ....  0.030210917
The final length of the internal step   ....  0.030210917
Converting the step to Cartesian space:
 Initial RMS(Int)=    0.0026196188
Transforming coordinates:
 Iter   0:  RMS(Cart)=    0.0031227377 RMS(Int)=    0.0026203121
done
Storing new coordinates                 .... done
The predicted energy change is          ....    -0.000002892
Previously predicted energy change      ....    -0.000009746
Actually observed energy change         ....    -0.000012443
Ratio of predicted to observed change   ....     1.276715280
New trust radius                        ....     0.675000000

                                .--------------------.
          ----------------------|Geometry convergence|-------------------------
          Item                value                   Tolerance       Converged
          ---------------------------------------------------------------------
          Energy change      -0.0000124432            0.0000050000      NO
          RMS gradient        0.0000725904            0.0001000000      YES
          MAX gradient        0.0002670007            0.0003000000      YES
          RMS step            0.0026196188            0.0020000000      NO
          MAX step            0.0113394221            0.0040000000      NO
          -------------------------------------------------------------------------
          ........................................................
          Max(Bonds)      0.0060      Max(Angles)    0.05
          Max(Dihed)        0.42      Max(Improp)    0.00
          ---------------------------------------------------------------------

    ---------------------------------------------------------------------------
                         Redundant Internal Coordinates
                            (Angstroem and degrees)

        Definition                    Value    dE/dq     Step     New-Value
    ----------------------------------------------------------------------------
     1. B(C   1,C   0)                1.5362  0.000198 -0.0004    1.5358   
     2. B(O   2,C   0)                1.4156  0.000109 -0.0003    1.4153   
     3. B(C   3,C   0)                1.5360  0.000023  0.0000    1.5361   
     4. B(H   4,C   0)                1.1015 -0.000038  0.0001    1.1016   
     5. B(C   5,O   2)                1.4088  0.000267 -0.0001    1.4088   
     6. B(C   6,C   5)                1.5373  0.000171 -0.0002    1.5370   
     7. B(C   7,C   1)                1.5352  0.000056 -0.0001    1.5351   
     8. B(C   7,C   6)                1.5304  0.000034  0.0000    1.5304   
     9. B(H   8,C   6)                1.1010  0.000052 -0.0001    1.1008   
    10. B(O   9,C   6)                1.4039 -0.000121  0.0002    1.4042   
    11. B(O  10,C   7)                1.4054 -0.000119  0.0003    1.4057   
    12. B(H  11,C   7)                1.1035  0.000036 -0.0001    1.1034   
    13. B(O  12,C   1)                1.4034 -0.000104  0.0002    1.4036   
    14. B(H  13,C   1)                1.1009  0.000020 -0.0001    1.1008   
    15. B(H  14,C   3)                1.0989 -0.000015  0.0001    1.0990   
    16. B(O  15,C   3)                1.4008  0.000011  0.0000    1.4008   
    17. B(H  16,C   3)                1.0908  0.000028 -0.0001    1.0907   
    18. B(H  17,O   2)                2.3396 -0.000009  0.0060    2.3456   
    19. B(H  17,O  15)                0.9669  0.000102 -0.0001    0.9668   
    20. B(H  18,O  10)                2.4615 -0.000022  0.0040    2.4655   
    21. B(H  18,O  12)                0.9671  0.000133 -0.0002    0.9670   
    22. B(H  19,O   9)                2.4462  0.000009  0.0025    2.4487   
    23. B(H  19,O  10)                0.9666  0.000155 -0.0002    0.9665   
    24. B(H  20,O   9)                0.9667  0.000145 -0.0001    0.9666   
    25. B(O  21,H  20)                2.4284 -0.000009  0.0027    2.4312   
    26. B(O  21,C   5)                1.3845  0.000157 -0.0001    1.3845   
    27. B(H  22,C   5)                1.1126 -0.000100 -0.0001    1.1125   
    28. B(C  23,O  21)                1.4212  0.000172 -0.0001    1.4211   
    29. B(H  24,C  23)                1.0913  0.000009 -0.0000    1.0913   
    30. B(H  25,C  23)                1.0952 -0.000022  0.0000    1.0952   
    31. B(H  26,C  23)                1.0872  0.000015 -0.0000    1.0872   
    32. A(C   1,C   0,H   4)          108.01 -0.000031    0.01    108.03   
    33. A(O   2,C   0,H   4)          110.15  0.000006    0.01    110.16   
    34. A(C   3,C   0,H   4)          109.29  0.000003   -0.03    109.26   
    35. A(C   1,C   0,O   2)          111.89  0.000018    0.01    111.90   
    36. A(O   2,C   0,C   3)          106.57  0.000020    0.01    106.58   
    37. A(C   1,C   0,C   3)          110.92 -0.000015   -0.01    110.91   
    38. A(O  12,C   1,H  13)          110.62  0.000029   -0.01    110.61   
    39. A(C   0,C   1,H  13)          108.88 -0.000034    0.03    108.91   
    40. A(C   0,C   1,O  12)          107.72  0.000083   -0.03    107.68   
    41. A(C   0,C   1,C   7)          110.51  0.000008    0.03    110.54   
    42. A(C   7,C   1,H  13)          108.31 -0.000010   -0.01    108.30   
    43. A(C   7,C   1,O  12)          110.79 -0.000074   -0.00    110.79   
    44. A(C   0,O   2,C   5)          113.59 -0.000064   -0.02    113.57   
    45. A(H  14,C   3,O  15)          110.61 -0.000005   -0.00    110.61   
    46. A(C   0,C   3,O  15)          112.16 -0.000034    0.02    112.18   
    47. A(C   0,C   3,H  14)          108.57 -0.000057    0.02    108.59   
    48. A(C   0,C   3,H  16)          108.73 -0.000057   -0.00    108.72   
    49. A(O  15,C   3,H  16)          107.23  0.000255   -0.04    107.19   
    50. A(H  14,C   3,H  16)          109.49 -0.000103    0.00    109.49   
    51. A(C   6,C   5,H  22)          109.09 -0.000059    0.05    109.14   
    52. A(O   2,C   5,H  22)          109.00 -0.000036    0.01    109.01   
    53. A(O  21,C   5,H  22)          110.80  0.000060   -0.01    110.78   
    54. A(C   6,C   5,O  21)          107.62 -0.000079    0.02    107.64   
    55. A(O   2,C   5,C   6)          110.54  0.000021   -0.03    110.51   
    56. A(O   2,C   5,O  21)          109.79  0.000093   -0.04    109.75   
    57. A(C   7,C   6,O   9)          108.31  0.000017   -0.03    108.28   
    58. A(C   5,C   6,O   9)          111.62  0.000029   -0.01    111.61   
    59. A(C   7,C   6,H   8)          109.41 -0.000003    0.01    109.42   
    60. A(C   5,C   6,H   8)          107.90 -0.000028    0.02    107.92   
    61. A(C   5,C   6,C   7)          108.76  0.000009    0.01    108.77   
    62. A(H   8,C   6,O   9)          110.81 -0.000024   -0.00    110.80   
    63. A(C   1,C   7,C   6)          110.20  0.000052    0.03    110.23   
    64. A(O  10,C   7,H  11)          109.89 -0.000046   -0.00    109.88   
    65. A(C   6,C   7,H  11)          108.07 -0.000011    0.01    108.08   
    66. A(C   1,C   7,H  11)          108.75  0.000009    0.03    108.78   
    67. A(C   6,C   7,O  10)          111.96 -0.000036   -0.03    111.93   
    68. A(C   1,C   7,O  10)          107.93  0.000034   -0.03    107.90   
    69. A(C   6,O   9,H  20)          108.37  0.000111   -0.02    108.36   
    70. A(C   7,O  10,H  19)          108.00  0.000210   -0.02    107.98   
    71. A(C   1,O  12,H  18)          107.48  0.000193   -0.01    107.47   
    72. A(C   3,O  15,H  17)          107.48  0.000103    0.01    107.49   
    73. A(C   5,O  21,C  23)          114.53 -0.000167   -0.01    114.52   
    74. A(H  25,C  23,H  26)          110.16  0.000053   -0.02    110.14   
    75. A(H  24,C  23,H  26)          110.18  0.000038   -0.02    110.16   
    76. A(O  21,C  23,H  26)          105.73 -0.000026    0.02    105.75   
    77. A(H  24,C  23,H  25)          109.45 -0.000041    0.03    109.48   
    78. A(O  21,C  23,H  25)          110.38 -0.000028   -0.00    110.38   
    79. A(O  21,C  23,H  24)          110.89  0.000007   -0.01    110.88   
    80. D(O  12,C   1,C   0,H   4)    -51.83  0.000020    0.11    -51.72   
    81. D(C   7,C   1,C   0,H   4)     69.33 -0.000014    0.10     69.43   
    82. D(O  12,C   1,C   0,C   3)     67.92 -0.000004    0.07     67.99   
    83. D(C   7,C   1,C   0,C   3)   -170.92 -0.000038    0.06   -170.86   
    84. D(O  12,C   1,C   0,O   2)   -173.22  0.000022    0.08   -173.14   
    85. D(C   7,C   1,C   0,O   2)    -52.06 -0.000012    0.07    -51.99   
    86. D(C   5,O   2,C   0,C   1)     58.32 -0.000019    0.05     58.37   
    87. D(C   5,O   2,C   0,C   3)    179.72 -0.000014    0.04    179.76   
    88. D(C   5,O   2,C   0,H   4)    -61.84  0.000004    0.01    -61.82   
    89. D(H  14,C   3,C   0,O   2)     65.75 -0.000014   -0.20     65.55   
    90. D(O  15,C   3,C   0,C   1)     65.23  0.000080   -0.21     65.02   
    91. D(H  14,C   3,C   0,H   4)    -53.25 -0.000034   -0.20    -53.45   
    92. D(O  15,C   3,C   0,O   2)    -56.79  0.000054   -0.22    -57.01   
    93. D(O  15,C   3,C   0,H   4)   -175.79  0.000035   -0.22   -176.01   
    94. D(H  14,C   3,C   0,C   1)   -172.24  0.000011   -0.19   -172.42   
    95. D(H  22,C   5,O   2,C   0)     57.98 -0.000051   -0.04     57.94   
    96. D(O  21,C   5,O   2,C   0)    179.51  0.000058   -0.07    179.44   
    97. D(C   6,C   5,O   2,C   0)    -61.91  0.000031   -0.09    -62.00   
    98. D(H   8,C   6,C   5,H  22)   -179.43  0.000050   -0.05   -179.47   
    99. D(H   8,C   6,C   5,O  21)     60.30  0.000058   -0.07     60.23   
   100. D(H   8,C   6,C   5,O   2)    -59.59 -0.000019   -0.02    -59.61   
   101. D(C   7,C   6,C   5,H  22)    -60.84  0.000036   -0.01    -60.85   
   102. D(C   7,C   6,C   5,O  21)    178.89  0.000043   -0.03    178.85   
   103. D(C   7,C   6,C   5,O   2)     58.99 -0.000033    0.02     59.01   
   104. D(O  10,C   7,C   1,H  13)     54.66  0.000032   -0.21     54.44   
   105. D(O  10,C   7,C   1,O  12)    -66.84  0.000050   -0.19    -67.03   
   106. D(O  10,C   7,C   1,C   0)    173.85 -0.000012   -0.16    173.68   
   107. D(C   6,C   7,C   1,H  13)    -67.88  0.000024   -0.18    -68.06   
   108. D(C   6,C   7,C   1,O  12)    170.63  0.000041   -0.16    170.47   
   109. D(C   1,C   7,C   6,C   5)    -54.36  0.000030    0.08    -54.28   
   110. D(C   6,C   7,C   1,C   0)     51.31 -0.000020   -0.13     51.18   
   111. D(O  10,C   7,C   6,O   9)     64.02 -0.000074    0.15     64.16   
   112. D(O  10,C   7,C   6,H   8)    -56.87 -0.000054    0.16    -56.71   
   113. D(O  10,C   7,C   6,C   5)   -174.50 -0.000023    0.12   -174.38   
   114. D(C   1,C   7,C   6,O   9)   -175.85 -0.000021    0.11   -175.74   
   115. D(C   1,C   7,C   6,H   8)     63.26 -0.000000    0.12     63.39   
   116. D(H  20,O   9,C   6,H   8)    -65.43 -0.000014    0.31    -65.12   
   117. D(H  20,O   9,C   6,C   7)    174.56 -0.000006    0.31    174.87   
   118. D(H  20,O   9,C   6,C   5)     54.85 -0.000047    0.33     55.18   
   119. D(H  19,O  10,C   7,H  11)     69.65  0.000002   -0.35     69.30   
   120. D(H  19,O  10,C   7,C   6)    -50.46  0.000070   -0.34    -50.79   
   121. D(H  19,O  10,C   7,C   1)   -171.91  0.000006   -0.34   -172.24   
   122. D(H  18,O  12,C   1,H  13)    -65.80 -0.000020    0.40    -65.40   
   123. D(H  18,O  12,C   1,C   7)     54.32 -0.000063    0.37     54.70   
   124. D(H  18,O  12,C   1,C   0)    175.31 -0.000045    0.39    175.69   
   125. D(H  17,O  15,C   3,H  16)    171.98 -0.000028    0.40    172.39   
   126. D(H  17,O  15,C   3,H  14)    -68.69 -0.000001    0.39    -68.30   
   127. D(H  17,O  15,C   3,C   0)     52.69 -0.000102    0.42     53.11   
   128. D(C  23,O  21,C   5,H  22)     51.27  0.000035   -0.05     51.22   
   129. D(C  23,O  21,C   5,C   6)    170.46 -0.000051    0.01    170.47   
   130. D(C  23,O  21,C   5,O   2)    -69.18 -0.000019   -0.03    -69.21   
   131. D(H  26,C  23,O  21,C   5)   -178.74  0.000011   -0.06   -178.80   
   132. D(H  25,C  23,O  21,C   5)    -59.62  0.000044   -0.07    -59.69   
   133. D(H  24,C  23,O  21,C   5)     61.85 -0.000022   -0.04     61.80   
    ----------------------------------------------------------------------------

Geometry step timings:
Preparation and reading OPT file:      0.000 s ( 3.326 %)
Internal coordinates            :      0.000 s ( 0.595 %)
B/P matrices and projection     :      0.001 s (22.628 %)
Hessian update/contruction      :      0.001 s (30.698 %)
Making the step                 :      0.001 s (17.105 %)
Converting the step to Cartesian:      0.000 s ( 1.992 %)
Storing new data                :      0.000 s ( 6.283 %)
Checking convergence            :      0.000 s ( 0.801 %)
Final printing                  :      0.001 s (16.509 %)
Total time                      :      0.005 s

Time for energy+gradient        :      0.037 s
Time for complete geometry iter :      0.045 s

         *************************************************************
         *                GEOMETRY OPTIMIZATION CYCLE   8            *
         *************************************************************
---------------------------------
CARTESIAN COORDINATES (ANGSTROEM)
---------------------------------
  C    -1.201036    0.525688   -0.370326
  C    -1.425999   -0.942401    0.020554
  O    -0.010820    1.045236    0.192264
  C    -2.348957    1.410486    0.138471
  H    -1.157895    0.583038   -1.469550
  C     1.145843    0.331656   -0.178630
  C     1.064712   -1.120851    0.317496
  C    -0.176824   -1.779460   -0.288333
  H     0.969544   -1.099407    1.413998
  O     2.191233   -1.863641   -0.070916
  O    -0.386548   -3.072689    0.221160
  H    -0.041115   -1.824622   -1.382396
  O    -2.532233   -1.411986   -0.704616
  H    -1.620237   -0.997774    1.102674
  H    -2.222174    2.420854   -0.274899
  O    -2.403423    1.453344    1.537535
  H    -3.294326    0.991296   -0.208342
  H    -1.526645    1.708972    1.854701
  H    -2.629183   -2.353911   -0.508612
  H     0.441612   -3.563954    0.138286
  H     2.981711   -1.404051    0.242417
  O     2.260171    0.912051    0.402859
  H     1.232986    0.333918   -1.287721
  C     2.598619    2.190401   -0.117590
  H     1.792505    2.905834    0.053613
  H     2.804949    2.122764   -1.191037
  H     3.493529    2.499211    0.416939

----------------------------
CARTESIAN COORDINATES (A.U.)
----------------------------
  NO LB    ZA    FRAG    MASS        X           Y           Z
   0 C   6.0000    1    12.011   -2.269630    0.993407   -0.699814
   1 C   6.0000    1    12.011   -2.694748   -1.780879    0.038842
   2 O   8.0000    1    15.999   -0.020446    1.975209    0.363326
   3 C   6.0000    1    12.011   -4.438885    2.665433    0.261673
   4 H   1.0000    1     1.008   -2.188105    1.101781   -2.777047
   5 C   6.0000    1    12.011    2.165330    0.626739   -0.337562
   6 C   6.0000    1    12.011    2.012014   -2.118101    0.599980
   7 C   6.0000    1    12.011   -0.334150   -3.362692   -0.544870
   8 H   1.0000    1     1.008    1.832173   -2.077578    2.672068
   9 O   8.0000    1    15.999    4.140830   -3.521771   -0.134012
  10 O   8.0000    1    15.999   -0.730470   -5.806541    0.417931
  11 H   1.0000    1     1.008   -0.077696   -3.448036   -2.612349
  12 O   8.0000    1    15.999   -4.785228   -2.668267   -1.331531
  13 H   1.0000    1     1.008   -3.061803   -1.885520    2.083752
  14 H   1.0000    1     1.008   -4.199301    4.574751   -0.519485
  15 O   8.0000    1    15.999   -4.541812    2.746422    2.905521
  16 H   1.0000    1     1.008   -6.225375    1.873278   -0.393710
  17 H   1.0000    1     1.008   -2.884941    3.229488    3.504877
  18 H   1.0000    1     1.008   -4.968435   -4.448247   -0.961137
  19 H   1.0000    1     1.008    0.834526   -6.734897    0.261323
  20 H   1.0000    1     1.008    5.634618   -2.653271    0.458101
  21 O   8.0000    1    15.999    4.271103    1.723526    0.761293
  22 H   1.0000    1     1.008    2.330006    0.631013   -2.433440
  23 C   6.0000    1    12.011    4.910679    4.139258   -0.222213
  24 H   1.0000    1     1.008    3.387344    5.491230    0.101313
  25 H   1.0000    1     1.008    5.300585    4.011442   -2.250735
  26 H   1.0000    1     1.008    6.601814    4.722824    0.787900

      -----------------------------------------------------------      
     |                   =====================                   |     
     |                           x T B                           |     
     |                   =====================                   |     
     |                         S. Grimme                         |     
     |          Mulliken Center for Theoretical Chemistry        |     
     |                    University of Bonn                     |     
      -----------------------------------------------------------      

   * xtb version 6.7.1 (edcfbbe) compiled by 'albert@albert-system' on 2024-07-22

   xtb is free software: you can redistribute it and/or modify it under
   the terms of the GNU Lesser General Public License as published by
   the Free Software Foundation, either version 3 of the License, or
   (at your option) any later version.
   
   xtb is distributed in the hope that it will be useful,
   but WITHOUT ANY WARRANTY; without even the implied warranty of
   MERCHANTABILITY or FITNESS FOR A PARTICULAR PURPOSE.  See the
   GNU Lesser General Public License for more details.
   
   Cite this work as:
   * C. Bannwarth, E. Caldeweyher, S. Ehlert, A. Hansen, P. Pracht,
     J. Seibert, S. Spicher, S. Grimme, WIREs Comput. Mol. Sci., 2020, 11,
     e01493. DOI: 10.1002/wcms.1493
   
   for GFN2-xTB:
   * C. Bannwarth, S. Ehlert and S. Grimme., J. Chem. Theory Comput., 2019,
     15, 1652-1671. DOI: 10.1021/acs.jctc.8b01176
   for GFN1-xTB:
   * S. Grimme, C. Bannwarth, P. Shushkov, J. Chem. Theory Comput., 2017,
     13, 1989-2009. DOI: 10.1021/acs.jctc.7b00118
   for GFN0-xTB:
   * P. Pracht, E. Caldeweyher, S. Ehlert, S. Grimme, ChemRxiv, 2019, preprint.
     DOI: 10.26434/chemrxiv.8326202.v1
   for GFN-FF:
   * S. Spicher and S. Grimme, Angew. Chem. Int. Ed., 2020, 59, 15665-15673.
     DOI: 10.1002/anie.202004239
   
   for ALPB and GBSA implicit solvation:
   * S. Ehlert, M. Stahn, S. Spicher, S. Grimme, J. Chem. Theory Comput.,
     2021, 17, 4250-4261. DOI: 10.1021/acs.jctc.1c00471
   
   for ddCOSMO and CPCM-X implicit solvation:
   * M. Stahn, S. Ehlert, S. Grimme, J. Phys. Chem. A,
     2023, XX, XXXX-XXXX. DOI: 10.1021/acs.jpca.3c04382
   
   for DFT-D4:
   * E. Caldeweyher, C. Bannwarth and S. Grimme, J. Chem. Phys., 2017,
     147, 034112. DOI: 10.1063/1.4993215
   * E. Caldeweyher, S. Ehlert, A. Hansen, H. Neugebauer, S. Spicher,
     C. Bannwarth and S. Grimme, J. Chem. Phys., 2019, 150, 154122.
     DOI: 10.1063/1.5090222
   * E. Caldeweyher, J.-M. Mewes, S. Ehlert and S. Grimme, Phys. Chem. Chem. Phys.
     2020, 22, 8499-8512. DOI: 10.1039/D0CP00502A
   
   for sTDA-xTB:
   * S. Grimme and C. Bannwarth, J. Chem. Phys., 2016, 145, 054103.
     DOI: 10.1063/1.4959605
   
   in the mass-spec context:
   * V. Asgeirsson, C. Bauer and S. Grimme, Chem. Sci., 2017, 8, 4879.
     DOI: 10.1039/c7sc00601b
   * J. Koopman and S. Grimme, ACS Omega 2019, 4, 12, 15120-15133.
     DOI: 10.1021/acsomega.9b02011
   
   for metadynamics refer to:
   * S. Grimme, J. Chem. Theory Comput., 2019, 155, 2847-2862
     DOI: 10.1021/acs.jctc.9b00143
   
   for SPH calculations refer to:
   * S. Spicher and S. Grimme, J. Chem. Theory Comput., 2021, 17, 1701-1714
     DOI: 10.1021/acs.jctc.0c01306
   
   for ONIOM refer to:
   * C. Plett, A. Katbashev, S. Ehlert, S. Grimme, M. Bursch,
     Phys. Chem. Chem. Phys., 2023, 25, 17860-17868. DOI: 10.1039/D3CP02178E
   
   for DIPRO refer to:
   * J. Kohn, N. Gildemeister, S. Grimme, D. Fazzi, A. Hansen,
     J. Chem. Phys., 2023, just accepted.
   
   for PTB refer to:
   * S. Grimme, M. Mueller, A. Hansen, J. Chem. Phys., 2023, 158, 124111.
     DOI: 10.1063/5.0137838
   
   with help from (in alphabetical order)
   P. Atkinson, C. Bannwarth, F. Bohle, G. Brandenburg, E. Caldeweyher
   M. Checinski, S. Dohm, S. Ehlert, S. Ehrlich, I. Gerasimov, C. Hölzer
   A. Katbashev, J. Kohn, J. Koopman, C. Lavigne, S. Lehtola, F. März, M. Müller,
   F. Musil, H. Neugebauer, J. Pisarek, C. Plett, P. Pracht, F. Pultar,
   J. Seibert, P. Shushkov, S. Spicher, M. Stahn, M. Steiner, T. Strunk,
   J. Stückrath, T. Rose, and J. Unsleber
   
 * started run on 2026/03/26 at 13:20:41.978     
   ID    Z sym.   atoms
    1    6 C      1, 2, 4, 6-8, 24
    2    8 O      3, 10, 11, 13, 16, 22
    3    1 H      5, 9, 12, 14, 15, 17-21, 23, 25-27

           -------------------------------------------------
          |                Calculation Setup                |
           -------------------------------------------------

          program call               : /home/kmoult/orca_6_1/otool_xtb goat_0_XTB.xyz --grad -c 0 -u 0 -P 4 --namespace goat_0 --input goat_0_XTB.input.tmp --alpb ACETONE --acc 0.200000
          hostname                   : node1619
          calculation namespace      : goat_0
          coordinate file            : goat_0_XTB.xyz
          omp threads                :                     4


           -------------------------------------------------
          |                 G F N 2 - x T B                 |
           -------------------------------------------------

        Reference                      10.1021/acs.jctc.8b01176
      * Hamiltonian:
        H0-scaling (s, p, d)           1.850000    2.230000    2.230000
        zeta-weighting                 0.500000
      * Dispersion:
        s8                             2.700000
        a1                             0.520000
        a2                             5.000000
        s9                             5.000000
      * Repulsion:
        kExp                           1.500000    1.000000
        rExp                           1.000000
      * Coulomb:
        alpha                          2.000000
        third order                    shell-resolved
        anisotropic                    true
        a3                             3.000000
        a5                             4.000000
        cn-shift                       1.200000
        cn-exp                         4.000000
        max-rad                        5.000000

      * Solvation model:               ALPB
        Solvent                        ACETONE
        Parameter file                 internal GFN2-xTB/ALPB
        Dielectric constant                2.0700E+01
        Reference state                gsolv [1 M gas/solution]
        Free energy shift                  5.9241E-03 Eh       3.7175E+00 kcal/mol
        Temperature                        2.9815E+02 K
        Density                            7.9000E-01 kg/L
        Solvent mass                       5.8080E+01 g/mol
        Interaction kernel             P16
        Born radius scaling (c1)           1.8274E+00
        Born radii integrator          GBOBC
        Born offset                        0.0000E+00 a0       0.0000E+00 AA
        H-bond correction              true
        Ion screening                  false
        Surface tension                    1.0000E-05 Eh       1.5569E+01 dyn/cm
        Grid points                               230 per atom
q/qsh data taken from xtbrestart
CAMM data taken from xtbrestart

          ...................................................
          :                      SETUP                      :
          :.................................................:
          :  # basis functions                  66          :
          :  # atomic orbitals                  66          :
          :  # shells                           40          :
          :  # electrons                        78          :
          :  max. iterations                   250          :
          :  Hamiltonian                  GFN2-xTB          :
          :  restarted?                       true          :
          :  GBSA solvation                   true          :
          :  PC potential                    false          :
          :  electronic temp.          300.0000000     K    :
          :  accuracy                    0.2000000          :
          :  -> integral cutoff          0.3198970E+02      :
          :  -> integral neglect         0.2000000E-08      :
          :  -> SCF convergence          0.2000000E-06 Eh   :
          :  -> wf. convergence          0.2000000E-04 e    :
          :  Broyden damping             0.4000000          :
          :  net charge                          0          :
          :  unpaired electrons                  0          :
          ...................................................

 iter      E             dE          RMSdq      gap      omega  full diag
   1    -46.8967173 -0.468967E+02  0.105E-02   10.46       0.0  T
   2    -46.8967173 -0.386879E-07  0.645E-03   10.46       3.0  T
   3    -46.8967173 -0.806322E-08  0.712E-04   10.47      27.0  T
   4    -46.8967173 -0.580643E-08  0.309E-04   10.47      62.2  T
   5    -46.8967173 -0.151033E-09  0.103E-04   10.46     187.6  T
   6    -46.8967173 -0.246274E-10  0.346E-05   10.46     556.6  T

   *** convergence criteria satisfied after 6 iterations ***

         #    Occupation            Energy/Eh            Energy/eV
      -------------------------------------------------------------
         1        2.0000           -0.7305723             -19.8799
       ...           ...                  ...                  ...
        33        2.0000           -0.4535053             -12.3405
        34        2.0000           -0.4428678             -12.0510
        35        2.0000           -0.4294216             -11.6852
        36        2.0000           -0.4236024             -11.5268
        37        2.0000           -0.4162413             -11.3265
        38        2.0000           -0.4153810             -11.3031
        39        2.0000           -0.4092470             -11.1362 (HOMO)
        40                         -0.0246656              -0.6712 (LUMO)
        41                         -0.0118209              -0.3217
        42                          0.0153084               0.4166
        43                          0.0355292               0.9668
        44                          0.0506621               1.3786
       ...                                ...                  ...
        66                          0.2868709               7.8062
      -------------------------------------------------------------
                  HL-Gap            0.3845814 Eh           10.4650 eV
             Fermi-level           -0.2169563 Eh           -5.9037 eV

 SCC (total)                   0 d,  0 h,  0 min,  0.027 sec
 SCC setup                      ...        0 min,  0.000 sec (  1.329%)
 Dispersion                     ...        0 min,  0.000 sec (  0.591%)
 classical contributions        ...        0 min,  0.000 sec (  0.088%)
 integral evaluation            ...        0 min,  0.001 sec (  4.754%)
 iterations                     ...        0 min,  0.022 sec ( 82.338%)
 molecular gradient             ...        0 min,  0.003 sec ( 10.310%)
 printout                       ...        0 min,  0.000 sec (  0.505%)

         :::::::::::::::::::::::::::::::::::::::::::::::::::::
         ::                     SUMMARY                     ::
         :::::::::::::::::::::::::::::::::::::::::::::::::::::
         :: total energy             -46.550588276701 Eh    ::
         :: total w/o Gsasa/hb       -46.524948459434 Eh    ::
         :: gradient norm              0.000824997700 Eh/a0 ::
         :: HOMO-LUMO gap             10.464991884400 eV    ::
         ::.................................................::
         :: SCC energy               -46.896508191342 Eh    ::
         :: -> isotropic ES            0.140477223762 Eh    ::
         :: -> anisotropic ES         -0.007292030600 Eh    ::
         :: -> anisotropic XC         -0.008598653899 Eh    ::
         :: -> dispersion             -0.021624974836 Eh    ::
         :: -> Gsolv                  -0.029085597148 Eh    ::
         ::    -> Gelec               -0.003445779881 Eh    ::
         ::    -> Gsasa               -0.020313070406 Eh    ::
         ::    -> Ghb                 -0.011250888124 Eh    ::
         ::    -> Gshift               0.005924141264 Eh    ::
         :: repulsion energy           0.345919914641 Eh    ::
         :: add. restraining           0.000000000000 Eh    ::
         :: total charge              -0.000000000000 e     ::
         :::::::::::::::::::::::::::::::::::::::::::::::::::::


Property printout bound to 'properties.out'

           -------------------------------------------------
          | TOTAL ENERGY              -46.550588276701 Eh   |
          | GRADIENT NORM               0.000824997700 Eh/α |
          | HOMO-LUMO GAP              10.464991884400 eV   |
           -------------------------------------------------

------------------------------------------------------------------------
 * finished run on 2026/03/26 at 13:20:42.017     
------------------------------------------------------------------------
 total:
 * wall-time:     0 d,  0 h,  0 min,  0.038 sec
 *  cpu-time:     0 d,  0 h,  0 min,  0.132 sec
 * ratio c/w:     3.472 speedup
 SCF:
 * wall-time:     0 d,  0 h,  0 min,  0.027 sec
 *  cpu-time:     0 d,  0 h,  0 min,  0.097 sec
 * ratio c/w:     3.545 speedup


-------------------------   --------------------
FINAL SINGLE POINT ENERGY       -46.550588276700
-------------------------   --------------------


-------------
DIPOLE MOMENT
-------------
                                X             Y             Z
Total Dipole Moment    :      1.58900       0.30300      -0.50100
                        -----------------------------------------
Magnitude (a.u.)       :      1.69344
Magnitude (Debye)      :      4.30438


------------------
CARTESIAN GRADIENT
------------------

   1   C   :    0.000199820    0.000042859    0.000010722
   2   C   :   -0.000115306    0.000035979   -0.000051420
   3   O   :   -0.000179521    0.000088205    0.000080443
   4   C   :   -0.000208215   -0.000222402    0.000107800
   5   H   :   -0.000039871    0.000000671   -0.000000173
   6   C   :    0.000141066    0.000038582   -0.000328335
   7   C   :    0.000102164   -0.000139151   -0.000010023
   8   C   :   -0.000151695    0.000115081    0.000098355
   9   H   :   -0.000016647    0.000011797    0.000023648
  10   O   :   -0.000091412    0.000054997    0.000074902
  11   O   :    0.000097171    0.000064857   -0.000120482
  12   H   :    0.000024123   -0.000073609   -0.000005257
  13   O   :    0.000101882   -0.000040045    0.000146820
  14   H   :    0.000006823    0.000008298    0.000018345
  15   H   :   -0.000022589    0.000038614   -0.000015065
  16   O   :    0.000127772    0.000139487   -0.000055805
  17   H   :    0.000055660    0.000029134   -0.000115469
  18   H   :    0.000000463   -0.000021033    0.000018360
  19   H   :   -0.000012169   -0.000041622   -0.000039067
  20   H   :   -0.000013421   -0.000081318    0.000061167
  21   H   :    0.000043364    0.000006593    0.000009575
  22   O   :    0.000023251   -0.000157170    0.000154668
  23   H   :   -0.000067211   -0.000008329    0.000104759
  24   C   :    0.000052924    0.000129517   -0.000121902
  25   H   :   -0.000011899   -0.000011490   -0.000019627
  26   H   :   -0.000038469   -0.000024502   -0.000006276
  27   H   :   -0.000008059    0.000016000   -0.000020662

Difference to translation invariance:
           :    0.0000000000   -0.0000000000    0.0000000000

Difference to rotation invariance:
           :   -0.0013923789    0.0005009942    0.0004719320

Norm of the Cartesian gradient     ...    0.0008249977
RMS gradient                       ...    0.0000916664
MAX gradient                       ...    0.0003283348
------------------------------------------------------------------------------
                         ORCA GEOMETRY RELAXATION STEP
------------------------------------------------------------------------------

Reading the OPT-File                    .... done
Getting information on internals        .... done
Copying old internal coords+grads       .... done
Making the new internal coordinates     .... (2022 redundants) done
Validating the new internal coordinates .... (2022 redundants) done
Calculating the B-matrix                .... done
Calculating the G,G- and P matrices     .... done
Transforming gradient to internals      .... done
Projecting the internal gradient        .... done
Number of atoms                         ....  27
Number of internal coordinates          .... 133
Current Energy                          ....   -46.550588277 Eh
Current gradient norm                   ....     0.000824998 Eh/bohr
Maximum allowed component of the step   ....  0.300
Current trust radius                    ....  0.675
Updating the Hessian (BFGS)             .... done
Forming the augmented Hessian           .... done
Diagonalizing the augmented Hessian     .... done
Last element of RFO vector              ....  0.999804263
Lowest eigenvalues of augmented Hessian:
 -0.000002637  0.002900186  0.011551078  0.014861068  0.015859643
Length of the computed step             ....  0.019788615
The final length of the internal step   ....  0.019788615
Converting the step to Cartesian space:
 Initial RMS(Int)=    0.0017158906
Transforming coordinates:
 Iter   0:  RMS(Cart)=    0.0023927894 RMS(Int)=    0.0017162016
done
Storing new coordinates                 .... done
The predicted energy change is          ....    -0.000001319
Previously predicted energy change      ....    -0.000002892
Actually observed energy change         ....    -0.000003957
Ratio of predicted to observed change   ....     1.368481181
New trust radius                        ....     0.675000000

                                .--------------------.
          ----------------------|Geometry convergence|-------------------------
          Item                value                   Tolerance       Converged
          ---------------------------------------------------------------------
          Energy change      -0.0000039573            0.0000050000      YES
          RMS gradient        0.0000451672            0.0001000000      YES
          MAX gradient        0.0001932494            0.0003000000      YES
          RMS step            0.0017158906            0.0020000000      YES
          MAX step            0.0069534566            0.0040000000      NO
          -------------------------------------------------------------------------
          ........................................................
          Max(Bonds)      0.0037      Max(Angles)    0.06
          Max(Dihed)        0.27      Max(Improp)    0.00
          ---------------------------------------------------------------------

    ---------------------------------------------------------------------------
                         Redundant Internal Coordinates
                            (Angstroem and degrees)

        Definition                    Value    dE/dq     Step     New-Value
    ----------------------------------------------------------------------------
     1. B(C   1,C   0)                1.5358  0.000030 -0.0002    1.5356   
     2. B(O   2,C   0)                1.4153 -0.000036 -0.0001    1.4152   
     3. B(C   3,C   0)                1.5361  0.000001 -0.0000    1.5360   
     4. B(H   4,C   0)                1.1016 -0.000003  0.0000    1.1016   
     5. B(C   5,O   2)                1.4088  0.000163 -0.0002    1.4085   
     6. B(C   6,C   5)                1.5370  0.000076 -0.0002    1.5368   
     7. B(C   7,C   1)                1.5351 -0.000016  0.0000    1.5351   
     8. B(C   7,C   6)                1.5304 -0.000016  0.0000    1.5305   
     9. B(H   8,C   6)                1.1008  0.000019 -0.0001    1.1007   
    10. B(O   9,C   6)                1.4042 -0.000092  0.0002    1.4044   
    11. B(O  10,C   7)                1.4057 -0.000041  0.0002    1.4059   
    12. B(H  11,C   7)                1.1034  0.000023 -0.0001    1.1033   
    13. B(O  12,C   1)                1.4036 -0.000070  0.0002    1.4038   
    14. B(H  13,C   1)                1.1008  0.000008 -0.0001    1.1008   
    15. B(H  14,C   3)                1.0990  0.000039 -0.0001    1.0989   
    16. B(O  15,C   3)                1.4008 -0.000022  0.0000    1.4008   
    17. B(H  16,C   3)                1.0907 -0.000027  0.0000    1.0908   
    18. B(H  17,O   2)                2.3456 -0.000002  0.0037    2.3493   
    19. B(H  17,O  15)                0.9668  0.000000 -0.0000    0.9667   
    20. B(H  18,O  10)                2.4655 -0.000017  0.0028    2.4683   
    21. B(H  18,O  12)                0.9670  0.000018 -0.0001    0.9669   
    22. B(H  19,O   9)                2.4487  0.000017  0.0013    2.4499   
    23. B(H  19,O  10)                0.9665  0.000027 -0.0001    0.9664   
    24. B(H  20,O   9)                0.9666  0.000035 -0.0001    0.9665   
    25. B(O  21,H  20)                2.4312 -0.000002  0.0016    2.4328   
    26. B(O  21,C   5)                1.3845  0.000035 -0.0000    1.3844   
    27. B(H  22,C   5)                1.1125 -0.000114  0.0002    1.1127   
    28. B(C  23,O  21)                1.4211  0.000123 -0.0002    1.4209   
    29. B(H  24,C  23)                1.0913 -0.000003  0.0000    1.0913   
    30. B(H  25,C  23)                1.0952 -0.000018  0.0000    1.0952   
    31. B(H  26,C  23)                1.0872 -0.000001  0.0000    1.0872   
    32. A(C   1,C   0,H   4)          108.03  0.000001    0.01    108.04   
    33. A(O   2,C   0,H   4)          110.16  0.000011   -0.00    110.16   
    34. A(C   3,C   0,H   4)          109.26 -0.000020   -0.00    109.26   
    35. A(C   1,C   0,O   2)          111.90  0.000031   -0.01    111.89   
    36. A(O   2,C   0,C   3)          106.58  0.000016   -0.01    106.57   
    37. A(C   1,C   0,C   3)          110.91 -0.000040    0.00    110.91   
    38. A(O  12,C   1,H  13)          110.61  0.000006   -0.01    110.60   
    39. A(C   0,C   1,H  13)          108.91 -0.000002    0.01    108.92   
    40. A(C   0,C   1,O  12)          107.68  0.000046   -0.03    107.66   
    41. A(C   0,C   1,C   7)          110.54 -0.000002    0.02    110.56   
    42. A(C   7,C   1,H  13)          108.30 -0.000005   -0.00    108.30   
    43. A(C   7,C   1,O  12)          110.79 -0.000043    0.00    110.80   
    44. A(C   0,O   2,C   5)          113.57 -0.000063    0.01    113.58   
    45. A(H  14,C   3,O  15)          110.61 -0.000037    0.02    110.63   
    46. A(C   0,C   3,O  15)          112.18 -0.000007    0.00    112.18   
    47. A(C   0,C   3,H  14)          108.59 -0.000010    0.01    108.60   
    48. A(C   0,C   3,H  16)          108.72 -0.000055    0.00    108.73   
    49. A(O  15,C   3,H  16)          107.20  0.000193   -0.06    107.14   
    50. A(H  14,C   3,H  16)          109.49 -0.000086    0.02    109.51   
    51. A(C   6,C   5,H  22)          109.14  0.000008    0.02    109.16   
    52. A(O   2,C   5,H  22)          109.01 -0.000016    0.01    109.02   
    53. A(O  21,C   5,H  22)          110.78  0.000027   -0.02    110.76   
    54. A(C   6,C   5,O  21)          107.64 -0.000038    0.01    107.65   
    55. A(O   2,C   5,C   6)          110.51 -0.000005    0.00    110.51   
    56. A(O   2,C   5,O  21)          109.75  0.000023   -0.02    109.73   
    57. A(C   7,C   6,O   9)          108.28  0.000016   -0.03    108.26   
    58. A(C   5,C   6,O   9)          111.61  0.000019   -0.02    111.59   
    59. A(C   7,C   6,H   8)          109.42  0.000008    0.01    109.43   
    60. A(C   5,C   6,H   8)          107.92  0.000014    0.01    107.93   
    61. A(C   5,C   6,C   7)          108.77 -0.000027    0.03    108.80   
    62. A(H   8,C   6,O   9)          110.81 -0.000030   -0.00    110.80   
    63. A(C   1,C   7,C   6)          110.23  0.000032    0.03    110.26   
    64. A(O  10,C   7,H  11)          109.88 -0.000093    0.02    109.90   
    65. A(C   6,C   7,H  11)          108.08  0.000016    0.01    108.09   
    66. A(C   1,C   7,H  11)          108.78  0.000053    0.00    108.78   
    67. A(C   6,C   7,O  10)          111.93 -0.000028   -0.02    111.91   
    68. A(C   1,C   7,O  10)          107.90  0.000021   -0.03    107.87   
    69. A(C   6,O   9,H  20)          108.36  0.000042   -0.02    108.34   
    70. A(C   7,O  10,H  19)          107.98  0.000136   -0.04    107.94   
    71. A(C   1,O  12,H  18)          107.47  0.000118   -0.03    107.44   
    72. A(C   3,O  15,H  17)          107.49  0.000054   -0.01    107.48   
    73. A(C   5,O  21,C  23)          114.52 -0.000183    0.03    114.54   
    74. A(H  25,C  23,H  26)          110.14  0.000028   -0.02    110.13   
    75. A(H  24,C  23,H  26)          110.16  0.000006   -0.01    110.15   
    76. A(O  21,C  23,H  26)          105.75  0.000029    0.00    105.76   
    77. A(H  24,C  23,H  25)          109.48  0.000005    0.01    109.49   
    78. A(O  21,C  23,H  25)          110.38 -0.000039    0.01    110.39   
    79. A(O  21,C  23,H  24)          110.88 -0.000027    0.00    110.88   
    80. D(O  12,C   1,C   0,H   4)    -51.72  0.000034    0.04    -51.68   
    81. D(C   7,C   1,C   0,H   4)     69.43  0.000009    0.04     69.47   
    82. D(O  12,C   1,C   0,C   3)     67.99 -0.000014    0.05     68.04   
    83. D(C   7,C   1,C   0,C   3)   -170.86 -0.000039    0.05   -170.81   
    84. D(O  12,C   1,C   0,O   2)   -173.14  0.000000    0.03   -173.11   
    85. D(C   7,C   1,C   0,O   2)    -51.99 -0.000024    0.04    -51.96   
    86. D(C   5,O   2,C   0,C   1)     58.37  0.000017    0.03     58.39   
    87. D(C   5,O   2,C   0,C   3)    179.76 -0.000003    0.02    179.78   
    88. D(C   5,O   2,C   0,H   4)    -61.82 -0.000012    0.02    -61.81   
    89. D(H  14,C   3,C   0,O   2)     65.55 -0.000020   -0.15     65.40   
    90. D(O  15,C   3,C   0,C   1)     65.02  0.000064   -0.20     64.81   
    91. D(H  14,C   3,C   0,H   4)    -53.45 -0.000030   -0.15    -53.60   
    92. D(O  15,C   3,C   0,O   2)    -57.01  0.000039   -0.19    -57.20   
    93. D(O  15,C   3,C   0,H   4)   -176.01  0.000029   -0.18   -176.20   
    94. D(H  14,C   3,C   0,C   1)   -172.42  0.000005   -0.16   -172.59   
    95. D(H  22,C   5,O   2,C   0)     57.94 -0.000021    0.01     57.96   
    96. D(O  21,C   5,O   2,C   0)    179.44  0.000017   -0.02    179.42   
    97. D(C   6,C   5,O   2,C   0)    -62.00 -0.000019   -0.02    -62.01   
    98. D(H   8,C   6,C   5,H  22)   -179.47  0.000029   -0.11   -179.58   
    99. D(H   8,C   6,C   5,O  21)     60.23  0.000013   -0.10     60.13   
   100. D(H   8,C   6,C   5,O   2)    -59.61  0.000012   -0.08    -59.69   
   101. D(C   7,C   6,C   5,H  22)    -60.85  0.000031   -0.08    -60.93   
   102. D(C   7,C   6,C   5,O  21)    178.85  0.000015   -0.07    178.78   
   103. D(C   7,C   6,C   5,O   2)     59.01  0.000014   -0.05     58.96   
   104. D(O  10,C   7,C   1,H  13)     54.44  0.000002   -0.15     54.30   
   105. D(O  10,C   7,C   1,O  12)    -67.03  0.000025   -0.14    -67.17   
   106. D(O  10,C   7,C   1,C   0)    173.68 -0.000005   -0.12    173.56   
   107. D(C   6,C   7,C   1,H  13)    -68.06  0.000003   -0.12    -68.17   
   108. D(C   6,C   7,C   1,O  12)    170.47  0.000025   -0.11    170.36   
   109. D(C   1,C   7,C   6,C   5)    -54.28 -0.000005    0.10    -54.18   
   110. D(C   6,C   7,C   1,C   0)     51.18 -0.000004   -0.09     51.09   
   111. D(O  10,C   7,C   6,O   9)     64.16 -0.000051    0.15     64.32   
   112. D(O  10,C   7,C   6,H   8)    -56.71 -0.000029    0.16    -56.55   
   113. D(O  10,C   7,C   6,C   5)   -174.38 -0.000035    0.13   -174.24   
   114. D(C   1,C   7,C   6,O   9)   -175.74 -0.000021    0.12   -175.62   
   115. D(C   1,C   7,C   6,H   8)     63.39  0.000001    0.13     63.52   
   116. D(H  20,O   9,C   6,H   8)    -65.12 -0.000001    0.13    -64.99   
   117. D(H  20,O   9,C   6,C   7)    174.87 -0.000003    0.14    175.01   
   118. D(H  20,O   9,C   6,C   5)     55.18  0.000008    0.13     55.31   
   119. D(H  19,O  10,C   7,H  11)     69.30 -0.000023   -0.16     69.14   
   120. D(H  19,O  10,C   7,C   6)    -50.79  0.000037   -0.16    -50.95   
   121. D(H  19,O  10,C   7,C   1)   -172.24  0.000001   -0.16   -172.40   
   122. D(H  18,O  12,C   1,H  13)    -65.40 -0.000002    0.26    -65.14   
   123. D(H  18,O  12,C   1,C   7)     54.70 -0.000033    0.26     54.96   
   124. D(H  18,O  12,C   1,C   0)    175.69 -0.000031    0.27    175.96   
   125. D(H  17,O  15,C   3,H  16)    172.39  0.000002    0.23    172.62   
   126. D(H  17,O  15,C   3,H  14)    -68.30 -0.000006    0.23    -68.07   
   127. D(H  17,O  15,C   3,C   0)     53.11 -0.000050    0.26     53.37   
   128. D(C  23,O  21,C   5,H  22)     51.22 -0.000011    0.03     51.25   
   129. D(C  23,O  21,C   5,C   6)    170.47 -0.000008    0.05    170.52   
   130. D(C  23,O  21,C   5,O   2)    -69.21 -0.000024    0.05    -69.17   
   131. D(H  26,C  23,O  21,C   5)   -178.80  0.000003   -0.06   -178.86   
   132. D(H  25,C  23,O  21,C   5)    -59.69  0.000032   -0.07    -59.76   
   133. D(H  24,C  23,O  21,C   5)     61.80 -0.000007   -0.05     61.76   
    ----------------------------------------------------------------------------

Geometry step timings:
Preparation and reading OPT file:      0.000 s ( 2.806 %)
Internal coordinates            :      0.000 s ( 0.592 %)
B/P matrices and projection     :      0.001 s (24.419 %)
Hessian update/contruction      :      0.001 s (27.006 %)
Making the step                 :      0.001 s (18.501 %)
Converting the step to Cartesian:      0.000 s ( 2.126 %)
Storing new data                :      0.000 s ( 6.795 %)
Checking convergence            :      0.000 s ( 0.833 %)
Final printing                  :      0.001 s (16.879 %)
Total time                      :      0.005 s

Time for energy+gradient        :      0.052 s
Time for complete geometry iter :      0.059 s

         *************************************************************
         *                GEOMETRY OPTIMIZATION CYCLE   9            *
         *************************************************************
---------------------------------
CARTESIAN COORDINATES (ANGSTROEM)
---------------------------------
  C    -1.200525    0.525518   -0.370855
  C    -1.425751   -0.942284    0.020186
  O    -0.010232    1.044754    0.191678
  C    -2.348054    1.410757    0.138026
  H    -1.157378    0.582926   -1.470112
  C     1.146247    0.331413   -0.179396
  C     1.065444   -1.120930    0.316628
  C    -0.176701   -1.779976   -0.287571
  H     0.972008   -1.099727    1.413190
  O     2.191510   -1.863799   -0.073756
  O    -0.386754   -3.072095    0.225030
  H    -0.041465   -1.827333   -1.381507
  O    -2.531828   -1.411420   -0.705896
  H    -1.620937   -0.997560    1.102083
  H    -2.219613    2.421792   -0.273021
  O    -2.405104    1.450312    1.537125
  H    -3.293543    0.993200   -0.210492
  H    -1.529665    1.707937    1.856237
  H    -2.631562   -2.352247   -0.506418
  H     0.440699   -3.564092    0.140357
  H     2.982183   -1.405228    0.240306
  O     2.260267    0.912298    0.402120
  H     1.233689    0.334066   -1.288624
  C     2.598017    2.191093   -0.117148
  H     1.791272    2.905828    0.054029
  H     2.805519    2.124454   -1.190467
  H     3.492255    2.500344    0.418264

----------------------------
CARTESIAN COORDINATES (A.U.)
----------------------------
  NO LB    ZA    FRAG    MASS        X           Y           Z
   0 C   6.0000    1    12.011   -2.268663    0.993084   -0.700814
   1 C   6.0000    1    12.011   -2.694279   -1.780660    0.038145
   2 O   8.0000    1    15.999   -0.019335    1.974299    0.362219
   3 C   6.0000    1    12.011   -4.437179    2.665945    0.260831
   4 H   1.0000    1     1.008   -2.187128    1.101570   -2.778110
   5 C   6.0000    1    12.011    2.166093    0.626280   -0.339009
   6 C   6.0000    1    12.011    2.013398   -2.118250    0.598340
   7 C   6.0000    1    12.011   -0.333916   -3.363668   -0.543430
   8 H   1.0000    1     1.008    1.836829   -2.078184    2.670542
   9 O   8.0000    1    15.999    4.141353   -3.522070   -0.139378
  10 O   8.0000    1    15.999   -0.730860   -5.805419    0.425244
  11 H   1.0000    1     1.008   -0.078358   -3.453158   -2.610669
  12 O   8.0000    1    15.999   -4.784461   -2.667198   -1.333950
  13 H   1.0000    1     1.008   -3.063127   -1.885116    2.082636
  14 H   1.0000    1     1.008   -4.194461    4.576524   -0.515935
  15 O   8.0000    1    15.999   -4.544987    2.740693    2.904746
  16 H   1.0000    1     1.008   -6.223893    1.876876   -0.397773
  17 H   1.0000    1     1.008   -2.890648    3.227534    3.507780
  18 H   1.0000    1     1.008   -4.972932   -4.445103   -0.956991
  19 H   1.0000    1     1.008    0.832801   -6.735157    0.265236
  20 H   1.0000    1     1.008    5.635508   -2.655496    0.454112
  21 O   8.0000    1    15.999    4.271286    1.723993    0.759897
  22 H   1.0000    1     1.008    2.331335    0.631294   -2.435147
  23 C   6.0000    1    12.011    4.909541    4.140565   -0.221377
  24 H   1.0000    1     1.008    3.385013    5.491220    0.102100
  25 H   1.0000    1     1.008    5.301663    4.014635   -2.249656
  26 H   1.0000    1     1.008    6.599405    4.724966    0.790405

      -----------------------------------------------------------      
     |                   =====================                   |     
     |                           x T B                           |     
     |                   =====================                   |     
     |                         S. Grimme                         |     
     |          Mulliken Center for Theoretical Chemistry        |     
     |                    University of Bonn                     |     
      -----------------------------------------------------------      

   * xtb version 6.7.1 (edcfbbe) compiled by 'albert@albert-system' on 2024-07-22

   xtb is free software: you can redistribute it and/or modify it under
   the terms of the GNU Lesser General Public License as published by
   the Free Software Foundation, either version 3 of the License, or
   (at your option) any later version.
   
   xtb is distributed in the hope that it will be useful,
   but WITHOUT ANY WARRANTY; without even the implied warranty of
   MERCHANTABILITY or FITNESS FOR A PARTICULAR PURPOSE.  See the
   GNU Lesser General Public License for more details.
   
   Cite this work as:
   * C. Bannwarth, E. Caldeweyher, S. Ehlert, A. Hansen, P. Pracht,
     J. Seibert, S. Spicher, S. Grimme, WIREs Comput. Mol. Sci., 2020, 11,
     e01493. DOI: 10.1002/wcms.1493
   
   for GFN2-xTB:
   * C. Bannwarth, S. Ehlert and S. Grimme., J. Chem. Theory Comput., 2019,
     15, 1652-1671. DOI: 10.1021/acs.jctc.8b01176
   for GFN1-xTB:
   * S. Grimme, C. Bannwarth, P. Shushkov, J. Chem. Theory Comput., 2017,
     13, 1989-2009. DOI: 10.1021/acs.jctc.7b00118
   for GFN0-xTB:
   * P. Pracht, E. Caldeweyher, S. Ehlert, S. Grimme, ChemRxiv, 2019, preprint.
     DOI: 10.26434/chemrxiv.8326202.v1
   for GFN-FF:
   * S. Spicher and S. Grimme, Angew. Chem. Int. Ed., 2020, 59, 15665-15673.
     DOI: 10.1002/anie.202004239
   
   for ALPB and GBSA implicit solvation:
   * S. Ehlert, M. Stahn, S. Spicher, S. Grimme, J. Chem. Theory Comput.,
     2021, 17, 4250-4261. DOI: 10.1021/acs.jctc.1c00471
   
   for ddCOSMO and CPCM-X implicit solvation:
   * M. Stahn, S. Ehlert, S. Grimme, J. Phys. Chem. A,
     2023, XX, XXXX-XXXX. DOI: 10.1021/acs.jpca.3c04382
   
   for DFT-D4:
   * E. Caldeweyher, C. Bannwarth and S. Grimme, J. Chem. Phys., 2017,
     147, 034112. DOI: 10.1063/1.4993215
   * E. Caldeweyher, S. Ehlert, A. Hansen, H. Neugebauer, S. Spicher,
     C. Bannwarth and S. Grimme, J. Chem. Phys., 2019, 150, 154122.
     DOI: 10.1063/1.5090222
   * E. Caldeweyher, J.-M. Mewes, S. Ehlert and S. Grimme, Phys. Chem. Chem. Phys.
     2020, 22, 8499-8512. DOI: 10.1039/D0CP00502A
   
   for sTDA-xTB:
   * S. Grimme and C. Bannwarth, J. Chem. Phys., 2016, 145, 054103.
     DOI: 10.1063/1.4959605
   
   in the mass-spec context:
   * V. Asgeirsson, C. Bauer and S. Grimme, Chem. Sci., 2017, 8, 4879.
     DOI: 10.1039/c7sc00601b
   * J. Koopman and S. Grimme, ACS Omega 2019, 4, 12, 15120-15133.
     DOI: 10.1021/acsomega.9b02011
   
   for metadynamics refer to:
   * S. Grimme, J. Chem. Theory Comput., 2019, 155, 2847-2862
     DOI: 10.1021/acs.jctc.9b00143
   
   for SPH calculations refer to:
   * S. Spicher and S. Grimme, J. Chem. Theory Comput., 2021, 17, 1701-1714
     DOI: 10.1021/acs.jctc.0c01306
   
   for ONIOM refer to:
   * C. Plett, A. Katbashev, S. Ehlert, S. Grimme, M. Bursch,
     Phys. Chem. Chem. Phys., 2023, 25, 17860-17868. DOI: 10.1039/D3CP02178E
   
   for DIPRO refer to:
   * J. Kohn, N. Gildemeister, S. Grimme, D. Fazzi, A. Hansen,
     J. Chem. Phys., 2023, just accepted.
   
   for PTB refer to:
   * S. Grimme, M. Mueller, A. Hansen, J. Chem. Phys., 2023, 158, 124111.
     DOI: 10.1063/5.0137838
   
   with help from (in alphabetical order)
   P. Atkinson, C. Bannwarth, F. Bohle, G. Brandenburg, E. Caldeweyher
   M. Checinski, S. Dohm, S. Ehlert, S. Ehrlich, I. Gerasimov, C. Hölzer
   A. Katbashev, J. Kohn, J. Koopman, C. Lavigne, S. Lehtola, F. März, M. Müller,
   F. Musil, H. Neugebauer, J. Pisarek, C. Plett, P. Pracht, F. Pultar,
   J. Seibert, P. Shushkov, S. Spicher, M. Stahn, M. Steiner, T. Strunk,
   J. Stückrath, T. Rose, and J. Unsleber
   
 * started run on 2026/03/26 at 13:20:42.037     
   ID    Z sym.   atoms
    1    6 C      1, 2, 4, 6-8, 24
    2    8 O      3, 10, 11, 13, 16, 22
    3    1 H      5, 9, 12, 14, 15, 17-21, 23, 25-27

           -------------------------------------------------
          |                Calculation Setup                |
           -------------------------------------------------

          program call               : /home/kmoult/orca_6_1/otool_xtb goat_0_XTB.xyz --grad -c 0 -u 0 -P 4 --namespace goat_0 --input goat_0_XTB.input.tmp --alpb ACETONE --acc 0.200000
          hostname                   : node1619
          calculation namespace      : goat_0
          coordinate file            : goat_0_XTB.xyz
          omp threads                :                     4


           -------------------------------------------------
          |                 G F N 2 - x T B                 |
           -------------------------------------------------

        Reference                      10.1021/acs.jctc.8b01176
      * Hamiltonian:
        H0-scaling (s, p, d)           1.850000    2.230000    2.230000
        zeta-weighting                 0.500000
      * Dispersion:
        s8                             2.700000
        a1                             0.520000
        a2                             5.000000
        s9                             5.000000
      * Repulsion:
        kExp                           1.500000    1.000000
        rExp                           1.000000
      * Coulomb:
        alpha                          2.000000
        third order                    shell-resolved
        anisotropic                    true
        a3                             3.000000
        a5                             4.000000
        cn-shift                       1.200000
        cn-exp                         4.000000
        max-rad                        5.000000

      * Solvation model:               ALPB
        Solvent                        ACETONE
        Parameter file                 internal GFN2-xTB/ALPB
        Dielectric constant                2.0700E+01
        Reference state                gsolv [1 M gas/solution]
        Free energy shift                  5.9241E-03 Eh       3.7175E+00 kcal/mol
        Temperature                        2.9815E+02 K
        Density                            7.9000E-01 kg/L
        Solvent mass                       5.8080E+01 g/mol
        Interaction kernel             P16
        Born radius scaling (c1)           1.8274E+00
        Born radii integrator          GBOBC
        Born offset                        0.0000E+00 a0       0.0000E+00 AA
        H-bond correction              true
        Ion screening                  false
        Surface tension                    1.0000E-05 Eh       1.5569E+01 dyn/cm
        Grid points                               230 per atom
q/qsh data taken from xtbrestart
CAMM data taken from xtbrestart

          ...................................................
          :                      SETUP                      :
          :.................................................:
          :  # basis functions                  66          :
          :  # atomic orbitals                  66          :
          :  # shells                           40          :
          :  # electrons                        78          :
          :  max. iterations                   250          :
          :  Hamiltonian                  GFN2-xTB          :
          :  restarted?                       true          :
          :  GBSA solvation                   true          :
          :  PC potential                    false          :
          :  electronic temp.          300.0000000     K    :
          :  accuracy                    0.2000000          :
          :  -> integral cutoff          0.3198970E+02      :
          :  -> integral neglect         0.2000000E-08      :
          :  -> SCF convergence          0.2000000E-06 Eh   :
          :  -> wf. convergence          0.2000000E-04 e    :
          :  Broyden damping             0.4000000          :
          :  net charge                          0          :
          :  unpaired electrons                  0          :
          ...................................................

 iter      E             dE          RMSdq      gap      omega  full diag
   1    -46.8967895 -0.468968E+02  0.714E-03   10.47       0.0  T
   2    -46.8967895 -0.194896E-07  0.436E-03   10.47       4.4  T
   3    -46.8967895 -0.197525E-08  0.562E-04   10.47      34.2  T
   4    -46.8967895 -0.416274E-08  0.206E-04   10.47      93.6  T
   5    -46.8967895 -0.661160E-10  0.696E-05   10.47     276.5  T
   6    -46.8967895 -0.107576E-10  0.234E-05   10.47     823.7  T

   *** convergence criteria satisfied after 6 iterations ***

         #    Occupation            Energy/Eh            Energy/eV
      -------------------------------------------------------------
         1        2.0000           -0.7305547             -19.8794
       ...           ...                  ...                  ...
        33        2.0000           -0.4534954             -12.3402
        34        2.0000           -0.4427993             -12.0492
        35        2.0000           -0.4293642             -11.6836
        36        2.0000           -0.4236298             -11.5276
        37        2.0000           -0.4162126             -11.3257
        38        2.0000           -0.4153987             -11.3036
        39        2.0000           -0.4092619             -11.1366 (HOMO)
        40                         -0.0245605              -0.6683 (LUMO)
        41                         -0.0117788              -0.3205
        42                          0.0154201               0.4196
        43                          0.0355651               0.9678
        44                          0.0508050               1.3825
       ...                                ...                  ...
        66                          0.2869681               7.8088
      -------------------------------------------------------------
                  HL-Gap            0.3847013 Eh           10.4683 eV
             Fermi-level           -0.2169112 Eh           -5.9025 eV

 SCC (total)                   0 d,  0 h,  0 min,  0.015 sec
 SCC setup                      ...        0 min,  0.000 sec (  2.571%)
 Dispersion                     ...        0 min,  0.000 sec (  1.048%)
 classical contributions        ...        0 min,  0.000 sec (  0.169%)
 integral evaluation            ...        0 min,  0.001 sec (  8.566%)
 iterations                     ...        0 min,  0.010 sec ( 67.623%)
 molecular gradient             ...        0 min,  0.003 sec ( 18.974%)
 printout                       ...        0 min,  0.000 sec (  0.877%)

         :::::::::::::::::::::::::::::::::::::::::::::::::::::
         ::                     SUMMARY                     ::
         :::::::::::::::::::::::::::::::::::::::::::::::::::::
         :: total energy             -46.550589946749 Eh    ::
         :: total w/o Gsasa/hb       -46.524945011508 Eh    ::
         :: gradient norm              0.000445143656 Eh/a0 ::
         :: HOMO-LUMO gap             10.468256349140 eV    ::
         ::.................................................::
         :: SCC energy               -46.896580288584 Eh    ::
         :: -> isotropic ES            0.140498056733 Eh    ::
         :: -> anisotropic ES         -0.007282836208 Eh    ::
         :: -> anisotropic XC         -0.008592179783 Eh    ::
         :: -> dispersion             -0.021623755453 Eh    ::
         :: -> Gsolv                  -0.029090922764 Eh    ::
         ::    -> Gelec               -0.003445987523 Eh    ::
         ::    -> Gsasa               -0.020314152787 Eh    ::
         ::    -> Ghb                 -0.011254923718 Eh    ::
         ::    -> Gshift               0.005924141264 Eh    ::
         :: repulsion energy           0.345990341835 Eh    ::
         :: add. restraining           0.000000000000 Eh    ::
         :: total charge              -0.000000000000 e     ::
         :::::::::::::::::::::::::::::::::::::::::::::::::::::


Property printout bound to 'properties.out'

           -------------------------------------------------
          | TOTAL ENERGY              -46.550589946749 Eh   |
          | GRADIENT NORM               0.000445143656 Eh/α |
          | HOMO-LUMO GAP              10.468256349140 eV   |
           -------------------------------------------------

------------------------------------------------------------------------
 * finished run on 2026/03/26 at 13:20:42.063     
------------------------------------------------------------------------
 total:
 * wall-time:     0 d,  0 h,  0 min,  0.025 sec
 *  cpu-time:     0 d,  0 h,  0 min,  0.093 sec
 * ratio c/w:     3.692 speedup
 SCF:
 * wall-time:     0 d,  0 h,  0 min,  0.015 sec
 *  cpu-time:     0 d,  0 h,  0 min,  0.060 sec
 * ratio c/w:     3.973 speedup


-------------------------   --------------------
FINAL SINGLE POINT ENERGY       -46.550589946750
-------------------------   --------------------


-------------
DIPOLE MOMENT
-------------
                                X             Y             Z
Total Dipole Moment    :      1.58500       0.30600      -0.49600
                        -----------------------------------------
Magnitude (a.u.)       :      1.68875
Magnitude (Debye)      :      4.29246


------------------
CARTESIAN GRADIENT
------------------

   1   C   :    0.000160887   -0.000052843    0.000025083
   2   C   :    0.000007019    0.000049509    0.000020127
   3   O   :   -0.000117292   -0.000008055    0.000050364
   4   C   :   -0.000056433   -0.000106638    0.000047810
   5   H   :   -0.000034691    0.000009822   -0.000017637
   6   C   :    0.000100230   -0.000064579   -0.000186756
   7   C   :    0.000003305   -0.000000445    0.000088702
   8   C   :   -0.000048618    0.000127097   -0.000003753
   9   H   :    0.000002599    0.000007950   -0.000003076
  10   O   :    0.000012950    0.000038171    0.000017194
  11   O   :    0.000057637   -0.000033375   -0.000016488
  12   H   :    0.000018824   -0.000056632    0.000012621
  13   O   :   -0.000000037   -0.000041185    0.000057991
  14   H   :   -0.000006433   -0.000006856    0.000008315
  15   H   :   -0.000026815    0.000040819   -0.000015757
  16   O   :    0.000057291    0.000055171   -0.000021019
  17   H   :    0.000036006    0.000015964   -0.000038556
  18   H   :   -0.000024205   -0.000004314   -0.000028411
  19   H   :    0.000018589    0.000019482    0.000001945
  20   H   :   -0.000043347   -0.000003137    0.000027696
  21   H   :   -0.000023391   -0.000015589    0.000010669
  22   O   :   -0.000073931   -0.000033581    0.000028051
  23   H   :   -0.000025087    0.000027434    0.000044412
  24   C   :    0.000027735    0.000049089   -0.000071619
  25   H   :   -0.000003570   -0.000011432    0.000003871
  26   H   :   -0.000005664   -0.000026580   -0.000010139
  27   H   :   -0.000013562    0.000024733   -0.000031639

Difference to translation invariance:
           :   -0.0000000000   -0.0000000000   -0.0000000000

Difference to rotation invariance:
           :   -0.0013642878    0.0004869431    0.0004553491

Norm of the Cartesian gradient     ...    0.0004451437
RMS gradient                       ...    0.0000494604
MAX gradient                       ...    0.0001867564
------------------------------------------------------------------------------
                         ORCA GEOMETRY RELAXATION STEP
------------------------------------------------------------------------------

Reading the OPT-File                    .... done
Getting information on internals        .... done
Copying old internal coords+grads       .... done
Making the new internal coordinates     .... (2022 redundants) done
Validating the new internal coordinates .... (2022 redundants) done
Calculating the B-matrix                .... done
Calculating the G,G- and P matrices     .... done
Transforming gradient to internals      .... done
Projecting the internal gradient        .... done
Number of atoms                         ....  27
Number of internal coordinates          .... 133
Current Energy                          ....   -46.550589947 Eh
Current gradient norm                   ....     0.000445144 Eh/bohr
Maximum allowed component of the step   ....  0.300
Current trust radius                    ....  0.675
Updating the Hessian (BFGS)             .... done
Forming the augmented Hessian           .... done
Diagonalizing the augmented Hessian     .... done
Last element of RFO vector              ....  0.999968727
Lowest eigenvalues of augmented Hessian:
 -0.000000656  0.002766503  0.011309333  0.012871303  0.015687685
Length of the computed step             ....  0.007908845
The final length of the internal step   ....  0.007908845
Converting the step to Cartesian space:
 Initial RMS(Int)=    0.0006857838
Transforming coordinates:
 Iter   0:  RMS(Cart)=    0.0013819368 RMS(Int)=    0.0006858710
done
Storing new coordinates                 .... done
The predicted energy change is          ....    -0.000000328
Previously predicted energy change      ....    -0.000001319
Actually observed energy change         ....    -0.000001670
Ratio of predicted to observed change   ....     1.266016326
New trust radius                        ....     0.675000000

                                .--------------------.
          ----------------------|Geometry convergence|-------------------------
          Item                value                   Tolerance       Converged
          ---------------------------------------------------------------------
          Energy change      -0.0000016701            0.0000050000      YES
          RMS gradient        0.0000232662            0.0001000000      YES
          MAX gradient        0.0000893354            0.0003000000      YES
          RMS step            0.0006857838            0.0020000000      YES
          MAX step            0.0023838809            0.0040000000      YES
          -------------------------------------------------------------------------
          ........................................................
          Max(Bonds)      0.0013      Max(Angles)    0.03
          Max(Dihed)        0.10      Max(Improp)    0.00
          ---------------------------------------------------------------------

                    ***********************HURRAY********************
                    ***        THE OPTIMIZATION HAS CONVERGED     ***
                    *************************************************


    ---------------------------------------------------------------------------
                         Redundant Internal Coordinates

                          --- Optimized Parameters ---  
                            (Angstroem and degrees)

        Definition                    OldVal   dE/dq     Step     FinalVal
    ----------------------------------------------------------------------------
     1. B(C   1,C   0)                1.5356 -0.000052  0.0000    1.5356   
     2. B(O   2,C   0)                1.4152 -0.000089  0.0001    1.4153   
     3. B(C   3,C   0)                1.5360  0.000003 -0.0000    1.5360   
     4. B(H   4,C   0)                1.1016  0.000015 -0.0000    1.1016   
     5. B(C   5,O   2)                1.4085  0.000041 -0.0001    1.4084   
     6. B(C   6,C   5)                1.5368 -0.000004 -0.0001    1.5368   
     7. B(C   7,C   1)                1.5351 -0.000030  0.0001    1.5352   
     8. B(C   7,C   6)                1.5305 -0.000021  0.0000    1.5305   
     9. B(H   8,C   6)                1.1007 -0.000009 -0.0000    1.1007   
    10. B(O   9,C   6)                1.4044 -0.000031  0.0001    1.4045   
    11. B(O  10,C   7)                1.4059  0.000014  0.0000    1.4059   
    12. B(H  11,C   7)                1.1033  0.000004 -0.0000    1.1033   
    13. B(O  12,C   1)                1.4038 -0.000015  0.0001    1.4039   
    14. B(H  13,C   1)                1.1008  0.000001 -0.0000    1.1007   
    15. B(H  14,C   3)                1.0989  0.000040 -0.0001    1.0988   
    16. B(O  15,C   3)                1.4008 -0.000029  0.0000    1.4009   
    17. B(H  16,C   3)                1.0908 -0.000029  0.0000    1.0908   
    18. B(H  17,O   2)                2.3493 -0.000007  0.0013    2.3506   
    19. B(H  17,O  15)                0.9667 -0.000034  0.0000    0.9668   
    20. B(H  18,O  10)                2.4683 -0.000011  0.0012    2.4694   
    21. B(H  18,O  12)                0.9669 -0.000034  0.0000    0.9669   
    22. B(H  19,O   9)                2.4499  0.000015  0.0002    2.4501   
    23. B(H  19,O  10)                0.9664 -0.000036  0.0000    0.9664   
    24. B(H  20,O   9)                0.9665 -0.000028 -0.0000    0.9665   
    25. B(O  21,H  20)                2.4327  0.000005  0.0002    2.4330   
    26. B(O  21,C   5)                1.3844 -0.000045  0.0000    1.3845   
    27. B(H  22,C   5)                1.1127 -0.000050  0.0001    1.1128   
    28. B(C  23,O  21)                1.4209  0.000039 -0.0001    1.4208   
    29. B(H  24,C  23)                1.0913 -0.000005  0.0000    1.0913   
    30. B(H  25,C  23)                1.0952 -0.000007  0.0000    1.0952   
    31. B(H  26,C  23)                1.0872 -0.000009  0.0000    1.0872   
    32. A(C   1,C   0,H   4)          108.04  0.000015    0.00    108.04   
    33. A(O   2,C   0,H   4)          110.16  0.000009   -0.01    110.15   
    34. A(C   3,C   0,H   4)          109.26 -0.000022    0.01    109.27   
    35. A(C   1,C   0,O   2)          111.89  0.000018   -0.00    111.89   
    36. A(O   2,C   0,C   3)          106.57  0.000007   -0.01    106.56   
    37. A(C   1,C   0,C   3)          110.91 -0.000029    0.01    110.92   
    38. A(O  12,C   1,H  13)          110.60 -0.000011    0.00    110.60   
    39. A(C   0,C   1,H  13)          108.92  0.000013   -0.00    108.92   
    40. A(C   0,C   1,O  12)          107.65  0.000003   -0.01    107.64   
    41. A(C   0,C   1,C   7)          110.56 -0.000006    0.01    110.57   
    42. A(C   7,C   1,H  13)          108.30  0.000000   -0.00    108.30   
    43. A(C   7,C   1,O  12)          110.80  0.000000    0.00    110.80   
    44. A(C   0,O   2,C   5)          113.58 -0.000020    0.01    113.59   
    45. A(H  14,C   3,O  15)          110.63 -0.000028    0.01    110.65   
    46. A(C   0,C   3,O  15)          112.18  0.000008   -0.00    112.18   
    47. A(C   0,C   3,H  14)          108.60  0.000020   -0.00    108.60   
    48. A(C   0,C   3,H  16)          108.73 -0.000030    0.00    108.73   
    49. A(O  15,C   3,H  16)          107.14  0.000066   -0.03    107.10   
    50. A(H  14,C   3,H  16)          109.51 -0.000037    0.01    109.52   
    51. A(C   6,C   5,H  22)          109.16  0.000037   -0.01    109.15   
    52. A(O   2,C   5,H  22)          109.02 -0.000002    0.00    109.03   
    53. A(O  21,C   5,H  22)          110.76 -0.000003   -0.01    110.75   
    54. A(C   6,C   5,O  21)          107.65  0.000007   -0.00    107.65   
    55. A(O   2,C   5,C   6)          110.51 -0.000019    0.02    110.53   
    56. A(O   2,C   5,O  21)          109.73 -0.000020    0.00    109.73   
    57. A(C   7,C   6,O   9)          108.26  0.000008   -0.01    108.24   
    58. A(C   5,C   6,O   9)          111.59  0.000001   -0.01    111.59   
    59. A(C   7,C   6,H   8)          109.43  0.000008   -0.00    109.43   
    60. A(C   5,C   6,H   8)          107.93  0.000022   -0.00    107.92   
    61. A(C   5,C   6,C   7)          108.80 -0.000028    0.02    108.82   
    62. A(H   8,C   6,O   9)          110.80 -0.000012   -0.00    110.80   
    63. A(C   1,C   7,C   6)          110.26  0.000004    0.01    110.27   
    64. A(O  10,C   7,H  11)          109.90 -0.000063    0.02    109.92   
    65. A(C   6,C   7,H  11)          108.09  0.000016   -0.00    108.09   
    66. A(C   1,C   7,H  11)          108.78  0.000047   -0.01    108.77   
    67. A(C   6,C   7,O  10)          111.91 -0.000006   -0.01    111.89   
    68. A(C   1,C   7,O  10)          107.87  0.000002   -0.01    107.86   
    69. A(C   6,O   9,H  20)          108.34 -0.000012   -0.00    108.34   
    70. A(C   7,O  10,H  19)          107.94  0.000024   -0.02    107.92   
    71. A(C   1,O  12,H  18)          107.44  0.000013   -0.01    107.43   
    72. A(C   3,O  15,H  17)          107.48 -0.000006   -0.00    107.48   
    73. A(C   5,O  21,C  23)          114.54 -0.000070    0.02    114.56   
    74. A(H  25,C  23,H  26)          110.13  0.000005   -0.01    110.12   
    75. A(H  24,C  23,H  26)          110.15 -0.000010    0.00    110.15   
    76. A(O  21,C  23,H  26)          105.76  0.000037   -0.01    105.75   
    77. A(H  24,C  23,H  25)          109.49  0.000030   -0.00    109.49   
    78. A(O  21,C  23,H  25)          110.39 -0.000028    0.01    110.40   
    79. A(O  21,C  23,H  24)          110.88 -0.000034    0.01    110.89   
    80. D(O  12,C   1,C   0,H   4)    -51.68  0.000018    0.00    -51.68   
    81. D(C   7,C   1,C   0,H   4)     69.47  0.000017    0.00     69.47   
    82. D(O  12,C   1,C   0,C   3)     68.04 -0.000017    0.02     68.06   
    83. D(C   7,C   1,C   0,C   3)   -170.81 -0.000018    0.02   -170.79   
    84. D(O  12,C   1,C   0,O   2)   -173.11 -0.000015    0.01   -173.10   
    85. D(C   7,C   1,C   0,O   2)    -51.96 -0.000016    0.02    -51.94   
    86. D(C   5,O   2,C   0,C   1)     58.39  0.000024   -0.00     58.39   
    87. D(C   5,O   2,C   0,C   3)    179.78  0.000004   -0.00    179.78   
    88. D(C   5,O   2,C   0,H   4)    -61.81 -0.000013    0.00    -61.80   
    89. D(H  14,C   3,C   0,O   2)     65.40 -0.000005   -0.07     65.33   
    90. D(O  15,C   3,C   0,C   1)     64.81  0.000020   -0.09     64.72   
    91. D(H  14,C   3,C   0,H   4)    -53.60 -0.000009   -0.06    -53.66   
    92. D(O  15,C   3,C   0,O   2)    -57.20  0.000011   -0.09    -57.28   
    93. D(O  15,C   3,C   0,H   4)   -176.20  0.000008   -0.08   -176.27   
    94. D(H  14,C   3,C   0,C   1)   -172.59  0.000004   -0.07   -172.66   
    95. D(H  22,C   5,O   2,C   0)     57.96  0.000002    0.02     57.98   
    96. D(O  21,C   5,O   2,C   0)    179.42 -0.000016    0.02    179.44   
    97. D(C   6,C   5,O   2,C   0)    -62.01 -0.000032    0.02    -61.99   
    98. D(H   8,C   6,C   5,H  22)   -179.58  0.000009   -0.08   -179.66   
    99. D(H   8,C   6,C   5,O  21)     60.13 -0.000013   -0.06     60.07   
   100. D(H   8,C   6,C   5,O   2)    -59.69  0.000019   -0.07    -59.75   
   101. D(C   7,C   6,C   5,H  22)    -60.93  0.000016   -0.06    -61.00   
   102. D(C   7,C   6,C   5,O  21)    178.78 -0.000006   -0.05    178.73   
   103. D(C   7,C   6,C   5,O   2)     58.96  0.000026   -0.06     58.91   
   104. D(O  10,C   7,C   1,H  13)     54.30 -0.000008   -0.06     54.24   
   105. D(O  10,C   7,C   1,O  12)    -67.17  0.000005   -0.06    -67.23   
   106. D(O  10,C   7,C   1,C   0)    173.56  0.000005   -0.05    173.51   
   107. D(C   6,C   7,C   1,H  13)    -68.17 -0.000004   -0.05    -68.22   
   108. D(C   6,C   7,C   1,O  12)    170.36  0.000008   -0.05    170.31   
   109. D(C   1,C   7,C   6,C   5)    -54.18 -0.000023    0.07    -54.11   
   110. D(C   6,C   7,C   1,C   0)     51.09  0.000008   -0.04     51.05   
   111. D(O  10,C   7,C   6,O   9)     64.32 -0.000014    0.07     64.39   
   112. D(O  10,C   7,C   6,H   8)    -56.55 -0.000009    0.08    -56.46   
   113. D(O  10,C   7,C   6,C   5)   -174.24 -0.000025    0.07   -174.17   
   114. D(C   1,C   7,C   6,O   9)   -175.62 -0.000012    0.07   -175.55   
   115. D(C   1,C   7,C   6,H   8)     63.52 -0.000007    0.07     63.59   
   116. D(H  20,O   9,C   6,H   8)    -64.99  0.000004   -0.00    -64.99   
   117. D(H  20,O   9,C   6,C   7)    175.01 -0.000004    0.01    175.01   
   118. D(H  20,O   9,C   6,C   5)     55.31  0.000025   -0.01     55.30   
   119. D(H  19,O  10,C   7,H  11)     69.14 -0.000020   -0.01     69.13   
   120. D(H  19,O  10,C   7,C   6)    -50.95  0.000006   -0.02    -50.97   
   121. D(H  19,O  10,C   7,C   1)   -172.41  0.000003   -0.02   -172.42   
   122. D(H  18,O  12,C   1,H  13)    -65.14 -0.000002    0.09    -65.05   
   123. D(H  18,O  12,C   1,C   7)     54.96 -0.000008    0.10     55.05   
   124. D(H  18,O  12,C   1,C   0)    175.96 -0.000013    0.10    176.07   
   125. D(H  17,O  15,C   3,H  16)    172.62  0.000008    0.06    172.68   
   126. D(H  17,O  15,C   3,H  14)    -68.07 -0.000013    0.07    -68.00   
   127. D(H  17,O  15,C   3,C   0)     53.37 -0.000002    0.08     53.45   
   128. D(C  23,O  21,C   5,H  22)     51.25 -0.000032    0.06     51.31   
   129. D(C  23,O  21,C   5,C   6)    170.52  0.000016    0.04    170.56   
   130. D(C  23,O  21,C   5,O   2)    -69.17 -0.000015    0.06    -69.11   
   131. D(H  26,C  23,O  21,C   5)   -178.86 -0.000002   -0.03   -178.88   
   132. D(H  25,C  23,O  21,C   5)    -59.76  0.000010   -0.04    -59.79   
   133. D(H  24,C  23,O  21,C   5)     61.76  0.000006   -0.03     61.73   
    ----------------------------------------------------------------------------

Geometry step timings:
Preparation and reading OPT file:      0.000 s ( 3.700 %)
Internal coordinates            :      0.000 s ( 0.617 %)
B/P matrices and projection     :      0.001 s (23.304 %)
Hessian update/contruction      :      0.001 s (28.216 %)
Making the step                 :      0.001 s (17.755 %)
Converting the step to Cartesian:      0.000 s ( 2.084 %)
Storing new data                :      0.000 s ( 6.039 %)
Checking convergence            :      0.000 s ( 0.872 %)
Final printing                  :      0.001 s (17.393 %)
Total time                      :      0.005 s
                 *******************************************************
                 *** FINAL ENERGY EVALUATION AT THE STATIONARY POINT ***
                 ***               (AFTER    9 CYCLES)               ***
                 *******************************************************
---------------------------------
CARTESIAN COORDINATES (ANGSTROEM)
---------------------------------
  C    -1.200532    0.525398   -0.371353
  C    -1.425777   -0.942299    0.020117
  O    -0.010030    1.044666    0.190932
  C    -2.347731    1.411020    0.137540
  H    -1.157325    0.582478   -1.470608
  C     1.146375    0.331331   -0.179858
  C     1.065761   -1.121039    0.315924
  C    -0.176798   -1.780369   -0.287154
  H     0.973352   -1.099960    1.412569
  O     2.191518   -1.863919   -0.075618
  O    -0.386845   -3.071840    0.227093
  H    -0.042057   -1.828709   -1.381079
  O    -2.531868   -1.411433   -0.706068
  H    -1.621154   -0.997168    1.101984
  H    -2.218465    2.422150   -0.272790
  O    -2.405653    1.449405    1.536680
  H    -3.293418    0.994133   -0.211385
  H    -1.530538    1.707314    1.856505
  H    -2.632647   -2.351830   -0.505059
  H     0.440590   -3.563881    0.142317
  H     2.982459   -1.405327    0.237736
  O     2.260337    0.912234    0.401815
  H     1.234165    0.333973   -1.289190
  C     2.597809    2.191452   -0.116294
  H     1.790844    2.905901    0.055096
  H     2.805855    2.125856   -1.189595
  H     3.491772    2.500465    0.419740

----------------------------
CARTESIAN COORDINATES (A.U.)
----------------------------
  NO LB    ZA    FRAG    MASS        X           Y           Z
   0 C   6.0000    1    12.011   -2.268677    0.992858   -0.701756
   1 C   6.0000    1    12.011   -2.694329   -1.780688    0.038017
   2 O   8.0000    1    15.999   -0.018955    1.974132    0.360809
   3 C   6.0000    1    12.011   -4.436569    2.666441    0.259914
   4 H   1.0000    1     1.008   -2.187028    1.100723   -2.779046
   5 C   6.0000    1    12.011    2.166334    0.626126   -0.339882
   6 C   6.0000    1    12.011    2.013997   -2.118456    0.597010
   7 C   6.0000    1    12.011   -0.334100   -3.364410   -0.542642
   8 H   1.0000    1     1.008    1.839368   -2.078624    2.669368
   9 O   8.0000    1    15.999    4.141370   -3.522297   -0.142898
  10 O   8.0000    1    15.999   -0.731031   -5.804936    0.429143
  11 H   1.0000    1     1.008   -0.079477   -3.455759   -2.609861
  12 O   8.0000    1    15.999   -4.784537   -2.667222   -1.334275
  13 H   1.0000    1     1.008   -3.063536   -1.884375    2.082448
  14 H   1.0000    1     1.008   -4.192291    4.577201   -0.515498
  15 O   8.0000    1    15.999   -4.546024    2.738978    2.903905
  16 H   1.0000    1     1.008   -6.223657    1.878640   -0.399460
  17 H   1.0000    1     1.008   -2.892297    3.226356    3.508286
  18 H   1.0000    1     1.008   -4.974982   -4.444315   -0.954424
  19 H   1.0000    1     1.008    0.832594   -6.734759    0.268939
  20 H   1.0000    1     1.008    5.636032   -2.655683    0.449256
  21 O   8.0000    1    15.999    4.271418    1.723872    0.759320
  22 H   1.0000    1     1.008    2.332234    0.631118   -2.436216
  23 C   6.0000    1    12.011    4.909147    4.141244   -0.219764
  24 H   1.0000    1     1.008    3.384204    5.491356    0.104116
  25 H   1.0000    1     1.008    5.302298    4.017286   -2.248008
  26 H   1.0000    1     1.008    6.598493    4.725194    0.793194

      -----------------------------------------------------------      
     |                   =====================                   |     
     |                           x T B                           |     
     |                   =====================                   |     
     |                         S. Grimme                         |     
     |          Mulliken Center for Theoretical Chemistry        |     
     |                    University of Bonn                     |     
      -----------------------------------------------------------      

   * xtb version 6.7.1 (edcfbbe) compiled by 'albert@albert-system' on 2024-07-22

   xtb is free software: you can redistribute it and/or modify it under
   the terms of the GNU Lesser General Public License as published by
   the Free Software Foundation, either version 3 of the License, or
   (at your option) any later version.
   
   xtb is distributed in the hope that it will be useful,
   but WITHOUT ANY WARRANTY; without even the implied warranty of
   MERCHANTABILITY or FITNESS FOR A PARTICULAR PURPOSE.  See the
   GNU Lesser General Public License for more details.
   
   Cite this work as:
   * C. Bannwarth, E. Caldeweyher, S. Ehlert, A. Hansen, P. Pracht,
     J. Seibert, S. Spicher, S. Grimme, WIREs Comput. Mol. Sci., 2020, 11,
     e01493. DOI: 10.1002/wcms.1493
   
   for GFN2-xTB:
   * C. Bannwarth, S. Ehlert and S. Grimme., J. Chem. Theory Comput., 2019,
     15, 1652-1671. DOI: 10.1021/acs.jctc.8b01176
   for GFN1-xTB:
   * S. Grimme, C. Bannwarth, P. Shushkov, J. Chem. Theory Comput., 2017,
     13, 1989-2009. DOI: 10.1021/acs.jctc.7b00118
   for GFN0-xTB:
   * P. Pracht, E. Caldeweyher, S. Ehlert, S. Grimme, ChemRxiv, 2019, preprint.
     DOI: 10.26434/chemrxiv.8326202.v1
   for GFN-FF:
   * S. Spicher and S. Grimme, Angew. Chem. Int. Ed., 2020, 59, 15665-15673.
     DOI: 10.1002/anie.202004239
   
   for ALPB and GBSA implicit solvation:
   * S. Ehlert, M. Stahn, S. Spicher, S. Grimme, J. Chem. Theory Comput.,
     2021, 17, 4250-4261. DOI: 10.1021/acs.jctc.1c00471
   
   for ddCOSMO and CPCM-X implicit solvation:
   * M. Stahn, S. Ehlert, S. Grimme, J. Phys. Chem. A,
     2023, XX, XXXX-XXXX. DOI: 10.1021/acs.jpca.3c04382
   
   for DFT-D4:
   * E. Caldeweyher, C. Bannwarth and S. Grimme, J. Chem. Phys., 2017,
     147, 034112. DOI: 10.1063/1.4993215
   * E. Caldeweyher, S. Ehlert, A. Hansen, H. Neugebauer, S. Spicher,
     C. Bannwarth and S. Grimme, J. Chem. Phys., 2019, 150, 154122.
     DOI: 10.1063/1.5090222
   * E. Caldeweyher, J.-M. Mewes, S. Ehlert and S. Grimme, Phys. Chem. Chem. Phys.
     2020, 22, 8499-8512. DOI: 10.1039/D0CP00502A
   
   for sTDA-xTB:
   * S. Grimme and C. Bannwarth, J. Chem. Phys., 2016, 145, 054103.
     DOI: 10.1063/1.4959605
   
   in the mass-spec context:
   * V. Asgeirsson, C. Bauer and S. Grimme, Chem. Sci., 2017, 8, 4879.
     DOI: 10.1039/c7sc00601b
   * J. Koopman and S. Grimme, ACS Omega 2019, 4, 12, 15120-15133.
     DOI: 10.1021/acsomega.9b02011
   
   for metadynamics refer to:
   * S. Grimme, J. Chem. Theory Comput., 2019, 155, 2847-2862
     DOI: 10.1021/acs.jctc.9b00143
   
   for SPH calculations refer to:
   * S. Spicher and S. Grimme, J. Chem. Theory Comput., 2021, 17, 1701-1714
     DOI: 10.1021/acs.jctc.0c01306
   
   for ONIOM refer to:
   * C. Plett, A. Katbashev, S. Ehlert, S. Grimme, M. Bursch,
     Phys. Chem. Chem. Phys., 2023, 25, 17860-17868. DOI: 10.1039/D3CP02178E
   
   for DIPRO refer to:
   * J. Kohn, N. Gildemeister, S. Grimme, D. Fazzi, A. Hansen,
     J. Chem. Phys., 2023, just accepted.
   
   for PTB refer to:
   * S. Grimme, M. Mueller, A. Hansen, J. Chem. Phys., 2023, 158, 124111.
     DOI: 10.1063/5.0137838
   
   with help from (in alphabetical order)
   P. Atkinson, C. Bannwarth, F. Bohle, G. Brandenburg, E. Caldeweyher
   M. Checinski, S. Dohm, S. Ehlert, S. Ehrlich, I. Gerasimov, C. Hölzer
   A. Katbashev, J. Kohn, J. Koopman, C. Lavigne, S. Lehtola, F. März, M. Müller,
   F. Musil, H. Neugebauer, J. Pisarek, C. Plett, P. Pracht, F. Pultar,
   J. Seibert, P. Shushkov, S. Spicher, M. Stahn, M. Steiner, T. Strunk,
   J. Stückrath, T. Rose, and J. Unsleber
   
 * started run on 2026/03/26 at 13:20:42.085     
   ID    Z sym.   atoms
    1    6 C      1, 2, 4, 6-8, 24
    2    8 O      3, 10, 11, 13, 16, 22
    3    1 H      5, 9, 12, 14, 15, 17-21, 23, 25-27

           -------------------------------------------------
          |                Calculation Setup                |
           -------------------------------------------------

          program call               : /home/kmoult/orca_6_1/otool_xtb goat_0_XTB.xyz --grad -c 0 -u 0 -P 4 --namespace goat_0 --input goat_0_XTB.input.tmp --alpb ACETONE --acc 0.200000
          hostname                   : node1619
          calculation namespace      : goat_0
          coordinate file            : goat_0_XTB.xyz
          omp threads                :                     4


           -------------------------------------------------
          |                 G F N 2 - x T B                 |
           -------------------------------------------------

        Reference                      10.1021/acs.jctc.8b01176
      * Hamiltonian:
        H0-scaling (s, p, d)           1.850000    2.230000    2.230000
        zeta-weighting                 0.500000
      * Dispersion:
        s8                             2.700000
        a1                             0.520000
        a2                             5.000000
        s9                             5.000000
      * Repulsion:
        kExp                           1.500000    1.000000
        rExp                           1.000000
      * Coulomb:
        alpha                          2.000000
        third order                    shell-resolved
        anisotropic                    true
        a3                             3.000000
        a5                             4.000000
        cn-shift                       1.200000
        cn-exp                         4.000000
        max-rad                        5.000000

      * Solvation model:               ALPB
        Solvent                        ACETONE
        Parameter file                 internal GFN2-xTB/ALPB
        Dielectric constant                2.0700E+01
        Reference state                gsolv [1 M gas/solution]
        Free energy shift                  5.9241E-03 Eh       3.7175E+00 kcal/mol
        Temperature                        2.9815E+02 K
        Density                            7.9000E-01 kg/L
        Solvent mass                       5.8080E+01 g/mol
        Interaction kernel             P16
        Born radius scaling (c1)           1.8274E+00
        Born radii integrator          GBOBC
        Born offset                        0.0000E+00 a0       0.0000E+00 AA
        H-bond correction              true
        Ion screening                  false
        Surface tension                    1.0000E-05 Eh       1.5569E+01 dyn/cm
        Grid points                               230 per atom
q/qsh data taken from xtbrestart
CAMM data taken from xtbrestart

          ...................................................
          :                      SETUP                      :
          :.................................................:
          :  # basis functions                  66          :
          :  # atomic orbitals                  66          :
          :  # shells                           40          :
          :  # electrons                        78          :
          :  max. iterations                   250          :
          :  Hamiltonian                  GFN2-xTB          :
          :  restarted?                       true          :
          :  GBSA solvation                   true          :
          :  PC potential                    false          :
          :  electronic temp.          300.0000000     K    :
          :  accuracy                    0.2000000          :
          :  -> integral cutoff          0.3198970E+02      :
          :  -> integral neglect         0.2000000E-08      :
          :  -> SCF convergence          0.2000000E-06 Eh   :
          :  -> wf. convergence          0.2000000E-04 e    :
          :  Broyden damping             0.4000000          :
          :  net charge                          0          :
          :  unpaired electrons                  0          :
          ...................................................

 iter      E             dE          RMSdq      gap      omega  full diag
   1    -46.8967716 -0.468968E+02  0.350E-03   10.47       0.0  T
   2    -46.8967716 -0.277031E-08  0.212E-03   10.47       9.1  T
   3    -46.8967716 -0.401883E-09  0.216E-04   10.47      88.9  T
   4    -46.8967716 -0.591299E-09  0.943E-05   10.47     204.0  T
   5    -46.8967716 -0.170104E-10  0.314E-05   10.47     612.7  T

   *** convergence criteria satisfied after 5 iterations ***

         #    Occupation            Energy/Eh            Energy/eV
      -------------------------------------------------------------
         1        2.0000           -0.7305477             -19.8792
       ...           ...                  ...                  ...
        33        2.0000           -0.4534991             -12.3403
        34        2.0000           -0.4427849             -12.0488
        35        2.0000           -0.4293407             -11.6830
        36        2.0000           -0.4236317             -11.5276
        37        2.0000           -0.4162089             -11.3256
        38        2.0000           -0.4153965             -11.3035
        39        2.0000           -0.4092758             -11.1370 (HOMO)
        40                         -0.0245802              -0.6689 (LUMO)
        41                         -0.0117648              -0.3201
        42                          0.0154590               0.4207
        43                          0.0355202               0.9666
        44                          0.0508265               1.3831
       ...                                ...                  ...
        66                          0.2869423               7.8081
      -------------------------------------------------------------
                  HL-Gap            0.3846956 Eh           10.4681 eV
             Fermi-level           -0.2169280 Eh           -5.9029 eV

 SCC (total)                   0 d,  0 h,  0 min,  0.026 sec
 SCC setup                      ...        0 min,  0.000 sec (  1.478%)
 Dispersion                     ...        0 min,  0.000 sec (  0.598%)
 classical contributions        ...        0 min,  0.000 sec (  0.090%)
 integral evaluation            ...        0 min,  0.001 sec (  4.831%)
 iterations                     ...        0 min,  0.021 sec ( 81.395%)
 molecular gradient             ...        0 min,  0.003 sec ( 10.989%)
 printout                       ...        0 min,  0.000 sec (  0.528%)

         :::::::::::::::::::::::::::::::::::::::::::::::::::::
         ::                     SUMMARY                     ::
         :::::::::::::::::::::::::::::::::::::::::::::::::::::
         :: total energy             -46.550590378104 Eh    ::
         :: total w/o Gsasa/hb       -46.524945563778 Eh    ::
         :: gradient norm              0.000242666437 Eh/a0 ::
         :: HOMO-LUMO gap             10.468099601504 eV    ::
         ::.................................................::
         :: SCC energy               -46.896562378308 Eh    ::
         :: -> isotropic ES            0.140501135745 Eh    ::
         :: -> anisotropic ES         -0.007278413561 Eh    ::
         :: -> anisotropic XC         -0.008589334206 Eh    ::
         :: -> dispersion             -0.021622834628 Eh    ::
         :: -> Gsolv                  -0.029090321343 Eh    ::
         ::    -> Gelec               -0.003445507017 Eh    ::
         ::    -> Gsasa               -0.020314452299 Eh    ::
         ::    -> Ghb                 -0.011254503290 Eh    ::
         ::    -> Gshift               0.005924141264 Eh    ::
         :: repulsion energy           0.345972000204 Eh    ::
         :: add. restraining           0.000000000000 Eh    ::
         :: total charge              -0.000000000000 e     ::
         :::::::::::::::::::::::::::::::::::::::::::::::::::::


Property printout bound to 'properties.out'

           -------------------------------------------------
          | TOTAL ENERGY              -46.550590378104 Eh   |
          | GRADIENT NORM               0.000242666437 Eh/α |
          | HOMO-LUMO GAP              10.468099601504 eV   |
           -------------------------------------------------

------------------------------------------------------------------------
 * finished run on 2026/03/26 at 13:20:42.122     
------------------------------------------------------------------------
 total:
 * wall-time:     0 d,  0 h,  0 min,  0.036 sec
 *  cpu-time:     0 d,  0 h,  0 min,  0.125 sec
 * ratio c/w:     3.458 speedup
 SCF:
 * wall-time:     0 d,  0 h,  0 min,  0.026 sec
 *  cpu-time:     0 d,  0 h,  0 min,  0.091 sec
 * ratio c/w:     3.536 speedup


-------------------------   --------------------
FINAL SINGLE POINT ENERGY       -46.550590378100
-------------------------   --------------------


-------------
DIPOLE MOMENT
-------------
                                X             Y             Z
Total Dipole Moment    :      1.58300       0.30700      -0.49400
                        -----------------------------------------
Magnitude (a.u.)       :      1.68647
Magnitude (Debye)      :      4.28666

                                *** OPTIMIZATION RUN DONE ***

		     ------------------------------
			                   _   
			                  | |  
			  __ _  ___   __ _| |_ 
			 / _` |/ _ \ / _` | __|
			| (_| | (_) | (_| | |_ 
			 \__, |\___/ \__,_|\__|
			 __/ |                
			|___/                 

		      A Global Optimizer Algorithm
		     ------------------------------

Global parameters
-----------------
  GOAT version                               ... default
  Minimum global steps                       ... 3
  Number of base workers                     ... 4
  Split workers by                           ... 2
  Final number of workers                    ... 8
  Number of available CPUs                   ... 4
  Parameter list (worker : temperature)      ...  0 : 2903.97,  1 : 1451.98, 
                                                  2 :  725.99,  3 :  363.00, 
                                                  4 : 2903.97,  5 : 1451.98, 
                                                  6 :  725.99,  7 :  363.00 
  GradComp (mean : sigma)                    ... 1.00 : 0.50
  Number of fragments                        ... 1
  Number of atoms                            ... 27
  Flexibility parameter                      ... 0.77
  Optimizations per global step              ... 424
  Optimizations per worker                   ... 53

Filtering criteria
------------------
  RMSD                                       ... 0.125 Angs (atom. pos.)
  EnDiff                                     ... 0.100 kcal/mol
  RotConst                                   ... 1.00-2.50 %
  Maximum Conf. Energy                       ... 6.000 kcal/mol

Thermodynamics
--------------
  Ensemble temperature                       ... 298.15 K
  Degeneracy of conformers                   ... 1
  *No rotamers will be included in Gconf

------------------------------------------------------------------------------
   Iter  MinTemp     MaxEn       GradComp    NOpt   NProcs    Output
------------------------------------------------------------------------------
List of participating nodes    ...  goat_0.goat.0.hostnames

   0     2903.97     81.00    1.00 : 0.50      53        1    goat_0.goat.0.0.out
   1     1451.98     81.00    1.00 : 0.50      53        1    goat_0.goat.0.1.out
   3      363.00     81.00    1.00 : 0.50      53        1    goat_0.goat.0.3.out
   2      725.99     81.00    1.00 : 0.50      53        1    goat_0.goat.0.2.out
   4     2903.97     81.00    1.00 : 0.50      53        1    goat_0.goat.0.4.out
   5     1451.98     81.00    1.00 : 0.50      53        1    goat_0.goat.0.5.out
   6      725.99     81.00    1.00 : 0.50      53        1    goat_0.goat.0.6.out
   7      363.00     81.00    1.00 : 0.50      53        1    goat_0.goat.0.7.out

			     GOAT Global Iter 1
		Iter    Min En       Sconf       Gconf   
		        Hartree      cal/(molK)  kcal/mol
		=========================================

		   1    -46.551780   6.030       -0.762

List of participating nodes    ...  goat_0.goat.1.hostnames

   2      725.99     81.00    1.00 : 0.50      53        1    goat_0.goat.1.2.out
   1     1451.98     81.00    1.00 : 0.50      53        1    goat_0.goat.1.1.out
   3      363.00     81.00    1.00 : 0.50      53        1    goat_0.goat.1.3.out
   0     2903.97     81.00    1.00 : 0.50      53        1    goat_0.goat.1.0.out
   4     2903.97     81.00    1.00 : 0.50      53        1    goat_0.goat.1.4.out
   5     1451.98     81.00    1.00 : 0.50      53        1    goat_0.goat.1.5.out
   6      725.99     81.00    1.00 : 0.50      53        1    goat_0.goat.1.6.out
   7      363.00     81.00    1.00 : 0.50      53        1    goat_0.goat.1.7.out

			     GOAT Global Iter 2
		Iter    Min En       Sconf       Gconf   
		        Hartree      cal/(molK)  kcal/mol
		=========================================

		   1    -46.551780   6.030       -0.762
		   2    -46.551780   6.956       -0.877

List of participating nodes    ...  goat_0.goat.2.hostnames

   3      363.00     81.00    1.00 : 0.50      53        1    goat_0.goat.2.3.out
   1     1451.98     81.00    1.00 : 0.50      53        1    goat_0.goat.2.1.out
   2      725.99     81.00    1.00 : 0.50      53        1    goat_0.goat.2.2.out
   0     2903.97     81.00    1.00 : 0.50      53        1    goat_0.goat.2.0.out
   4     2903.97     81.00    1.00 : 0.50      53        1    goat_0.goat.2.4.out
   5     1451.98     81.00    1.00 : 0.50      53        1    goat_0.goat.2.5.out
   6      725.99     81.00    1.00 : 0.50      53        1    goat_0.goat.2.6.out
   7      363.00     81.00    1.00 : 0.50      53        1    goat_0.goat.2.7.out

			     GOAT Global Iter 3
		Iter    Min En       Sconf       Gconf   
		        Hartree      cal/(molK)  kcal/mol
		=========================================

		   1    -46.551780   6.030       -0.762
		   2    -46.551780   6.956       -0.877
		   3    -46.551782   7.231       -0.903

		Global minimum found!
		Writing structure to goat_0.globalminimum.xyz

		# Final ensemble info #
		Conformer     Energy     Degen.   % total   % cumul.  
		              (kcal/mol)
		------------------------------------------------------
		        0     0.000	     1      21.77      21.77
		        1     0.692	     1       6.77      28.54
		        2     0.728	     1       6.37      34.90
		        3     0.885	     1       4.89      39.79
		        4     0.925	     1       4.57      44.36
		        5     0.976	     1       4.19      48.55
		        6     1.076	     1       3.54      52.09
		        7     1.220	     1       2.78      54.87
		        8     1.240	     1       2.69      57.56
		        9     1.263	     1       2.58      60.14
		       10     1.385	     1       2.10      62.24
		       11     1.520	     1       1.67      63.91
		       12     1.557	     1       1.57      65.48
		       13     1.568	     1       1.54      67.03
		       14     1.617	     1       1.42      68.45
		       15     1.682	     1       1.27      69.72
		       16     1.690	     1       1.26      70.98
		       17     1.697	     1       1.24      72.22
		       18     1.708	     1       1.22      73.44
		       19     1.801	     1       1.04      74.48
		       20     1.808	     1       1.03      75.51
		       21     1.882	     1       0.91      76.41
		       22     1.945	     1       0.82      77.23
		       23     1.949	     1       0.81      78.04
		       24     1.956	     1       0.80      78.84
		       25     2.053	     1       0.68      79.52
		       26     2.062	     1       0.67      80.19
		       27     2.085	     1       0.64      80.84
		       28     2.113	     1       0.62      81.45
		       29     2.133	     1       0.59      82.05
		       30     2.134	     1       0.59      82.64
		       31     2.141	     1       0.59      83.23
		       32     2.227	     1       0.51      83.74
		       33     2.236	     1       0.50      84.24
		       34     2.282	     1       0.46      84.70
		       35     2.287	     1       0.46      85.16
		       36     2.288	     1       0.46      85.62
		       37     2.359	     1       0.41      86.02
		       38     2.417	     1       0.37      86.39
		       39     2.431	     1       0.36      86.75
		       40     2.472	     1       0.34      87.08
		       41     2.486	     1       0.33      87.41
		       42     2.489	     1       0.33      87.74
		       43     2.491	     1       0.32      88.06
		       44     2.519	     1       0.31      88.37
		       45     2.533	     1       0.30      88.68
		       46     2.573	     1       0.28      88.96
		       47     2.608	     1       0.27      89.23
		       48     2.610	     1       0.27      89.49
		       49     2.647	     1       0.25      89.74
		       50     2.674	     1       0.24      89.98
		       51     2.674	     1       0.24      90.22
		       52     2.677	     1       0.24      90.46
		       53     2.698	     1       0.23      90.69
		       54     2.702	     1       0.23      90.91
		       55     2.719	     1       0.22      91.13
		       56     2.722	     1       0.22      91.35
		       57     2.733	     1       0.22      91.57
		       58     2.766	     1       0.20      91.77
		       59     2.781	     1       0.20      91.97
		       60     2.783	     1       0.20      92.17
		       61     2.802	     1       0.19      92.36
		       62     2.813	     1       0.19      92.55
		       63     2.827	     1       0.18      92.74
		       64     2.836	     1       0.18      92.92
		       65     2.867	     1       0.17      93.09
		       66     2.901	     1       0.16      93.25
		       67     2.912	     1       0.16      93.41
		       68     2.913	     1       0.16      93.57
		       69     2.921	     1       0.16      93.73
		       70     2.933	     1       0.15      93.88
		       71     2.939	     1       0.15      94.04
		       72     2.964	     1       0.15      94.18
		       73     2.978	     1       0.14      94.33
		       74     2.986	     1       0.14      94.47
		       75     2.989	     1       0.14      94.61
		       76     3.000	     1       0.14      94.74
		       77     3.017	     1       0.13      94.88
		       78     3.036	     1       0.13      95.01
		       79     3.048	     1       0.13      95.14
		       80     3.089	     1       0.12      95.25
		       81     3.093	     1       0.12      95.37
		       82     3.126	     1       0.11      95.48
		       83     3.137	     1       0.11      95.59
		       84     3.149	     1       0.11      95.70
		       85     3.171	     1       0.10      95.80
		       86     3.193	     1       0.10      95.90
		       87     3.204	     1       0.10      96.00
		       88     3.207	     1       0.10      96.10
		       89     3.239	     1       0.09      96.19
		       90     3.240	     1       0.09      96.28
		       91     3.258	     1       0.09      96.37
		       92     3.287	     1       0.08      96.45
		       93     3.291	     1       0.08      96.54
		       94     3.293	     1       0.08      96.62
		       95     3.338	     1       0.08      96.70
		       96     3.372	     1       0.07      96.77
		       97     3.372	     1       0.07      96.85
		       98     3.373	     1       0.07      96.92
		       99     3.393	     1       0.07      96.99
		      100     3.402	     1       0.07      97.06
		      101     3.406	     1       0.07      97.13
		      102     3.458	     1       0.06      97.19
		      103     3.462	     1       0.06      97.26
		      104     3.492	     1       0.06      97.32
		      105     3.504	     1       0.06      97.38
		      106     3.539	     1       0.06      97.43
		      107     3.582	     1       0.05      97.48
		      108     3.590	     1       0.05      97.53
		      109     3.598	     1       0.05      97.58
		      110     3.602	     1       0.05      97.63
		      111     3.615	     1       0.05      97.68
		      112     3.618	     1       0.05      97.73
		      113     3.624	     1       0.05      97.78
		      114     3.641	     1       0.05      97.83
		      115     3.643	     1       0.05      97.87
		      116     3.643	     1       0.05      97.92
		      117     3.653	     1       0.05      97.96
		      118     3.699	     1       0.04      98.01
		      119     3.700	     1       0.04      98.05
		      120     3.706	     1       0.04      98.09
		      121     3.721	     1       0.04      98.13
		      122     3.729	     1       0.04      98.17
		      123     3.769	     1       0.04      98.21
		      124     3.794	     1       0.04      98.24
		      125     3.796	     1       0.04      98.28
		      126     3.813	     1       0.03      98.32
		      127     3.820	     1       0.03      98.35
		      128     3.826	     1       0.03      98.38
		      129     3.831	     1       0.03      98.42
		      130     3.839	     1       0.03      98.45
		      131     3.855	     1       0.03      98.48
		      132     3.865	     1       0.03      98.52
		      133     3.867	     1       0.03      98.55
		      134     3.880	     1       0.03      98.58
		      135     3.935	     1       0.03      98.61
		      136     3.948	     1       0.03      98.64
		      137     3.950	     1       0.03      98.66
		      138     3.964	     1       0.03      98.69
		      139     3.968	     1       0.03      98.72
		      140     3.993	     1       0.03      98.74
		      141     4.007	     1       0.03      98.77
		      142     4.030	     1       0.02      98.79
		      143     4.038	     1       0.02      98.82
		      144     4.054	     1       0.02      98.84
		      145     4.062	     1       0.02      98.86
		      146     4.081	     1       0.02      98.88
		      147     4.096	     1       0.02      98.91
		      148     4.107	     1       0.02      98.93
		      149     4.124	     1       0.02      98.95
		      150     4.138	     1       0.02      98.97
		      151     4.140	     1       0.02      98.99
		      152     4.157	     1       0.02      99.01
		      153     4.159	     1       0.02      99.03
		      154     4.166	     1       0.02      99.05
		      155     4.169	     1       0.02      99.07
		      156     4.172	     1       0.02      99.08
		      157     4.180	     1       0.02      99.10
		      158     4.198	     1       0.02      99.12
		      159     4.211	     1       0.02      99.14
		      160     4.211	     1       0.02      99.16
		      161     4.226	     1       0.02      99.17
		      162     4.233	     1       0.02      99.19
		      163     4.237	     1       0.02      99.21
		      164     4.238	     1       0.02      99.23
		      165     4.248	     1       0.02      99.24
		      166     4.250	     1       0.02      99.26
		      167     4.259	     1       0.02      99.28
		      168     4.260	     1       0.02      99.29
		      169     4.264	     1       0.02      99.31
		      170     4.272	     1       0.02      99.32
		      171     4.291	     1       0.02      99.34
		      172     4.299	     1       0.02      99.36
		      173     4.300	     1       0.02      99.37
		      174     4.306	     1       0.02      99.39
		      175     4.331	     1       0.01      99.40
		      176     4.334	     1       0.01      99.41
		      177     4.354	     1       0.01      99.43
		      178     4.359	     1       0.01      99.44
		      179     4.362	     1       0.01      99.46
		      180     4.365	     1       0.01      99.47
		      181     4.368	     1       0.01      99.48
		      182     4.387	     1       0.01      99.50
		      183     4.399	     1       0.01      99.51
		      184     4.424	     1       0.01      99.52
		      185     4.427	     1       0.01      99.54
		      186     4.437	     1       0.01      99.55
		      187     4.468	     1       0.01      99.56
		      188     4.470	     1       0.01      99.57
		      189     4.474	     1       0.01      99.58
		      190     4.476	     1       0.01      99.59
		      191     4.489	     1       0.01      99.60
		      192     4.492	     1       0.01      99.62
		      193     4.495	     1       0.01      99.63
		      194     4.521	     1       0.01      99.64
		      195     4.540	     1       0.01      99.65
		      196     4.546	     1       0.01      99.66
		      197     4.566	     1       0.01      99.67
		      198     4.600	     1       0.01      99.68
		      199     4.624	     1       0.01      99.69
		      200     4.672	     1       0.01      99.69
		      201     4.690	     1       0.01      99.70
		      202     4.710	     1       0.01      99.71
		      203     4.712	     1       0.01      99.72
		      204     4.731	     1       0.01      99.72
		      205     4.771	     1       0.01      99.73
		      206     4.775	     1       0.01      99.74
		      207     4.780	     1       0.01      99.74
		      208     4.795	     1       0.01      99.75
		      209     4.814	     1       0.01      99.76
		      210     4.833	     1       0.01      99.76
		      211     4.845	     1       0.01      99.77
		      212     4.858	     1       0.01      99.78
		      213     4.875	     1       0.01      99.78
		      214     4.920	     1       0.01      99.79
		      215     4.927	     1       0.01      99.79
		      216     4.937	     1       0.01      99.80
		      217     4.951	     1       0.01      99.80
		      218     4.977	     1       0.00      99.81
		      219     4.979	     1       0.00      99.81
		      220     4.993	     1       0.00      99.82
		      221     5.005	     1       0.00      99.82
		      222     5.017	     1       0.00      99.83
		      223     5.031	     1       0.00      99.83
		      224     5.034	     1       0.00      99.84
		      225     5.039	     1       0.00      99.84
		      226     5.073	     1       0.00      99.84
		      227     5.076	     1       0.00      99.85
		      228     5.123	     1       0.00      99.85
		      229     5.129	     1       0.00      99.86
		      230     5.131	     1       0.00      99.86
		      231     5.135	     1       0.00      99.86
		      232     5.173	     1       0.00      99.87
		      233     5.174	     1       0.00      99.87
		      234     5.188	     1       0.00      99.87
		      235     5.200	     1       0.00      99.88
		      236     5.202	     1       0.00      99.88
		      237     5.204	     1       0.00      99.88
		      238     5.227	     1       0.00      99.89
		      239     5.262	     1       0.00      99.89
		      240     5.271	     1       0.00      99.89
		      241     5.273	     1       0.00      99.90
		      242     5.276	     1       0.00      99.90
		      243     5.281	     1       0.00      99.90
		      244     5.284	     1       0.00      99.91
		      245     5.293	     1       0.00      99.91
		      246     5.327	     1       0.00      99.91
		      247     5.338	     1       0.00      99.91
		      248     5.347	     1       0.00      99.92
		      249     5.348	     1       0.00      99.92
		      250     5.358	     1       0.00      99.92
		      251     5.373	     1       0.00      99.92
		      252     5.377	     1       0.00      99.93
		      253     5.384	     1       0.00      99.93
		      254     5.399	     1       0.00      99.93
		      255     5.400	     1       0.00      99.93
		      256     5.414	     1       0.00      99.94
		      257     5.436	     1       0.00      99.94
		      258     5.467	     1       0.00      99.94
		      259     5.485	     1       0.00      99.94
		      260     5.491	     1       0.00      99.94
		      261     5.491	     1       0.00      99.95
		      262     5.495	     1       0.00      99.95
		      263     5.509	     1       0.00      99.95
		      264     5.516	     1       0.00      99.95
		      265     5.520	     1       0.00      99.95
		      266     5.588	     1       0.00      99.96
		      267     5.596	     1       0.00      99.96
		      268     5.604	     1       0.00      99.96
		      269     5.628	     1       0.00      99.96
		      270     5.657	     1       0.00      99.96
		      271     5.670	     1       0.00      99.96
		      272     5.679	     1       0.00      99.97
		      273     5.697	     1       0.00      99.97
		      274     5.701	     1       0.00      99.97
		      275     5.702	     1       0.00      99.97
		      276     5.731	     1       0.00      99.97
		      277     5.742	     1       0.00      99.97
		      278     5.746	     1       0.00      99.97
		      279     5.748	     1       0.00      99.98
		      280     5.756	     1       0.00      99.98
		      281     5.761	     1       0.00      99.98
		      282     5.767	     1       0.00      99.98
		      283     5.776	     1       0.00      99.98
		      284     5.783	     1       0.00      99.98
		      285     5.800	     1       0.00      99.98
		      286     5.837	     1       0.00      99.98
		      287     5.853	     1       0.00      99.99
		      288     5.855	     1       0.00      99.99
		      289     5.857	     1       0.00      99.99
		      290     5.873	     1       0.00      99.99
		      291     5.878	     1       0.00      99.99
		      292     5.885	     1       0.00      99.99
		      293     5.901	     1       0.00      99.99
		      294     5.940	     1       0.00      99.99
		      295     5.945	     1       0.00      99.99
		      296     5.945	     1       0.00      99.99
		      297     5.960	     1       0.00     100.00
		      298     5.962	     1       0.00     100.00
		      299     5.975	     1       0.00     100.00
		      300     5.990	     1       0.00     100.00
		      301     5.994	     1       0.00     100.00
		      302     5.996	     1       0.00     100.00

		Conformers below 3 kcal/mol: 76
		Lowest energy conformer    : -46.551782 Eh
		Sconf at 298.15 K          :  7.23 cal/(molK)
		Gconf at 298.15 K          : -0.90 kcal/mol

		Writing final ensemble to goat_0.finalensemble.xyz

--------------------------------
SUGGESTED CITATIONS FOR THIS RUN
--------------------------------

Below you find a list of papers that are relevant to this ORCA run
We neither can nor want to force you to cite these papers, but we appreciate if you do
You receive ORCA, which is the product of decades of hard work by many enthusiastic individuals, for free
The only thing we kindly ask in return is that you cite our papers,
We deeply appreciate it, if you show your appreciation for ORCA by not just citing the generic ORCA reference.

Please note that relegating all ORCA citations to the supporting information does *not* help us.
SI sections are not indexed - citations you put there will not count into any citation statistics
But we need these citations in order to attract the funding resources that allow us to do what we are doing

Therefore, if you are a happy ORCA user, please consider citing a few of the papers listed below in the main body of your paper

In addition to the list printed below, the program has created the file goat_0.bibtex that contains the list in bibtex format
You can import this file easily into all common literature databanks and citation aid programs


List of essential papers. We consider these as the minimum necessary citations

  1. Bannwarth, C.; Ehlert, S.; Grimme, S.
     GFN2-xTB—An Accurate and Broadly Parametrized Self-Consistent Tight-Binding Quantum Chemical Method with Multipole Electrostatics and Density-Dependent Dispersion Contributions
     J. Chem. Theory Comput. 2019 15(3), 1652-1671
     doi.org/10.1021/acs.jctc.8b01176
  2. Neese, F.
     Software update: the ORCA program system, version 6.0
     WIRES Comput. Molec. Sci. 2025 15(1), e70019
     doi.org/10.1002/wcms.7019
  3. de Souza, B.
     GOAT: A Global Optimization Algorithm for Molecules and Atomic Clusters
     Angewandte Chemie 2025 64(18), e202500393
     doi.org/10.1002/anie.202500393

List of papers to cite with high priority. The work reported in these papers was absolutely
necessary for this run to complete.
Our perspective: the developers of density functionals and basis sets usually get cited in chemistry papers
Good! But without the algorithms to do something with them, the functionals or basis sets would not do anything.
Hence, in our opinion, the algorithm design and method developments papers are equally worthy of getting cited

  1. Bannwarth, C.; Caldeweyher, E.; Ehlert, S.; Hansen, A.; Pracht, P.; Seibert, J.; Spicher, S.; Grimme, S.
     Extended tight-binding quantum chemistry methods
     WIRES Comput. Molec. Sci. 2020 11(2), e1493
     doi.org/10.1002/wcms.1493

List of suggested additional citations. These are papers that are important in the 'surrounding' of 
of this run, or papers that preceded the highly important papers. If you like your results we are grateful for a citation.

  1. Neese, F.
     The ORCA program system
     WIRES Comput. Molec. Sci. 2012 2(1), 73-78
     doi.org/10.1002/wcms.81
  2. Neese, F.
     Software update: the ORCA program system, version 4.0
     WIRES Comput. Molec. Sci. 2018 8(1), 1-6
     doi.org/10.1002/wcms.1327
  3. Neese, F.; Wennmohs, F.; Becker, U.; Riplinger, C.
     The ORCA quantum chemistry program package
     J. Chem. Phys. 2020 152(22), 224108
     doi.org/10.1063/5.0004608
  4. Neese, F.
     Software update: The ORCA program system—Version 5.0
     WIRES Comput. Molec. Sci. 2022 12(1), e1606
     doi.org/10.1002/wcms.1606

List of optional additional citations

  1. Neese, F.
     Approximate second-order SCF convergence for spin unrestricted wavefunctions
     Chem. Phys. Lett. 2000 325(1-3), 93-98
     doi.org/10.1016/s0009-2614(00)00662-x

Timings for individual modules:

Sum of individual times          ...    19070.085 sec (= 317.835 min)
Geometry relaxation              ...        0.078 sec (=   0.001 min)   0.0 %
GOAT                             ...    19069.376 sec (= 317.823 min) 100.0 %
XTB module                       ...        0.631 sec (=   0.011 min)   0.0 %
                             ****ORCA TERMINATED NORMALLY****
TOTAL RUN TIME: 0 days 5 hours 17 minutes 54 seconds 203 msec
