
                                 *****************
                                 * O   R   C   A *
                                 *****************

                                            #,                                       
                                            ###                                      
                                            ####                                     
                                            #####                                    
                                            ######                                   
                                           ########,                                 
                                     ,,################,,,,,                         
                               ,,#################################,,                 
                          ,,##########################################,,             
                       ,#########################################, ''#####,          
                    ,#############################################,,   '####,        
                  ,##################################################,,,,####,       
                ,###########''''           ''''###############################       
              ,#####''   ,,,,##########,,,,          '''####'''          '####       
            ,##' ,,,,###########################,,,                        '##       
           ' ,,###''''                  '''############,,,                           
         ,,##''                                '''############,,,,        ,,,,,,###''
      ,#''                                            '''#######################'''  
     '                                                          ''''####''''         
             ,#######,   #######,   ,#######,      ##                                
            ,#'     '#,  ##    ##  ,#'     '#,    #''#        ,####,    ,#,          
            ##       ##  ##   ,#'  ##            #'  '#       #'       ,# #          
            ##       ##  #######   ##           ,######,      #####,      #          
            '#,     ,#'  ##    ##  '#,     ,#' ,#      #,     #,   #      #          
             '#######'   ##     ##  '#######'  #'      '#     '####' #    #          



                #########################################################
                #                        -***-                          #
                #          Department of theory and spectroscopy        #
                #                                                       #
                #                      Frank Neese                      #
                #                                                       #
                #     Directorship, Architecture, Infrastructure        #
                #                    SHARK, DRIVERS                     #
                #        Core code/Algorithms in most modules           #
                #                                                       #
                #        Max Planck Institute fuer Kohlenforschung      #
                #                Kaiser Wilhelm Platz 1                 #
                #                 D-45470 Muelheim/Ruhr                 #
                #                      Germany                          #
                #                                                       #
                #                  All rights reserved                  #
                #                        -***-                          #
                #########################################################


                         Program Version 6.1.0  -  RELEASE   -
                                (GIT: $679e74b$)
                          ($2025-06-10 18:02:51 +0200$)


 With contributions from (in alphabetic order):
[Max-Planck-Institut fuer Kohlenforschung]                               
  Daniel Aravena         : Magnetic Suceptibility                        
  Michael Atanasov       : Ab Initio Ligand Field Theory (pilot matlab implementation)
  Alexander A. Auer      : GIAO ZORA, VPT2 properties, NMR spectrum      
  Ute Becker             : All parallelization in ORCA, NUMFREQ, NUMCALC 
  Giovanni Bistoni       : ED, misc. LED, open-shell LED, HFLD           
  Dmytro Bykov           : pre 5.0 version of the SCF Hessian            
  Marcos Casanova-Páez   : Triplet and SCS-CIS(D). UHF-(DLPNO)-IP/EA/STEOM-CCSD. UHF-CVS-IP/STEOM-CCSD   
  Vijay G. Chilkuri      : MRCI spin determinant printing, contributions to CSF-ICE 
  Pauline Colinet        : FMM embedding                                 
  Dipayan Datta          : RHF DLPNO-CCSD density                        
  Achintya Kumar Dutta   : EOM-CC, STEOM-CC                              
  Nicolas Foglia         : Exact transition moments, OPA infrastructure, MCD improvements    
  Dmitry Ganyushin       : Spin-Orbit,Spin-Spin,Magnetic field MRCI      
  Miquel Garcia-Rates    : C-PCM and meta-GGA Hessian, CCSD/C-PCM, Gaussian charge scheme 
  Tiago L. C. Gouveia    : GS-ROHF, GS-ROCIS                             
  Yang Guo               : DLPNO-NEVPT2, F12-NEVPT2, CIM, IAO-localization        
  Andreas Hansen         : Spin unrestricted coupled pair/coupled cluster methods 
  Ingolf Harden          : AUTO-CI MPn and infrastructure                
  Benjamin Helmich-Paris : MC-RPA, TRAH-(SCF,CASSCF), AVAS, COSX integrals, SCF dyn. polar., MC-PDFT, srDFT 
  Lee Huntington         : MR-EOM, pCC                                   
  Robert Izsak           : Overlap fitted RIJCOSX, COSX-SCS-MP3, EOM     
  Riya Kayal             : Wick's Theorem for AUTO-CI, AUTO-CI UHF-CCSDT 
  Emily Kempfer          : AUTO-CI RHF CISDT and CCSDT, approximate NEVPT4
  Christian Kollmar      : KDIIS, OOCD, Brueckner-CCSD(T), CCSD density, CASPT2, CASPT2-K, improved NEVPT2 
  Axel Koslowski         : Symmetry handling                             
  Simone Kossmann        : meta-GGA functionals, TD-DFT gradient, OOMP2, (MP2 Hessian; deprecated post 5.0) 
  Lucas Lang             : DCDCAS, Hyperfine gauge corrections, ICE-SOC+SSC
  Marvin Lechner         : AUTO-CI (C++ implementation), FIC-MRCC        
  Spencer Leger          : CASSCF response                               
  Dagmar Lenk            : GEPOL surface, SMD, ORCA-2-JSON               
  Dimitrios Liakos       : Extrapolation schemes; Compound Job, Property file
  Dimitrios Manganas     : Further ROCIS development; embedding schemes. LFT, Crystal Embedding 
  Dimitrios Pantazis     : SARC Basis sets                               
  Anastasios Papadopoulos: AUTO-CI, single reference methods and gradients 
  Taras Petrenko         : pre 6.0 DFT Hessian and TD-DFT gradient,  ECA, NRVS 
  Petra Pikulova         : Analytic Raman intensities                    
  Peter Pinski           : DLPNO-MP2, DLPNO-MP2 Gradient                 
  Shashank Vittal Rao    : ES-AILFT, MagRelax                            
  Christoph Reimann      : Effective Core Potentials                     
  Marius Retegan         : Local ZFS, SOC                                
  Christoph Riplinger    : Optimizer, TS searches, QM/MM, DLPNO-CCSD(T), (RO)-DLPNO pert. Triples 
  Michael Roemelt        : Original ROCIS implementation, recursive CI coupling coefficients
  Masaaki Saitow         : Open-shell DLPNO-CCSD energy and density      
  Barbara Sandhoefer     : DKH picture change effects                    
  Yorick L. A. Schmerwitz: GMF and freeze-and-release deltaSCF, NEB S-IDPP initial path                    
  Kantharuban Sivalingam : CASSCF convergence/infrastructure, NEVPT2, NEVPT3, NEVPT4(SD), FIC-MRCI and CEPA variants
  Bernardo de Souza      : ESD, SOC TD-DFT                               
  Georgi L. Stoychev     : AutoAux, RI-MP2 NMR, DLPNO-MP2 response, X2C  
  Van Anh Tran           : RI-MP2 g-tensors                              
  Willem Van den Heuvel  : Paramagnetic NMR                              
  Zikuan Wang            : NOTCH, Electric field optimization            
  Frank Wennmohs         : Technical directorship and infrastructure     
  Hang Xu                : AUTO-CI-Response properties                   
                                                                         
[FACCTs GmbH]                                                            
  Markus Bursch, Nicolas Foglia, Miquel Garcia-Rates, Ingolf Harden, Hagen Neugebauer, Anastasios Papadopoulos, 
  Christoph Riplinger, Bernardo de Souza, Georgi L. Stoychev                                                    
                                                                 
  APM, various basis sets, CI-OPT, improved COSX, DLPNO-Multilevel,           
  DOCKER, DRACO, updates on ESD, Fragmentator, GOAT, IRC, LR-CPCM, L-BFGS, MBIS, meta-GGA TD-DFT gradient, ML-optimized integration grids, 
  MM, NACMEs, nearIR, NEB, NEB-TS, NL-DFT gradient (VV10), 2- and 3-layer-ONIOM, interface openCOSMO-RS, QMMM,   
  Crystal-QMMM, RESP, rigid body optimization, SF, symmetry and pop. for TD-DFT, various functionals, SOLVATOR                                   
                                                                         
[Other institutions]                                                     
  V. Asgeirsson          : NEB                                           
  Christoph Bannwarth    : sTDA-DFT, sTD-DFT, PBEh-3c, B97-3c, D3        
  Giovanni Bistoni       : ETS/NOCV, ADLD/ADEX, COVALED                  
  Martin Brehm           : Molecular dynamics                            
  Ronald Cardenas        : ETS/NOCV                                      
  Martina Colucci        : COVALED                                       
  Sebastian Ehlert       : rSCAN, r2SCAN, r2SCAN-3c, D4, dhf basis sets  
  Marvin Friede          : D4 for Fr, Ra, Ac-Lr                          
  Lars Goerigk           : TD-DFT with DH, B97 family of functionals     
  Stefan Grimme          : VdW corrections, initial TS optimization, DFT functionals, gCP, sTDA/sTD-DF 
  Waldemar Hujo          : DFT-NL                                        
  H. Jonsson             : NEB                                           
  Holger Kruse           : gCP                                           
  Marcel Mueller         : wB97X-3c, vDZP basis set                      
  Hagen Neugebauer       : wr2SCAN, Native XTB                           
  Gianluca Regni         : ADLD/ADEX                                     
  Tobias Risthaus        : pre 6.0 range-separated hybrid DFT and stability analysis
  Lukas Wittmann         : regularized MP2, r2SCAN double-hybrids, wr2SCAN        
                                                                         
We gratefully acknowledge several colleagues who have allowed us to      
interface, adapt or use parts of their codes:                            
  Ed Valeev, F. Pavosevic, A. Kumar             : LibInt (2-el integral package), F12 methods 
  Garnet Chan, S. Sharma, J. Yang, R. Olivares  : DMRG                   
  Ulf Ekstrom                                   : XCFun DFT Library      
  Mihaly Kallay                                 : mrcc  (arbitrary order and MRCC methods)
  Frank Weinhold                                : gennbo (NPA and NBO analysis)           
  Simon Mueller                                 : openCOSMO-RS                            
  Christopher J. Cramer and Donald G. Truhlar   : smd solvation model                     
  S Lehtola, MJT Oliveira, MAL Marques          : LibXC Library                           
  Liviu Ungur et al                             : ANISO software                          


 Your calculation uses the libint2 library for the computation of 2-el integrals
 For citations please refer to: http://libint.valeyev.net

 Your ORCA version has been built with support for libXC version: 7.0.0
 For citations please refer to: https://libxc.gitlab.io

 This ORCA versions uses:
   CBLAS   interface :  Fast vector & matrix operations
   LAPACKE interface :  Fast linear algebra routines
   SCALAPACK package :  Parallel linear algebra routines
   Shared memory     :  Shared parallel matrices
   BLAS/LAPACK       :  OpenBLAS 0.3.29  USE64BITINT DYNAMIC_ARCH NO_AFFINITY Cooperlake SINGLE_THREADED
        Core in use  :  Cooperlake
   Copyright (c) 2011-2014, The OpenBLAS Project


  ***********************************
  * Starting time: Wed Sep 10 11:36:44 2025
  * Host name:     node1600
  * Process ID:    1571293
  * Working dir.:  /orcd/home/002/kmoult/learning_mannose/C6OTBS/goat search
  ***********************************

Your calculation utilizes the semiempirical GFN2-xTB method
Please cite in your paper:
Bannwarth, C.; Ehlert S.; Grimme, S. J. Chem. Theory Comput. 2019, 15, 1652.
   

================================================================================

================================================================================
                                        WARNINGS
                       Please study these warnings very carefully!
================================================================================


================================================================================
 STARTING AUTOMATIC FRAGMENTATION: 
================================================================================

WARNING: Geometry Optimization
  ===> : Switching off AutoStart
         For restart on a previous wavefunction, please use MOREAD

WARNING: Found dipole moment calculation with XTB calculation
  ===> : Switching off dipole moment calculation


================================================================================
                                       INPUT FILE
================================================================================
NAME = goat_0.inp
|  1> ! xtb alpb(acetone) goat PAL4
|  2> 
|  3> *xyz 0 1
|  4> O         -1.26871        2.08309        0.14545
|  5> C          0.12593        1.80977        0.03680
|  6> H          0.48261        1.65078        1.06231
|  7> C          0.42609        0.53365       -0.76884
|  8> H         -0.24927       -0.27486       -0.46815
|  9> O          1.76040        0.08639       -0.44522
| 10> C          0.35710        0.72489       -2.29763
| 11> H          0.98843       -0.05214       -2.74945
| 12> C         -1.03882        0.49824       -2.91641
| 13> O         -2.06955        1.16884       -2.19952
| 14> Si        -3.66701        1.06580       -2.71694
| 15> C         -4.49357       -0.72063       -2.06845
| 16> C         -3.99667       -0.99783       -0.63426
| 17> C         -6.03201       -0.60254       -2.07788
| 18> C         -4.06437       -1.86827       -3.00447
| 19> C         -4.67265        2.45141       -1.92888
| 20> C         -3.85195        1.15110       -4.57928
| 21> O          0.97084        1.93964       -2.76271
| 22> C          0.64329        3.13791       -2.06223
| 23> H          1.34360        3.89766       -2.43225
| 24> O         -0.68063        3.58775       -2.32379
| 25> C         -0.83069        4.06930       -3.65261
| 26> C          0.88762        3.00643       -0.54428
| 27> H          0.56440        3.92312       -0.03678
| 28> O          2.29535        2.82004       -0.28484
| 29> H         -1.63268        2.11118       -0.76657
| 30> H          2.33449        0.88256       -0.45755
| 31> H         -1.02474        0.83880       -3.95889
| 32> H         -1.24006       -0.57866       -2.89866
| 33> H         -4.27754       -0.19125        0.05239
| 34> H         -2.90591       -1.09920       -0.59979
| 35> H         -4.42691       -1.92841       -0.24697
| 36> H         -6.38285        0.16956       -1.38437
| 37> H         -6.49552       -1.54791       -1.77304
| 38> H         -6.41049       -0.35391       -3.07576
| 39> H         -2.97777       -1.99205       -3.02840
| 40> H         -4.40494       -1.69961       -4.03201
| 41> H         -4.49293       -2.82036       -2.67047
| 42> H         -4.67509        2.35230       -0.83961
| 43> H         -5.70706        2.43353       -2.28338
| 44> H         -4.24037        3.42350       -2.18411
| 45> H         -3.30142        0.34295       -5.06918
| 46> H         -3.46680        2.10232       -4.95873
| 47> H         -4.90412        1.07078       -4.86779
| 48> H         -1.87195        4.37271       -3.79089
| 49> H         -0.59740        3.28934       -4.38300
| 50> H         -0.19163        4.94203       -3.81791
| 51> H          2.74176        3.65284       -0.52285
| 52> **                         ****END OF INPUT****
================================================================================

                       *****************************
                       * Geometry Optimization Run *
                       *****************************


                       *********************************
                       *              GOAT             *
                       * Global Optimization Algorithm *
                       *********************************

Geometry optimization settings:
Update method            Update   .... BFGS
Choice of coordinates    CoordSys .... (2022) Redundant Internals
Initial Hessian          InHess   .... Almloef's Model
Max. no of cycles        MaxIter  .... 144

Convergence Tolerances:
Energy Change            TolE     ....  5.0000e-06 Eh
Max. Gradient            TolMAXG  ....  3.0000e-04 Eh/bohr
RMS Gradient             TolRMSG  ....  1.0000e-04 Eh/bohr
Max. Displacement        TolMAXD  ....  4.0000e-03 bohr
RMS Displacement         TolRMSD  ....  2.0000e-03 bohr
Strict Convergence                .... True

------------------------------------------------------------------------------
                        ORCA OPTIMIZATION COORDINATE SETUP
------------------------------------------------------------------------------

The optimization will be done in redundant internal coordinates (2022)
Making redundant internal coordinates   ...  (2022 redundants) done
Evaluating the initial hessian          ...  (Almloef) done
Evaluating the coordinates              ...  done
Calculating the B-matrix                .... done
Calculating the G-matrix                .... done
The number of degrees of freedom        ....  234

    -----------------------------------------------------------------
                    Redundant Internal Coordinates


    -----------------------------------------------------------------
         Definition                    Initial Value    Approx d2E/dq
    -----------------------------------------------------------------
      1. B(C   1,O   0)                  1.4253         0.491506   
      2. B(H   2,C   1)                  1.0973         0.350512   
      3. B(C   3,C   1)                  1.5387         0.361808   
      4. B(H   4,C   3)                  1.0955         0.352842   
      5. B(O   5,C   3)                  1.4440         0.458893   
      6. B(C   6,C   3)                  1.5422         0.357137   
      7. B(H   7,C   6)                  1.0984         0.349151   
      8. B(C   8,C   6)                  1.5436         0.355305   
      9. B(O   9,C   8)                  1.4234         0.494998   
     10. B(Si 10,O   9)                  1.6823         0.831119   
     11. B(C  11,Si 10)                  2.0725         0.221360   
     12. B(C  12,C  11)                  1.5429         0.356237   
     13. B(C  13,C  11)                  1.5430         0.356160   
     14. B(C  14,C  11)                  1.5419         0.357609   
     15. B(C  15,Si 10)                  1.8847         0.441142   
     16. B(C  16,Si 10)                  1.8734         0.459844   
     17. B(O  17,C   6)                  1.4383         0.468682   
     18. B(C  18,O  17)                  1.4261         0.490063   
     19. B(H  19,C  18)                  1.0975         0.350277   
     20. B(O  20,C  18)                  1.4225         0.496602   
     21. B(C  21,O  20)                  1.4213         0.498764   
     22. B(C  22,C  18)                  1.5431         0.356023   
     23. B(C  22,C   1)                  1.5329         0.369599   
     24. B(H  23,C  22)                  1.0965         0.351582   
     25. B(O  24,C  22)                  1.4435         0.459712   
     26. B(H  25,O   0)                  0.9824         0.478942   
     27. B(H  25,O  20)                  2.3477         0.010000   
     28. B(H  25,O   9)                  1.7698         0.026545   
     29. B(H  26,O   5)                  0.9816         0.480221   
     30. B(H  26,O  24)                  1.9456         0.013918   
     31. B(H  27,C   8)                  1.0968         0.351231   
     32. B(H  28,C   8)                  1.0957         0.352657   
     33. B(H  29,C  12)                  1.0959         0.352408   
     34. B(H  30,C  12)                  1.0960         0.352246   
     35. B(H  31,C  12)                  1.0959         0.352330   
     36. B(H  32,C  13)                  1.0955         0.352860   
     37. B(H  33,C  13)                  1.0961         0.352086   
     38. B(H  34,C  13)                  1.0958         0.352478   
     39. B(H  35,C  14)                  1.0939         0.354992   
     40. B(H  36,C  14)                  1.0956         0.352807   
     41. B(H  37,C  14)                  1.0962         0.351967   
     42. B(H  38,C  15)                  1.0938         0.355144   
     43. B(H  39,C  15)                  1.0936         0.355349   
     44. B(H  40,C  15)                  1.0941         0.354769   
     45. B(H  41,C  16)                  1.0937         0.355231   
     46. B(H  42,C  16)                  1.0941         0.354665   
     47. B(H  43,C  16)                  1.0940         0.354898   
     48. B(H  44,C  21)                  1.0933         0.355703   
     49. B(H  45,C  21)                  1.0937         0.355208   
     50. B(H  46,C  21)                  1.0942         0.354524   
     51. B(H  47,O  24)                  0.9744         0.493136   
     52. A(C   1,O   0,H  25)          107.2920         0.350806   
     53. A(H   2,C   1,C   3)          107.8026         0.321198   
     54. A(O   0,C   1,H   2)          105.9375         0.335822   
     55. A(C   3,C   1,C  22)          110.6109         0.360713   
     56. A(O   0,C   1,C  22)          111.4319         0.377826   
     57. A(O   0,C   1,C   3)          112.9434         0.376436   
     58. A(H   2,C   1,C  22)          107.8093         0.322320   
     59. A(H   4,C   3,O   5)          106.2325         0.332381   
     60. A(C   1,C   3,C   6)          114.0445         0.358611   
     61. A(C   1,C   3,H   4)          110.3708         0.321546   
     62. A(C   1,C   3,O   5)          108.6502         0.372004   
     63. A(O   5,C   3,C   6)          107.5717         0.371173   
     64. A(H   4,C   3,C   6)          109.6338         0.320863   
     65. A(C   3,O   5,H  26)          106.6408         0.346925   
     66. A(H   7,C   6,C   8)          104.5371         0.320043   
     67. A(C   3,C   6,C   8)          114.8095         0.357507   
     68. A(C   3,C   6,H   7)          107.1168         0.320312   
     69. A(C   3,C   6,O  17)          113.9653         0.372524   
     70. A(C   8,C   6,O  17)          112.3507         0.372194   
     71. A(H   7,C   6,O  17)          102.6621         0.332965   
     72. A(H  27,C   8,H  28)          108.8407         0.288757   
     73. A(C   6,C   8,O   9)          112.5675         0.375718   
     74. A(C   6,C   8,H  27)          108.8933         0.320354   
     75. A(O   9,C   8,H  28)          108.7774         0.336559   
     76. A(O   9,C   8,H  27)          109.9816         0.336333   
     77. A(C   6,C   8,H  28)          107.6923         0.320566   
     78. A(C   8,O   9,Si 10)          120.2549         0.469419   
     79. A(C  15,Si 10,C  16)          109.2386         0.451500   
     80. A(C  11,Si 10,C  16)          108.1153         0.399116   
     81. A(O   9,Si 10,C  16)          113.3713         0.504650   
     82. A(C  11,Si 10,C  15)          106.8621         0.396216   
     83. A(O   9,Si 10,C  15)          109.4524         0.500762   
     84. A(O   9,Si 10,C  11)          109.5889         0.441259   
     85. A(C  12,C  11,C  14)          109.9323         0.357746   
     86. A(C  13,C  11,C  14)          109.3169         0.357733   
     87. A(Si 10,C  11,C  13)          109.2549         0.354639   
     88. A(Si 10,C  11,C  14)          109.9141         0.354883   
     89. A(Si 10,C  11,C  12)          108.4982         0.354652   
     90. A(C  12,C  11,C  13)          109.9091         0.357500   
     91. A(H  29,C  12,H  31)          107.6332         0.288866   
     92. A(C  11,C  12,H  31)          110.7690         0.320655   
     93. A(H  29,C  12,H  30)          107.6643         0.288855   
     94. A(C  11,C  12,H  30)          111.4912         0.320642   
     95. A(C  11,C  12,H  29)          111.5704         0.320666   
     96. A(H  30,C  12,H  31)          107.5207         0.288845   
     97. A(H  32,C  13,H  33)          107.2397         0.288893   
     98. A(C  11,C  13,H  33)          110.7265         0.320607   
     99. A(C  11,C  13,H  32)          111.6769         0.320722   
    100. A(C  11,C  13,H  34)          111.5489         0.320666   
    101. A(H  33,C  13,H  34)          107.6309         0.288844   
    102. A(H  32,C  13,H  34)          107.8149         0.288943   
    103. A(H  36,C  14,H  37)          107.3340         0.288871   
    104. A(H  35,C  14,H  37)          107.2611         0.289150   
    105. A(C  11,C  14,H  37)          110.6503         0.320802   
    106. A(H  35,C  14,H  36)          107.7998         0.289258   
    107. A(C  11,C  14,H  36)          111.6077         0.320927   
    108. A(C  11,C  14,H  35)          111.9630         0.321252   
    109. A(H  39,C  15,H  40)          108.2178         0.289555   
    110. A(H  38,C  15,H  40)          108.2835         0.289529   
    111. A(H  38,C  15,H  39)          108.6163         0.289603   
    112. A(Si 10,C  15,H  39)          110.9238         0.357418   
    113. A(Si 10,C  15,H  38)          110.5472         0.357382   
    114. A(Si 10,C  15,H  40)          110.1725         0.357318   
    115. A(H  42,C  16,H  43)          108.1155         0.289484   
    116. A(H  41,C  16,H  43)          108.1647         0.289557   
    117. A(Si 10,C  16,H  43)          110.7180         0.359874   
    118. A(H  41,C  16,H  42)          108.0508         0.289527   
    119. A(Si 10,C  16,H  41)          111.2193         0.359932   
    120. A(Si 10,C  16,H  42)          110.4617         0.359834   
    121. A(C   6,O  17,C  18)          116.9246         0.391068   
    122. A(O  17,C  18,H  19)          105.6339         0.335620   
    123. A(O  20,C  18,C  22)          110.8047         0.376059   
    124. A(H  19,C  18,C  22)          106.8337         0.320317   
    125. A(O  17,C  18,C  22)          112.0376         0.375199   
    126. A(H  19,C  18,O  20)          108.2377         0.336361   
    127. A(O  17,C  18,O  20)          112.9018         0.395050   
    128. A(C  18,O  20,C  21)          112.1668         0.396271   
    129. A(H  44,C  21,H  46)          108.4068         0.289569   
    130. A(H  45,C  21,H  46)          110.0786         0.289506   
    131. A(O  20,C  21,H  46)          110.4743         0.337281   
    132. A(H  44,C  21,H  45)          108.4559         0.289657   
    133. A(O  20,C  21,H  45)          111.1131         0.337389   
    134. A(O  20,C  21,H  44)          108.2287         0.337468   
    135. A(H  23,C  22,O  24)          108.1933         0.332282   
    136. A(C  18,C  22,O  24)          110.0116         0.371087   
    137. A(C   1,C  22,O  24)          108.3997         0.373487   
    138. A(C  18,C  22,H  23)          109.7174         0.320512   
    139. A(C   1,C  22,H  23)          109.3117         0.322481   
    140. A(C   1,C  22,C  18)          111.1450         0.359723   
    141. A(C  22,O  24,H  47)          107.0086         0.348584   
    142. D(H   2,C   1,O   0,H  25)   -172.6544         0.019079   
    143. D(C  22,C   1,O   0,H  25)     70.3579         0.019079   
    144. D(C   3,C   1,O   0,H  25)    -54.8693         0.019079   
    145. D(H   4,C   3,C   1,C  22)   -169.9290         0.010495   
    146. D(O   5,C   3,C   1,C  22)     73.9650         0.010495   
    147. D(O   5,C   3,C   1,H   2)    -43.6785         0.010495   
    148. D(H   4,C   3,C   1,H   2)     72.4275         0.010495   
    149. D(O   5,C   3,C   1,O   0)   -160.3647         0.010495   
    150. D(H   4,C   3,C   1,O   0)    -44.2586         0.010495   
    151. D(H  26,O   5,C   3,H   4)   -163.5971         0.016589   
    152. D(H  26,O   5,C   3,C   6)     79.0620         0.016589   
    153. D(H  26,O   5,C   3,C   1)    -44.8526         0.016589   
    154. D(H   7,C   6,C   3,O   5)     34.9401         0.010245   
    155. D(H   7,C   6,C   3,H   4)    -80.1657         0.010245   
    156. D(H   7,C   6,C   3,C   1)    155.5108         0.010245   
    157. D(C   8,C   6,C   3,H   4)     35.4101         0.010245   
    158. D(C   8,C   6,C   3,C   1)    -88.9135         0.010245   
    159. D(C   8,C   6,C   3,O   5)    150.5158         0.010245   
    160. D(H  27,C   8,C   6,O  17)     37.0678         0.010147   
    161. D(H  27,C   8,C   6,H   7)    -73.5090         0.010147   
    162. D(H  27,C   8,C   6,C   3)    169.4364         0.010147   
    163. D(O   9,C   8,C   6,O  17)    -85.1651         0.010147   
    164. D(O   9,C   8,C   6,C   3)     47.2035         0.010147   
    165. D(O   9,C   8,C   6,H   7)    164.2581         0.010147   
    166. D(Si 10,O   9,C   8,H  27)     57.7404         0.020999   
    167. D(Si 10,O   9,C   8,C   6)    179.3569         0.020999   
    168. D(Si 10,O   9,C   8,H  28)    -61.3745         0.020999   
    169. D(C  16,Si 10,O   9,C   8)    -39.9790         0.010000   
    170. D(C  15,Si 10,O   9,C   8)   -162.2083         0.010000   
    171. D(C  11,Si 10,O   9,C   8)     80.9059         0.010000   
    172. D(C  12,C  11,Si 10,O   9)     39.7362         0.010000   
    173. D(C  13,C  11,Si 10,C  16)    -76.4305         0.010000   
    174. D(C  13,C  11,Si 10,C  15)     41.0483         0.010000   
    175. D(C  13,C  11,Si 10,O   9)    159.5527         0.010000   
    176. D(C  12,C  11,Si 10,C  16)    163.7531         0.010000   
    177. D(C  12,C  11,Si 10,C  15)    -78.7682         0.010000   
    178. D(H  30,C  12,C  11,C  14)     58.9120         0.010197   
    179. D(H  30,C  12,C  11,C  13)    179.2814         0.010197   
    180. D(H  30,C  12,C  11,Si 10)    -61.3116         0.010197   
    181. D(H  29,C  12,C  11,C  14)    179.3315         0.010197   
    182. D(H  29,C  12,C  11,C  13)    -60.2991         0.010197   
    183. D(H  29,C  12,C  11,Si 10)     59.1079         0.010197   
    184. D(H  33,C  13,C  11,C  14)     57.6355         0.010193   
    185. D(H  33,C  13,C  11,C  12)    -63.1056         0.010193   
    186. D(H  33,C  13,C  11,Si 10)    177.9508         0.010193   
    187. D(H  32,C  13,C  11,C  12)     56.3270         0.010193   
    188. D(H  32,C  13,C  11,Si 10)    -62.6166         0.010193   
    189. D(H  32,C  13,C  11,C  14)    177.0681         0.010193   
    190. D(H  36,C  14,C  11,C  13)     59.1991         0.010270   
    191. D(H  36,C  14,C  11,C  12)    179.9260         0.010270   
    192. D(H  36,C  14,C  11,Si 10)    -60.7119         0.010270   
    193. D(H  35,C  14,C  11,C  13)   -179.8531         0.010270   
    194. D(H  35,C  14,C  11,C  12)    -59.1261         0.010270   
    195. D(H  35,C  14,C  11,Si 10)     60.2360         0.010270   
    196. D(H  39,C  15,Si 10,C  16)     52.8536         0.010000   
    197. D(H  39,C  15,Si 10,C  11)    -63.8834         0.010000   
    198. D(H  39,C  15,Si 10,O   9)    177.5233         0.010000   
    199. D(H  38,C  15,Si 10,C  16)    173.4039         0.010000   
    200. D(H  38,C  15,Si 10,C  11)     56.6669         0.010000   
    201. D(H  38,C  15,Si 10,O   9)    -61.9264         0.010000   
    202. D(H  41,C  16,Si 10,C  15)   -178.4799         0.010000   
    203. D(H  41,C  16,Si 10,C  11)    -62.5405         0.010000   
    204. D(H  41,C  16,Si 10,O   9)     59.1720         0.010000   
    205. D(H  42,C  16,Si 10,C  15)     61.5433         0.010000   
    206. D(H  42,C  16,Si 10,C  11)    177.4827         0.010000   
    207. D(H  42,C  16,Si 10,O   9)    -60.8048         0.010000   
    208. D(C  18,O  17,C   6,C   8)     85.8530         0.017313   
    209. D(C  18,O  17,C   6,H   7)   -162.3984         0.017313   
    210. D(C  18,O  17,C   6,C   3)    -46.9321         0.017313   
    211. D(C  22,C  18,O  17,C   6)     53.4312         0.018964   
    212. D(O  20,C  18,O  17,C   6)    -72.5114         0.018964   
    213. D(H  19,C  18,O  17,C   6)    169.3886         0.018964   
    214. D(C  21,O  20,C  18,C  22)    163.7807         0.021141   
    215. D(C  21,O  20,C  18,H  19)     46.9484         0.021141   
    216. D(C  21,O  20,C  18,O  17)    -69.6175         0.021141   
    217. D(H  46,C  21,O  20,C  18)    -62.8775         0.021332   
    218. D(H  45,C  21,O  20,C  18)     59.6022         0.021332   
    219. D(H  44,C  21,O  20,C  18)    178.5788         0.021332   
    220. D(H  23,C  22,C  18,O  20)    -49.3342         0.010185   
    221. D(H  23,C  22,C  18,H  19)     68.3590         0.010185   
    222. D(H  23,C  22,C  18,O  17)   -176.4131         0.010185   
    223. D(C   1,C  22,C  18,O  20)     71.6821         0.010185   
    224. D(C   1,C  22,C  18,H  19)   -170.6247         0.010185   
    225. D(C   1,C  22,C  18,O  17)    -55.3967         0.010185   
    226. D(H  23,C  22,C   1,C   3)    173.0021         0.010922   
    227. D(H  23,C  22,C   1,H   2)    -69.3586         0.010922   
    228. D(H  23,C  22,C   1,O   0)     46.4861         0.010922   
    229. D(C  18,C  22,C   1,C   3)     51.7477         0.010922   
    230. D(C  18,C  22,C   1,H   2)    169.3871         0.010922   
    231. D(C  18,C  22,C   1,O   0)    -74.7683         0.010922   
    232. D(H  47,O  24,C  22,H  23)    -52.1249         0.018040   
    233. D(H  47,O  24,C  22,C  18)     67.7198         0.018040   
    234. D(H  47,O  24,C  22,C   1)   -170.5619         0.018040   
    -----------------------------------------------------------------

Number of atoms                         .... 48
Number of degrees of freedom            .... 234


         *************************************************************
         *                GEOMETRY OPTIMIZATION CYCLE   1            *
         *************************************************************
---------------------------------
CARTESIAN COORDINATES (ANGSTROEM)
---------------------------------
  O    -1.268710    2.083090    0.145450
  C     0.125930    1.809770    0.036800
  H     0.482610    1.650780    1.062310
  C     0.426090    0.533650   -0.768840
  H    -0.249270   -0.274860   -0.468150
  O     1.760400    0.086390   -0.445220
  C     0.357100    0.724890   -2.297630
  H     0.988430   -0.052140   -2.749450
  C    -1.038820    0.498240   -2.916410
  O    -2.069550    1.168840   -2.199520
  Si   -3.667010    1.065800   -2.716940
  C    -4.493570   -0.720630   -2.068450
  C    -3.996670   -0.997830   -0.634260
  C    -6.032010   -0.602540   -2.077880
  C    -4.064370   -1.868270   -3.004470
  C    -4.672650    2.451410   -1.928880
  C    -3.851950    1.151100   -4.579280
  O     0.970840    1.939640   -2.762710
  C     0.643290    3.137910   -2.062230
  H     1.343600    3.897660   -2.432250
  O    -0.680630    3.587750   -2.323790
  C    -0.830690    4.069300   -3.652610
  C     0.887620    3.006430   -0.544280
  H     0.564400    3.923120   -0.036780
  O     2.295350    2.820040   -0.284840
  H    -1.632680    2.111180   -0.766570
  H     2.334490    0.882560   -0.457550
  H    -1.024740    0.838800   -3.958890
  H    -1.240060   -0.578660   -2.898660
  H    -4.277540   -0.191250    0.052390
  H    -2.905910   -1.099200   -0.599790
  H    -4.426910   -1.928410   -0.246970
  H    -6.382850    0.169560   -1.384370
  H    -6.495520   -1.547910   -1.773040
  H    -6.410490   -0.353910   -3.075760
  H    -2.977770   -1.992050   -3.028400
  H    -4.404940   -1.699610   -4.032010
  H    -4.492930   -2.820360   -2.670470
  H    -4.675090    2.352300   -0.839610
  H    -5.707060    2.433530   -2.283380
  H    -4.240370    3.423500   -2.184110
  H    -3.301420    0.342950   -5.069180
  H    -3.466800    2.102320   -4.958730
  H    -4.904120    1.070780   -4.867790
  H    -1.871950    4.372710   -3.790890
  H    -0.597400    3.289340   -4.383000
  H    -0.191630    4.942030   -3.817910
  H     2.741760    3.652840   -0.522850

----------------------------
CARTESIAN COORDINATES (A.U.)
----------------------------
  NO LB    ZA    FRAG    MASS        X           Y           Z
   0 O   8.0000    1    15.999   -2.397514    3.936470    0.274861
   1 C   6.0000    1    12.011    0.237973    3.419970    0.069542
   2 H   1.0000    1     1.008    0.912001    3.119522    2.007475
   3 C   6.0000    1    12.011    0.805193    1.008452   -1.452897
   4 H   1.0000    1     1.008   -0.471052   -0.519410   -0.884675
   5 O   8.0000    1    15.999    3.326674    0.163253   -0.841344
   6 C   6.0000    1    12.011    0.674821    1.369844   -4.341891
   7 H   1.0000    1     1.008    1.867862   -0.098530   -5.195708
   8 C   6.0000    1    12.011   -1.963085    0.941537   -5.511216
   9 O   8.0000    1    15.999   -3.910883    2.208787   -4.156490
  10 Si 14.0000    1    28.086   -6.929645    2.014070   -5.134273
  11 C   6.0000    1    12.011   -8.491617   -1.361793   -3.908804
  12 C   6.0000    1    12.011   -7.552612   -1.885625   -1.198578
  13 C   6.0000    1    12.011  -11.398847   -1.138636   -3.926624
  14 C   6.0000    1    12.011   -7.680546   -3.530519   -5.677625
  15 C   6.0000    1    12.011   -8.830029    4.632494   -3.645055
  16 C   6.0000    1    12.011   -7.279131    2.175264   -8.653585
  17 O   8.0000    1    15.999    1.834622    3.665388   -5.220765
  18 C   6.0000    1    12.011    1.215642    5.929791   -3.897050
  19 H   1.0000    1     1.008    2.539036    7.365510   -4.596286
  20 O   8.0000    1    15.999   -1.286204    6.779865   -4.391327
  21 C   6.0000    1    12.011   -1.569777    7.689863   -6.902433
  22 C   6.0000    1    12.011    1.677359    5.681329   -1.028540
  23 H   1.0000    1     1.008    1.066561    7.413622   -0.069504
  24 O   8.0000    1    15.999    4.337583    5.329103   -0.538270
  25 H   1.0000    1     1.008   -3.085318    3.989552   -1.448607
  26 H   1.0000    1     1.008    4.411547    1.667797   -0.864644
  27 H   1.0000    1     1.008   -1.936478    1.585102   -7.481218
  28 H   1.0000    1     1.008   -2.343374   -1.093509   -5.477674
  29 H   1.0000    1     1.008   -8.083379   -0.361410    0.099003
  30 H   1.0000    1     1.008   -5.491374   -2.077187   -1.133439
  31 H   1.0000    1     1.008   -8.365648   -3.644167   -0.466706
  32 H   1.0000    1     1.008  -12.061838    0.320422   -2.616080
  33 H   1.0000    1     1.008  -12.274754   -2.925126   -3.350560
  34 H   1.0000    1     1.008  -12.114070   -0.668793   -5.812344
  35 H   1.0000    1     1.008   -5.627170   -3.764429   -5.722847
  36 H   1.0000    1     1.008   -8.324130   -3.211797   -7.619395
  37 H   1.0000    1     1.008   -8.490407   -5.329708   -5.046457
  38 H   1.0000    1     1.008   -8.834640    4.445203   -1.586633
  39 H   1.0000    1     1.008  -10.784780    4.598705   -4.314963
  40 H   1.0000    1     1.008   -8.013138    6.469477   -4.127370
  41 H   1.0000    1     1.008   -6.238780    0.648082   -9.579362
  42 H   1.0000    1     1.008   -6.551303    3.972809   -9.370642
  43 H   1.0000    1     1.008   -9.267444    2.023481   -9.198790
  44 H   1.0000    1     1.008   -3.537473    8.263224   -7.163744
  45 H   1.0000    1     1.008   -1.128922    6.215952   -8.282670
  46 H   1.0000    1     1.008   -0.362128    9.339083   -7.214804
  47 H   1.0000    1     1.008    5.181176    6.902867   -0.988043

      -----------------------------------------------------------      
     |                   =====================                   |     
     |                           x T B                           |     
     |                   =====================                   |     
     |                         S. Grimme                         |     
     |          Mulliken Center for Theoretical Chemistry        |     
     |                    University of Bonn                     |     
      -----------------------------------------------------------      

   * xtb version 6.7.1 (edcfbbe) compiled by 'albert@albert-system' on 2024-07-22

   xtb is free software: you can redistribute it and/or modify it under
   the terms of the GNU Lesser General Public License as published by
   the Free Software Foundation, either version 3 of the License, or
   (at your option) any later version.
   
   xtb is distributed in the hope that it will be useful,
   but WITHOUT ANY WARRANTY; without even the implied warranty of
   MERCHANTABILITY or FITNESS FOR A PARTICULAR PURPOSE.  See the
   GNU Lesser General Public License for more details.
   
   Cite this work as:
   * C. Bannwarth, E. Caldeweyher, S. Ehlert, A. Hansen, P. Pracht,
     J. Seibert, S. Spicher, S. Grimme, WIREs Comput. Mol. Sci., 2020, 11,
     e01493. DOI: 10.1002/wcms.1493
   
   for GFN2-xTB:
   * C. Bannwarth, S. Ehlert and S. Grimme., J. Chem. Theory Comput., 2019,
     15, 1652-1671. DOI: 10.1021/acs.jctc.8b01176
   for GFN1-xTB:
   * S. Grimme, C. Bannwarth, P. Shushkov, J. Chem. Theory Comput., 2017,
     13, 1989-2009. DOI: 10.1021/acs.jctc.7b00118
   for GFN0-xTB:
   * P. Pracht, E. Caldeweyher, S. Ehlert, S. Grimme, ChemRxiv, 2019, preprint.
     DOI: 10.26434/chemrxiv.8326202.v1
   for GFN-FF:
   * S. Spicher and S. Grimme, Angew. Chem. Int. Ed., 2020, 59, 15665-15673.
     DOI: 10.1002/anie.202004239
   
   for ALPB and GBSA implicit solvation:
   * S. Ehlert, M. Stahn, S. Spicher, S. Grimme, J. Chem. Theory Comput.,
     2021, 17, 4250-4261. DOI: 10.1021/acs.jctc.1c00471
   
   for ddCOSMO and CPCM-X implicit solvation:
   * M. Stahn, S. Ehlert, S. Grimme, J. Phys. Chem. A,
     2023, XX, XXXX-XXXX. DOI: 10.1021/acs.jpca.3c04382
   
   for DFT-D4:
   * E. Caldeweyher, C. Bannwarth and S. Grimme, J. Chem. Phys., 2017,
     147, 034112. DOI: 10.1063/1.4993215
   * E. Caldeweyher, S. Ehlert, A. Hansen, H. Neugebauer, S. Spicher,
     C. Bannwarth and S. Grimme, J. Chem. Phys., 2019, 150, 154122.
     DOI: 10.1063/1.5090222
   * E. Caldeweyher, J.-M. Mewes, S. Ehlert and S. Grimme, Phys. Chem. Chem. Phys.
     2020, 22, 8499-8512. DOI: 10.1039/D0CP00502A
   
   for sTDA-xTB:
   * S. Grimme and C. Bannwarth, J. Chem. Phys., 2016, 145, 054103.
     DOI: 10.1063/1.4959605
   
   in the mass-spec context:
   * V. Asgeirsson, C. Bauer and S. Grimme, Chem. Sci., 2017, 8, 4879.
     DOI: 10.1039/c7sc00601b
   * J. Koopman and S. Grimme, ACS Omega 2019, 4, 12, 15120-15133.
     DOI: 10.1021/acsomega.9b02011
   
   for metadynamics refer to:
   * S. Grimme, J. Chem. Theory Comput., 2019, 155, 2847-2862
     DOI: 10.1021/acs.jctc.9b00143
   
   for SPH calculations refer to:
   * S. Spicher and S. Grimme, J. Chem. Theory Comput., 2021, 17, 1701-1714
     DOI: 10.1021/acs.jctc.0c01306
   
   for ONIOM refer to:
   * C. Plett, A. Katbashev, S. Ehlert, S. Grimme, M. Bursch,
     Phys. Chem. Chem. Phys., 2023, 25, 17860-17868. DOI: 10.1039/D3CP02178E
   
   for DIPRO refer to:
   * J. Kohn, N. Gildemeister, S. Grimme, D. Fazzi, A. Hansen,
     J. Chem. Phys., 2023, just accepted.
   
   for PTB refer to:
   * S. Grimme, M. Mueller, A. Hansen, J. Chem. Phys., 2023, 158, 124111.
     DOI: 10.1063/5.0137838
   
   with help from (in alphabetical order)
   P. Atkinson, C. Bannwarth, F. Bohle, G. Brandenburg, E. Caldeweyher
   M. Checinski, S. Dohm, S. Ehlert, S. Ehrlich, I. Gerasimov, C. Hölzer
   A. Katbashev, J. Kohn, J. Koopman, C. Lavigne, S. Lehtola, F. März, M. Müller,
   F. Musil, H. Neugebauer, J. Pisarek, C. Plett, P. Pracht, F. Pultar,
   J. Seibert, P. Shushkov, S. Spicher, M. Stahn, M. Steiner, T. Strunk,
   J. Stückrath, T. Rose, and J. Unsleber
   
 * started run on 2025/09/10 at 11:36:45.099     
   ID    Z sym.   atoms
    1    8 O      1, 6, 10, 18, 21, 25
    2    6 C      2, 4, 7, 9, 12-17, 19, 22, 23
    3    1 H      3, 5, 8, 20, 24, 26-48
    4   14 Si     11

           -------------------------------------------------
          |                Calculation Setup                |
           -------------------------------------------------

          program call               : /home/kmoult/orca_6_1/otool_xtb goat_0_XTB.xyz --grad -c 0 -u 0 -P 4 --namespace goat_0 --input goat_0_XTB.input.tmp --alpb ACETONE --acc 0.200000
          hostname                   : node1600
          calculation namespace      : goat_0
          coordinate file            : goat_0_XTB.xyz
          omp threads                :                     4


           -------------------------------------------------
          |                 G F N 2 - x T B                 |
           -------------------------------------------------

        Reference                      10.1021/acs.jctc.8b01176
      * Hamiltonian:
        H0-scaling (s, p, d)           1.850000    2.230000    2.230000
        zeta-weighting                 0.500000
      * Dispersion:
        s8                             2.700000
        a1                             0.520000
        a2                             5.000000
        s9                             5.000000
      * Repulsion:
        kExp                           1.500000    1.000000
        rExp                           1.000000
      * Coulomb:
        alpha                          2.000000
        third order                    shell-resolved
        anisotropic                    true
        a3                             3.000000
        a5                             4.000000
        cn-shift                       1.200000
        cn-exp                         4.000000
        max-rad                        5.000000

      * Solvation model:               ALPB
        Solvent                        ACETONE
        Parameter file                 internal GFN2-xTB/ALPB
        Dielectric constant                2.0700E+01
        Reference state                gsolv [1 M gas/solution]
        Free energy shift                  5.9241E-03 Eh       3.7175E+00 kcal/mol
        Temperature                        2.9815E+02 K
        Density                            7.9000E-01 kg/L
        Solvent mass                       5.8080E+01 g/mol
        Interaction kernel             P16
        Born radius scaling (c1)           1.8274E+00
        Born radii integrator          GBOBC
        Born offset                        0.0000E+00 a0       0.0000E+00 AA
        H-bond correction              true
        Ion screening                  false
        Surface tension                    1.0000E-05 Eh       1.5569E+01 dyn/cm
        Grid points                               230 per atom

          ...................................................
          :                      SETUP                      :
          :.................................................:
          :  # basis functions                 114          :
          :  # atomic orbitals                 113          :
          :  # shells                           69          :
          :  # electrons                       120          :
          :  max. iterations                   250          :
          :  Hamiltonian                  GFN2-xTB          :
          :  restarted?                      false          :
          :  GBSA solvation                   true          :
          :  PC potential                    false          :
          :  electronic temp.          300.0000000     K    :
          :  accuracy                    0.2000000          :
          :  -> integral cutoff          0.3198970E+02      :
          :  -> integral neglect         0.2000000E-08      :
          :  -> SCF convergence          0.2000000E-06 Eh   :
          :  -> wf. convergence          0.2000000E-04 e    :
          :  Broyden damping             0.4000000          :
          :  net charge                          0          :
          :  unpaired electrons                  0          :
          ...................................................

 iter      E             dE          RMSdq      gap      omega  full diag
   1    -68.7821232 -0.687821E+02  0.419E+00    6.85       0.0  T
   2    -68.9173742 -0.135251E+00  0.227E+00    5.64       1.0  T
   3    -68.9045553  0.128189E-01  0.118E+00    6.56       1.0  T
   4    -68.9323716 -0.278163E-01  0.535E-01    5.74       1.0  T
   5    -68.9392972 -0.692551E-02  0.248E-01    5.93       1.0  T
   6    -68.9395372 -0.240030E-03  0.132E-01    5.95       1.0  T
   7    -68.9396338 -0.966293E-04  0.601E-02    5.98       1.0  T
   8    -68.9396414 -0.763004E-05  0.254E-02    5.99       1.0  T
   9    -68.9396448 -0.331264E-05  0.110E-02    5.98       1.3  T
  10    -68.9396448 -0.829183E-07  0.489E-03    5.98       3.0  T
  11    -68.9396451 -0.309121E-06  0.232E-03    5.98       6.2  T
  12    -68.9396451  0.299075E-08  0.132E-03    5.98      11.0  T
  13    -68.9396452 -0.182998E-07  0.536E-04    5.98      26.9  T
  14    -68.9396452 -0.276479E-08  0.196E-04    5.98      73.7  T
  15    -68.9396452 -0.468106E-10  0.107E-04    5.98     135.0  T

   *** convergence criteria satisfied after 15 iterations ***

         #    Occupation            Energy/Eh            Energy/eV
      -------------------------------------------------------------
         1        2.0000           -0.7714287             -20.9916
       ...           ...                  ...                  ...
        54        2.0000           -0.4214591             -11.4685
        55        2.0000           -0.4206569             -11.4467
        56        2.0000           -0.4176020             -11.3635
        57        2.0000           -0.4060928             -11.0503
        58        2.0000           -0.3994093             -10.8685
        59        2.0000           -0.3982026             -10.8356
        60        2.0000           -0.3624094              -9.8617 (HOMO)
        61                         -0.1425762              -3.8797 (LUMO)
        62                         -0.1300068              -3.5377
        63                         -0.1200226              -3.2660
        64                         -0.0506502              -1.3783
        65                         -0.0278499              -0.7578
       ...                                ...                  ...
       113                          0.6910514              18.8045
      -------------------------------------------------------------
                  HL-Gap            0.2198332 Eh            5.9820 eV
             Fermi-level           -0.2524928 Eh           -6.8707 eV

 SCC (total)                   0 d,  0 h,  0 min,  0.054 sec
 SCC setup                      ...        0 min,  0.004 sec (  8.049%)
 Dispersion                     ...        0 min,  0.001 sec (  1.275%)
 classical contributions        ...        0 min,  0.000 sec (  0.074%)
 integral evaluation            ...        0 min,  0.006 sec ( 11.900%)
 iterations                     ...        0 min,  0.033 sec ( 61.259%)
 molecular gradient             ...        0 min,  0.008 sec ( 15.681%)
 printout                       ...        0 min,  0.001 sec (  1.720%)

         :::::::::::::::::::::::::::::::::::::::::::::::::::::
         ::                     SUMMARY                     ::
         :::::::::::::::::::::::::::::::::::::::::::::::::::::
         :: total energy             -68.303530934587 Eh    ::
         :: total w/o Gsasa/hb       -68.277367106695 Eh    ::
         :: gradient norm              0.081670666149 Eh/a0 ::
         :: HOMO-LUMO gap              5.981964789524 eV    ::
         ::.................................................::
         :: SCC energy               -68.938361312308 Eh    ::
         :: -> isotropic ES            0.163754269556 Eh    ::
         :: -> anisotropic ES          0.006066323452 Eh    ::
         :: -> anisotropic XC          0.007266692438 Eh    ::
         :: -> dispersion             -0.047897950590 Eh    ::
         :: -> Gsolv                  -0.030298788325 Eh    ::
         ::    -> Gelec               -0.004134960432 Eh    ::
         ::    -> Gsasa               -0.026874132084 Eh    ::
         ::    -> Ghb                 -0.005213837072 Eh    ::
         ::    -> Gshift               0.005924141264 Eh    ::
         :: repulsion energy           0.634830377721 Eh    ::
         :: add. restraining           0.000000000000 Eh    ::
         :: total charge              -0.000000000000 e     ::
         :::::::::::::::::::::::::::::::::::::::::::::::::::::


Property printout bound to 'properties.out'

           -------------------------------------------------
          | TOTAL ENERGY              -68.303530934587 Eh   |
          | GRADIENT NORM               0.081670666149 Eh/α |
          | HOMO-LUMO GAP               5.981964789524 eV   |
           -------------------------------------------------

------------------------------------------------------------------------
 * finished run on 2025/09/10 at 11:36:45.217     
------------------------------------------------------------------------
 total:
 * wall-time:     0 d,  0 h,  0 min,  0.118 sec
 *  cpu-time:     0 d,  0 h,  0 min,  0.341 sec
 * ratio c/w:     2.901 speedup
 SCF:
 * wall-time:     0 d,  0 h,  0 min,  0.059 sec
 *  cpu-time:     0 d,  0 h,  0 min,  0.194 sec
 * ratio c/w:     3.310 speedup


-------------------------   --------------------
FINAL SINGLE POINT ENERGY       -68.303530934590
-------------------------   --------------------


-------------
DIPOLE MOMENT
-------------
                                X             Y             Z
Total Dipole Moment    :     -0.13500       1.36100      -1.82800
                        -----------------------------------------
Magnitude (a.u.)       :      2.28301
Magnitude (Debye)      :      5.80295


------------------
CARTESIAN GRADIENT
------------------

   1   O   :   -0.017383880   -0.000106274    0.003037598
   2   C   :    0.019860055   -0.000420311   -0.002839130
   3   H   :    0.000774227    0.000639630    0.000249325
   4   C   :   -0.022809331    0.001799038   -0.000407528
   5   H   :   -0.000885056   -0.002300749    0.000753696
   6   O   :    0.012289365   -0.009491740    0.001220837
   7   C   :    0.002573737   -0.005858869    0.007784634
   8   H   :   -0.001990169   -0.001303457   -0.001570056
   9   C   :    0.005037096   -0.005911729   -0.010989167
  10   O   :    0.008668521    0.007657664    0.019711617
  11   Si  :    0.005465075    0.029057388   -0.025645637
  12   C   :   -0.010403891   -0.019979082    0.006797743
  13   C   :    0.001389036    0.001070387    0.001463180
  14   C   :   -0.001071354    0.000745738   -0.000797028
  15   C   :    0.002549123    0.001222155   -0.000718618
  16   C   :   -0.001850010   -0.007435785   -0.004959872
  17   C   :   -0.001019071   -0.000420448    0.014344265
  18   O   :    0.006199670   -0.007875456   -0.012176058
  19   C   :    0.010148762    0.007026198    0.003676580
  20   H   :   -0.003857280    0.001551598    0.006149377
  21   O   :   -0.013064256    0.002647531    0.000090392
  22   C   :    0.004497107    0.000316543   -0.000938672
  23   C   :   -0.012574790    0.002141696   -0.000851684
  24   H   :    0.004590624    0.000821041    0.002006580
  25   O   :    0.014608092   -0.010559111    0.007559560
  26   H   :   -0.001114803    0.001360242   -0.006066775
  27   H   :    0.004777326    0.008154875    0.000153092
  28   H   :   -0.000607771    0.000466945   -0.002963892
  29   H   :   -0.000585840   -0.001603646    0.000228847
  30   H   :   -0.001054681    0.003172364    0.005157329
  31   H   :    0.005341087   -0.001397383    0.001819492
  32   H   :   -0.000564527   -0.002393124    0.002098145
  33   H   :   -0.004195333    0.003507523    0.003331488
  34   H   :   -0.003013118   -0.002307277    0.001119783
  35   H   :   -0.003717658    0.001369745   -0.004464737
  36   H   :    0.003731398   -0.001836867   -0.001457699
  37   H   :   -0.000721001   -0.000822178   -0.005619013
  38   H   :   -0.000772521   -0.003264963   -0.000141932
  39   H   :    0.000871103   -0.002938584    0.006068861
  40   H   :   -0.007117792    0.000113704   -0.002388274
  41   H   :    0.003778640    0.003421924   -0.003591451
  42   H   :    0.003260264   -0.004218413    0.000401502
  43   H   :    0.002384529    0.004332661    0.000817067
  44   H   :   -0.006528203   -0.000691069    0.000113237
  45   H   :   -0.002158572    0.002321906   -0.004971888
  46   H   :   -0.002105024   -0.000727511   -0.000688522
  47   H   :   -0.001881317    0.000612798    0.000479490
  48   H   :    0.000252411    0.008332728   -0.002386086

Difference to translation invariance:
           :    0.0000000000    0.0000000000    0.0000000000

Difference to rotation invariance:
           :    0.0002459421   -0.0007840559    0.0010141415

Norm of the Cartesian gradient     ...    0.0816706661
RMS gradient                       ...    0.0068058888
MAX gradient                       ...    0.0290573877
------------------------------------------------------------------------------
                         ORCA GEOMETRY RELAXATION STEP
------------------------------------------------------------------------------

Reading the OPT-File                    .... done
Getting information on internals        .... done
Copying old internal coords+grads       .... done
Making the new internal coordinates     .... (2022 redundants) done
Validating the new internal coordinates .... (2022 redundants) done
Calculating the B-matrix                .... done
Calculating the G,G- and P matrices     .... done
Transforming gradient to internals      .... done
Projecting the internal gradient        .... done
Number of atoms                         ....  48
Number of internal coordinates          .... 234
Current Energy                          ....   -68.303530935 Eh
Current gradient norm                   ....     0.081670666 Eh/bohr
Maximum allowed component of the step   ....  0.300
Current trust radius                    ....  0.300
Evaluating the initial hessian          ....  (Almloef) done
Projecting the Hessian                  .... done
Forming the augmented Hessian           .... done
Diagonalizing the augmented Hessian     .... done
Last element of RFO vector              ....  0.967628237
Lowest eigenvalues of augmented Hessian:
 -0.013861378  0.010000000  0.010000000  0.010000000  0.010006556
Length of the computed step             ....  0.260823167
The final length of the internal step   ....  0.260823167
Converting the step to Cartesian space:
 Initial RMS(Int)=    0.0170505438
Transforming coordinates:
 Iter   0:  RMS(Cart)=    0.0779694729 RMS(Int)=    0.4103241793
 Iter   5:  RMS(Cart)=    0.0000000154 RMS(Int)=    0.0000000083
done
Storing new coordinates                 .... done

                                .--------------------.
          ----------------------|Geometry convergence|-------------------------
          Item                value                   Tolerance       Converged
          ---------------------------------------------------------------------
          RMS gradient        0.0045119354            0.0001000000      NO
          MAX gradient        0.0256918793            0.0003000000      NO
          RMS step            0.0170505438            0.0020000000      NO
          MAX step            0.1092244266            0.0040000000      NO
          -------------------------------------------------------------------------
          ........................................................
          Max(Bonds)      0.0578      Max(Angles)    1.71
          Max(Dihed)        2.70      Max(Improp)    0.00
          ---------------------------------------------------------------------

    ---------------------------------------------------------------------------
                         Redundant Internal Coordinates
                            (Angstroem and degrees)

        Definition                    Value    dE/dq     Step     New-Value
    ----------------------------------------------------------------------------
     1. B(C   1,O   0)                1.4253  0.017605 -0.0189    1.4064   
     2. B(H   2,C   1)                1.0973  0.000391 -0.0006    1.0968   
     3. B(C   3,C   1)                1.5387  0.000725 -0.0018    1.5369   
     4. B(H   4,C   3)                1.0955  0.002451 -0.0035    1.0920   
     5. B(O   5,C   3)                1.4440  0.016335 -0.0188    1.4252   
     6. B(C   6,C   3)                1.5422 -0.000088 -0.0001    1.5421   
     7. B(H   7,C   6)                1.0984  0.000426 -0.0006    1.0978   
     8. B(C   8,C   6)                1.5436  0.002442 -0.0032    1.5404   
     9. B(O   9,C   8)                1.4234  0.012565 -0.0132    1.4102   
    10. B(Si 10,O   9)                1.6823  0.014506 -0.0091    1.6732   
    11. B(C  11,Si 10)                2.0725  0.025692 -0.0578    2.0147   
    12. B(C  12,C  11)                1.5429  0.011366 -0.0163    1.5267   
    13. B(C  13,C  11)                1.5430  0.012230 -0.0175    1.5255   
    14. B(C  14,C  11)                1.5419  0.009633 -0.0137    1.5282   
    15. B(C  15,Si 10)                1.8847 -0.004752  0.0055    1.8903   
    16. B(C  16,Si 10)                1.8734 -0.015446  0.0173    1.8907   
    17. B(O  17,C   6)                1.4383  0.007826 -0.0103    1.4279   
    18. B(C  18,O  17)                1.4261  0.016568 -0.0180    1.4081   
    19. B(H  19,C  18)                1.0975 -0.003460  0.0050    1.1026   
    20. B(O  20,C  18)                1.4225  0.016475 -0.0170    1.4055   
    21. B(C  21,O  20)                1.4213  0.006754 -0.0070    1.4144   
    22. B(C  22,C  18)                1.5431  0.004711 -0.0075    1.5356   
    23. B(C  22,C   1)                1.5329 -0.000804  0.0002    1.5331   
    24. B(H  23,C  22)                1.0965  0.000257 -0.0004    1.0961   
    25. B(O  24,C  22)                1.4435  0.015785 -0.0174    1.4261   
    26. B(H  25,O   0)                0.9824  0.004130 -0.0041    0.9783   
    27. B(H  25,O  20)                2.3477  0.000851  0.0077    2.3554   
    28. B(H  25,O   9)                1.7698 -0.002857  0.0331    1.8029   
    29. B(H  26,O   5)                0.9816  0.009817 -0.0092    0.9725   
    30. B(H  26,O  24)                1.9456  0.000520  0.0201    1.9657   
    31. B(H  27,C   8)                1.0968  0.002954 -0.0043    1.0925   
    32. B(H  28,C   8)                1.0957  0.001689 -0.0024    1.0932   
    33. B(H  29,C  12)                1.0959  0.005840 -0.0084    1.0874   
    34. B(H  30,C  12)                1.0960  0.005501 -0.0080    1.0881   
    35. B(H  31,C  12)                1.0959  0.002994 -0.0043    1.0916   
    36. B(H  32,C  13)                1.0955  0.005931 -0.0086    1.0870   
    37. B(H  33,C  13)                1.0961  0.003574 -0.0052    1.0910   
    38. B(H  34,C  13)                1.0958  0.005658 -0.0082    1.0876   
    39. B(H  35,C  14)                1.0939  0.003942 -0.0057    1.0882   
    40. B(H  36,C  14)                1.0956  0.005367 -0.0077    1.0878   
    41. B(H  37,C  14)                1.0962  0.003095 -0.0045    1.0917   
    42. B(H  38,C  15)                1.0938  0.006310 -0.0090    1.0847   
    43. B(H  39,C  15)                1.0936  0.007503 -0.0108    1.0829   
    44. B(H  40,C  15)                1.0941  0.005374 -0.0077    1.0863   
    45. B(H  41,C  16)                1.0937  0.004576 -0.0066    1.0871   
    46. B(H  42,C  16)                1.0941  0.004322 -0.0062    1.0879   
    47. B(H  43,C  16)                1.0940  0.006301 -0.0090    1.0849   
    48. B(H  44,C  21)                1.0933  0.003327 -0.0048    1.0886   
    49. B(H  45,C  21)                1.0937  0.000533 -0.0008    1.0930   
    50. B(H  46,C  21)                1.0942 -0.000682  0.0010    1.0952   
    51. B(H  47,O  24)                0.9744  0.007819 -0.0082    0.9663   
    52. A(C   1,O   0,H  25)          107.29 -0.001635    0.10    107.39   
    53. A(H   2,C   1,C   3)          107.80 -0.001280    0.08    107.88   
    54. A(O   0,C   1,H   2)          105.94  0.002301   -0.35    105.59   
    55. A(C   3,C   1,C  22)          110.61  0.004444   -0.56    110.05   
    56. A(O   0,C   1,C  22)          111.43 -0.001812    0.11    111.55   
    57. A(O   0,C   1,C   3)          112.94 -0.002033    0.52    113.47   
    58. A(H   2,C   1,C  22)          107.81 -0.001761    0.20    108.01   
    59. A(H   4,C   3,O   5)          106.23  0.002401   -0.55    105.69   
    60. A(C   1,C   3,C   6)          114.04  0.002098    0.21    114.25   
    61. A(C   1,C   3,H   4)          110.37  0.000934   -0.49    109.88   
    62. A(C   1,C   3,O   5)          108.65 -0.003262    0.37    109.02   
    63. A(O   5,C   3,C   6)          107.57 -0.001799    0.79    108.36   
    64. A(H   4,C   3,C   6)          109.63 -0.000440   -0.34    109.29   
    65. A(C   3,O   5,H  26)          106.64 -0.002027    0.06    106.70   
    66. A(H   7,C   6,C   8)          104.54 -0.001558    0.44    104.98   
    67. A(C   3,C   6,C   8)          114.81 -0.000430    0.24    115.05   
    68. A(C   3,C   6,H   7)          107.12  0.001529   -0.38    106.73   
    69. A(C   3,C   6,O  17)          113.97 -0.000733   -0.08    113.89   
    70. A(C   8,C   6,O  17)          112.35  0.001112   -0.16    112.19   
    71. A(H   7,C   6,O  17)          102.66  0.000103   -0.06    102.60   
    72. A(H  27,C   8,H  28)          108.84 -0.000000    0.08    108.92   
    73. A(C   6,C   8,O   9)          112.57 -0.001574    0.30    112.86   
    74. A(C   6,C   8,H  27)          108.89  0.001781   -0.46    108.43   
    75. A(O   9,C   8,H  28)          108.78 -0.000735    0.23    109.01   
    76. A(O   9,C   8,H  27)          109.98  0.000573   -0.30    109.68   
    77. A(C   6,C   8,H  28)          107.69 -0.000029    0.16    107.85   
    78. A(C   8,O   9,Si 10)          120.25 -0.014387    1.71    121.96   
    79. A(C  15,Si 10,C  16)          109.24 -0.002862    0.59    109.83   
    80. A(C  11,Si 10,C  16)          108.12  0.000546    0.59    108.71   
    81. A(O   9,Si 10,C  16)          113.37  0.000112   -0.43    112.94   
    82. A(C  11,Si 10,C  15)          106.86 -0.003425    1.08    107.94   
    83. A(O   9,Si 10,C  15)          109.45  0.006192   -1.67    107.78   
    84. A(O   9,Si 10,C  11)          109.59 -0.000887   -0.03    109.56   
    85. A(C  12,C  11,C  14)          109.93  0.001135   -0.49    109.44   
    86. A(C  13,C  11,C  14)          109.32  0.001230   -0.51    108.80   
    87. A(Si 10,C  11,C  13)          109.25 -0.000420    0.33    109.59   
    88. A(Si 10,C  11,C  14)          109.91 -0.002037    0.83    110.74   
    89. A(Si 10,C  11,C  12)          108.50 -0.000367    0.32    108.82   
    90. A(C  12,C  11,C  13)          109.91  0.000429   -0.46    109.45   
    91. A(H  29,C  12,H  31)          107.63 -0.001680    0.37    108.00   
    92. A(C  11,C  12,H  31)          110.77  0.000722   -0.08    110.69   
    93. A(H  29,C  12,H  30)          107.66 -0.001640    0.17    107.83   
    94. A(C  11,C  12,H  30)          111.49  0.001889   -0.37    111.12   
    95. A(C  11,C  12,H  29)          111.57  0.002104   -0.41    111.16   
    96. A(H  30,C  12,H  31)          107.52 -0.001704    0.37    107.89   
    97. A(H  32,C  13,H  33)          107.24 -0.002258    0.45    107.69   
    98. A(C  11,C  13,H  33)          110.73  0.001289   -0.23    110.50   
    99. A(C  11,C  13,H  32)          111.68  0.002672   -0.47    111.21   
   100. A(C  11,C  13,H  34)          111.55  0.001830   -0.35    111.20   
   101. A(H  33,C  13,H  34)          107.63 -0.001813    0.30    107.93   
   102. A(H  32,C  13,H  34)          107.81 -0.002104    0.36    108.17   
   103. A(H  36,C  14,H  37)          107.33 -0.001822    0.34    107.67   
   104. A(H  35,C  14,H  37)          107.26 -0.001404    0.26    107.52   
   105. A(C  11,C  14,H  37)          110.65  0.000949   -0.17    110.48   
   106. A(H  35,C  14,H  36)          107.80 -0.002163    0.37    108.17   
   107. A(C  11,C  14,H  36)          111.61  0.001962   -0.36    111.25   
   108. A(C  11,C  14,H  35)          111.96  0.002125   -0.38    111.58   
   109. A(H  39,C  15,H  40)          108.22  0.001178   -0.15    108.06   
   110. A(H  38,C  15,H  40)          108.28  0.003309   -0.56    107.73   
   111. A(H  38,C  15,H  39)          108.62  0.000972   -0.22    108.40   
   112. A(Si 10,C  15,H  39)          110.92  0.001575   -0.23    110.69   
   113. A(Si 10,C  15,H  38)          110.55 -0.002870    0.46    111.00   
   114. A(Si 10,C  15,H  40)          110.17 -0.003968    0.67    110.84   
   115. A(H  42,C  16,H  43)          108.12  0.002455   -0.46    107.66   
   116. A(H  41,C  16,H  43)          108.16  0.002273   -0.42    107.74   
   117. A(Si 10,C  16,H  43)          110.72 -0.001349    0.21    110.93   
   118. A(H  41,C  16,H  42)          108.05  0.002634   -0.37    107.68   
   119. A(Si 10,C  16,H  41)          111.22 -0.003128    0.54    111.76   
   120. A(Si 10,C  16,H  42)          110.46 -0.002547    0.45    110.91   
   121. A(C   6,O  17,C  18)          116.92 -0.002679    0.35    117.28   
   122. A(O  17,C  18,H  19)          105.63  0.004268   -1.10    104.53   
   123. A(O  20,C  18,C  22)          110.80  0.006009   -1.24    109.56   
   124. A(H  19,C  18,C  22)          106.83 -0.004579    1.25    108.08   
   125. A(O  17,C  18,C  22)          112.04 -0.001515    0.13    112.17   
   126. A(H  19,C  18,O  20)          108.24 -0.001813    0.71    108.95   
   127. A(O  17,C  18,O  20)          112.90 -0.002700    0.36    113.26   
   128. A(C  18,O  20,C  21)          112.17 -0.004105    0.57    112.74   
   129. A(H  44,C  21,H  46)          108.41 -0.003360    0.64    109.04   
   130. A(H  45,C  21,H  46)          110.08  0.001017   -0.26    109.82   
   131. A(O  20,C  21,H  46)          110.47 -0.000607    0.07    110.54   
   132. A(H  44,C  21,H  45)          108.46 -0.003509    0.66    109.11   
   133. A(O  20,C  21,H  45)          111.11 -0.000194   -0.00    111.11   
   134. A(O  20,C  21,H  44)          108.23  0.006595   -1.08    107.15   
   135. A(H  23,C  22,O  24)          108.19 -0.004021    1.21    109.40   
   136. A(C  18,C  22,O  24)          110.01  0.002634   -0.35    109.67   
   137. A(C   1,C  22,O  24)          108.40  0.001515   -0.46    107.94   
   138. A(C  18,C  22,H  23)          109.72  0.001257   -0.34    109.38   
   139. A(C   1,C  22,H  23)          109.31  0.000306   -0.28    109.03   
   140. A(C   1,C  22,C  18)          111.15 -0.001773    0.24    111.39   
   141. A(C  22,O  24,H  47)          107.01 -0.006821    1.08    108.09   
   142. D(H   2,C   1,O   0,H  25)   -172.65 -0.002248    2.53   -170.12   
   143. D(C  22,C   1,O   0,H  25)     70.36 -0.000551    2.45     72.80   
   144. D(C   3,C   1,O   0,H  25)    -54.87 -0.003467    2.70    -52.17   
   145. D(H   4,C   3,C   1,C  22)   -169.93 -0.000900    1.31   -168.62   
   146. D(O   5,C   3,C   1,C  22)     73.96 -0.002424    2.03     75.99   
   147. D(O   5,C   3,C   1,H   2)    -43.68 -0.002028    2.05    -41.62   
   148. D(H   4,C   3,C   1,H   2)     72.43 -0.000504    1.34     73.76   
   149. D(O   5,C   3,C   1,O   0)   -160.36 -0.002875    2.14   -158.23   
   150. D(H   4,C   3,C   1,O   0)    -44.26 -0.001352    1.42    -42.84   
   151. D(H  26,O   5,C   3,H   4)   -163.60  0.000055   -0.11   -163.71   
   152. D(H  26,O   5,C   3,C   6)     79.06  0.000230    0.17     79.24   
   153. D(H  26,O   5,C   3,C   1)    -44.85  0.000774   -0.80    -45.65   
   154. D(H   7,C   6,C   3,O   5)     34.94  0.002827   -1.95     32.99   
   155. D(H   7,C   6,C   3,H   4)    -80.17  0.001194   -1.55    -81.72   
   156. D(H   7,C   6,C   3,C   1)    155.51 -0.001240   -0.79    154.72   
   157. D(C   8,C   6,C   3,H   4)     35.41  0.000033   -1.12     34.29   
   158. D(C   8,C   6,C   3,C   1)    -88.91 -0.002401   -0.36    -89.27   
   159. D(C   8,C   6,C   3,O   5)    150.52  0.001666   -1.52    149.00   
   160. D(H  27,C   8,C   6,O  17)     37.07  0.000060    0.89     37.96   
   161. D(H  27,C   8,C   6,H   7)    -73.51  0.000297    0.80    -72.71   
   162. D(H  27,C   8,C   6,C   3)    169.44 -0.000328    0.85    170.29   
   163. D(O   9,C   8,C   6,O  17)    -85.17 -0.000879    1.40    -83.77   
   164. D(O   9,C   8,C   6,C   3)     47.20 -0.001267    1.36     48.56   
   165. D(O   9,C   8,C   6,H   7)    164.26 -0.000642    1.30    165.56   
   166. D(Si 10,O   9,C   8,H  27)     57.74 -0.000117   -0.53     57.21   
   167. D(Si 10,O   9,C   8,C   6)    179.36  0.001497   -1.13    178.23   
   168. D(Si 10,O   9,C   8,H  28)    -61.37 -0.000011   -0.59    -61.97   
   169. D(C  16,Si 10,O   9,C   8)    -39.98  0.000514   -1.00    -40.98   
   170. D(C  15,Si 10,O   9,C   8)   -162.21 -0.000415   -0.24   -162.45   
   171. D(C  11,Si 10,O   9,C   8)     80.91  0.000653   -0.56     80.34   
   172. D(C  12,C  11,Si 10,O   9)     39.74  0.001716   -0.50     39.24   
   173. D(C  13,C  11,Si 10,C  16)    -76.43  0.001703   -0.84    -77.27   
   174. D(C  13,C  11,Si 10,C  15)     41.05 -0.003169    0.72     41.77   
   175. D(C  13,C  11,Si 10,O   9)    159.55  0.001772   -0.67    158.88   
   176. D(C  12,C  11,Si 10,C  16)    163.75  0.001647   -0.67    163.09   
   177. D(C  12,C  11,Si 10,C  15)    -78.77 -0.003225    0.89    -77.88   
   178. D(H  30,C  12,C  11,C  14)     58.91 -0.001891    0.99     59.90   
   179. D(H  30,C  12,C  11,C  13)    179.28  0.000620   -0.25    179.03   
   180. D(H  30,C  12,C  11,Si 10)    -61.31  0.000141    0.08    -61.24   
   181. D(H  29,C  12,C  11,C  14)    179.33 -0.001234    0.67    180.01   
   182. D(H  29,C  12,C  11,C  13)    -60.30  0.001278   -0.57    -60.87   
   183. D(H  29,C  12,C  11,Si 10)     59.11  0.000798   -0.24     58.87   
   184. D(H  33,C  13,C  11,C  14)     57.64  0.001576   -0.72     56.91   
   185. D(H  33,C  13,C  11,C  12)    -63.11 -0.000866    0.50    -62.61   
   186. D(H  33,C  13,C  11,Si 10)    177.95 -0.000420    0.18    178.13   
   187. D(H  32,C  13,C  11,C  12)     56.33 -0.001092    0.61     56.94   
   188. D(H  32,C  13,C  11,Si 10)    -62.62 -0.000647    0.29    -62.33   
   189. D(H  32,C  13,C  11,C  14)    177.07  0.001349   -0.61    176.46   
   190. D(H  36,C  14,C  11,C  13)     59.20 -0.001003    0.50     59.70   
   191. D(H  36,C  14,C  11,C  12)    179.93  0.001009   -0.70    179.22   
   192. D(H  36,C  14,C  11,Si 10)    -60.71 -0.000002   -0.10    -60.81   
   193. D(H  35,C  14,C  11,C  13)   -179.85 -0.000903    0.46   -179.40   
   194. D(H  35,C  14,C  11,C  12)    -59.13  0.001108   -0.75    -59.87   
   195. D(H  35,C  14,C  11,Si 10)     60.24  0.000097   -0.14     60.10   
   196. D(H  39,C  15,Si 10,C  16)     52.85 -0.001810    0.89     53.74   
   197. D(H  39,C  15,Si 10,C  11)    -63.88  0.000883   -0.70    -64.58   
   198. D(H  39,C  15,Si 10,O   9)    177.52  0.000551   -0.38    177.15   
   199. D(H  38,C  15,Si 10,C  16)    173.40 -0.001455    0.76    174.17   
   200. D(H  38,C  15,Si 10,C  11)     56.67  0.001238   -0.82     55.84   
   201. D(H  38,C  15,Si 10,O   9)    -61.93  0.000906   -0.50    -62.43   
   202. D(H  41,C  16,Si 10,C  15)   -178.48  0.003553   -1.26   -179.74   
   203. D(H  41,C  16,Si 10,C  11)    -62.54 -0.001738    0.66    -61.88   
   204. D(H  41,C  16,Si 10,O   9)     59.17 -0.002402    0.75     59.93   
   205. D(H  42,C  16,Si 10,C  15)     61.54  0.003981   -1.45     60.09   
   206. D(H  42,C  16,Si 10,C  11)    177.48 -0.001310    0.47    177.95   
   207. D(H  42,C  16,Si 10,O   9)    -60.80 -0.001974    0.57    -60.24   
   208. D(C  18,O  17,C   6,C   8)     85.85  0.000224    0.25     86.10   
   209. D(C  18,O  17,C   6,H   7)   -162.40 -0.001070    0.66   -161.74   
   210. D(C  18,O  17,C   6,C   3)    -46.93  0.000469    0.13    -46.80   
   211. D(C  22,C  18,O  17,C   6)     53.43  0.001680    0.24     53.67   
   212. D(O  20,C  18,O  17,C   6)    -72.51 -0.003033    1.52    -70.99   
   213. D(H  19,C  18,O  17,C   6)    169.39 -0.002048    1.15    170.54   
   214. D(C  21,O  20,C  18,C  22)    163.78 -0.001402    0.74    164.52   
   215. D(C  21,O  20,C  18,H  19)     46.95  0.001831   -0.49     46.46   
   216. D(C  21,O  20,C  18,O  17)    -69.62 -0.000701    0.20    -69.42   
   217. D(H  46,C  21,O  20,C  18)    -62.88 -0.000119   -0.30    -63.18   
   218. D(H  45,C  21,O  20,C  18)     59.60  0.000621   -0.59     59.01   
   219. D(H  44,C  21,O  20,C  18)    178.58  0.000326   -0.46    178.12   
   220. D(H  23,C  22,C  18,O  20)    -49.33 -0.000678   -0.20    -49.54   
   221. D(H  23,C  22,C  18,H  19)     68.36 -0.002293    0.72     69.08   
   222. D(H  23,C  22,C  18,O  17)   -176.41 -0.000669    0.20   -176.21   
   223. D(C   1,C  22,C  18,O  20)     71.68 -0.000610   -0.62     71.06   
   224. D(C   1,C  22,C  18,H  19)   -170.62 -0.002225    0.30   -170.33   
   225. D(C   1,C  22,C  18,O  17)    -55.40 -0.000601   -0.22    -55.62   
   226. D(H  23,C  22,C   1,C   3)    173.00  0.000661   -0.82    172.18   
   227. D(H  23,C  22,C   1,H   2)    -69.36  0.000561   -0.92    -70.28   
   228. D(H  23,C  22,C   1,O   0)     46.49  0.001301   -1.16     45.32   
   229. D(C  18,C  22,C   1,C   3)     51.75  0.000028   -0.36     51.38   
   230. D(C  18,C  22,C   1,H   2)    169.39 -0.000072   -0.47    168.92   
   231. D(C  18,C  22,C   1,O   0)    -74.77  0.000668   -0.71    -75.48   
   232. D(H  47,O  24,C  22,H  23)    -52.12 -0.000245   -0.57    -52.69   
   233. D(H  47,O  24,C  22,C  18)     67.72  0.000385   -0.45     67.27   
   234. D(H  47,O  24,C  22,C   1)   -170.56  0.000788   -0.65   -171.22   
    ----------------------------------------------------------------------------

Geometry step timings:
Preparation and reading OPT file:      0.001 s ( 4.039 %)
Internal coordinates            :      0.000 s ( 0.215 %)
B/P matrices and projection     :      0.005 s (22.698 %)
Hessian update/contruction      :      0.006 s (30.174 %)
Making the step                 :      0.006 s (27.506 %)
Converting the step to Cartesian:      0.000 s ( 2.130 %)
Storing new data                :      0.001 s ( 4.553 %)
Checking convergence            :      0.000 s ( 0.162 %)
Final printing                  :      0.002 s ( 8.514 %)
Total time                      :      0.020 s

Time for energy+gradient        :      0.148 s
Time for complete geometry iter :      0.183 s

         *************************************************************
         *                GEOMETRY OPTIMIZATION CYCLE   2            *
         *************************************************************
---------------------------------
CARTESIAN COORDINATES (ANGSTROEM)
---------------------------------
  O    -1.258091    2.066472    0.179564
  C     0.119807    1.815916    0.050316
  H     0.490381    1.671549    1.072449
  C     0.437668    0.543619   -0.750941
  H    -0.234890   -0.262355   -0.450031
  O     1.748610    0.097783   -0.413667
  C     0.364282    0.723897   -2.280621
  H     1.019392   -0.039223   -2.720633
  C    -1.021480    0.465474   -2.901578
  O    -2.059650    1.134318   -2.220708
  Si   -3.651649    1.047522   -2.728393
  C    -4.468488   -0.681799   -2.095097
  C    -3.967905   -0.974999   -0.682930
  C    -5.988505   -0.553584   -2.078568
  C    -4.081622   -1.834235   -3.021119
  C    -4.595321    2.469216   -1.915130
  C    -3.832458    1.150678   -4.607596
  O     0.946335    1.941036   -2.748257
  C     0.602981    3.124118   -2.066236
  H     1.286451    3.886992   -2.474310
  O    -0.723125    3.530701   -2.293332
  C    -0.936521    3.986343   -3.615169
  C     0.856034    3.016427   -0.555474
  H     0.511424    3.932967   -0.062798
  O     2.250855    2.843934   -0.313510
  H    -1.645287    2.041406   -0.718603
  H     2.322587    0.882746   -0.426317
  H    -0.998150    0.787882   -3.945166
  H    -1.208721   -0.611071   -2.867233
  H    -4.228775   -0.170779    0.000957
  H    -2.885947   -1.088772   -0.666224
  H    -4.408136   -1.898236   -0.301557
  H    -6.310662    0.216484   -1.382352
  H    -6.447826   -1.493501   -1.769097
  H    -6.372652   -0.301745   -3.064463
  H    -3.002903   -1.972919   -3.058336
  H    -4.436664   -1.661718   -4.034798
  H    -4.521399   -2.770016   -2.670677
  H    -4.590192    2.371554   -0.834824
  H    -5.624381    2.487470   -2.251719
  H    -4.142842    3.425242   -2.162968
  H    -3.304111    0.343096   -5.108141
  H    -3.434008    2.090046   -4.984987
  H    -4.875663    1.094529   -4.900201
  H    -1.990855    4.243709   -3.699722
  H    -0.698971    3.206739   -4.343419
  H    -0.333682    4.878360   -3.816207
  H     2.702556    3.659309   -0.568027

----------------------------
CARTESIAN COORDINATES (A.U.)
----------------------------
  NO LB    ZA    FRAG    MASS        X           Y           Z
   0 O   8.0000    1    15.999   -2.377448    3.905066    0.339327
   1 C   6.0000    1    12.011    0.226402    3.431585    0.095083
   2 H   1.0000    1     1.008    0.926687    3.158770    2.026634
   3 C   6.0000    1    12.011    0.827073    1.027291   -1.419073
   4 H   1.0000    1     1.008   -0.443878   -0.495779   -0.850435
   5 O   8.0000    1    15.999    3.304394    0.184783   -0.781717
   6 C   6.0000    1    12.011    0.688394    1.367966   -4.309749
   7 H   1.0000    1     1.008    1.926371   -0.074120   -5.141251
   8 C   6.0000    1    12.011   -1.930317    0.879619   -5.483187
   9 O   8.0000    1    15.999   -3.892175    2.143551   -4.196530
  10 Si 14.0000    1    28.086   -6.900616    1.979529   -5.155915
  11 C   6.0000    1    12.011   -8.444219   -1.288414   -3.959159
  12 C   6.0000    1    12.011   -7.498253   -1.842482   -1.290550
  13 C   6.0000    1    12.011  -11.316635   -1.046122   -3.927924
  14 C   6.0000    1    12.011   -7.713149   -3.466202   -5.709088
  15 C   6.0000    1    12.011   -8.683898    4.666141   -3.619071
  16 C   6.0000    1    12.011   -7.242295    2.174466   -8.707095
  17 O   8.0000    1    15.999    1.788314    3.668027   -5.193454
  18 C   6.0000    1    12.011    1.139469    5.903728   -3.904621
  19 H   1.0000    1     1.008    2.431040    7.345350   -4.675767
  20 O   8.0000    1    15.999   -1.366509    6.672058   -4.333770
  21 C   6.0000    1    12.011   -1.769768    7.533097   -6.831679
  22 C   6.0000    1    12.011    1.617670    5.700221   -1.049695
  23 H   1.0000    1     1.008    0.966452    7.432231   -0.118672
  24 O   8.0000    1    15.999    4.253500    5.374257   -0.592447
  25 H   1.0000    1     1.008   -3.109142    3.857698   -1.357962
  26 H   1.0000    1     1.008    4.389053    1.668149   -0.805622
  27 H   1.0000    1     1.008   -1.886231    1.488882   -7.455284
  28 H   1.0000    1     1.008   -2.284152   -1.154757   -5.418286
  29 H   1.0000    1     1.008   -7.991227   -0.322726    0.001809
  30 H   1.0000    1     1.008   -5.453649   -2.057481   -1.258980
  31 H   1.0000    1     1.008   -8.330170   -3.587146   -0.569861
  32 H   1.0000    1     1.008  -11.925423    0.409095   -2.612268
  33 H   1.0000    1     1.008  -12.184626   -2.822307   -3.343108
  34 H   1.0000    1     1.008  -12.042567   -0.570216   -5.790996
  35 H   1.0000    1     1.008   -5.674665   -3.728277   -5.779417
  36 H   1.0000    1     1.008   -8.384080   -3.140191   -7.624664
  37 H   1.0000    1     1.008   -8.544207   -5.234571   -5.046849
  38 H   1.0000    1     1.008   -8.674207    4.481588   -1.577588
  39 H   1.0000    1     1.008  -10.628539    4.700636   -4.255132
  40 H   1.0000    1     1.008   -7.828837    6.472768   -4.087417
  41 H   1.0000    1     1.008   -6.243864    0.648357   -9.652987
  42 H   1.0000    1     1.008   -6.489334    3.949615   -9.420260
  43 H   1.0000    1     1.008   -9.213668    2.068359   -9.260039
  44 H   1.0000    1     1.008   -3.762171    8.019447   -6.991462
  45 H   1.0000    1     1.008   -1.320863    6.059858   -8.207872
  46 H   1.0000    1     1.008   -0.630567    9.218765   -7.211586
  47 H   1.0000    1     1.008    5.107091    6.915091   -1.073416

      -----------------------------------------------------------      
     |                   =====================                   |     
     |                           x T B                           |     
     |                   =====================                   |     
     |                         S. Grimme                         |     
     |          Mulliken Center for Theoretical Chemistry        |     
     |                    University of Bonn                     |     
      -----------------------------------------------------------      

   * xtb version 6.7.1 (edcfbbe) compiled by 'albert@albert-system' on 2024-07-22

   xtb is free software: you can redistribute it and/or modify it under
   the terms of the GNU Lesser General Public License as published by
   the Free Software Foundation, either version 3 of the License, or
   (at your option) any later version.
   
   xtb is distributed in the hope that it will be useful,
   but WITHOUT ANY WARRANTY; without even the implied warranty of
   MERCHANTABILITY or FITNESS FOR A PARTICULAR PURPOSE.  See the
   GNU Lesser General Public License for more details.
   
   Cite this work as:
   * C. Bannwarth, E. Caldeweyher, S. Ehlert, A. Hansen, P. Pracht,
     J. Seibert, S. Spicher, S. Grimme, WIREs Comput. Mol. Sci., 2020, 11,
     e01493. DOI: 10.1002/wcms.1493
   
   for GFN2-xTB:
   * C. Bannwarth, S. Ehlert and S. Grimme., J. Chem. Theory Comput., 2019,
     15, 1652-1671. DOI: 10.1021/acs.jctc.8b01176
   for GFN1-xTB:
   * S. Grimme, C. Bannwarth, P. Shushkov, J. Chem. Theory Comput., 2017,
     13, 1989-2009. DOI: 10.1021/acs.jctc.7b00118
   for GFN0-xTB:
   * P. Pracht, E. Caldeweyher, S. Ehlert, S. Grimme, ChemRxiv, 2019, preprint.
     DOI: 10.26434/chemrxiv.8326202.v1
   for GFN-FF:
   * S. Spicher and S. Grimme, Angew. Chem. Int. Ed., 2020, 59, 15665-15673.
     DOI: 10.1002/anie.202004239
   
   for ALPB and GBSA implicit solvation:
   * S. Ehlert, M. Stahn, S. Spicher, S. Grimme, J. Chem. Theory Comput.,
     2021, 17, 4250-4261. DOI: 10.1021/acs.jctc.1c00471
   
   for ddCOSMO and CPCM-X implicit solvation:
   * M. Stahn, S. Ehlert, S. Grimme, J. Phys. Chem. A,
     2023, XX, XXXX-XXXX. DOI: 10.1021/acs.jpca.3c04382
   
   for DFT-D4:
   * E. Caldeweyher, C. Bannwarth and S. Grimme, J. Chem. Phys., 2017,
     147, 034112. DOI: 10.1063/1.4993215
   * E. Caldeweyher, S. Ehlert, A. Hansen, H. Neugebauer, S. Spicher,
     C. Bannwarth and S. Grimme, J. Chem. Phys., 2019, 150, 154122.
     DOI: 10.1063/1.5090222
   * E. Caldeweyher, J.-M. Mewes, S. Ehlert and S. Grimme, Phys. Chem. Chem. Phys.
     2020, 22, 8499-8512. DOI: 10.1039/D0CP00502A
   
   for sTDA-xTB:
   * S. Grimme and C. Bannwarth, J. Chem. Phys., 2016, 145, 054103.
     DOI: 10.1063/1.4959605
   
   in the mass-spec context:
   * V. Asgeirsson, C. Bauer and S. Grimme, Chem. Sci., 2017, 8, 4879.
     DOI: 10.1039/c7sc00601b
   * J. Koopman and S. Grimme, ACS Omega 2019, 4, 12, 15120-15133.
     DOI: 10.1021/acsomega.9b02011
   
   for metadynamics refer to:
   * S. Grimme, J. Chem. Theory Comput., 2019, 155, 2847-2862
     DOI: 10.1021/acs.jctc.9b00143
   
   for SPH calculations refer to:
   * S. Spicher and S. Grimme, J. Chem. Theory Comput., 2021, 17, 1701-1714
     DOI: 10.1021/acs.jctc.0c01306
   
   for ONIOM refer to:
   * C. Plett, A. Katbashev, S. Ehlert, S. Grimme, M. Bursch,
     Phys. Chem. Chem. Phys., 2023, 25, 17860-17868. DOI: 10.1039/D3CP02178E
   
   for DIPRO refer to:
   * J. Kohn, N. Gildemeister, S. Grimme, D. Fazzi, A. Hansen,
     J. Chem. Phys., 2023, just accepted.
   
   for PTB refer to:
   * S. Grimme, M. Mueller, A. Hansen, J. Chem. Phys., 2023, 158, 124111.
     DOI: 10.1063/5.0137838
   
   with help from (in alphabetical order)
   P. Atkinson, C. Bannwarth, F. Bohle, G. Brandenburg, E. Caldeweyher
   M. Checinski, S. Dohm, S. Ehlert, S. Ehrlich, I. Gerasimov, C. Hölzer
   A. Katbashev, J. Kohn, J. Koopman, C. Lavigne, S. Lehtola, F. März, M. Müller,
   F. Musil, H. Neugebauer, J. Pisarek, C. Plett, P. Pracht, F. Pultar,
   J. Seibert, P. Shushkov, S. Spicher, M. Stahn, M. Steiner, T. Strunk,
   J. Stückrath, T. Rose, and J. Unsleber
   
 * started run on 2025/09/10 at 11:36:45.281     
   ID    Z sym.   atoms
    1    8 O      1, 6, 10, 18, 21, 25
    2    6 C      2, 4, 7, 9, 12-17, 19, 22, 23
    3    1 H      3, 5, 8, 20, 24, 26-48
    4   14 Si     11

           -------------------------------------------------
          |                Calculation Setup                |
           -------------------------------------------------

          program call               : /home/kmoult/orca_6_1/otool_xtb goat_0_XTB.xyz --grad -c 0 -u 0 -P 4 --namespace goat_0 --input goat_0_XTB.input.tmp --alpb ACETONE --acc 0.200000
          hostname                   : node1600
          calculation namespace      : goat_0
          coordinate file            : goat_0_XTB.xyz
          omp threads                :                     4


           -------------------------------------------------
          |                 G F N 2 - x T B                 |
           -------------------------------------------------

        Reference                      10.1021/acs.jctc.8b01176
      * Hamiltonian:
        H0-scaling (s, p, d)           1.850000    2.230000    2.230000
        zeta-weighting                 0.500000
      * Dispersion:
        s8                             2.700000
        a1                             0.520000
        a2                             5.000000
        s9                             5.000000
      * Repulsion:
        kExp                           1.500000    1.000000
        rExp                           1.000000
      * Coulomb:
        alpha                          2.000000
        third order                    shell-resolved
        anisotropic                    true
        a3                             3.000000
        a5                             4.000000
        cn-shift                       1.200000
        cn-exp                         4.000000
        max-rad                        5.000000

      * Solvation model:               ALPB
        Solvent                        ACETONE
        Parameter file                 internal GFN2-xTB/ALPB
        Dielectric constant                2.0700E+01
        Reference state                gsolv [1 M gas/solution]
        Free energy shift                  5.9241E-03 Eh       3.7175E+00 kcal/mol
        Temperature                        2.9815E+02 K
        Density                            7.9000E-01 kg/L
        Solvent mass                       5.8080E+01 g/mol
        Interaction kernel             P16
        Born radius scaling (c1)           1.8274E+00
        Born radii integrator          GBOBC
        Born offset                        0.0000E+00 a0       0.0000E+00 AA
        H-bond correction              true
        Ion screening                  false
        Surface tension                    1.0000E-05 Eh       1.5569E+01 dyn/cm
        Grid points                               230 per atom
q/qsh data taken from xtbrestart
CAMM data taken from xtbrestart

          ...................................................
          :                      SETUP                      :
          :.................................................:
          :  # basis functions                 114          :
          :  # atomic orbitals                 113          :
          :  # shells                           69          :
          :  # electrons                       120          :
          :  max. iterations                   250          :
          :  Hamiltonian                  GFN2-xTB          :
          :  restarted?                       true          :
          :  GBSA solvation                   true          :
          :  PC potential                    false          :
          :  electronic temp.          300.0000000     K    :
          :  accuracy                    0.2000000          :
          :  -> integral cutoff          0.3198970E+02      :
          :  -> integral neglect         0.2000000E-08      :
          :  -> SCF convergence          0.2000000E-06 Eh   :
          :  -> wf. convergence          0.2000000E-04 e    :
          :  Broyden damping             0.4000000          :
          :  net charge                          0          :
          :  unpaired electrons                  0          :
          ...................................................

 iter      E             dE          RMSdq      gap      omega  full diag
   1    -68.9800654 -0.689801E+02  0.284E-01    6.18       0.0  T
   2    -68.9801607 -0.952728E-04  0.203E-01    6.15       1.0  T
   3    -68.9800294  0.131270E-03  0.852E-02    6.20       1.0  T
   4    -68.9801732 -0.143788E-03  0.442E-02    6.15       1.0  T
   5    -68.9802009 -0.276681E-04  0.260E-02    6.17       1.0  T
   6    -68.9802029 -0.199182E-05  0.709E-03    6.16       2.0  T
   7    -68.9802031 -0.266570E-06  0.409E-03    6.16       3.5  T
   8    -68.9802033 -0.108164E-06  0.131E-03    6.16      11.1  T
   9    -68.9802033 -0.511076E-08  0.665E-04    6.16      21.7  T
  10    -68.9802033 -0.116623E-08  0.202E-04    6.16      71.4  T
  11    -68.9802033 -0.223153E-09  0.968E-05    6.16     149.0  T
  12    -68.9802033 -0.208331E-10  0.300E-05    6.16     480.7  T

   *** convergence criteria satisfied after 12 iterations ***

         #    Occupation            Energy/Eh            Energy/eV
      -------------------------------------------------------------
         1        2.0000           -0.7744311             -21.0733
       ...           ...                  ...                  ...
        54        2.0000           -0.4209409             -11.4544
        55        2.0000           -0.4207663             -11.4496
        56        2.0000           -0.4166628             -11.3380
        57        2.0000           -0.4040856             -10.9957
        58        2.0000           -0.3982875             -10.8380
        59        2.0000           -0.3977927             -10.8245
        60        2.0000           -0.3654987              -9.9457 (HOMO)
        61                         -0.1390373              -3.7834 (LUMO)
        62                         -0.1259363              -3.4269
        63                         -0.1212581              -3.2996
        64                         -0.0324030              -0.8817
        65                         -0.0206136              -0.5609
       ...                                ...                  ...
       113                          0.7127165              19.3940
      -------------------------------------------------------------
                  HL-Gap            0.2264613 Eh            6.1623 eV
             Fermi-level           -0.2522680 Eh           -6.8646 eV

 SCC (total)                   0 d,  0 h,  0 min,  0.040 sec
 SCC setup                      ...        0 min,  0.001 sec (  1.419%)
 Dispersion                     ...        0 min,  0.000 sec (  0.674%)
 classical contributions        ...        0 min,  0.000 sec (  0.091%)
 integral evaluation            ...        0 min,  0.016 sec ( 40.592%)
 iterations                     ...        0 min,  0.016 sec ( 39.764%)
 molecular gradient             ...        0 min,  0.007 sec ( 17.090%)
 printout                       ...        0 min,  0.000 sec (  0.340%)

         :::::::::::::::::::::::::::::::::::::::::::::::::::::
         ::                     SUMMARY                     ::
         :::::::::::::::::::::::::::::::::::::::::::::::::::::
         :: total energy             -68.313449869632 Eh    ::
         :: total w/o Gsasa/hb       -68.287585029594 Eh    ::
         :: gradient norm              0.049325113612 Eh/a0 ::
         :: HOMO-LUMO gap              6.162326375675 eV    ::
         ::.................................................::
         :: SCC energy               -68.978892362429 Eh    ::
         :: -> isotropic ES            0.162512401774 Eh    ::
         :: -> anisotropic ES          0.003820814797 Eh    ::
         :: -> anisotropic XC          0.005393613573 Eh    ::
         :: -> dispersion             -0.048483244062 Eh    ::
         :: -> Gsolv                  -0.029697655375 Eh    ::
         ::    -> Gelec               -0.003832815337 Eh    ::
         ::    -> Gsasa               -0.026578135852 Eh    ::
         ::    -> Ghb                 -0.005210845451 Eh    ::
         ::    -> Gshift               0.005924141264 Eh    ::
         :: repulsion energy           0.665442492797 Eh    ::
         :: add. restraining           0.000000000000 Eh    ::
         :: total charge              -0.000000000000 e     ::
         :::::::::::::::::::::::::::::::::::::::::::::::::::::


Property printout bound to 'properties.out'

           -------------------------------------------------
          | TOTAL ENERGY              -68.313449869632 Eh   |
          | GRADIENT NORM               0.049325113612 Eh/α |
          | HOMO-LUMO GAP               6.162326375675 eV   |
           -------------------------------------------------

------------------------------------------------------------------------
 * finished run on 2025/09/10 at 11:36:45.343     
------------------------------------------------------------------------
 total:
 * wall-time:     0 d,  0 h,  0 min,  0.061 sec
 *  cpu-time:     0 d,  0 h,  0 min,  0.211 sec
 * ratio c/w:     3.459 speedup
 SCF:
 * wall-time:     0 d,  0 h,  0 min,  0.040 sec
 *  cpu-time:     0 d,  0 h,  0 min,  0.147 sec
 * ratio c/w:     3.688 speedup


-------------------------   --------------------
FINAL SINGLE POINT ENERGY       -68.313449869630
-------------------------   --------------------


-------------
DIPOLE MOMENT
-------------
                                X             Y             Z
Total Dipole Moment    :     -0.17700       1.24100      -1.79000
                        -----------------------------------------
Magnitude (a.u.)       :      2.18529
Magnitude (Debye)      :      5.55458


------------------
CARTESIAN GRADIENT
------------------

   1   O   :   -0.006137218    0.000159506    0.001843888
   2   C   :    0.012532258   -0.000382280   -0.001882605
   3   H   :   -0.001013061    0.000576737   -0.000102421
   4   C   :   -0.014198486    0.001929956   -0.000331511
   5   H   :    0.001904231   -0.000098313    0.000230386
   6   O   :    0.006526336   -0.002228299    0.000088819
   7   C   :    0.001983039   -0.002375654    0.005338832
   8   H   :   -0.001417180   -0.000111725   -0.000998548
   9   C   :    0.003156992   -0.003756184   -0.008696112
  10   O   :    0.009256355    0.003771238    0.011530419
  11   Si  :    0.003850985    0.019181778   -0.015603382
  12   C   :   -0.010277168   -0.017837889    0.007336191
  13   C   :    0.000155153    0.002129652   -0.002131814
  14   C   :    0.003014942    0.000941597   -0.000714167
  15   C   :    0.000552477    0.003436235    0.000876845
  16   C   :   -0.005252356   -0.003310272   -0.001869685
  17   C   :   -0.002238984   -0.000755562    0.005828600
  18   O   :    0.000483073   -0.003411756   -0.004031426
  19   C   :    0.006814003    0.002015521    0.001837534
  20   H   :   -0.002364276    0.001010381    0.003112394
  21   O   :   -0.005592032   -0.000682001   -0.000765516
  22   C   :    0.003169843   -0.000492346    0.000693717
  23   C   :   -0.010195522    0.000354525   -0.002043224
  24   H   :    0.003755888   -0.000008709    0.000985579
  25   O   :    0.007328880   -0.003620665    0.001912288
  26   H   :    0.000486461    0.000147772   -0.002549445
  27   H   :   -0.000090175    0.002556377    0.000303567
  28   H   :   -0.000737501    0.000367328    0.000394810
  29   H   :   -0.000541866    0.000558448    0.000338682
  30   H   :    0.000034495   -0.000205847    0.000517383
  31   H   :    0.000135744   -0.000323852    0.000365811
  32   H   :    0.000112208   -0.000139060    0.000415003
  33   H   :   -0.000913966   -0.000057518    0.000132524
  34   H   :   -0.000573829    0.000118295    0.000154036
  35   H   :   -0.000577134    0.000131239    0.000001338
  36   H   :   -0.000079418   -0.000488087   -0.000422216
  37   H   :    0.000263298   -0.000457665   -0.000542116
  38   H   :   -0.000000095   -0.000465523   -0.000421936
  39   H   :    0.000302522   -0.001204718    0.000170986
  40   H   :   -0.000303569    0.000325581    0.000129048
  41   H   :    0.000977718   -0.000072921   -0.001440975
  42   H   :    0.000485052   -0.000639317    0.000798123
  43   H   :    0.000580991    0.000679403    0.000685322
  44   H   :   -0.000416688   -0.000142921    0.000709618
  45   H   :   -0.000115892    0.000923730   -0.002340069
  46   H   :   -0.001436839   -0.000518079    0.000159297
  47   H   :   -0.001326630    0.000422918    0.000469581
  48   H   :   -0.002063062    0.002048947   -0.000473453

Difference to translation invariance:
           :    0.0000000000    0.0000000000   -0.0000000000

Difference to rotation invariance:
           :    0.0003597078   -0.0010770138    0.0005653315

Norm of the Cartesian gradient     ...    0.0493251136
RMS gradient                       ...    0.0041104261
MAX gradient                       ...    0.0191817784
------------------------------------------------------------------------------
                         ORCA GEOMETRY RELAXATION STEP
------------------------------------------------------------------------------

Reading the OPT-File                    .... done
Getting information on internals        .... done
Copying old internal coords+grads       .... done
Making the new internal coordinates     .... (2022 redundants) done
Validating the new internal coordinates .... (2022 redundants) done
Calculating the B-matrix                .... done
Calculating the G,G- and P matrices     .... done
Transforming gradient to internals      .... done
Projecting the internal gradient        .... done
Number of atoms                         ....  48
Number of internal coordinates          .... 234
Current Energy                          ....   -68.313449870 Eh
Current gradient norm                   ....     0.049325114 Eh/bohr
Maximum allowed component of the step   ....  0.300
Current trust radius                    ....  0.300
Updating the Hessian (BFGS)             .... done
Forming the augmented Hessian           .... done
Diagonalizing the augmented Hessian     .... done
Last element of RFO vector              ....  0.958917318
Lowest eigenvalues of augmented Hessian:
 -0.007899431  0.010000000  0.010000000  0.010000451  0.010012251
Length of the computed step             ....  0.295839585
The final length of the internal step   ....  0.295839585
Converting the step to Cartesian space:
 Initial RMS(Int)=    0.0193396387
Transforming coordinates:
 Iter   0:  RMS(Cart)=    0.0827691421 RMS(Int)=    0.4086044323
 Iter   5:  RMS(Cart)=    0.0000000333 RMS(Int)=    0.0000000145
done
Storing new coordinates                 .... done
The predicted energy change is          ....    -0.004295399
Previously predicted energy change      ....    -0.007402175
Actually observed energy change         ....    -0.009918935
Ratio of predicted to observed change   ....     1.340002829
New trust radius                        ....     0.300000000

                                .--------------------.
          ----------------------|Geometry convergence|-------------------------
          Item                value                   Tolerance       Converged
          ---------------------------------------------------------------------
          Energy change      -0.0099189350            0.0000050000      NO
          RMS gradient        0.0022043582            0.0001000000      NO
          MAX gradient        0.0164053898            0.0003000000      NO
          RMS step            0.0193396387            0.0020000000      NO
          MAX step            0.1456647882            0.0040000000      NO
          -------------------------------------------------------------------------
          ........................................................
          Max(Bonds)      0.0771      Max(Angles)    2.83
          Max(Dihed)        2.63      Max(Improp)    0.00
          ---------------------------------------------------------------------

    ---------------------------------------------------------------------------
                         Redundant Internal Coordinates
                            (Angstroem and degrees)

        Definition                    Value    dE/dq     Step     New-Value
    ----------------------------------------------------------------------------
     1. B(C   1,O   0)                1.4064  0.005473 -0.0149    1.3916   
     2. B(H   2,C   1)                1.0968 -0.000515  0.0011    1.0979   
     3. B(C   3,C   1)                1.5368 -0.002391  0.0032    1.5400   
     4. B(H   4,C   3)                1.0920 -0.001037  0.0016    1.0936   
     5. B(O   5,C   3)                1.4252  0.005984 -0.0167    1.4085   
     6. B(C   6,C   3)                1.5420 -0.000833  0.0012    1.5432   
     7. B(H   7,C   6)                1.0978 -0.000366  0.0007    1.0985   
     8. B(C   8,C   6)                1.5404 -0.000040 -0.0009    1.5395   
     9. B(O   9,C   8)                1.4102  0.005660 -0.0134    1.3968   
    10. B(Si 10,O   9)                1.6732  0.011156 -0.0143    1.6590   
    11. B(C  11,Si 10)                2.0147  0.016405 -0.0771    1.9376   
    12. B(C  12,C  11)                1.5267 -0.000898 -0.0021    1.5246   
    13. B(C  13,C  11)                1.5255 -0.000850 -0.0025    1.5230   
    14. B(C  14,C  11)                1.5282 -0.001047 -0.0011    1.5271   
    15. B(C  15,Si 10)                1.8903 -0.002359  0.0061    1.8964   
    16. B(C  16,Si 10)                1.8907 -0.007875  0.0195    1.9102   
    17. B(O  17,C   6)                1.4279  0.000851 -0.0048    1.4231   
    18. B(C  18,O  17)                1.4081  0.004470 -0.0122    1.3959   
    19. B(H  19,C  18)                1.1026 -0.001917  0.0060    1.1086   
    20. B(O  20,C  18)                1.4055  0.005189 -0.0136    1.3919   
    21. B(C  21,O  20)                1.4144  0.001022 -0.0037    1.4107   
    22. B(C  22,C  18)                1.5356 -0.000634 -0.0003    1.5353   
    23. B(C  22,C   1)                1.5330 -0.002839  0.0058    1.5388   
    24. B(H  23,C  22)                1.0961 -0.000749  0.0017    1.0979   
    25. B(O  24,C  22)                1.4261  0.005558 -0.0150    1.4111   
    26. B(H  25,O   0)                0.9784  0.001382 -0.0032    0.9752   
    27. B(H  25,O  20)                2.3555 -0.000012  0.0101    2.3655   
    28. B(H  25,O   9)                1.8030 -0.000871  0.0217    1.8247   
    29. B(H  26,O   5)                0.9725  0.001837 -0.0050    0.9675   
    30. B(H  26,O  24)                1.9657 -0.000215  0.0252    1.9909   
    31. B(H  27,C   8)                1.0925 -0.000284 -0.0004    1.0921   
    32. B(H  28,C   8)                1.0932 -0.000445  0.0005    1.0937   
    33. B(H  29,C  12)                1.0874  0.000168 -0.0026    1.0848   
    34. B(H  30,C  12)                1.0881  0.000175 -0.0025    1.0855   
    35. B(H  31,C  12)                1.0916  0.000217 -0.0017    1.0900   
    36. B(H  32,C  13)                1.0870  0.000321 -0.0030    1.0840   
    37. B(H  33,C  13)                1.0910  0.000183 -0.0018    1.0892   
    38. B(H  34,C  13)                1.0876  0.000229 -0.0027    1.0850   
    39. B(H  35,C  14)                1.0882 -0.000005 -0.0015    1.0868   
    40. B(H  36,C  14)                1.0878  0.000345 -0.0029    1.0850   
    41. B(H  37,C  14)                1.0917  0.000265 -0.0018    1.0899   
    42. B(H  38,C  15)                1.0847  0.000283 -0.0031    1.0817   
    43. B(H  39,C  15)                1.0829  0.000252 -0.0034    1.0794   
    44. B(H  40,C  15)                1.0863  0.000673 -0.0037    1.0827   
    45. B(H  41,C  16)                1.0871  0.000340 -0.0025    1.0846   
    46. B(H  42,C  16)                1.0879  0.000560 -0.0030    1.0850   
    47. B(H  43,C  16)                1.0849  0.000219 -0.0029    1.0820   
    48. B(H  44,C  21)                1.0886  0.000512 -0.0025    1.0861   
    49. B(H  45,C  21)                1.0930 -0.000047 -0.0001    1.0929   
    50. B(H  46,C  21)                1.0952 -0.000473  0.0014    1.0966   
    51. B(H  47,O  24)                0.9663  0.000890 -0.0038    0.9625   
    52. A(C   1,O   0,H  25)          107.38 -0.002222    0.55    107.93   
    53. A(H   2,C   1,C   3)          107.88  0.000516   -0.36    107.52   
    54. A(O   0,C   1,H   2)          105.59  0.000480   -0.05    105.54   
    55. A(C   3,C   1,C  22)          110.06  0.002176   -0.69    109.37   
    56. A(O   0,C   1,C  22)          111.55 -0.000754    0.36    111.91   
    57. A(O   0,C   1,C   3)          113.46 -0.002013    0.82    114.27   
    58. A(H   2,C   1,C  22)          108.00 -0.000389   -0.11    107.89   
    59. A(H   4,C   3,O   5)          105.69  0.000914   -0.37    105.32   
    60. A(C   1,C   3,C   6)          114.24  0.001115   -0.26    113.98   
    61. A(C   1,C   3,H   4)          109.88  0.000659   -0.91    108.96   
    62. A(C   1,C   3,O   5)          109.02 -0.001753    1.08    110.10   
    63. A(O   5,C   3,C   6)          108.37 -0.002013    1.32    109.69   
    64. A(H   4,C   3,C   6)          109.29  0.001016   -0.80    108.49   
    65. A(C   3,O   5,H  26)          106.70 -0.002429    0.52    107.22   
    66. A(H   7,C   6,C   8)          104.99 -0.000830    0.43    105.42   
    67. A(C   3,C   6,C   8)          115.03  0.001941   -0.57    114.46   
    68. A(C   3,C   6,H   7)          106.73  0.000346   -0.51    106.23   
    69. A(C   3,C   6,O  17)          113.90  0.000057   -0.05    113.85   
    70. A(C   8,C   6,O  17)          112.19 -0.001910    0.78    112.97   
    71. A(H   7,C   6,O  17)          102.59  0.000258   -0.06    102.53   
    72. A(H  27,C   8,H  28)          108.92  0.000618   -0.21    108.71   
    73. A(C   6,C   8,O   9)          112.84 -0.001062    0.34    113.17   
    74. A(C   6,C   8,H  27)          108.44  0.001337   -0.52    107.92   
    75. A(O   9,C   8,H  28)          109.01 -0.000915    0.32    109.33   
    76. A(O   9,C   8,H  27)          109.69 -0.000401    0.12    109.82   
    77. A(C   6,C   8,H  28)          107.86  0.000502   -0.07    107.79   
    78. A(C   8,O   9,Si 10)          121.96 -0.011877    2.83    124.79   
    79. A(C  15,Si 10,C  16)          109.81 -0.002025    0.75    110.56   
    80. A(C  11,Si 10,C  16)          108.69  0.000558    0.95    109.65   
    81. A(O   9,Si 10,C  16)          112.94  0.000085   -0.70    112.23   
    82. A(C  11,Si 10,C  15)          107.93 -0.002807    1.76    109.70   
    83. A(O   9,Si 10,C  15)          107.78  0.005196   -2.80    104.98   
    84. A(O   9,Si 10,C  11)          109.57 -0.001164    0.22    109.79   
    85. A(C  12,C  11,C  14)          109.43  0.000761   -0.63    108.80   
    86. A(C  13,C  11,C  14)          108.80  0.000581   -0.57    108.23   
    87. A(Si 10,C  11,C  13)          109.59 -0.000232    0.40    109.99   
    88. A(Si 10,C  11,C  14)          110.74 -0.001117    0.97    111.71   
    89. A(Si 10,C  11,C  12)          108.82 -0.000263    0.39    109.21   
    90. A(C  12,C  11,C  13)          109.44  0.000284   -0.55    108.89   
    91. A(H  29,C  12,H  31)          108.00 -0.000496    0.27    108.27   
    92. A(C  11,C  12,H  31)          110.69  0.000303   -0.09    110.61   
    93. A(H  29,C  12,H  30)          107.83 -0.000366    0.10    107.93   
    94. A(C  11,C  12,H  30)          111.12  0.000394   -0.23    110.89   
    95. A(C  11,C  12,H  29)          111.16  0.000586   -0.29    110.87   
    96. A(H  30,C  12,H  31)          107.89 -0.000492    0.27    108.17   
    97. A(H  32,C  13,H  33)          107.69 -0.000816    0.40    108.09   
    98. A(C  11,C  13,H  33)          110.50  0.000461   -0.19    110.30   
    99. A(C  11,C  13,H  32)          111.21  0.000948   -0.40    110.81   
   100. A(C  11,C  13,H  34)          111.20  0.000488   -0.26    110.94   
   101. A(H  33,C  13,H  34)          107.93 -0.000489    0.21    108.14   
   102. A(H  32,C  13,H  34)          108.17 -0.000696    0.29    108.46   
   103. A(H  36,C  14,H  37)          107.67 -0.000776    0.32    107.99   
   104. A(H  35,C  14,H  37)          107.52 -0.000403    0.18    107.70   
   105. A(C  11,C  14,H  37)          110.48  0.000501   -0.20    110.28   
   106. A(H  35,C  14,H  36)          108.17 -0.000719    0.33    108.50   
   107. A(C  11,C  14,H  36)          111.25  0.000556   -0.26    110.99   
   108. A(C  11,C  14,H  35)          111.58  0.000736   -0.32    111.26   
   109. A(H  39,C  15,H  40)          108.06  0.000335   -0.09    107.97   
   110. A(H  38,C  15,H  40)          107.73  0.001728   -0.64    107.08   
   111. A(H  38,C  15,H  39)          108.40  0.000259   -0.17    108.22   
   112. A(Si 10,C  15,H  39)          110.69  0.001113   -0.34    110.35   
   113. A(Si 10,C  15,H  38)          111.00 -0.001339    0.48    111.48   
   114. A(Si 10,C  15,H  40)          110.84 -0.001997    0.74    111.58   
   115. A(H  42,C  16,H  43)          107.66  0.001028   -0.43    107.22   
   116. A(H  41,C  16,H  43)          107.74  0.000875   -0.38    107.36   
   117. A(Si 10,C  16,H  43)          110.93 -0.000648    0.23    111.16   
   118. A(H  41,C  16,H  42)          107.68  0.001022   -0.35    107.32   
   119. A(Si 10,C  16,H  41)          111.75 -0.001210    0.49    112.24   
   120. A(Si 10,C  16,H  42)          110.91 -0.000895    0.38    111.29   
   121. A(C   6,O  17,C  18)          117.27 -0.001753    1.06    118.32   
   122. A(O  17,C  18,H  19)          104.53  0.002410   -1.51    103.02   
   123. A(O  20,C  18,C  22)          109.56  0.003771   -1.37    108.19   
   124. A(H  19,C  18,C  22)          108.09 -0.002466    1.12    109.21   
   125. A(O  17,C  18,C  22)          112.17 -0.000415    0.19    112.37   
   126. A(H  19,C  18,O  20)          108.96 -0.000712    0.52    109.48   
   127. A(O  17,C  18,O  20)          113.26 -0.002787    1.09    114.35   
   128. A(C  18,O  20,C  21)          112.74 -0.004383    1.19    113.93   
   129. A(H  44,C  21,H  46)          109.04 -0.001911    0.81    109.85   
   130. A(H  45,C  21,H  46)          109.82  0.001057   -0.52    109.30   
   131. A(O  20,C  21,H  46)          110.54 -0.000164    0.02    110.56   
   132. A(H  44,C  21,H  45)          109.11 -0.001786    0.77    109.88   
   133. A(O  20,C  21,H  45)          111.11 -0.000445    0.08    111.19   
   134. A(O  20,C  21,H  44)          107.15  0.003213   -1.14    106.01   
   135. A(H  23,C  22,O  24)          109.41 -0.001952    1.50    110.92   
   136. A(C  18,C  22,O  24)          109.67 -0.000689    0.37    110.04   
   137. A(C   1,C  22,O  24)          107.93  0.001311   -0.33    107.61   
   138. A(C  18,C  22,H  23)          109.37  0.001308   -0.79    108.58   
   139. A(C   1,C  22,H  23)          109.04 -0.000275   -0.52    108.52   
   140. A(C   1,C  22,C  18)          111.38  0.000237   -0.19    111.19   
   141. A(C  22,O  24,H  47)          108.09 -0.005032    1.63    109.71   
   142. D(H   2,C   1,O   0,H  25)   -170.11 -0.000644    1.13   -168.98   
   143. D(C  22,C   1,O   0,H  25)     72.81 -0.000074    1.11     73.91   
   144. D(C   3,C   1,O   0,H  25)    -52.17 -0.000808    1.10    -51.07   
   145. D(H   4,C   3,C   1,C  22)   -168.62  0.000305    0.60   -168.02   
   146. D(O   5,C   3,C   1,C  22)     75.99 -0.000167    0.92     76.91   
   147. D(O   5,C   3,C   1,H   2)    -41.63 -0.001207    1.66    -39.97   
   148. D(H   4,C   3,C   1,H   2)     73.76 -0.000735    1.33     75.10   
   149. D(O   5,C   3,C   1,O   0)   -158.23 -0.000969    1.48   -156.75   
   150. D(H   4,C   3,C   1,O   0)    -42.84 -0.000497    1.15    -41.69   
   151. D(H  26,O   5,C   3,H   4)   -163.71  0.000485   -1.10   -164.81   
   152. D(H  26,O   5,C   3,C   6)     79.24 -0.000189   -0.63     78.61   
   153. D(H  26,O   5,C   3,C   1)    -45.65  0.000871   -1.81    -47.47   
   154. D(H   7,C   6,C   3,O   5)     33.00  0.001768   -2.50     30.50   
   155. D(H   7,C   6,C   3,H   4)    -81.72  0.001234   -2.36    -84.08   
   156. D(H   7,C   6,C   3,C   1)    154.74 -0.001216   -0.35    154.39   
   157. D(C   8,C   6,C   3,H   4)     34.29  0.001528   -2.49     31.80   
   158. D(C   8,C   6,C   3,C   1)    -89.26 -0.000923   -0.48    -89.74   
   159. D(C   8,C   6,C   3,O   5)    149.00  0.002061   -2.63    146.37   
   160. D(H  27,C   8,C   6,O  17)     37.96 -0.000478   -0.27     37.68   
   161. D(H  27,C   8,C   6,H   7)    -72.71  0.000507   -0.77    -73.48   
   162. D(H  27,C   8,C   6,C   3)    170.28 -0.000415   -0.13    170.16   
   163. D(O   9,C   8,C   6,O  17)    -83.77 -0.000215   -0.29    -84.06   
   164. D(O   9,C   8,C   6,C   3)     48.56 -0.000151   -0.14     48.42   
   165. D(O   9,C   8,C   6,H   7)    165.56  0.000770   -0.78    164.78   
   166. D(Si 10,O   9,C   8,H  27)     57.21  0.000127   -1.05     56.17   
   167. D(Si 10,O   9,C   8,C   6)    178.23  0.000837   -1.39    176.84   
   168. D(Si 10,O   9,C   8,H  28)    -61.97  0.000165   -1.05    -63.02   
   169. D(C  16,Si 10,O   9,C   8)    -40.98  0.000616   -1.82    -42.79   
   170. D(C  15,Si 10,O   9,C   8)   -162.45 -0.000489   -0.28   -162.73   
   171. D(C  11,Si 10,O   9,C   8)     80.34  0.000557   -0.91     79.43   
   172. D(C  12,C  11,Si 10,O   9)     39.24  0.001428   -0.71     38.53   
   173. D(C  13,C  11,Si 10,C  16)    -77.28  0.001196   -1.03    -78.30   
   174. D(C  13,C  11,Si 10,C  15)     41.77 -0.002502    1.31     43.07   
   175. D(C  13,C  11,Si 10,O   9)    158.88  0.001477   -0.92    157.97   
   176. D(C  12,C  11,Si 10,C  16)    163.08  0.001147   -0.82    162.26   
   177. D(C  12,C  11,Si 10,C  15)    -77.87 -0.002551    1.51    -76.36   
   178. D(H  30,C  12,C  11,C  14)     59.90 -0.000920    1.02     60.92   
   179. D(H  30,C  12,C  11,C  13)    179.03  0.000415   -0.41    178.62   
   180. D(H  30,C  12,C  11,Si 10)    -61.24  0.000144   -0.02    -61.26   
   181. D(H  29,C  12,C  11,C  14)   -180.00 -0.000725    0.79   -179.21   
   182. D(H  29,C  12,C  11,C  13)    -60.86  0.000610   -0.64    -61.50   
   183. D(H  29,C  12,C  11,Si 10)     58.87  0.000339   -0.25     58.62   
   184. D(H  33,C  13,C  11,C  14)     56.91  0.000885   -0.76     56.16   
   185. D(H  33,C  13,C  11,C  12)    -62.61 -0.000555    0.71    -61.90   
   186. D(H  33,C  13,C  11,Si 10)    178.13 -0.000266    0.32    178.45   
   187. D(H  32,C  13,C  11,C  12)     56.93 -0.000659    0.82     57.75   
   188. D(H  32,C  13,C  11,Si 10)    -62.33 -0.000370    0.44    -61.89   
   189. D(H  32,C  13,C  11,C  14)    176.46  0.000781   -0.64    175.82   
   190. D(H  36,C  14,C  11,C  13)     59.69 -0.000482    0.29     59.98   
   191. D(H  36,C  14,C  11,C  12)    179.22  0.000661   -1.13    178.10   
   192. D(H  36,C  14,C  11,Si 10)    -60.81  0.000123   -0.44    -61.25   
   193. D(H  35,C  14,C  11,C  13)   -179.40 -0.000507    0.30   -179.10   
   194. D(H  35,C  14,C  11,C  12)    -59.87  0.000636   -1.11    -60.98   
   195. D(H  35,C  14,C  11,Si 10)     60.10  0.000098   -0.43     59.67   
   196. D(H  39,C  15,Si 10,C  16)     53.75 -0.001463    1.38     55.13   
   197. D(H  39,C  15,Si 10,C  11)    -64.59  0.000643   -1.12    -65.71   
   198. D(H  39,C  15,Si 10,O   9)    177.15  0.000723   -0.86    176.29   
   199. D(H  38,C  15,Si 10,C  16)    174.17 -0.001282    1.25    175.42   
   200. D(H  38,C  15,Si 10,C  11)     55.83  0.000824   -1.25     54.58   
   201. D(H  38,C  15,Si 10,O   9)    -62.43  0.000904   -0.99    -63.42   
   202. D(H  41,C  16,Si 10,C  15)   -179.75  0.003124   -2.27   -182.02   
   203. D(H  41,C  16,Si 10,C  11)    -61.88 -0.001100    0.77    -61.11   
   204. D(H  41,C  16,Si 10,O   9)     59.93 -0.002129    1.27     61.19   
   205. D(H  42,C  16,Si 10,C  15)     60.09  0.003253   -2.41     57.68   
   206. D(H  42,C  16,Si 10,C  11)    177.95 -0.000970    0.64    178.59   
   207. D(H  42,C  16,Si 10,O   9)    -60.24 -0.001999    1.13    -59.10   
   208. D(C  18,O  17,C   6,C   8)     86.08  0.000786    1.11     87.20   
   209. D(C  18,O  17,C   6,H   7)   -161.75 -0.000813    1.89   -159.86   
   210. D(C  18,O  17,C   6,C   3)    -46.80 -0.000226    1.23    -45.58   
   211. D(C  22,C  18,O  17,C   6)     53.66  0.001295   -1.35     52.31   
   212. D(O  20,C  18,O  17,C   6)    -70.99 -0.001240   -0.54    -71.53   
   213. D(H  19,C  18,O  17,C   6)    170.54 -0.000425   -0.81    169.73   
   214. D(C  21,O  20,C  18,C  22)    164.52 -0.000466    0.11    164.63   
   215. D(C  21,O  20,C  18,H  19)     46.46  0.000749   -0.77     45.68   
   216. D(C  21,O  20,C  18,O  17)    -69.42 -0.000132    0.12    -69.30   
   217. D(H  46,C  21,O  20,C  18)    -63.18 -0.000273   -0.29    -63.47   
   218. D(H  45,C  21,O  20,C  18)     59.01  0.000653   -0.88     58.13   
   219. D(H  44,C  21,O  20,C  18)    178.12  0.000205   -0.60    177.52   
   220. D(H  23,C  22,C  18,O  20)    -49.53 -0.001634    2.05    -47.48   
   221. D(H  23,C  22,C  18,H  19)     69.07 -0.001793    2.58     71.65   
   222. D(H  23,C  22,C  18,O  17)   -176.21 -0.000580    1.53   -174.68   
   223. D(C   1,C  22,C  18,O  20)     71.06 -0.000958    0.75     71.81   
   224. D(C   1,C  22,C  18,H  19)   -170.33 -0.001118    1.28   -169.05   
   225. D(C   1,C  22,C  18,O  17)    -55.61  0.000096    0.23    -55.38   
   226. D(H  23,C  22,C   1,C   3)    172.19 -0.000427   -0.29    171.90   
   227. D(H  23,C  22,C   1,H   2)    -70.28  0.001179   -1.18    -71.45   
   228. D(H  23,C  22,C   1,O   0)     45.33  0.001113   -1.11     44.23   
   229. D(C  18,C  22,C   1,C   3)     51.39 -0.002028    1.17     52.56   
   230. D(C  18,C  22,C   1,H   2)    168.93 -0.000423    0.28    169.21   
   231. D(C  18,C  22,C   1,O   0)    -75.46 -0.000488    0.35    -75.11   
   232. D(H  47,O  24,C  22,H  23)    -52.69  0.000086   -1.07    -53.76   
   233. D(H  47,O  24,C  22,C  18)     67.28  0.000066   -0.90     66.37   
   234. D(H  47,O  24,C  22,C   1)   -171.22  0.000752   -1.10   -172.32   
    ----------------------------------------------------------------------------

Geometry step timings:
Preparation and reading OPT file:      0.001 s ( 4.043 %)
Internal coordinates            :      0.000 s ( 0.171 %)
B/P matrices and projection     :      0.005 s (22.713 %)
Hessian update/contruction      :      0.009 s (42.837 %)
Making the step                 :      0.003 s (15.088 %)
Converting the step to Cartesian:      0.000 s ( 2.257 %)
Storing new data                :      0.001 s ( 4.379 %)
Checking convergence            :      0.000 s ( 0.186 %)
Final printing                  :      0.002 s ( 8.327 %)
Total time                      :      0.020 s

Time for energy+gradient        :      0.091 s
Time for complete geometry iter :      0.122 s

         *************************************************************
         *                GEOMETRY OPTIMIZATION CYCLE   3            *
         *************************************************************
---------------------------------
CARTESIAN COORDINATES (ANGSTROEM)
---------------------------------
  O    -1.305486    2.126889    0.133398
  C     0.058843    1.869170    0.041506
  H     0.405704    1.747894    1.076087
  C     0.409951    0.576780   -0.719310
  H    -0.287524   -0.211235   -0.421723
  O     1.682079    0.115962   -0.327879
  C     0.359664    0.719985   -2.255192
  H     1.040461   -0.042758   -2.657058
  C    -1.013324    0.412413   -2.880334
  O    -2.069391    1.060517   -2.235759
  Si   -3.656063    0.992179   -2.715389
  C    -4.450192   -0.673539   -2.124679
  C    -3.926328   -1.013895   -0.733938
  C    -5.965380   -0.533884   -2.059800
  C    -4.117201   -1.825047   -3.070822
  C    -4.497016    2.447007   -1.836457
  C    -3.845877    1.156286   -4.609001
  O     0.931471    1.930003   -2.739064
  C     0.599623    3.123272   -2.095365
  H     1.310932    3.850697   -2.535654
  O    -0.704634    3.553833   -2.320900
  C    -0.942783    3.990467   -3.641010
  C     0.825034    3.050811   -0.578512
  H     0.457334    3.980777   -0.125404
  O     2.195982    2.863355   -0.301739
  H    -1.683422    2.066423   -0.763364
  H     2.281576    0.874958   -0.352194
  H    -0.979650    0.713437   -3.929572
  H    -1.168065   -0.669136   -2.830503
  H    -4.157569   -0.222046   -0.029415
  H    -2.848804   -1.144946   -0.747549
  H    -4.376397   -1.937431   -0.369916
  H    -6.251715    0.225918   -1.341699
  H    -6.418989   -1.475850   -1.754493
  H    -6.371473   -0.261638   -3.028355
  H    -3.043713   -1.978845   -3.141812
  H    -4.504184   -1.634388   -4.066329
  H    -4.561554   -2.752055   -2.708691
  H    -4.468708    2.330178   -0.761484
  H    -5.529910    2.523041   -2.140665
  H    -4.010866    3.386509   -2.067155
  H    -3.344241    0.356330   -5.142669
  H    -3.431243    2.092891   -4.966725
  H    -4.887712    1.135145   -4.900398
  H    -1.996273    4.250904   -3.684964
  H    -0.724799    3.200285   -4.363830
  H    -0.331473    4.871224   -3.871601
  H     2.691134    3.643731   -0.570470

----------------------------
CARTESIAN COORDINATES (A.U.)
----------------------------
  NO LB    ZA    FRAG    MASS        X           Y           Z
   0 O   8.0000    1    15.999   -2.467010    4.019237    0.252086
   1 C   6.0000    1    12.011    0.111198    3.532219    0.078435
   2 H   1.0000    1     1.008    0.766670    3.303042    2.033510
   3 C   6.0000    1    12.011    0.774695    1.089956   -1.359298
   4 H   1.0000    1     1.008   -0.543342   -0.399176   -0.796941
   5 O   8.0000    1    15.999    3.178669    0.219136   -0.619602
   6 C   6.0000    1    12.011    0.679667    1.360575   -4.261695
   7 H   1.0000    1     1.008    1.966186   -0.080801   -5.021112
   8 C   6.0000    1    12.011   -1.914904    0.779348   -5.443043
   9 O   8.0000    1    15.999   -3.910583    2.004087   -4.224973
  10 Si 14.0000    1    28.086   -6.908958    1.874946   -5.131341
  11 C   6.0000    1    12.011   -8.409644   -1.272804   -4.015061
  12 C   6.0000    1    12.011   -7.419684   -1.915983   -1.386941
  13 C   6.0000    1    12.011  -11.272934   -1.008894   -3.892457
  14 C   6.0000    1    12.011   -7.780381   -3.448839   -5.803013
  15 C   6.0000    1    12.011   -8.498129    4.624173   -3.470400
  16 C   6.0000    1    12.011   -7.267655    2.185064   -8.709749
  17 O   8.0000    1    15.999    1.760226    3.647177   -5.176080
  18 C   6.0000    1    12.011    1.133124    5.902129   -3.959667
  19 H   1.0000    1     1.008    2.477302    7.276764   -4.791691
  20 O   8.0000    1    15.999   -1.331566    6.715772   -4.385864
  21 C   6.0000    1    12.011   -1.781602    7.540889   -6.880511
  22 C   6.0000    1    12.011    1.559088    5.765198   -1.093229
  23 H   1.0000    1     1.008    0.864237    7.522579   -0.236980
  24 O   8.0000    1    15.999    4.149805    5.410957   -0.570204
  25 H   1.0000    1     1.008   -3.181207    3.904973   -1.442548
  26 H   1.0000    1     1.008    4.311554    1.653431   -0.665551
  27 H   1.0000    1     1.008   -1.851270    1.348200   -7.425816
  28 H   1.0000    1     1.008   -2.207323   -1.264483   -5.348876
  29 H   1.0000    1     1.008   -7.856666   -0.419606   -0.055586
  30 H   1.0000    1     1.008   -5.383459   -2.163634   -1.412663
  31 H   1.0000    1     1.008   -8.270192   -3.661214   -0.699039
  32 H   1.0000    1     1.008  -11.814030    0.426924   -2.535444
  33 H   1.0000    1     1.008  -12.130131   -2.788952   -3.315511
  34 H   1.0000    1     1.008  -12.040339   -0.494423   -5.722762
  35 H   1.0000    1     1.008   -5.751784   -3.739476   -5.937165
  36 H   1.0000    1     1.008   -8.511673   -3.088545   -7.684248
  37 H   1.0000    1     1.008   -8.620089   -5.200631   -5.118684
  38 H   1.0000    1     1.008   -8.444635    4.403398   -1.438995
  39 H   1.0000    1     1.008  -10.450015    4.767856   -4.045272
  40 H   1.0000    1     1.008   -7.579438    6.399575   -3.906357
  41 H   1.0000    1     1.008   -6.319700    0.673366   -9.718236
  42 H   1.0000    1     1.008   -6.484109    3.954992   -9.385751
  43 H   1.0000    1     1.008   -9.236436    2.145113   -9.260411
  44 H   1.0000    1     1.008   -3.772409    8.033044   -6.963572
  45 H   1.0000    1     1.008   -1.369672    6.047663   -8.246444
  46 H   1.0000    1     1.008   -0.626393    9.205278   -7.316265
  47 H   1.0000    1     1.008    5.085506    6.885654   -1.078031

      -----------------------------------------------------------      
     |                   =====================                   |     
     |                           x T B                           |     
     |                   =====================                   |     
     |                         S. Grimme                         |     
     |          Mulliken Center for Theoretical Chemistry        |     
     |                    University of Bonn                     |     
      -----------------------------------------------------------      

   * xtb version 6.7.1 (edcfbbe) compiled by 'albert@albert-system' on 2024-07-22

   xtb is free software: you can redistribute it and/or modify it under
   the terms of the GNU Lesser General Public License as published by
   the Free Software Foundation, either version 3 of the License, or
   (at your option) any later version.
   
   xtb is distributed in the hope that it will be useful,
   but WITHOUT ANY WARRANTY; without even the implied warranty of
   MERCHANTABILITY or FITNESS FOR A PARTICULAR PURPOSE.  See the
   GNU Lesser General Public License for more details.
   
   Cite this work as:
   * C. Bannwarth, E. Caldeweyher, S. Ehlert, A. Hansen, P. Pracht,
     J. Seibert, S. Spicher, S. Grimme, WIREs Comput. Mol. Sci., 2020, 11,
     e01493. DOI: 10.1002/wcms.1493
   
   for GFN2-xTB:
   * C. Bannwarth, S. Ehlert and S. Grimme., J. Chem. Theory Comput., 2019,
     15, 1652-1671. DOI: 10.1021/acs.jctc.8b01176
   for GFN1-xTB:
   * S. Grimme, C. Bannwarth, P. Shushkov, J. Chem. Theory Comput., 2017,
     13, 1989-2009. DOI: 10.1021/acs.jctc.7b00118
   for GFN0-xTB:
   * P. Pracht, E. Caldeweyher, S. Ehlert, S. Grimme, ChemRxiv, 2019, preprint.
     DOI: 10.26434/chemrxiv.8326202.v1
   for GFN-FF:
   * S. Spicher and S. Grimme, Angew. Chem. Int. Ed., 2020, 59, 15665-15673.
     DOI: 10.1002/anie.202004239
   
   for ALPB and GBSA implicit solvation:
   * S. Ehlert, M. Stahn, S. Spicher, S. Grimme, J. Chem. Theory Comput.,
     2021, 17, 4250-4261. DOI: 10.1021/acs.jctc.1c00471
   
   for ddCOSMO and CPCM-X implicit solvation:
   * M. Stahn, S. Ehlert, S. Grimme, J. Phys. Chem. A,
     2023, XX, XXXX-XXXX. DOI: 10.1021/acs.jpca.3c04382
   
   for DFT-D4:
   * E. Caldeweyher, C. Bannwarth and S. Grimme, J. Chem. Phys., 2017,
     147, 034112. DOI: 10.1063/1.4993215
   * E. Caldeweyher, S. Ehlert, A. Hansen, H. Neugebauer, S. Spicher,
     C. Bannwarth and S. Grimme, J. Chem. Phys., 2019, 150, 154122.
     DOI: 10.1063/1.5090222
   * E. Caldeweyher, J.-M. Mewes, S. Ehlert and S. Grimme, Phys. Chem. Chem. Phys.
     2020, 22, 8499-8512. DOI: 10.1039/D0CP00502A
   
   for sTDA-xTB:
   * S. Grimme and C. Bannwarth, J. Chem. Phys., 2016, 145, 054103.
     DOI: 10.1063/1.4959605
   
   in the mass-spec context:
   * V. Asgeirsson, C. Bauer and S. Grimme, Chem. Sci., 2017, 8, 4879.
     DOI: 10.1039/c7sc00601b
   * J. Koopman and S. Grimme, ACS Omega 2019, 4, 12, 15120-15133.
     DOI: 10.1021/acsomega.9b02011
   
   for metadynamics refer to:
   * S. Grimme, J. Chem. Theory Comput., 2019, 155, 2847-2862
     DOI: 10.1021/acs.jctc.9b00143
   
   for SPH calculations refer to:
   * S. Spicher and S. Grimme, J. Chem. Theory Comput., 2021, 17, 1701-1714
     DOI: 10.1021/acs.jctc.0c01306
   
   for ONIOM refer to:
   * C. Plett, A. Katbashev, S. Ehlert, S. Grimme, M. Bursch,
     Phys. Chem. Chem. Phys., 2023, 25, 17860-17868. DOI: 10.1039/D3CP02178E
   
   for DIPRO refer to:
   * J. Kohn, N. Gildemeister, S. Grimme, D. Fazzi, A. Hansen,
     J. Chem. Phys., 2023, just accepted.
   
   for PTB refer to:
   * S. Grimme, M. Mueller, A. Hansen, J. Chem. Phys., 2023, 158, 124111.
     DOI: 10.1063/5.0137838
   
   with help from (in alphabetical order)
   P. Atkinson, C. Bannwarth, F. Bohle, G. Brandenburg, E. Caldeweyher
   M. Checinski, S. Dohm, S. Ehlert, S. Ehrlich, I. Gerasimov, C. Hölzer
   A. Katbashev, J. Kohn, J. Koopman, C. Lavigne, S. Lehtola, F. März, M. Müller,
   F. Musil, H. Neugebauer, J. Pisarek, C. Plett, P. Pracht, F. Pultar,
   J. Seibert, P. Shushkov, S. Spicher, M. Stahn, M. Steiner, T. Strunk,
   J. Stückrath, T. Rose, and J. Unsleber
   
 * started run on 2025/09/10 at 11:36:45.404     
   ID    Z sym.   atoms
    1    8 O      1, 6, 10, 18, 21, 25
    2    6 C      2, 4, 7, 9, 12-17, 19, 22, 23
    3    1 H      3, 5, 8, 20, 24, 26-48
    4   14 Si     11

           -------------------------------------------------
          |                Calculation Setup                |
           -------------------------------------------------

          program call               : /home/kmoult/orca_6_1/otool_xtb goat_0_XTB.xyz --grad -c 0 -u 0 -P 4 --namespace goat_0 --input goat_0_XTB.input.tmp --alpb ACETONE --acc 0.200000
          hostname                   : node1600
          calculation namespace      : goat_0
          coordinate file            : goat_0_XTB.xyz
          omp threads                :                     4


           -------------------------------------------------
          |                 G F N 2 - x T B                 |
           -------------------------------------------------

        Reference                      10.1021/acs.jctc.8b01176
      * Hamiltonian:
        H0-scaling (s, p, d)           1.850000    2.230000    2.230000
        zeta-weighting                 0.500000
      * Dispersion:
        s8                             2.700000
        a1                             0.520000
        a2                             5.000000
        s9                             5.000000
      * Repulsion:
        kExp                           1.500000    1.000000
        rExp                           1.000000
      * Coulomb:
        alpha                          2.000000
        third order                    shell-resolved
        anisotropic                    true
        a3                             3.000000
        a5                             4.000000
        cn-shift                       1.200000
        cn-exp                         4.000000
        max-rad                        5.000000

      * Solvation model:               ALPB
        Solvent                        ACETONE
        Parameter file                 internal GFN2-xTB/ALPB
        Dielectric constant                2.0700E+01
        Reference state                gsolv [1 M gas/solution]
        Free energy shift                  5.9241E-03 Eh       3.7175E+00 kcal/mol
        Temperature                        2.9815E+02 K
        Density                            7.9000E-01 kg/L
        Solvent mass                       5.8080E+01 g/mol
        Interaction kernel             P16
        Born radius scaling (c1)           1.8274E+00
        Born radii integrator          GBOBC
        Born offset                        0.0000E+00 a0       0.0000E+00 AA
        H-bond correction              true
        Ion screening                  false
        Surface tension                    1.0000E-05 Eh       1.5569E+01 dyn/cm
        Grid points                               230 per atom
q/qsh data taken from xtbrestart
CAMM data taken from xtbrestart

          ...................................................
          :                      SETUP                      :
          :.................................................:
          :  # basis functions                 114          :
          :  # atomic orbitals                 113          :
          :  # shells                           69          :
          :  # electrons                       120          :
          :  max. iterations                   250          :
          :  Hamiltonian                  GFN2-xTB          :
          :  restarted?                       true          :
          :  GBSA solvation                   true          :
          :  PC potential                    false          :
          :  electronic temp.          300.0000000     K    :
          :  accuracy                    0.2000000          :
          :  -> integral cutoff          0.3198970E+02      :
          :  -> integral neglect         0.2000000E-08      :
          :  -> SCF convergence          0.2000000E-06 Eh   :
          :  -> wf. convergence          0.2000000E-04 e    :
          :  Broyden damping             0.4000000          :
          :  net charge                          0          :
          :  unpaired electrons                  0          :
          ...................................................

 iter      E             dE          RMSdq      gap      omega  full diag
   1    -68.9987126 -0.689987E+02  0.313E-01    6.39       0.0  T
   2    -68.9988084 -0.958191E-04  0.224E-01    6.34       1.0  T
   3    -68.9985999  0.208560E-03  0.979E-02    6.41       1.0  T
   4    -68.9988487 -0.248813E-03  0.474E-02    6.35       1.0  T
   5    -68.9988687 -0.200613E-04  0.229E-02    6.36       1.0  T
   6    -68.9988707 -0.192028E-05  0.535E-03    6.36       2.7  T
   7    -68.9988708 -0.142327E-06  0.309E-03    6.36       4.7  T
   8    -68.9988709 -0.511237E-07  0.123E-03    6.36      11.7  T
   9    -68.9988709 -0.450370E-08  0.631E-04    6.36      22.9  T
  10    -68.9988709 -0.121481E-08  0.222E-04    6.36      64.9  T
  11    -68.9988709 -0.129148E-09  0.104E-04    6.36     138.9  T
  12    -68.9988709 -0.247837E-10  0.416E-05    6.36     347.1  T

   *** convergence criteria satisfied after 12 iterations ***

         #    Occupation            Energy/Eh            Energy/eV
      -------------------------------------------------------------
         1        2.0000           -0.7780834             -21.1727
       ...           ...                  ...                  ...
        54        2.0000           -0.4216710             -11.4743
        55        2.0000           -0.4209541             -11.4547
        56        2.0000           -0.4163666             -11.3299
        57        2.0000           -0.4017416             -10.9319
        58        2.0000           -0.3972872             -10.8107
        59        2.0000           -0.3956380             -10.7659
        60        2.0000           -0.3700073             -10.0684 (HOMO)
        61                         -0.1363336              -3.7098 (LUMO)
        62                         -0.1247259              -3.3940
        63                         -0.1161939              -3.1618
        64                         -0.0198837              -0.5411
        65                         -0.0112402              -0.3059
       ...                                ...                  ...
       113                          0.7493830              20.3918
      -------------------------------------------------------------
                  HL-Gap            0.2336737 Eh            6.3586 eV
             Fermi-level           -0.2531705 Eh           -6.8891 eV

 SCC (total)                   0 d,  0 h,  0 min,  0.031 sec
 SCC setup                      ...        0 min,  0.001 sec (  1.854%)
 Dispersion                     ...        0 min,  0.000 sec (  0.937%)
 classical contributions        ...        0 min,  0.000 sec (  0.120%)
 integral evaluation            ...        0 min,  0.004 sec ( 13.742%)
 iterations                     ...        0 min,  0.018 sec ( 59.430%)
 molecular gradient             ...        0 min,  0.007 sec ( 23.390%)
 printout                       ...        0 min,  0.000 sec (  0.480%)

         :::::::::::::::::::::::::::::::::::::::::::::::::::::
         ::                     SUMMARY                     ::
         :::::::::::::::::::::::::::::::::::::::::::::::::::::
         :: total energy             -68.317941601293 Eh    ::
         :: total w/o Gsasa/hb       -68.292159886697 Eh    ::
         :: gradient norm              0.018248800062 Eh/a0 ::
         :: HOMO-LUMO gap              6.358584424563 eV    ::
         ::.................................................::
         :: SCC energy               -68.997546067652 Eh    ::
         :: -> isotropic ES            0.161072034207 Eh    ::
         :: -> anisotropic ES          0.002450436125 Eh    ::
         :: -> anisotropic XC          0.004320328669 Eh    ::
         :: -> dispersion             -0.048717899423 Eh    ::
         :: -> Gsolv                  -0.029415196506 Eh    ::
         ::    -> Gelec               -0.003633481909 Eh    ::
         ::    -> Gsasa               -0.026434821931 Eh    ::
         ::    -> Ghb                 -0.005271033930 Eh    ::
         ::    -> Gshift               0.005924141264 Eh    ::
         :: repulsion energy           0.679604466359 Eh    ::
         :: add. restraining           0.000000000000 Eh    ::
         :: total charge               0.000000000000 e     ::
         :::::::::::::::::::::::::::::::::::::::::::::::::::::


Property printout bound to 'properties.out'

           -------------------------------------------------
          | TOTAL ENERGY              -68.317941601293 Eh   |
          | GRADIENT NORM               0.018248800062 Eh/α |
          | HOMO-LUMO GAP               6.358584424563 eV   |
           -------------------------------------------------

------------------------------------------------------------------------
 * finished run on 2025/09/10 at 11:36:45.458     
------------------------------------------------------------------------
 total:
 * wall-time:     0 d,  0 h,  0 min,  0.053 sec
 *  cpu-time:     0 d,  0 h,  0 min,  0.191 sec
 * ratio c/w:     3.594 speedup
 SCF:
 * wall-time:     0 d,  0 h,  0 min,  0.031 sec
 *  cpu-time:     0 d,  0 h,  0 min,  0.123 sec
 * ratio c/w:     3.979 speedup


-------------------------   --------------------
FINAL SINGLE POINT ENERGY       -68.317941601290
-------------------------   --------------------


-------------
DIPOLE MOMENT
-------------
                                X             Y             Z
Total Dipole Moment    :     -0.14000       1.08900      -1.74800
                        -----------------------------------------
Magnitude (a.u.)       :      2.06423
Magnitude (Debye)      :      5.24684


------------------
CARTESIAN GRADIENT
------------------

   1   O   :    0.001449384   -0.000267219   -0.000225614
   2   C   :    0.002108336   -0.000295632   -0.000515627
   3   H   :   -0.001703715    0.000107018    0.000158162
   4   C   :   -0.001938587    0.001809034   -0.000744175
   5   H   :    0.002139978    0.000197548    0.000162852
   6   O   :    0.001086131    0.001980776   -0.000857881
   7   C   :   -0.000199219    0.000599853    0.001425607
   8   H   :   -0.000580446   -0.000018817   -0.000230272
   9   C   :   -0.000557206   -0.001511375   -0.003647944
  10   O   :    0.006363276   -0.001234689    0.004935824
  11   Si  :   -0.000477112    0.001219433   -0.001919704
  12   C   :   -0.003217334   -0.003821244    0.002704313
  13   C   :    0.000066684    0.002101362   -0.002587883
  14   C   :    0.003293486    0.001412923   -0.000749381
  15   C   :   -0.000296875    0.003090798    0.000586948
  16   C   :   -0.004845702   -0.000235144    0.000115958
  17   C   :   -0.001743357   -0.000519192   -0.000380175
  18   O   :   -0.000893950    0.001733385    0.002809784
  19   C   :    0.000733376   -0.002420627   -0.000660878
  20   H   :   -0.000489098    0.000504334   -0.000205763
  21   O   :    0.002168165   -0.000528131   -0.001202840
  22   C   :    0.001050923   -0.000671697    0.001771281
  23   C   :   -0.004610039   -0.000767108   -0.001931501
  24   H   :    0.001596568   -0.000015955    0.000466256
  25   O   :    0.000577051    0.000853155   -0.001977969
  26   H   :    0.001175273    0.000005427   -0.000243777
  27   H   :   -0.002347849   -0.001157777    0.000210183
  28   H   :   -0.000261723    0.000250795    0.001697231
  29   H   :   -0.000687468    0.001028677    0.000211535
  30   H   :    0.000229750   -0.001096220   -0.001273557
  31   H   :   -0.001476343    0.000291781   -0.000226799
  32   H   :    0.000175569    0.000497645   -0.000311606
  33   H   :    0.000568680   -0.001189023   -0.000940336
  34   H   :    0.000509963    0.000552318   -0.000204163
  35   H   :    0.000725849   -0.000422579    0.001283114
  36   H   :   -0.001059340    0.000060245    0.000305489
  37   H   :    0.000515166   -0.000111076    0.001327748
  38   H   :    0.000223186    0.000506793   -0.000215023
  39   H   :   -0.000005939    0.000257402   -0.002076544
  40   H   :    0.002459621   -0.000174500    0.000725283
  41   H   :   -0.000755670   -0.001264272    0.000323082
  42   H   :   -0.000817285    0.001138658    0.000338666
  43   H   :   -0.000495685   -0.001127661   -0.000153399
  44   H   :    0.002017257    0.000009925    0.000542461
  45   H   :    0.000754239   -0.000063637    0.000107197
  46   H   :   -0.000334181   -0.000024659    0.000323601
  47   H   :   -0.000246131    0.000385575    0.000099767
  48   H   :   -0.001947655   -0.001656625    0.000850468

Difference to translation invariance:
           :   -0.0000000000   -0.0000000000    0.0000000000

Difference to rotation invariance:
           :    0.0002978953   -0.0009606055    0.0002976816

Norm of the Cartesian gradient     ...    0.0182488001
RMS gradient                       ...    0.0015207333
MAX gradient                       ...    0.0063632765
------------------------------------------------------------------------------
                         ORCA GEOMETRY RELAXATION STEP
------------------------------------------------------------------------------

Reading the OPT-File                    .... done
Getting information on internals        .... done
Copying old internal coords+grads       .... done
Making the new internal coordinates     .... (2022 redundants) done
Validating the new internal coordinates .... (2022 redundants) done
Calculating the B-matrix                .... done
Calculating the G,G- and P matrices     .... done
Transforming gradient to internals      .... done
Projecting the internal gradient        .... done
Number of atoms                         ....  48
Number of internal coordinates          .... 234
Current Energy                          ....   -68.317941601 Eh
Current gradient norm                   ....     0.018248800 Eh/bohr
Maximum allowed component of the step   ....  0.300
Current trust radius                    ....  0.300
Updating the Hessian (BFGS)             .... done
Forming the augmented Hessian           .... done
Diagonalizing the augmented Hessian     .... done
Last element of RFO vector              ....  0.980069517
Lowest eigenvalues of augmented Hessian:
 -0.001634539  0.009997330  0.010000000  0.010000138  0.010002917
Length of the computed step             ....  0.202694634
The final length of the internal step   ....  0.202694634
Converting the step to Cartesian space:
 Initial RMS(Int)=    0.0132505627
Transforming coordinates:
 Iter   0:  RMS(Cart)=    0.0876319584 RMS(Int)=    0.0133410890
 Iter   5:  RMS(Cart)=    0.0000000111 RMS(Int)=    0.0000000042
done
Storing new coordinates                 .... done
The predicted energy change is          ....    -0.000850847
Previously predicted energy change      ....    -0.004295399
Actually observed energy change         ....    -0.004491732
Ratio of predicted to observed change   ....     1.045707713
New trust radius                        ....     0.450000000

                                .--------------------.
          ----------------------|Geometry convergence|-------------------------
          Item                value                   Tolerance       Converged
          ---------------------------------------------------------------------
          Energy change      -0.0044917317            0.0000050000      NO
          RMS gradient        0.0012369006            0.0001000000      NO
          MAX gradient        0.0078302462            0.0003000000      NO
          RMS step            0.0132505627            0.0020000000      NO
          MAX step            0.0720742835            0.0040000000      NO
          -------------------------------------------------------------------------
          ........................................................
          Max(Bonds)      0.0381      Max(Angles)    1.67
          Max(Dihed)        2.43      Max(Improp)    0.00
          ---------------------------------------------------------------------

    ---------------------------------------------------------------------------
                         Redundant Internal Coordinates
                            (Angstroem and degrees)

        Definition                    Value    dE/dq     Step     New-Value
    ----------------------------------------------------------------------------
     1. B(C   1,O   0)                1.3915 -0.002595 -0.0007    1.3908   
     2. B(H   2,C   1)                1.0979 -0.000403  0.0008    1.0987   
     3. B(C   3,C   1)                1.5403 -0.001556  0.0034    1.5436   
     4. B(H   4,C   3)                1.0936 -0.001464  0.0023    1.0959   
     5. B(O   5,C   3)                1.4085 -0.001222 -0.0025    1.4060   
     6. B(C   6,C   3)                1.5434 -0.001817  0.0038    1.5471   
     7. B(H   7,C   6)                1.0985 -0.000261  0.0005    1.0990   
     8. B(C   8,C   6)                1.5396 -0.000278 -0.0001    1.5396   
     9. B(O   9,C   8)                1.3967 -0.000642 -0.0023    1.3944   
    10. B(Si 10,O   9)                1.6590  0.004968 -0.0064    1.6526   
    11. B(C  11,Si 10)                1.9376 -0.001802 -0.0111    1.9265   
    12. B(C  12,C  11)                1.5246 -0.004750  0.0060    1.5306   
    13. B(C  13,C  11)                1.5230 -0.005062  0.0063    1.5293   
    14. B(C  14,C  11)                1.5271 -0.004062  0.0052    1.5323   
    15. B(C  15,Si 10)                1.8964 -0.000107  0.0015    1.8979   
    16. B(C  16,Si 10)                1.9102 -0.000291  0.0047    1.9148   
    17. B(O  17,C   6)                1.4231 -0.000521 -0.0010    1.4221   
    18. B(C  18,O  17)                1.3958 -0.003426  0.0003    1.3961   
    19. B(H  19,C  18)                1.1086  0.000100  0.0011    1.1097   
    20. B(O  20,C  18)                1.3919 -0.003654  0.0008    1.3927   
    21. B(C  21,O  20)                1.4107 -0.002471  0.0017    1.4124   
    22. B(C  22,C  18)                1.5352 -0.002780  0.0031    1.5383   
    23. B(C  22,C   1)                1.5387 -0.001594  0.0036    1.5423   
    24. B(H  23,C  22)                1.0979 -0.000359  0.0008    1.0987   
    25. B(O  24,C  22)                1.4111 -0.001616 -0.0017    1.4094   
    26. B(H  25,O   0)                0.9750 -0.000664  0.0001    0.9751   
    27. B(H  25,O  20)                2.3657 -0.000248  0.0095    2.3752   
    28. B(H  25,O   9)                1.8245 -0.000386  0.0169    1.8414   
    29. B(H  26,O   5)                0.9675 -0.003139  0.0022    0.9697   
    30. B(H  26,O  24)                1.9909 -0.001020  0.0381    2.0290   
    31. B(H  27,C   8)                1.0921 -0.001569  0.0022    1.0942   
    32. B(H  28,C   8)                1.0937 -0.000910  0.0013    1.0950   
    33. B(H  29,C  12)                1.0848 -0.001674  0.0016    1.0865   
    34. B(H  30,C  12)                1.0855 -0.001497  0.0014    1.0869   
    35. B(H  31,C  12)                1.0900 -0.000598  0.0004    1.0903   
    36. B(H  32,C  13)                1.0840 -0.001602  0.0014    1.0854   
    37. B(H  33,C  13)                1.0892 -0.000747  0.0005    1.0897   
    38. B(H  34,C  13)                1.0850 -0.001527  0.0014    1.0864   
    39. B(H  35,C  14)                1.0868 -0.001077  0.0010    1.0878   
    40. B(H  36,C  14)                1.0850 -0.001423  0.0012    1.0862   
    41. B(H  37,C  14)                1.0899 -0.000592  0.0003    1.0902   
    42. B(H  38,C  15)                1.0817 -0.002089  0.0022    1.0838   
    43. B(H  39,C  15)                1.0794 -0.002572  0.0028    1.0822   
    44. B(H  40,C  15)                1.0827 -0.001505  0.0013    1.0840   
    45. B(H  41,C  16)                1.0846 -0.001387  0.0013    1.0859   
    46. B(H  42,C  16)                1.0850 -0.001114  0.0008    1.0858   
    47. B(H  43,C  16)                1.0820 -0.002086  0.0022    1.0842   
    48. B(H  44,C  21)                1.0861 -0.000750  0.0004    1.0865   
    49. B(H  45,C  21)                1.0929 -0.000261  0.0003    1.0932   
    50. B(H  46,C  21)                1.0966  0.000151  0.0000    1.0967   
    51. B(H  47,O  24)                0.9625 -0.002581  0.0018    0.9643   
    52. A(C   1,O   0,H  25)          107.93 -0.001747    0.40    108.33   
    53. A(H   2,C   1,C   3)          107.50  0.000443   -0.35    107.16   
    54. A(O   0,C   1,H   2)          105.54 -0.000473    0.10    105.65   
    55. A(C   3,C   1,C  22)          109.38 -0.000384    0.01    109.39   
    56. A(O   0,C   1,C  22)          111.88 -0.000173    0.31    112.19   
    57. A(O   0,C   1,C   3)          114.30  0.000059    0.26    114.56   
    58. A(H   2,C   1,C  22)          107.89  0.000605   -0.40    107.49   
    59. A(H   4,C   3,O   5)          105.35 -0.000595    0.14    105.49   
    60. A(C   1,C   3,C   6)          113.97 -0.000117    0.13    114.10   
    61. A(C   1,C   3,H   4)          108.95  0.000559   -0.44    108.52   
    62. A(C   1,C   3,O   5)          110.07  0.000173    0.14    110.21   
    63. A(O   5,C   3,C   6)          109.65 -0.000020    0.34    110.00   
    64. A(H   4,C   3,C   6)          108.47 -0.000038   -0.31    108.16   
    65. A(C   3,O   5,H  26)          107.22 -0.000742    0.23    107.45   
    66. A(H   7,C   6,C   8)          105.39 -0.000477    0.37    105.76   
    67. A(C   3,C   6,C   8)          114.49 -0.000133   -0.17    114.32   
    68. A(C   3,C   6,H   7)          106.23  0.000311   -0.11    106.11   
    69. A(C   3,C   6,O  17)          113.84 -0.000633    0.15    113.99   
    70. A(C   8,C   6,O  17)          112.96  0.001279   -0.36    112.60   
    71. A(H   7,C   6,O  17)          102.53 -0.000456    0.20    102.73   
    72. A(H  27,C   8,H  28)          108.71  0.000462   -0.05    108.65   
    73. A(C   6,C   8,O   9)          113.22  0.000768   -0.12    113.09   
    74. A(C   6,C   8,H  27)          107.91  0.000101   -0.17    107.74   
    75. A(O   9,C   8,H  28)          109.32 -0.001336    0.36    109.69   
    76. A(O   9,C   8,H  27)          109.80 -0.000278    0.00    109.81   
    77. A(C   6,C   8,H  28)          107.77  0.000315   -0.02    107.75   
    78. A(C   8,O   9,Si 10)          124.79 -0.007830    1.61    126.41   
    79. A(C  15,Si 10,C  16)          110.46 -0.000978    0.24    110.69   
    80. A(C  11,Si 10,C  16)          109.59  0.000494    0.56    110.16   
    81. A(O   9,Si 10,C  16)          112.22  0.000233   -0.48    111.74   
    82. A(C  11,Si 10,C  15)          109.66 -0.001849    1.04    110.71   
    83. A(O   9,Si 10,C  15)          104.98  0.003490   -1.67    103.31   
    84. A(O   9,Si 10,C  11)          109.83 -0.001388    0.38    110.21   
    85. A(C  12,C  11,C  14)          108.78  0.000445   -0.37    108.41   
    86. A(C  13,C  11,C  14)          108.21  0.000115   -0.28    107.93   
    87. A(Si 10,C  11,C  13)          109.99 -0.000321    0.30    110.30   
    88. A(Si 10,C  11,C  14)          111.71 -0.000217    0.39    112.11   
    89. A(Si 10,C  11,C  12)          109.22 -0.000446    0.31    109.53   
    90. A(C  12,C  11,C  13)          108.87  0.000458   -0.37    108.50   
    91. A(H  29,C  12,H  31)          108.27  0.000199    0.02    108.30   
    92. A(C  11,C  12,H  31)          110.61 -0.000054   -0.01    110.59   
    93. A(H  29,C  12,H  30)          107.93  0.000256   -0.01    107.92   
    94. A(C  11,C  12,H  30)          110.89 -0.000293   -0.00    110.89   
    95. A(C  11,C  12,H  29)          110.87 -0.000286   -0.02    110.85   
    96. A(H  30,C  12,H  31)          108.17  0.000208    0.02    108.19   
    97. A(H  32,C  13,H  33)          108.09  0.000157    0.08    108.17   
    98. A(C  11,C  13,H  33)          110.30 -0.000289    0.01    110.32   
    99. A(C  11,C  13,H  32)          110.81 -0.000107   -0.07    110.74   
   100. A(C  11,C  13,H  34)          110.94 -0.000139   -0.05    110.89   
   101. A(H  33,C  13,H  34)          108.14  0.000152    0.02    108.16   
   102. A(H  32,C  13,H  34)          108.46  0.000248    0.01    108.47   
   103. A(H  36,C  14,H  37)          107.99 -0.000005    0.08    108.08   
   104. A(H  35,C  14,H  37)          107.70  0.000057    0.04    107.74   
   105. A(C  11,C  14,H  37)          110.28  0.000031   -0.04    110.23   
   106. A(H  35,C  14,H  36)          108.50  0.000160    0.03    108.53   
   107. A(C  11,C  14,H  36)          110.99 -0.000179   -0.04    110.95   
   108. A(C  11,C  14,H  35)          111.26 -0.000054   -0.07    111.19   
   109. A(H  39,C  15,H  40)          107.97 -0.000111   -0.00    107.96   
   110. A(H  38,C  15,H  40)          107.08  0.000009   -0.14    106.94   
   111. A(H  38,C  15,H  39)          108.22  0.000012   -0.05    108.18   
   112. A(Si 10,C  15,H  39)          110.35 -0.000034   -0.06    110.29   
   113. A(Si 10,C  15,H  38)          111.48  0.000020    0.10    111.58   
   114. A(Si 10,C  15,H  40)          111.58  0.000100    0.15    111.73   
   115. A(H  42,C  16,H  43)          107.22 -0.000194   -0.05    107.17   
   116. A(H  41,C  16,H  43)          107.36 -0.000274   -0.02    107.34   
   117. A(Si 10,C  16,H  43)          111.16 -0.000224    0.10    111.26   
   118. A(H  41,C  16,H  42)          107.32 -0.000506   -0.02    107.30   
   119. A(Si 10,C  16,H  41)          112.24  0.000393    0.03    112.27   
   120. A(Si 10,C  16,H  42)          111.29  0.000738   -0.05    111.24   
   121. A(C   6,O  17,C  18)          118.33  0.000730   -0.12    118.21   
   122. A(O  17,C  18,H  19)          103.02  0.000542   -0.43    102.59   
   123. A(O  20,C  18,C  22)          108.20 -0.000117   -0.24    107.96   
   124. A(H  19,C  18,C  22)          109.22  0.000283    0.24    109.46   
   125. A(O  17,C  18,C  22)          112.36 -0.000153   -0.04    112.31   
   126. A(H  19,C  18,O  20)          109.51 -0.000674    0.39    109.90   
   127. A(O  17,C  18,O  20)          114.36  0.000132    0.12    114.48   
   128. A(C  18,O  20,C  21)          113.93 -0.001411    0.44    114.37   
   129. A(H  44,C  21,H  46)          109.85 -0.000260    0.26    110.11   
   130. A(H  45,C  21,H  46)          109.30  0.000443   -0.24    109.06   
   131. A(O  20,C  21,H  46)          110.56  0.000160   -0.03    110.53   
   132. A(H  44,C  21,H  45)          109.88 -0.000023    0.19    110.07   
   133. A(O  20,C  21,H  45)          111.19 -0.000123    0.02    111.21   
   134. A(O  20,C  21,H  44)          106.01 -0.000225   -0.19    105.82   
   135. A(H  23,C  22,O  24)          110.91 -0.000281    0.57    111.49   
   136. A(C  18,C  22,O  24)          110.04 -0.002032    0.58    110.62   
   137. A(C   1,C  22,O  24)          107.62  0.000735   -0.03    107.59   
   138. A(C  18,C  22,H  23)          108.58  0.000292   -0.42    108.16   
   139. A(C   1,C  22,H  23)          108.51  0.000168   -0.37    108.14   
   140. A(C   1,C  22,C  18)          111.18  0.001153   -0.32    110.86   
   141. A(C  22,O  24,H  47)          109.71 -0.001223    0.55    110.26   
   142. D(H   2,C   1,O   0,H  25)   -169.00 -0.000105    1.04   -167.96   
   143. D(C  22,C   1,O   0,H  25)     73.91 -0.000459    1.30     75.21   
   144. D(C   3,C   1,O   0,H  25)    -51.09  0.000160    0.83    -50.26   
   145. D(H   4,C   3,C   1,C  22)   -168.02 -0.000220    1.24   -166.78   
   146. D(O   5,C   3,C   1,C  22)     76.93  0.000083    1.25     78.18   
   147. D(O   5,C   3,C   1,H   2)    -39.97 -0.000676    1.92    -38.05   
   148. D(H   4,C   3,C   1,H   2)     75.08 -0.000979    1.92     77.00   
   149. D(O   5,C   3,C   1,O   0)   -156.76 -0.000418    1.86   -154.89   
   150. D(H   4,C   3,C   1,O   0)    -41.71 -0.000720    1.86    -39.85   
   151. D(H  26,O   5,C   3,H   4)   -164.81 -0.000127   -0.54   -165.36   
   152. D(H  26,O   5,C   3,C   6)     78.64  0.000246   -0.42     78.22   
   153. D(H  26,O   5,C   3,C   1)    -47.50  0.000287   -0.92    -48.41   
   154. D(H   7,C   6,C   3,O   5)     30.49 -0.000166   -1.02     29.46   
   155. D(H   7,C   6,C   3,H   4)    -84.07  0.000571   -1.21    -85.28   
   156. D(H   7,C   6,C   3,C   1)    154.37 -0.000039   -0.50    153.87   
   157. D(C   8,C   6,C   3,H   4)     31.80  0.000114   -0.92     30.88   
   158. D(C   8,C   6,C   3,C   1)    -89.76 -0.000496   -0.21    -89.97   
   159. D(C   8,C   6,C   3,O   5)    146.36 -0.000623   -0.73    145.62   
   160. D(H  27,C   8,C   6,O  17)     37.68 -0.000405    2.23     39.91   
   161. D(H  27,C   8,C   6,H   7)    -73.48 -0.000187    1.94    -71.54   
   162. D(H  27,C   8,C   6,C   3)    170.16 -0.000188    1.93    172.09   
   163. D(O   9,C   8,C   6,O  17)    -84.06 -0.000619    2.43    -81.63   
   164. D(O   9,C   8,C   6,C   3)     48.42 -0.000402    2.13     50.56   
   165. D(O   9,C   8,C   6,H   7)    164.78 -0.000401    2.14    166.92   
   166. D(Si 10,O   9,C   8,H  27)     56.16  0.000106   -1.13     55.03   
   167. D(Si 10,O   9,C   8,C   6)    176.83  0.000554   -1.43    175.40   
   168. D(Si 10,O   9,C   8,H  28)    -63.01  0.000521   -1.29    -64.30   
   169. D(C  16,Si 10,O   9,C   8)    -42.75  0.000686   -2.06    -44.81   
   170. D(C  15,Si 10,O   9,C   8)   -162.76 -0.000443   -0.88   -163.63   
   171. D(C  11,Si 10,O   9,C   8)     79.41  0.000492   -1.39     78.03   
   172. D(C  12,C  11,Si 10,O   9)     38.53  0.000805   -0.16     38.38   
   173. D(C  13,C  11,Si 10,C  16)    -78.32  0.000593   -0.22    -78.55   
   174. D(C  13,C  11,Si 10,C  15)     43.08 -0.001478    0.96     44.04   
   175. D(C  13,C  11,Si 10,O   9)    157.96  0.000897   -0.24    157.72   
   176. D(C  12,C  11,Si 10,C  16)    162.25  0.000501   -0.14    162.11   
   177. D(C  12,C  11,Si 10,C  15)    -76.35 -0.001570    1.04    -75.31   
   178. D(H  30,C  12,C  11,C  14)     60.91 -0.000251    0.32     61.23   
   179. D(H  30,C  12,C  11,C  13)    178.62  0.000396   -0.47    178.15   
   180. D(H  30,C  12,C  11,Si 10)    -61.26  0.000014   -0.13    -61.39   
   181. D(H  29,C  12,C  11,C  14)   -179.21 -0.000311    0.30   -178.92   
   182. D(H  29,C  12,C  11,C  13)    -61.50  0.000335   -0.49    -61.99   
   183. D(H  29,C  12,C  11,Si 10)     58.62 -0.000047   -0.16     58.47   
   184. D(H  33,C  13,C  11,C  14)     56.16  0.000414   -0.31     55.86   
   185. D(H  33,C  13,C  11,C  12)    -61.91 -0.000435    0.53    -61.38   
   186. D(H  33,C  13,C  11,Si 10)    178.45  0.000022    0.19    178.64   
   187. D(H  32,C  13,C  11,C  12)     57.75 -0.000495    0.59     58.34   
   188. D(H  32,C  13,C  11,Si 10)    -61.89 -0.000038    0.25    -61.64   
   189. D(H  32,C  13,C  11,C  14)    175.82  0.000354   -0.25    175.58   
   190. D(H  36,C  14,C  11,C  13)     59.97 -0.000357   -0.14     59.83   
   191. D(H  36,C  14,C  11,C  12)    178.10  0.000500   -0.98    177.13   
   192. D(H  36,C  14,C  11,Si 10)    -61.25  0.000102   -0.58    -61.83   
   193. D(H  35,C  14,C  11,C  13)   -179.10 -0.000313   -0.17   -179.27   
   194. D(H  35,C  14,C  11,C  12)    -60.97  0.000545   -1.01    -61.98   
   195. D(H  35,C  14,C  11,Si 10)     59.67  0.000147   -0.61     59.06   
   196. D(H  39,C  15,Si 10,C  16)     55.14 -0.000985    0.79     55.93   
   197. D(H  39,C  15,Si 10,C  11)    -65.74  0.000226   -0.63    -66.37   
   198. D(H  39,C  15,Si 10,O   9)    176.31  0.000854   -0.74    175.58   
   199. D(H  38,C  15,Si 10,C  16)    175.43 -0.000979    0.75    176.19   
   200. D(H  38,C  15,Si 10,C  11)     54.55  0.000231   -0.66     53.88   
   201. D(H  38,C  15,Si 10,O   9)    -63.40  0.000860   -0.77    -64.17   
   202. D(H  41,C  16,Si 10,C  15)    177.97  0.002264   -1.56    176.41   
   203. D(H  41,C  16,Si 10,C  11)    -61.10 -0.000340    0.16    -60.94   
   204. D(H  41,C  16,Si 10,O   9)     61.20 -0.001603    0.72     61.92   
   205. D(H  42,C  16,Si 10,C  15)     57.67  0.002124   -1.53     56.14   
   206. D(H  42,C  16,Si 10,C  11)    178.60 -0.000480    0.19    178.79   
   207. D(H  42,C  16,Si 10,O   9)    -59.10 -0.001743    0.75    -58.34   
   208. D(C  18,O  17,C   6,C   8)     87.23 -0.000209   -0.28     86.95   
   209. D(C  18,O  17,C   6,H   7)   -159.85 -0.000479    0.11   -159.74   
   210. D(C  18,O  17,C   6,C   3)    -45.57 -0.000660    0.17    -45.40   
   211. D(C  22,C  18,O  17,C   6)     52.32 -0.000525    0.70     53.02   
   212. D(O  20,C  18,O  17,C   6)    -71.52 -0.000347    0.97    -70.55   
   213. D(H  19,C  18,O  17,C   6)    169.73  0.000053    0.71    170.45   
   214. D(C  21,O  20,C  18,C  22)    164.64 -0.000345    1.24    165.88   
   215. D(C  21,O  20,C  18,H  19)     45.69 -0.000232    0.85     46.54   
   216. D(C  21,O  20,C  18,O  17)    -69.32 -0.000543    1.07    -68.25   
   217. D(H  46,C  21,O  20,C  18)    -63.47 -0.000290   -0.00    -63.47   
   218. D(H  45,C  21,O  20,C  18)     58.13  0.000299   -0.31     57.82   
   219. D(H  44,C  21,O  20,C  18)    177.52  0.000068   -0.18    177.33   
   220. D(H  23,C  22,C  18,O  20)    -47.49 -0.000026    0.06    -47.42   
   221. D(H  23,C  22,C  18,H  19)     71.64 -0.000743    0.53     72.18   
   222. D(H  23,C  22,C  18,O  17)   -174.70  0.000002    0.14   -174.56   
   223. D(C   1,C  22,C  18,O  20)     71.81  0.001061   -0.87     70.94   
   224. D(C   1,C  22,C  18,H  19)   -169.06  0.000344   -0.40   -169.46   
   225. D(C   1,C  22,C  18,O  17)    -55.40  0.001089   -0.80    -56.20   
   226. D(H  23,C  22,C   1,C   3)    171.89  0.000441   -0.89    171.01   
   227. D(H  23,C  22,C   1,H   2)    -71.45  0.001097   -1.53    -72.98   
   228. D(H  23,C  22,C   1,O   0)     44.21  0.000793   -1.47     42.74   
   229. D(C  18,C  22,C   1,C   3)     52.55 -0.000718    0.08     52.63   
   230. D(C  18,C  22,C   1,H   2)    169.21 -0.000061   -0.56    168.64   
   231. D(C  18,C  22,C   1,O   0)    -75.13 -0.000366   -0.50    -75.64   
   232. D(H  47,O  24,C  22,H  23)    -53.77  0.000753   -0.91    -54.69   
   233. D(H  47,O  24,C  22,C  18)     66.39 -0.000392   -0.73     65.66   
   234. D(H  47,O  24,C  22,C   1)   -172.32  0.000263   -0.78   -173.10   
    ----------------------------------------------------------------------------

Geometry step timings:
Preparation and reading OPT file:      0.001 s ( 5.473 %)
Internal coordinates            :      0.000 s ( 0.171 %)
B/P matrices and projection     :      0.005 s (21.807 %)
Hessian update/contruction      :      0.010 s (44.357 %)
Making the step                 :      0.003 s (14.145 %)
Converting the step to Cartesian:      0.000 s ( 2.116 %)
Storing new data                :      0.001 s ( 4.089 %)
Checking convergence            :      0.000 s ( 0.217 %)
Final printing                  :      0.002 s ( 7.621 %)
Total time                      :      0.022 s

Time for energy+gradient        :      0.081 s
Time for complete geometry iter :      0.116 s

         *************************************************************
         *                GEOMETRY OPTIMIZATION CYCLE   4            *
         *************************************************************
---------------------------------
CARTESIAN COORDINATES (ANGSTROEM)
---------------------------------
  O    -1.311456    2.093272    0.163610
  C     0.057012    1.871685    0.051415
  H     0.425742    1.765388    1.080887
  C     0.436886    0.580442   -0.703794
  H    -0.258510   -0.213148   -0.407636
  O     1.707907    0.136714   -0.298291
  C     0.388898    0.713112   -2.244256
  H     1.093372   -0.033449   -2.636909
  C    -0.976307    0.369001   -2.866572
  O    -2.037962    1.034898   -2.254675
  Si   -3.622417    0.992946   -2.722578
  C    -4.444668   -0.651086   -2.146059
  C    -3.923575   -1.024114   -0.756072
  C    -5.962929   -0.485601   -2.066479
  C    -4.146477   -1.811251   -3.101618
  C    -4.384510    2.477029   -1.817773
  C    -3.806670    1.192349   -4.618082
  O     0.921844    1.935972   -2.736847
  C     0.549574    3.121407   -2.100447
  H     1.231862    3.866771   -2.559130
  O    -0.774545    3.498027   -2.311430
  C    -1.064470    3.891511   -3.636609
  C     0.791757    3.070651   -0.582229
  H     0.387317    3.991800   -0.140620
  O     2.165533    2.923791   -0.303371
  H    -1.710424    2.001962   -0.721762
  H     2.305693    0.899679   -0.329517
  H    -0.935264    0.632394   -3.927847
  H    -1.119998   -0.713076   -2.779510
  H    -4.131924   -0.233978   -0.040071
  H    -2.848517   -1.183289   -0.775080
  H    -4.397037   -1.940292   -0.402200
  H    -6.229028    0.275803   -1.340167
  H    -6.430241   -1.422216   -1.763577
  H    -6.372492   -0.199292   -3.031075
  H    -3.075982   -1.984197   -3.188014
  H    -4.544834   -1.610892   -4.092072
  H    -4.602830   -2.730200   -2.732984
  H    -4.348379    2.349577   -0.742051
  H    -5.419413    2.602520   -2.108256
  H    -3.859630    3.397931   -2.044472
  H    -3.324247    0.387990   -5.165357
  H    -3.367342    2.124554   -4.960044
  H    -4.850051    1.203233   -4.912648
  H    -2.129401    4.106292   -3.655538
  H    -0.829873    3.093819   -4.346386
  H    -0.493989    4.788843   -3.904990
  H     2.649824    3.707297   -0.588667

----------------------------
CARTESIAN COORDINATES (A.U.)
----------------------------
  NO LB    ZA    FRAG    MASS        X           Y           Z
   0 O   8.0000    1    15.999   -2.478294    3.955711    0.309179
   1 C   6.0000    1    12.011    0.107736    3.536973    0.097160
   2 H   1.0000    1     1.008    0.804537    3.336100    2.042580
   3 C   6.0000    1    12.011    0.825595    1.096877   -1.329977
   4 H   1.0000    1     1.008   -0.488513   -0.402791   -0.770320
   5 O   8.0000    1    15.999    3.227476    0.258351   -0.563689
   6 C   6.0000    1    12.011    0.734911    1.347587   -4.241030
   7 H   1.0000    1     1.008    2.066174   -0.063209   -4.983036
   8 C   6.0000    1    12.011   -1.844952    0.697311   -5.417037
   9 O   8.0000    1    15.999   -3.851189    1.955673   -4.260718
  10 Si 14.0000    1    28.086   -6.845377    1.876395   -5.144927
  11 C   6.0000    1    12.011   -8.399205   -1.230375   -4.055464
  12 C   6.0000    1    12.011   -7.414483   -1.935296   -1.428770
  13 C   6.0000    1    12.011  -11.268303   -0.917653   -3.905080
  14 C   6.0000    1    12.011   -7.835707   -3.422769   -5.861209
  15 C   6.0000    1    12.011   -8.285523    4.680907   -3.435093
  16 C   6.0000    1    12.011   -7.193563    2.253213   -8.726911
  17 O   8.0000    1    15.999    1.742032    3.658458   -5.171891
  18 C   6.0000    1    12.011    1.038544    5.898605   -3.969270
  19 H   1.0000    1     1.008    2.327882    7.307139   -4.836054
  20 O   8.0000    1    15.999   -1.463679    6.610313   -4.367970
  21 C   6.0000    1    12.011   -2.011556    7.353891   -6.872196
  22 C   6.0000    1    12.011    1.496203    5.802690   -1.100253
  23 H   1.0000    1     1.008    0.731924    7.543408   -0.265733
  24 O   8.0000    1    15.999    4.092264    5.525165   -0.573288
  25 H   1.0000    1     1.008   -3.232233    3.783159   -1.363932
  26 H   1.0000    1     1.008    4.357128    1.700147   -0.622697
  27 H   1.0000    1     1.008   -1.767394    1.195052   -7.422555
  28 H   1.0000    1     1.008   -2.116489   -1.347517   -5.252512
  29 H   1.0000    1     1.008   -7.808204   -0.442155   -0.075724
  30 H   1.0000    1     1.008   -5.382917   -2.236093   -1.464688
  31 H   1.0000    1     1.008   -8.309196   -3.666621   -0.760048
  32 H   1.0000    1     1.008  -11.771156    0.521193   -2.532549
  33 H   1.0000    1     1.008  -12.151395   -2.687600   -3.332677
  34 H   1.0000    1     1.008  -12.042264   -0.376608   -5.727902
  35 H   1.0000    1     1.008   -5.812764   -3.749589   -6.024473
  36 H   1.0000    1     1.008   -8.588491   -3.044144   -7.732895
  37 H   1.0000    1     1.008   -8.698087   -5.159330   -5.164591
  38 H   1.0000    1     1.008   -8.217246    4.440056   -1.402274
  39 H   1.0000    1     1.008  -10.241205    4.918050   -3.984027
  40 H   1.0000    1     1.008   -7.293643    6.421158   -3.863492
  41 H   1.0000    1     1.008   -6.281916    0.733194   -9.761110
  42 H   1.0000    1     1.008   -6.363355    4.014826   -9.373125
  43 H   1.0000    1     1.008   -9.165267    2.273781   -9.283559
  44 H   1.0000    1     1.008   -4.023984    7.759767   -6.907965
  45 H   1.0000    1     1.008   -1.568232    5.846470   -8.213479
  46 H   1.0000    1     1.008   -0.933503    9.049603   -7.379362
  47 H   1.0000    1     1.008    5.007441    7.005777   -1.112419

      -----------------------------------------------------------      
     |                   =====================                   |     
     |                           x T B                           |     
     |                   =====================                   |     
     |                         S. Grimme                         |     
     |          Mulliken Center for Theoretical Chemistry        |     
     |                    University of Bonn                     |     
      -----------------------------------------------------------      

   * xtb version 6.7.1 (edcfbbe) compiled by 'albert@albert-system' on 2024-07-22

   xtb is free software: you can redistribute it and/or modify it under
   the terms of the GNU Lesser General Public License as published by
   the Free Software Foundation, either version 3 of the License, or
   (at your option) any later version.
   
   xtb is distributed in the hope that it will be useful,
   but WITHOUT ANY WARRANTY; without even the implied warranty of
   MERCHANTABILITY or FITNESS FOR A PARTICULAR PURPOSE.  See the
   GNU Lesser General Public License for more details.
   
   Cite this work as:
   * C. Bannwarth, E. Caldeweyher, S. Ehlert, A. Hansen, P. Pracht,
     J. Seibert, S. Spicher, S. Grimme, WIREs Comput. Mol. Sci., 2020, 11,
     e01493. DOI: 10.1002/wcms.1493
   
   for GFN2-xTB:
   * C. Bannwarth, S. Ehlert and S. Grimme., J. Chem. Theory Comput., 2019,
     15, 1652-1671. DOI: 10.1021/acs.jctc.8b01176
   for GFN1-xTB:
   * S. Grimme, C. Bannwarth, P. Shushkov, J. Chem. Theory Comput., 2017,
     13, 1989-2009. DOI: 10.1021/acs.jctc.7b00118
   for GFN0-xTB:
   * P. Pracht, E. Caldeweyher, S. Ehlert, S. Grimme, ChemRxiv, 2019, preprint.
     DOI: 10.26434/chemrxiv.8326202.v1
   for GFN-FF:
   * S. Spicher and S. Grimme, Angew. Chem. Int. Ed., 2020, 59, 15665-15673.
     DOI: 10.1002/anie.202004239
   
   for ALPB and GBSA implicit solvation:
   * S. Ehlert, M. Stahn, S. Spicher, S. Grimme, J. Chem. Theory Comput.,
     2021, 17, 4250-4261. DOI: 10.1021/acs.jctc.1c00471
   
   for ddCOSMO and CPCM-X implicit solvation:
   * M. Stahn, S. Ehlert, S. Grimme, J. Phys. Chem. A,
     2023, XX, XXXX-XXXX. DOI: 10.1021/acs.jpca.3c04382
   
   for DFT-D4:
   * E. Caldeweyher, C. Bannwarth and S. Grimme, J. Chem. Phys., 2017,
     147, 034112. DOI: 10.1063/1.4993215
   * E. Caldeweyher, S. Ehlert, A. Hansen, H. Neugebauer, S. Spicher,
     C. Bannwarth and S. Grimme, J. Chem. Phys., 2019, 150, 154122.
     DOI: 10.1063/1.5090222
   * E. Caldeweyher, J.-M. Mewes, S. Ehlert and S. Grimme, Phys. Chem. Chem. Phys.
     2020, 22, 8499-8512. DOI: 10.1039/D0CP00502A
   
   for sTDA-xTB:
   * S. Grimme and C. Bannwarth, J. Chem. Phys., 2016, 145, 054103.
     DOI: 10.1063/1.4959605
   
   in the mass-spec context:
   * V. Asgeirsson, C. Bauer and S. Grimme, Chem. Sci., 2017, 8, 4879.
     DOI: 10.1039/c7sc00601b
   * J. Koopman and S. Grimme, ACS Omega 2019, 4, 12, 15120-15133.
     DOI: 10.1021/acsomega.9b02011
   
   for metadynamics refer to:
   * S. Grimme, J. Chem. Theory Comput., 2019, 155, 2847-2862
     DOI: 10.1021/acs.jctc.9b00143
   
   for SPH calculations refer to:
   * S. Spicher and S. Grimme, J. Chem. Theory Comput., 2021, 17, 1701-1714
     DOI: 10.1021/acs.jctc.0c01306
   
   for ONIOM refer to:
   * C. Plett, A. Katbashev, S. Ehlert, S. Grimme, M. Bursch,
     Phys. Chem. Chem. Phys., 2023, 25, 17860-17868. DOI: 10.1039/D3CP02178E
   
   for DIPRO refer to:
   * J. Kohn, N. Gildemeister, S. Grimme, D. Fazzi, A. Hansen,
     J. Chem. Phys., 2023, just accepted.
   
   for PTB refer to:
   * S. Grimme, M. Mueller, A. Hansen, J. Chem. Phys., 2023, 158, 124111.
     DOI: 10.1063/5.0137838
   
   with help from (in alphabetical order)
   P. Atkinson, C. Bannwarth, F. Bohle, G. Brandenburg, E. Caldeweyher
   M. Checinski, S. Dohm, S. Ehlert, S. Ehrlich, I. Gerasimov, C. Hölzer
   A. Katbashev, J. Kohn, J. Koopman, C. Lavigne, S. Lehtola, F. März, M. Müller,
   F. Musil, H. Neugebauer, J. Pisarek, C. Plett, P. Pracht, F. Pultar,
   J. Seibert, P. Shushkov, S. Spicher, M. Stahn, M. Steiner, T. Strunk,
   J. Stückrath, T. Rose, and J. Unsleber
   
 * started run on 2025/09/10 at 11:36:45.518     
   ID    Z sym.   atoms
    1    8 O      1, 6, 10, 18, 21, 25
    2    6 C      2, 4, 7, 9, 12-17, 19, 22, 23
    3    1 H      3, 5, 8, 20, 24, 26-48
    4   14 Si     11

           -------------------------------------------------
          |                Calculation Setup                |
           -------------------------------------------------

          program call               : /home/kmoult/orca_6_1/otool_xtb goat_0_XTB.xyz --grad -c 0 -u 0 -P 4 --namespace goat_0 --input goat_0_XTB.input.tmp --alpb ACETONE --acc 0.200000
          hostname                   : node1600
          calculation namespace      : goat_0
          coordinate file            : goat_0_XTB.xyz
          omp threads                :                     4


           -------------------------------------------------
          |                 G F N 2 - x T B                 |
           -------------------------------------------------

        Reference                      10.1021/acs.jctc.8b01176
      * Hamiltonian:
        H0-scaling (s, p, d)           1.850000    2.230000    2.230000
        zeta-weighting                 0.500000
      * Dispersion:
        s8                             2.700000
        a1                             0.520000
        a2                             5.000000
        s9                             5.000000
      * Repulsion:
        kExp                           1.500000    1.000000
        rExp                           1.000000
      * Coulomb:
        alpha                          2.000000
        third order                    shell-resolved
        anisotropic                    true
        a3                             3.000000
        a5                             4.000000
        cn-shift                       1.200000
        cn-exp                         4.000000
        max-rad                        5.000000

      * Solvation model:               ALPB
        Solvent                        ACETONE
        Parameter file                 internal GFN2-xTB/ALPB
        Dielectric constant                2.0700E+01
        Reference state                gsolv [1 M gas/solution]
        Free energy shift                  5.9241E-03 Eh       3.7175E+00 kcal/mol
        Temperature                        2.9815E+02 K
        Density                            7.9000E-01 kg/L
        Solvent mass                       5.8080E+01 g/mol
        Interaction kernel             P16
        Born radius scaling (c1)           1.8274E+00
        Born radii integrator          GBOBC
        Born offset                        0.0000E+00 a0       0.0000E+00 AA
        H-bond correction              true
        Ion screening                  false
        Surface tension                    1.0000E-05 Eh       1.5569E+01 dyn/cm
        Grid points                               230 per atom
q/qsh data taken from xtbrestart
CAMM data taken from xtbrestart

          ...................................................
          :                      SETUP                      :
          :.................................................:
          :  # basis functions                 114          :
          :  # atomic orbitals                 113          :
          :  # shells                           69          :
          :  # electrons                       120          :
          :  max. iterations                   250          :
          :  Hamiltonian                  GFN2-xTB          :
          :  restarted?                       true          :
          :  GBSA solvation                   true          :
          :  PC potential                    false          :
          :  electronic temp.          300.0000000     K    :
          :  accuracy                    0.2000000          :
          :  -> integral cutoff          0.3198970E+02      :
          :  -> integral neglect         0.2000000E-08      :
          :  -> SCF convergence          0.2000000E-06 Eh   :
          :  -> wf. convergence          0.2000000E-04 e    :
          :  Broyden damping             0.4000000          :
          :  net charge                          0          :
          :  unpaired electrons                  0          :
          ...................................................

 iter      E             dE          RMSdq      gap      omega  full diag
   1    -68.9937642 -0.689938E+02  0.128E-01    6.39       0.0  T
   2    -68.9937704 -0.619618E-05  0.778E-02    6.39       1.0  T
   3    -68.9937706 -0.178593E-06  0.117E-02    6.39       1.2  T
   4    -68.9937718 -0.117255E-05  0.556E-03    6.39       2.6  T
   5    -68.9937718 -0.624940E-07  0.380E-03    6.39       3.8  T
   6    -68.9937719 -0.513374E-07  0.149E-03    6.39       9.7  T
   7    -68.9937719  0.700845E-08  0.825E-04    6.39      17.5  T
   8    -68.9937719 -0.127429E-07  0.430E-04    6.39      33.6  T
   9    -68.9937719 -0.841325E-09  0.206E-04    6.39      70.1  T
  10    -68.9937719 -0.613625E-10  0.857E-05    6.39     168.4  T
  11    -68.9937719 -0.219273E-10  0.315E-05    6.39     458.2  T

   *** convergence criteria satisfied after 11 iterations ***

         #    Occupation            Energy/Eh            Energy/eV
      -------------------------------------------------------------
         1        2.0000           -0.7780953             -21.1730
       ...           ...                  ...                  ...
        54        2.0000           -0.4218001             -11.4778
        55        2.0000           -0.4205876             -11.4448
        56        2.0000           -0.4156356             -11.3100
        57        2.0000           -0.4011634             -10.9162
        58        2.0000           -0.3965649             -10.7911
        59        2.0000           -0.3951418             -10.7524
        60        2.0000           -0.3715703             -10.1109 (HOMO)
        61                         -0.1365849              -3.7167 (LUMO)
        62                         -0.1257072              -3.4207
        63                         -0.1130282              -3.0757
        64                         -0.0186409              -0.5072
        65                         -0.0102407              -0.2787
       ...                                ...                  ...
       113                          0.7650227              20.8173
      -------------------------------------------------------------
                  HL-Gap            0.2349853 Eh            6.3943 eV
             Fermi-level           -0.2540776 Eh           -6.9138 eV

 SCC (total)                   0 d,  0 h,  0 min,  0.030 sec
 SCC setup                      ...        0 min,  0.001 sec (  1.932%)
 Dispersion                     ...        0 min,  0.000 sec (  0.964%)
 classical contributions        ...        0 min,  0.000 sec (  0.120%)
 integral evaluation            ...        0 min,  0.004 sec ( 14.411%)
 iterations                     ...        0 min,  0.017 sec ( 57.721%)
 molecular gradient             ...        0 min,  0.007 sec ( 24.261%)
 printout                       ...        0 min,  0.000 sec (  0.539%)

         :::::::::::::::::::::::::::::::::::::::::::::::::::::
         ::                     SUMMARY                     ::
         :::::::::::::::::::::::::::::::::::::::::::::::::::::
         :: total energy             -68.318889510654 Eh    ::
         :: total w/o Gsasa/hb       -68.293191106079 Eh    ::
         :: gradient norm              0.010033385530 Eh/a0 ::
         :: HOMO-LUMO gap              6.394276479857 eV    ::
         ::.................................................::
         :: SCC energy               -68.992420294894 Eh    ::
         :: -> isotropic ES            0.160507919679 Eh    ::
         :: -> anisotropic ES          0.002426736348 Eh    ::
         :: -> anisotropic XC          0.004493232050 Eh    ::
         :: -> dispersion             -0.049074791385 Eh    ::
         :: -> Gsolv                  -0.029280794613 Eh    ::
         ::    -> Gelec               -0.003582390038 Eh    ::
         ::    -> Gsasa               -0.026324975399 Eh    ::
         ::    -> Ghb                 -0.005297570440 Eh    ::
         ::    -> Gshift               0.005924141264 Eh    ::
         :: repulsion energy           0.673530784241 Eh    ::
         :: add. restraining           0.000000000000 Eh    ::
         :: total charge               0.000000000000 e     ::
         :::::::::::::::::::::::::::::::::::::::::::::::::::::


Property printout bound to 'properties.out'

           -------------------------------------------------
          | TOTAL ENERGY              -68.318889510654 Eh   |
          | GRADIENT NORM               0.010033385530 Eh/α |
          | HOMO-LUMO GAP               6.394276479857 eV   |
           -------------------------------------------------

------------------------------------------------------------------------
 * finished run on 2025/09/10 at 11:36:45.571     
------------------------------------------------------------------------
 total:
 * wall-time:     0 d,  0 h,  0 min,  0.052 sec
 *  cpu-time:     0 d,  0 h,  0 min,  0.187 sec
 * ratio c/w:     3.588 speedup
 SCF:
 * wall-time:     0 d,  0 h,  0 min,  0.030 sec
 *  cpu-time:     0 d,  0 h,  0 min,  0.120 sec
 * ratio c/w:     3.981 speedup


-------------------------   --------------------
FINAL SINGLE POINT ENERGY       -68.318889510650
-------------------------   --------------------


-------------
DIPOLE MOMENT
-------------
                                X             Y             Z
Total Dipole Moment    :     -0.17900       1.02000      -1.74000
                        -----------------------------------------
Magnitude (a.u.)       :      2.02486
Magnitude (Debye)      :      5.14677


------------------
CARTESIAN GRADIENT
------------------

   1   O   :    0.001848748    0.000512034    0.000376325
   2   C   :   -0.000488083   -0.000079860    0.000136391
   3   H   :   -0.001071746   -0.000004182    0.000268716
   4   C   :    0.001333760    0.000980416   -0.000248706
   5   H   :    0.000867921   -0.000265929    0.000304048
   6   O   :   -0.000951361    0.000396162   -0.000561635
   7   C   :   -0.000497840    0.000717871   -0.000280616
   8   H   :    0.000011947   -0.000157439   -0.000083437
   9   C   :   -0.000853556   -0.000734028   -0.002061115
  10   O   :    0.003912914   -0.000112846    0.002415713
  11   Si  :   -0.001024833   -0.002500487    0.001187079
  12   C   :    0.000610186    0.002288899   -0.000020925
  13   C   :    0.000197561    0.000551647   -0.000863693
  14   C   :    0.000923015    0.000685122   -0.000305818
  15   C   :   -0.000360627    0.000945151   -0.000035839
  16   C   :   -0.002381589    0.000055048   -0.000200658
  17   C   :   -0.000499650    0.000036486   -0.000726414
  18   O   :   -0.001199268    0.001824882    0.002511016
  19   C   :    0.000098195   -0.002558447   -0.000574936
  20   H   :    0.000384054    0.000114472   -0.000815324
  21   O   :    0.001046426   -0.001297789   -0.000838939
  22   C   :   -0.000339704   -0.000379720    0.000899076
  23   C   :   -0.001580246   -0.000563802   -0.000673937
  24   H   :    0.000361719    0.000071464    0.000173370
  25   O   :    0.000077802    0.000504512   -0.001369445
  26   H   :   -0.000056213   -0.000424087    0.000130425
  27   H   :   -0.000816007    0.000092026    0.000227193
  28   H   :   -0.000016861    0.000673411    0.000676006
  29   H   :   -0.000295452    0.000452551    0.000122963
  30   H   :    0.000041232   -0.000366491   -0.000497339
  31   H   :   -0.000533821    0.000187422   -0.000092387
  32   H   :    0.000012124    0.000043465   -0.000022198
  33   H   :    0.000242570   -0.000567288   -0.000273620
  34   H   :    0.000116731    0.000015575   -0.000067551
  35   H   :    0.000265089   -0.000247780    0.000444020
  36   H   :   -0.000378013   -0.000135225    0.000293645
  37   H   :    0.000149836   -0.000080358    0.000530900
  38   H   :    0.000109840    0.000000934   -0.000031898
  39   H   :    0.000187547    0.000286737   -0.000766083
  40   H   :    0.001064705   -0.000319749   -0.000029823
  41   H   :   -0.000418116   -0.000132984    0.000189495
  42   H   :   -0.000341545    0.000638810   -0.000180010
  43   H   :   -0.000225862   -0.000412140   -0.000474380
  44   H   :    0.000733172    0.000081410    0.000200819
  45   H   :    0.000028497   -0.000064587    0.000462970
  46   H   :    0.000057086   -0.000101046   -0.000073469
  47   H   :   -0.000033374    0.000142966   -0.000072561
  48   H   :   -0.000318907   -0.000793211    0.000692586

Difference to translation invariance:
           :   -0.0000000000   -0.0000000000    0.0000000000

Difference to rotation invariance:
           :    0.0002197177   -0.0007657111    0.0000737040

Norm of the Cartesian gradient     ...    0.0100333855
RMS gradient                       ...    0.0008361155
MAX gradient                       ...    0.0039129137
------------------------------------------------------------------------------
                         ORCA GEOMETRY RELAXATION STEP
------------------------------------------------------------------------------

Reading the OPT-File                    .... done
Getting information on internals        .... done
Copying old internal coords+grads       .... done
Making the new internal coordinates     .... (2022 redundants) done
Validating the new internal coordinates .... (2022 redundants) done
Calculating the B-matrix                .... done
Calculating the G,G- and P matrices     .... done
Transforming gradient to internals      .... done
Projecting the internal gradient        .... done
Number of atoms                         ....  48
Number of internal coordinates          .... 234
Current Energy                          ....   -68.318889511 Eh
Current gradient norm                   ....     0.010033386 Eh/bohr
Maximum allowed component of the step   ....  0.300
Current trust radius                    ....  0.450
Updating the Hessian (BFGS)             .... done
Forming the augmented Hessian           .... done
Diagonalizing the augmented Hessian     .... done
Last element of RFO vector              ....  0.978363256
Lowest eigenvalues of augmented Hessian:
 -0.001139701  0.009064279  0.010000049  0.010000802  0.010002972
Length of the computed step             ....  0.211470037
The final length of the internal step   ....  0.211470037
Converting the step to Cartesian space:
 Initial RMS(Int)=    0.0138242288
Transforming coordinates:
 Iter   0:  RMS(Cart)=    0.1178045018 RMS(Int)=    0.0142053940
 Iter   5:  RMS(Cart)=    0.0000000454 RMS(Int)=    0.0000000178
done
Storing new coordinates                 .... done
The predicted energy change is          ....    -0.000595334
Previously predicted energy change      ....    -0.000850847
Actually observed energy change         ....    -0.000947909
Ratio of predicted to observed change   ....     1.114077504
New trust radius                        ....     0.675000000

                                .--------------------.
          ----------------------|Geometry convergence|-------------------------
          Item                value                   Tolerance       Converged
          ---------------------------------------------------------------------
          Energy change      -0.0009479094            0.0000050000      NO
          RMS gradient        0.0008315231            0.0001000000      NO
          MAX gradient        0.0049139358            0.0003000000      NO
          RMS step            0.0138242288            0.0020000000      NO
          MAX step            0.0752729930            0.0040000000      NO
          -------------------------------------------------------------------------
          ........................................................
          Max(Bonds)      0.0294      Max(Angles)    1.69
          Max(Dihed)        4.31      Max(Improp)    0.00
          ---------------------------------------------------------------------

    ---------------------------------------------------------------------------
                         Redundant Internal Coordinates
                            (Angstroem and degrees)

        Definition                    Value    dE/dq     Step     New-Value
    ----------------------------------------------------------------------------
     1. B(C   1,O   0)                1.3908 -0.001551  0.0009    1.3917   
     2. B(H   2,C   1)                1.0987 -0.000109  0.0006    1.0992   
     3. B(C   3,C   1)                1.5434 -0.000622  0.0016    1.5449   
     4. B(H   4,C   3)                1.0959 -0.000277  0.0015    1.0975   
     5. B(O   5,C   3)                1.4060 -0.001722  0.0001    1.4061   
     6. B(C   6,C   3)                1.5469  0.000146  0.0013    1.5483   
     7. B(H   7,C   6)                1.0990  0.000145 -0.0000    1.0990   
     8. B(C   8,C   6)                1.5393 -0.001206  0.0012    1.5405   
     9. B(O   9,C   8)                1.3946 -0.001019 -0.0002    1.3944   
    10. B(Si 10,O   9)                1.6526  0.001910 -0.0054    1.6473   
    11. B(C  11,Si 10)                1.9265 -0.003704  0.0030    1.9295   
    12. B(C  12,C  11)                1.5306 -0.001530  0.0052    1.5358   
    13. B(C  13,C  11)                1.5293 -0.001558  0.0053    1.5347   
    14. B(C  14,C  11)                1.5323 -0.001125  0.0041    1.5364   
    15. B(C  15,Si 10)                1.8979  0.000154  0.0008    1.8987   
    16. B(C  16,Si 10)                1.9148  0.001230  0.0017    1.9165   
    17. B(O  17,C   6)                1.4220 -0.002149  0.0020    1.4240   
    18. B(C  18,O  17)                1.3960 -0.003900  0.0047    1.4008   
    19. B(H  19,C  18)                1.1097  0.000651 -0.0003    1.1094   
    20. B(O  20,C  18)                1.3927 -0.001280  0.0015    1.3943   
    21. B(C  21,O  20)                1.4124 -0.001189  0.0022    1.4146   
    22. B(C  22,C  18)                1.5383 -0.000639  0.0030    1.5413   
    23. B(C  22,C   1)                1.5424 -0.000362  0.0022    1.5446   
    24. B(H  23,C  22)                1.0987 -0.000005  0.0004    1.0991   
    25. B(O  24,C  22)                1.4095 -0.000394 -0.0011    1.4084   
    26. B(H  25,O   0)                0.9754 -0.000178  0.0005    0.9759   
    27. B(H  25,O  20)                2.3751 -0.000467  0.0199    2.3950   
    28. B(H  25,O   9)                1.8418  0.000067  0.0179    1.8597   
    29. B(H  26,O   5)                0.9698 -0.000685  0.0017    0.9715   
    30. B(H  26,O  24)                2.0291 -0.000334  0.0294    2.0585   
    31. B(H  27,C   8)                1.0942 -0.000493  0.0019    1.0961   
    32. B(H  28,C   8)                1.0950 -0.000398  0.0013    1.0963   
    33. B(H  29,C  12)                1.0865 -0.000601  0.0015    1.0879   
    34. B(H  30,C  12)                1.0869 -0.000553  0.0013    1.0882   
    35. B(H  31,C  12)                1.0903 -0.000049  0.0000    1.0903   
    36. B(H  32,C  13)                1.0854 -0.000638  0.0014    1.0868   
    37. B(H  33,C  13)                1.0897 -0.000081  0.0001    1.0898   
    38. B(H  34,C  13)                1.0864 -0.000563  0.0013    1.0877   
    39. B(H  35,C  14)                1.0878 -0.000375  0.0009    1.0887   
    40. B(H  36,C  14)                1.0862 -0.000555  0.0012    1.0874   
    41. B(H  37,C  14)                1.0902 -0.000056  0.0000    1.0903   
    42. B(H  38,C  15)                1.0838 -0.000786  0.0021    1.0860   
    43. B(H  39,C  15)                1.0822 -0.001048  0.0028    1.0850   
    44. B(H  40,C  15)                1.0840 -0.000355  0.0010    1.0849   
    45. B(H  41,C  16)                1.0859 -0.000536  0.0013    1.0873   
    46. B(H  42,C  16)                1.0858 -0.000297  0.0007    1.0865   
    47. B(H  43,C  16)                1.0842 -0.000757  0.0021    1.0863   
    48. B(H  44,C  21)                1.0865 -0.000048  0.0001    1.0867   
    49. B(H  45,C  21)                1.0932  0.000134 -0.0001    1.0932   
    50. B(H  46,C  21)                1.0967  0.000117 -0.0002    1.0965   
    51. B(H  47,O  24)                0.9643 -0.001008  0.0019    0.9662   
    52. A(C   1,O   0,H  25)          108.32  0.000416    0.17    108.49   
    53. A(H   2,C   1,C   3)          107.15  0.000725   -0.32    106.83   
    54. A(O   0,C   1,H   2)          105.67 -0.000974    0.40    106.06   
    55. A(C   3,C   1,C  22)          109.40 -0.000653    0.18    109.57   
    56. A(O   0,C   1,C  22)          112.21  0.000260    0.15    112.36   
    57. A(O   0,C   1,C   3)          114.52  0.000087   -0.07    114.45   
    58. A(H   2,C   1,C  22)          107.47  0.000631   -0.39    107.09   
    59. A(H   4,C   3,O   5)          105.49 -0.000415    0.27    105.76   
    60. A(C   1,C   3,C   6)          114.07 -0.000204   -0.12    113.95   
    61. A(C   1,C   3,H   4)          108.51 -0.000170   -0.42    108.09   
    62. A(C   1,C   3,O   5)          110.21  0.000562    0.28    110.49   
    63. A(O   5,C   3,C   6)          110.02 -0.000690    0.38    110.40   
    64. A(H   4,C   3,C   6)          108.15  0.000915   -0.37    107.78   
    65. A(C   3,O   5,H  26)          107.44 -0.000712    0.28    107.72   
    66. A(H   7,C   6,C   8)          105.80  0.000366    0.06    105.85   
    67. A(C   3,C   6,C   8)          114.26  0.002038   -0.62    113.65   
    68. A(C   3,C   6,H   7)          106.12 -0.000770   -0.10    106.02   
    69. A(C   3,C   6,O  17)          114.02  0.000686    0.27    114.30   
    70. A(C   8,C   6,O  17)          112.62 -0.002980    0.51    113.13   
    71. A(H   7,C   6,O  17)          102.72  0.000636   -0.13    102.59   
    72. A(H  27,C   8,H  28)          108.66  0.000623   -0.33    108.33   
    73. A(C   6,C   8,O   9)          113.02 -0.001592    0.13    113.15   
    74. A(C   6,C   8,H  27)          107.76  0.000003    0.10    107.86   
    75. A(O   9,C   8,H  28)          109.70  0.000135    0.08    109.77   
    76. A(O   9,C   8,H  27)          109.83 -0.000193    0.32    110.15   
    77. A(C   6,C   8,H  28)          107.77  0.001119   -0.34    107.42   
    78. A(C   8,O   9,Si 10)          126.41 -0.004914    1.69    128.10   
    79. A(C  15,Si 10,C  16)          110.60 -0.001187    0.33    110.94   
    80. A(C  11,Si 10,C  16)          110.12  0.000832    0.38    110.51   
    81. A(O   9,Si 10,C  16)          111.71 -0.000059   -0.43    111.28   
    82. A(C  11,Si 10,C  15)          110.69 -0.000760    0.93    111.62   
    83. A(O   9,Si 10,C  15)          103.31  0.002083   -1.67    101.64   
    84. A(O   9,Si 10,C  11)          110.25 -0.000903    0.42    110.67   
    85. A(C  12,C  11,C  14)          108.39  0.000051   -0.27    108.12   
    86. A(C  13,C  11,C  14)          107.91 -0.000271   -0.14    107.77   
    87. A(Si 10,C  11,C  13)          110.30 -0.000043    0.23    110.53   
    88. A(Si 10,C  11,C  14)          112.11  0.000298    0.18    112.30   
    89. A(Si 10,C  11,C  12)          109.54 -0.000263    0.29    109.83   
    90. A(C  12,C  11,C  13)          108.49  0.000230   -0.32    108.17   
    91. A(H  29,C  12,H  31)          108.30  0.000072    0.01    108.30   
    92. A(C  11,C  12,H  31)          110.59  0.000067   -0.03    110.56   
    93. A(H  29,C  12,H  30)          107.92  0.000119   -0.01    107.91   
    94. A(C  11,C  12,H  30)          110.89 -0.000142    0.01    110.90   
    95. A(C  11,C  12,H  29)          110.85 -0.000190    0.02    110.87   
    96. A(H  30,C  12,H  31)          108.19  0.000085    0.00    108.19   
    97. A(H  32,C  13,H  33)          108.17  0.000060    0.07    108.24   
    98. A(C  11,C  13,H  33)          110.32 -0.000175    0.04    110.36   
    99. A(C  11,C  13,H  32)          110.74 -0.000049   -0.05    110.69   
   100. A(C  11,C  13,H  34)          110.89 -0.000033   -0.05    110.85   
   101. A(H  33,C  13,H  34)          108.16 -0.000019    0.02    108.18   
   102. A(H  32,C  13,H  34)          108.47  0.000226   -0.04    108.44   
   103. A(H  36,C  14,H  37)          108.08  0.000025    0.07    108.15   
   104. A(H  35,C  14,H  37)          107.74 -0.000158    0.09    107.84   
   105. A(C  11,C  14,H  37)          110.23  0.000058   -0.02    110.21   
   106. A(H  35,C  14,H  36)          108.53  0.000137   -0.03    108.50   
   107. A(C  11,C  14,H  36)          110.95 -0.000012   -0.04    110.91   
   108. A(C  11,C  14,H  35)          111.19 -0.000051   -0.06    111.13   
   109. A(H  39,C  15,H  40)          107.96 -0.000256    0.05    108.01   
   110. A(H  38,C  15,H  40)          106.94 -0.000048   -0.08    106.85   
   111. A(H  38,C  15,H  39)          108.18  0.000266   -0.11    108.07   
   112. A(Si 10,C  15,H  39)          110.29 -0.000707    0.09    110.37   
   113. A(Si 10,C  15,H  38)          111.58  0.000275    0.02    111.61   
   114. A(Si 10,C  15,H  40)          111.73  0.000473    0.02    111.75   
   115. A(H  42,C  16,H  43)          107.17 -0.000369    0.04    107.21   
   116. A(H  41,C  16,H  43)          107.34 -0.000159    0.01    107.35   
   117. A(Si 10,C  16,H  43)          111.26 -0.000256    0.12    111.38   
   118. A(H  41,C  16,H  42)          107.31 -0.000625    0.08    107.39   
   119. A(Si 10,C  16,H  41)          112.27  0.000642   -0.09    112.18   
   120. A(Si 10,C  16,H  42)          111.24  0.000685   -0.16    111.08   
   121. A(C   6,O  17,C  18)          118.19 -0.000195    0.46    118.65   
   122. A(O  17,C  18,H  19)          102.59 -0.000626   -0.32    102.27   
   123. A(O  20,C  18,C  22)          107.95 -0.000631    0.07    108.01   
   124. A(H  19,C  18,C  22)          109.47  0.000384   -0.15    109.32   
   125. A(O  17,C  18,C  22)          112.33  0.000394    0.20    112.52   
   126. A(H  19,C  18,O  20)          109.90  0.000803   -0.09    109.81   
   127. A(O  17,C  18,O  20)          114.46 -0.000237    0.24    114.71   
   128. A(C  18,O  20,C  21)          114.37  0.002441   -0.13    114.23   
   129. A(H  44,C  21,H  46)          110.11  0.000106    0.17    110.28   
   130. A(H  45,C  21,H  46)          109.06  0.000061   -0.18    108.88   
   131. A(O  20,C  21,H  46)          110.53  0.000247   -0.06    110.47   
   132. A(H  44,C  21,H  45)          110.08  0.000245    0.09    110.16   
   133. A(O  20,C  21,H  45)          111.21  0.000103   -0.02    111.19   
   134. A(O  20,C  21,H  44)          105.82 -0.000774    0.02    105.84   
   135. A(H  23,C  22,O  24)          111.51  0.000464    0.32    111.83   
   136. A(C  18,C  22,O  24)          110.62 -0.001012    0.56    111.18   
   137. A(C   1,C  22,O  24)          107.58  0.000126    0.06    107.64   
   138. A(C  18,C  22,H  23)          108.12  0.000522   -0.50    107.63   
   139. A(C   1,C  22,H  23)          108.13 -0.000502   -0.27    107.87   
   140. A(C   1,C  22,C  18)          110.86  0.000417   -0.18    110.68   
   141. A(C  22,O  24,H  47)          110.26  0.000502    0.25    110.51   
   142. D(H   2,C   1,O   0,H  25)   -167.94  0.000491   -0.04   -167.98   
   143. D(C  22,C   1,O   0,H  25)     75.23  0.000183    0.11     75.34   
   144. D(C   3,C   1,O   0,H  25)    -50.26  0.000787   -0.22    -50.47   
   145. D(H   4,C   3,C   1,C  22)   -166.79  0.000550    0.46   -166.33   
   146. D(O   5,C   3,C   1,C  22)     78.17  0.000837    0.21     78.37   
   147. D(O   5,C   3,C   1,H   2)    -38.06  0.000036    0.75    -37.31   
   148. D(H   4,C   3,C   1,H   2)     76.99 -0.000251    0.99     77.99   
   149. D(O   5,C   3,C   1,O   0)   -154.89  0.000711    0.51   -154.38   
   150. D(H   4,C   3,C   1,O   0)    -39.84  0.000424    0.76    -39.09   
   151. D(H  26,O   5,C   3,H   4)   -165.35  0.000414   -1.07   -166.42   
   152. D(H  26,O   5,C   3,C   6)     78.22 -0.000093   -0.97     77.25   
   153. D(H  26,O   5,C   3,C   1)    -48.41  0.000265   -1.27    -49.68   
   154. D(H   7,C   6,C   3,O   5)     29.47  0.000088   -1.25     28.22   
   155. D(H   7,C   6,C   3,H   4)    -85.28  0.000441   -1.57    -86.85   
   156. D(H   7,C   6,C   3,C   1)    153.90  0.000135   -0.66    153.24   
   157. D(C   8,C   6,C   3,H   4)     30.89  0.001502   -1.91     28.98   
   158. D(C   8,C   6,C   3,C   1)    -89.93  0.001195   -1.00    -90.93   
   159. D(C   8,C   6,C   3,O   5)    145.64  0.001149   -1.59    144.06   
   160. D(H  27,C   8,C   6,O  17)     39.91 -0.000357   -0.70     39.20   
   161. D(H  27,C   8,C   6,H   7)    -71.55  0.000081   -0.80    -72.35   
   162. D(H  27,C   8,C   6,C   3)    172.09 -0.000312   -0.39    171.70   
   163. D(O   9,C   8,C   6,O  17)    -81.63  0.000897   -1.28    -82.90   
   164. D(O   9,C   8,C   6,C   3)     50.56  0.000942   -0.96     49.59   
   165. D(O   9,C   8,C   6,H   7)    166.92  0.001336   -1.37    165.54   
   166. D(Si 10,O   9,C   8,H  27)     55.04  0.000438   -0.42     54.63   
   167. D(Si 10,O   9,C   8,C   6)    175.40 -0.000756    0.03    175.43   
   168. D(Si 10,O   9,C   8,H  28)    -64.32 -0.000292   -0.26    -64.58   
   169. D(C  16,Si 10,O   9,C   8)    -44.77  0.000328   -4.31    -49.08   
   170. D(C  15,Si 10,O   9,C   8)   -163.67  0.000541   -3.45   -167.12   
   171. D(C  11,Si 10,O   9,C   8)     78.02  0.000710   -3.82     74.20   
   172. D(C  12,C  11,Si 10,O   9)     38.38  0.000439    0.17     38.55   
   173. D(C  13,C  11,Si 10,C  16)    -78.56  0.000410    0.10    -78.46   
   174. D(C  13,C  11,Si 10,C  15)     44.05 -0.001038    1.34     45.39   
   175. D(C  13,C  11,Si 10,O   9)    157.72  0.000533    0.10    157.83   
   176. D(C  12,C  11,Si 10,C  16)    162.10  0.000317    0.17    162.26   
   177. D(C  12,C  11,Si 10,C  15)    -75.29 -0.001132    1.41    -73.88   
   178. D(H  30,C  12,C  11,C  14)     61.23  0.000198    0.02     61.25   
   179. D(H  30,C  12,C  11,C  13)    178.16  0.000030   -0.47    177.69   
   180. D(H  30,C  12,C  11,Si 10)    -61.39 -0.000038   -0.21    -61.60   
   181. D(H  29,C  12,C  11,C  14)   -178.92  0.000130    0.03   -178.89   
   182. D(H  29,C  12,C  11,C  13)    -61.99 -0.000038   -0.46    -62.45   
   183. D(H  29,C  12,C  11,Si 10)     58.47 -0.000107   -0.20     58.27   
   184. D(H  33,C  13,C  11,C  14)     55.86 -0.000052    0.02     55.88   
   185. D(H  33,C  13,C  11,C  12)    -61.38 -0.000090    0.58    -60.80   
   186. D(H  33,C  13,C  11,Si 10)    178.64  0.000114    0.29    178.93   
   187. D(H  32,C  13,C  11,C  12)     58.34 -0.000160    0.67     59.01   
   188. D(H  32,C  13,C  11,Si 10)    -61.64  0.000044    0.37    -61.27   
   189. D(H  32,C  13,C  11,C  14)    175.58 -0.000122    0.10    175.68   
   190. D(H  36,C  14,C  11,C  13)     59.83 -0.000067   -0.33     59.50   
   191. D(H  36,C  14,C  11,C  12)    177.13  0.000087   -0.93    176.21   
   192. D(H  36,C  14,C  11,Si 10)    -61.83 -0.000019   -0.63    -62.47   
   193. D(H  35,C  14,C  11,C  13)   -179.28  0.000064   -0.44   -179.72   
   194. D(H  35,C  14,C  11,C  12)    -61.98  0.000218   -1.04    -63.01   
   195. D(H  35,C  14,C  11,Si 10)     59.06  0.000113   -0.74     58.32   
   196. D(H  39,C  15,Si 10,C  16)     55.93 -0.000216    0.35     56.28   
   197. D(H  39,C  15,Si 10,C  11)    -66.40  0.000062   -0.92    -67.32   
   198. D(H  39,C  15,Si 10,O   9)    175.60  0.000320   -0.96    174.64   
   199. D(H  38,C  15,Si 10,C  16)    176.19 -0.000176    0.28    176.47   
   200. D(H  38,C  15,Si 10,C  11)     53.86  0.000101   -0.99     52.87   
   201. D(H  38,C  15,Si 10,O   9)    -64.14  0.000359   -1.03    -65.17   
   202. D(H  41,C  16,Si 10,C  15)    176.40  0.001090   -1.56    174.84   
   203. D(H  41,C  16,Si 10,C  11)    -60.94 -0.000107    0.05    -60.89   
   204. D(H  41,C  16,Si 10,O   9)     61.93 -0.000713    0.56     62.48   
   205. D(H  42,C  16,Si 10,C  15)     56.13  0.000969   -1.49     54.64   
   206. D(H  42,C  16,Si 10,C  11)    178.79 -0.000228    0.11    178.91   
   207. D(H  42,C  16,Si 10,O   9)    -58.34 -0.000834    0.62    -57.72   
   208. D(C  18,O  17,C   6,C   8)     86.90  0.000383    1.24     88.13   
   209. D(C  18,O  17,C   6,H   7)   -159.75 -0.000108    1.44   -158.32   
   210. D(C  18,O  17,C   6,C   3)    -45.41 -0.000335    1.37    -44.04   
   211. D(C  22,C  18,O  17,C   6)     52.99  0.000563   -1.30     51.69   
   212. D(O  20,C  18,O  17,C   6)    -70.57  0.001285   -1.75    -72.32   
   213. D(H  19,C  18,O  17,C   6)    170.44  0.000837   -1.57    168.88   
   214. D(C  21,O  20,C  18,C  22)    165.87  0.000409   -0.03    165.84   
   215. D(C  21,O  20,C  18,H  19)     46.54 -0.000140    0.17     46.72   
   216. D(C  21,O  20,C  18,O  17)    -68.25  0.000254    0.48    -67.77   
   217. D(H  46,C  21,O  20,C  18)    -63.47 -0.000202    0.13    -63.34   
   218. D(H  45,C  21,O  20,C  18)     57.82  0.000113   -0.15     57.67   
   219. D(H  44,C  21,O  20,C  18)    177.33 -0.000005   -0.04    177.29   
   220. D(H  23,C  22,C  18,O  20)    -47.43 -0.000925    1.76    -45.67   
   221. D(H  23,C  22,C  18,H  19)     72.17 -0.000110    1.59     73.76   
   222. D(H  23,C  22,C  18,O  17)   -174.56 -0.000420    1.22   -173.33   
   223. D(C   1,C  22,C  18,O  20)     70.95 -0.000977    1.02     71.96   
   224. D(C   1,C  22,C  18,H  19)   -169.46 -0.000161    0.85   -168.61   
   225. D(C   1,C  22,C  18,O  17)    -56.18 -0.000472    0.48    -55.70   
   226. D(H  23,C  22,C   1,C   3)    171.01 -0.000366   -0.38    170.63   
   227. D(H  23,C  22,C   1,H   2)    -72.97  0.000494   -0.88    -73.85   
   228. D(H  23,C  22,C   1,O   0)     42.77 -0.000161   -0.55     42.22   
   229. D(C  18,C  22,C   1,C   3)     52.64 -0.000935    0.50     53.14   
   230. D(C  18,C  22,C   1,H   2)    168.66 -0.000075    0.00    168.66   
   231. D(C  18,C  22,C   1,O   0)    -75.60 -0.000730    0.33    -75.27   
   232. D(H  47,O  24,C  22,H  23)    -54.70  0.000007   -1.14    -55.84   
   233. D(H  47,O  24,C  22,C  18)     65.67  0.000291   -1.18     64.49   
   234. D(H  47,O  24,C  22,C   1)   -173.11  0.000275   -1.03   -174.14   
    ----------------------------------------------------------------------------

Geometry step timings:
Preparation and reading OPT file:      0.001 s ( 4.909 %)
Internal coordinates            :      0.000 s ( 0.197 %)
B/P matrices and projection     :      0.005 s (21.965 %)
Hessian update/contruction      :      0.009 s (44.217 %)
Making the step                 :      0.003 s (14.023 %)
Converting the step to Cartesian:      0.000 s ( 2.138 %)
Storing new data                :      0.001 s ( 4.210 %)
Checking convergence            :      0.000 s ( 0.248 %)
Final printing                  :      0.002 s ( 8.083 %)
Total time                      :      0.021 s

Time for energy+gradient        :      0.078 s
Time for complete geometry iter :      0.112 s

         *************************************************************
         *                GEOMETRY OPTIMIZATION CYCLE   5            *
         *************************************************************
---------------------------------
CARTESIAN COORDINATES (ANGSTROEM)
---------------------------------
  O    -1.340793    2.219247    0.115946
  C     0.025159    1.963541    0.041187
  H     0.377336    1.887643    1.079698
  C     0.390870    0.632595   -0.653623
  H    -0.340754   -0.125097   -0.345245
  O     1.637603    0.167180   -0.199426
  C     0.373375    0.704802   -2.200385
  H     1.078279   -0.063396   -2.547807
  C    -0.987415    0.337742   -2.823050
  O    -2.059227    1.012462   -2.240244
  Si   -3.645080    0.976994   -2.684449
  C    -4.460356   -0.693959   -2.168567
  C    -3.928387   -1.131226   -0.795842
  C    -5.983752   -0.540064   -2.064599
  C    -4.170367   -1.818982   -3.173987
  C    -4.352795    2.434967   -1.695194
  C    -3.846100    1.267718   -4.568085
  O     0.928845    1.901463   -2.736338
  C     0.587023    3.124493   -2.144911
  H     1.307061    3.824046   -2.617041
  O    -0.717274    3.549175   -2.394752
  C    -0.964925    3.902393   -3.742023
  C     0.803933    3.122641   -0.618924
  H     0.401972    4.066318   -0.224186
  O     2.165633    2.959062   -0.298769
  H    -1.726395    2.104428   -0.772741
  H     2.268298    0.903494   -0.260647
  H    -0.937834    0.562907   -3.894668
  H    -1.121397   -0.743836   -2.703898
  H    -4.128676   -0.371981   -0.042806
  H    -2.852828   -1.293328   -0.829930
  H    -4.402802   -2.060636   -0.479637
  H    -6.244749    0.194202   -1.307002
  H    -6.443033   -1.489886   -1.791570
  H    -6.406076   -0.219454   -3.014258
  H    -3.099275   -1.978362   -3.286416
  H    -4.588646   -1.584551   -4.150009
  H    -4.612920   -2.754331   -2.830586
  H    -4.300695    2.255193   -0.625459
  H    -5.392291    2.600818   -1.958299
  H    -3.807587    3.353187   -1.886788
  H    -3.368153    0.488643   -5.156961
  H    -3.406877    2.215692   -4.866264
  H    -4.893478    1.294308   -4.855082
  H    -2.019118    4.161301   -3.791740
  H    -0.749539    3.068479   -4.415230
  H    -0.348567    4.761372   -4.032752
  H     2.680603    3.713159   -0.614491

----------------------------
CARTESIAN COORDINATES (A.U.)
----------------------------
  NO LB    ZA    FRAG    MASS        X           Y           Z
   0 O   8.0000    1    15.999   -2.533732    4.193770    0.219106
   1 C   6.0000    1    12.011    0.047543    3.710555    0.077832
   2 H   1.0000    1     1.008    0.713061    3.567128    2.040334
   3 C   6.0000    1    12.011    0.738637    1.195432   -1.235169
   4 H   1.0000    1     1.008   -0.643933   -0.236398   -0.652419
   5 O   8.0000    1    15.999    3.094621    0.315925   -0.376861
   6 C   6.0000    1    12.011    0.705577    1.331883   -4.158125
   7 H   1.0000    1     1.008    2.037652   -0.119802   -4.814658
   8 C   6.0000    1    12.011   -1.865944    0.638239   -5.334792
   9 O   8.0000    1    15.999   -3.891375    1.913275   -4.233447
  10 Si 14.0000    1    28.086   -6.888204    1.846250   -5.072873
  11 C   6.0000    1    12.011   -8.428852   -1.311392   -4.097998
  12 C   6.0000    1    12.011   -7.423576   -2.137707   -1.503923
  13 C   6.0000    1    12.011  -11.307652   -1.020572   -3.901527
  14 C   6.0000    1    12.011   -7.880852   -3.437377   -5.997967
  15 C   6.0000    1    12.011   -8.225591    4.601421   -3.203452
  16 C   6.0000    1    12.011   -7.268076    2.395640   -8.632430
  17 O   8.0000    1    15.999    1.755263    3.593244   -5.170930
  18 C   6.0000    1    12.011    1.109313    5.904436   -4.053295
  19 H   1.0000    1     1.008    2.469987    7.226399   -4.945490
  20 O   8.0000    1    15.999   -1.355451    6.706969   -4.525426
  21 C   6.0000    1    12.011   -1.823444    7.374455   -7.071399
  22 C   6.0000    1    12.011    1.519214    5.900937   -1.169596
  23 H   1.0000    1     1.008    0.759618    7.684227   -0.423649
  24 O   8.0000    1    15.999    4.092453    5.591817   -0.564591
  25 H   1.0000    1     1.008   -3.262415    3.976792   -1.460268
  26 H   1.0000    1     1.008    4.286461    1.707356   -0.492552
  27 H   1.0000    1     1.008   -1.772249    1.063739   -7.359856
  28 H   1.0000    1     1.008   -2.119133   -1.405646   -5.109627
  29 H   1.0000    1     1.008   -7.802067   -0.702942   -0.080892
  30 H   1.0000    1     1.008   -5.391063   -2.444035   -1.568340
  31 H   1.0000    1     1.008   -8.320090   -3.894037   -0.906383
  32 H   1.0000    1     1.008  -11.800865    0.366989   -2.469876
  33 H   1.0000    1     1.008  -12.175567   -2.815476   -3.385577
  34 H   1.0000    1     1.008  -12.105730   -0.414707   -5.696122
  35 H   1.0000    1     1.008   -5.856780   -3.738563   -6.210426
  36 H   1.0000    1     1.008   -8.671284   -2.994367   -7.842380
  37 H   1.0000    1     1.008   -8.717156   -5.204930   -5.349032
  38 H   1.0000    1     1.008   -8.127135    4.261697   -1.181946
  39 H   1.0000    1     1.008  -10.189954    4.914833   -3.700648
  40 H   1.0000    1     1.008   -7.195296    6.336604   -3.565513
  41 H   1.0000    1     1.008   -6.364887    0.923402   -9.745244
  42 H   1.0000    1     1.008   -6.438064    4.187051   -9.195906
  43 H   1.0000    1     1.008   -9.247333    2.445888   -9.174775
  44 H   1.0000    1     1.008   -3.815579    7.863720   -7.165351
  45 H   1.0000    1     1.008   -1.416424    5.798584   -8.343575
  46 H   1.0000    1     1.008   -0.658696    8.997690   -7.620797
  47 H   1.0000    1     1.008    5.065606    7.016853   -1.161219

      -----------------------------------------------------------      
     |                   =====================                   |     
     |                           x T B                           |     
     |                   =====================                   |     
     |                         S. Grimme                         |     
     |          Mulliken Center for Theoretical Chemistry        |     
     |                    University of Bonn                     |     
      -----------------------------------------------------------      

   * xtb version 6.7.1 (edcfbbe) compiled by 'albert@albert-system' on 2024-07-22

   xtb is free software: you can redistribute it and/or modify it under
   the terms of the GNU Lesser General Public License as published by
   the Free Software Foundation, either version 3 of the License, or
   (at your option) any later version.
   
   xtb is distributed in the hope that it will be useful,
   but WITHOUT ANY WARRANTY; without even the implied warranty of
   MERCHANTABILITY or FITNESS FOR A PARTICULAR PURPOSE.  See the
   GNU Lesser General Public License for more details.
   
   Cite this work as:
   * C. Bannwarth, E. Caldeweyher, S. Ehlert, A. Hansen, P. Pracht,
     J. Seibert, S. Spicher, S. Grimme, WIREs Comput. Mol. Sci., 2020, 11,
     e01493. DOI: 10.1002/wcms.1493
   
   for GFN2-xTB:
   * C. Bannwarth, S. Ehlert and S. Grimme., J. Chem. Theory Comput., 2019,
     15, 1652-1671. DOI: 10.1021/acs.jctc.8b01176
   for GFN1-xTB:
   * S. Grimme, C. Bannwarth, P. Shushkov, J. Chem. Theory Comput., 2017,
     13, 1989-2009. DOI: 10.1021/acs.jctc.7b00118
   for GFN0-xTB:
   * P. Pracht, E. Caldeweyher, S. Ehlert, S. Grimme, ChemRxiv, 2019, preprint.
     DOI: 10.26434/chemrxiv.8326202.v1
   for GFN-FF:
   * S. Spicher and S. Grimme, Angew. Chem. Int. Ed., 2020, 59, 15665-15673.
     DOI: 10.1002/anie.202004239
   
   for ALPB and GBSA implicit solvation:
   * S. Ehlert, M. Stahn, S. Spicher, S. Grimme, J. Chem. Theory Comput.,
     2021, 17, 4250-4261. DOI: 10.1021/acs.jctc.1c00471
   
   for ddCOSMO and CPCM-X implicit solvation:
   * M. Stahn, S. Ehlert, S. Grimme, J. Phys. Chem. A,
     2023, XX, XXXX-XXXX. DOI: 10.1021/acs.jpca.3c04382
   
   for DFT-D4:
   * E. Caldeweyher, C. Bannwarth and S. Grimme, J. Chem. Phys., 2017,
     147, 034112. DOI: 10.1063/1.4993215
   * E. Caldeweyher, S. Ehlert, A. Hansen, H. Neugebauer, S. Spicher,
     C. Bannwarth and S. Grimme, J. Chem. Phys., 2019, 150, 154122.
     DOI: 10.1063/1.5090222
   * E. Caldeweyher, J.-M. Mewes, S. Ehlert and S. Grimme, Phys. Chem. Chem. Phys.
     2020, 22, 8499-8512. DOI: 10.1039/D0CP00502A
   
   for sTDA-xTB:
   * S. Grimme and C. Bannwarth, J. Chem. Phys., 2016, 145, 054103.
     DOI: 10.1063/1.4959605
   
   in the mass-spec context:
   * V. Asgeirsson, C. Bauer and S. Grimme, Chem. Sci., 2017, 8, 4879.
     DOI: 10.1039/c7sc00601b
   * J. Koopman and S. Grimme, ACS Omega 2019, 4, 12, 15120-15133.
     DOI: 10.1021/acsomega.9b02011
   
   for metadynamics refer to:
   * S. Grimme, J. Chem. Theory Comput., 2019, 155, 2847-2862
     DOI: 10.1021/acs.jctc.9b00143
   
   for SPH calculations refer to:
   * S. Spicher and S. Grimme, J. Chem. Theory Comput., 2021, 17, 1701-1714
     DOI: 10.1021/acs.jctc.0c01306
   
   for ONIOM refer to:
   * C. Plett, A. Katbashev, S. Ehlert, S. Grimme, M. Bursch,
     Phys. Chem. Chem. Phys., 2023, 25, 17860-17868. DOI: 10.1039/D3CP02178E
   
   for DIPRO refer to:
   * J. Kohn, N. Gildemeister, S. Grimme, D. Fazzi, A. Hansen,
     J. Chem. Phys., 2023, just accepted.
   
   for PTB refer to:
   * S. Grimme, M. Mueller, A. Hansen, J. Chem. Phys., 2023, 158, 124111.
     DOI: 10.1063/5.0137838
   
   with help from (in alphabetical order)
   P. Atkinson, C. Bannwarth, F. Bohle, G. Brandenburg, E. Caldeweyher
   M. Checinski, S. Dohm, S. Ehlert, S. Ehrlich, I. Gerasimov, C. Hölzer
   A. Katbashev, J. Kohn, J. Koopman, C. Lavigne, S. Lehtola, F. März, M. Müller,
   F. Musil, H. Neugebauer, J. Pisarek, C. Plett, P. Pracht, F. Pultar,
   J. Seibert, P. Shushkov, S. Spicher, M. Stahn, M. Steiner, T. Strunk,
   J. Stückrath, T. Rose, and J. Unsleber
   
 * started run on 2025/09/10 at 11:36:45.631     
   ID    Z sym.   atoms
    1    8 O      1, 6, 10, 18, 21, 25
    2    6 C      2, 4, 7, 9, 12-17, 19, 22, 23
    3    1 H      3, 5, 8, 20, 24, 26-48
    4   14 Si     11

           -------------------------------------------------
          |                Calculation Setup                |
           -------------------------------------------------

          program call               : /home/kmoult/orca_6_1/otool_xtb goat_0_XTB.xyz --grad -c 0 -u 0 -P 4 --namespace goat_0 --input goat_0_XTB.input.tmp --alpb ACETONE --acc 0.200000
          hostname                   : node1600
          calculation namespace      : goat_0
          coordinate file            : goat_0_XTB.xyz
          omp threads                :                     4


           -------------------------------------------------
          |                 G F N 2 - x T B                 |
           -------------------------------------------------

        Reference                      10.1021/acs.jctc.8b01176
      * Hamiltonian:
        H0-scaling (s, p, d)           1.850000    2.230000    2.230000
        zeta-weighting                 0.500000
      * Dispersion:
        s8                             2.700000
        a1                             0.520000
        a2                             5.000000
        s9                             5.000000
      * Repulsion:
        kExp                           1.500000    1.000000
        rExp                           1.000000
      * Coulomb:
        alpha                          2.000000
        third order                    shell-resolved
        anisotropic                    true
        a3                             3.000000
        a5                             4.000000
        cn-shift                       1.200000
        cn-exp                         4.000000
        max-rad                        5.000000

      * Solvation model:               ALPB
        Solvent                        ACETONE
        Parameter file                 internal GFN2-xTB/ALPB
        Dielectric constant                2.0700E+01
        Reference state                gsolv [1 M gas/solution]
        Free energy shift                  5.9241E-03 Eh       3.7175E+00 kcal/mol
        Temperature                        2.9815E+02 K
        Density                            7.9000E-01 kg/L
        Solvent mass                       5.8080E+01 g/mol
        Interaction kernel             P16
        Born radius scaling (c1)           1.8274E+00
        Born radii integrator          GBOBC
        Born offset                        0.0000E+00 a0       0.0000E+00 AA
        H-bond correction              true
        Ion screening                  false
        Surface tension                    1.0000E-05 Eh       1.5569E+01 dyn/cm
        Grid points                               230 per atom
q/qsh data taken from xtbrestart
CAMM data taken from xtbrestart

          ...................................................
          :                      SETUP                      :
          :.................................................:
          :  # basis functions                 114          :
          :  # atomic orbitals                 113          :
          :  # shells                           69          :
          :  # electrons                       120          :
          :  max. iterations                   250          :
          :  Hamiltonian                  GFN2-xTB          :
          :  restarted?                       true          :
          :  GBSA solvation                   true          :
          :  PC potential                    false          :
          :  electronic temp.          300.0000000     K    :
          :  accuracy                    0.2000000          :
          :  -> integral cutoff          0.3198970E+02      :
          :  -> integral neglect         0.2000000E-08      :
          :  -> SCF convergence          0.2000000E-06 Eh   :
          :  -> wf. convergence          0.2000000E-04 e    :
          :  Broyden damping             0.4000000          :
          :  net charge                          0          :
          :  unpaired electrons                  0          :
          ...................................................

 iter      E             dE          RMSdq      gap      omega  full diag
   1    -68.9879325 -0.689879E+02  0.171E-01    6.39       0.0  T
   2    -68.9879503 -0.178072E-04  0.106E-01    6.41       1.0  T
   3    -68.9879184  0.319310E-04  0.283E-02    6.38       1.0  T
   4    -68.9879576 -0.392640E-04  0.128E-02    6.40       1.1  T
   5    -68.9879585 -0.862854E-06  0.789E-03    6.40       1.8  T
   6    -68.9879585 -0.515111E-07  0.258E-03    6.40       5.6  T
   7    -68.9879586 -0.612556E-07  0.142E-03    6.40      10.2  T
   8    -68.9879586 -0.684842E-08  0.586E-04    6.40      24.6  T
   9    -68.9879586 -0.709250E-09  0.274E-04    6.40      52.6  T
  10    -68.9879586 -0.519279E-09  0.109E-04    6.40     132.3  T
  11    -68.9879586 -0.330260E-10  0.486E-05    6.40     297.1  T

   *** convergence criteria satisfied after 11 iterations ***

         #    Occupation            Energy/Eh            Energy/eV
      -------------------------------------------------------------
         1        2.0000           -0.7772361             -21.1497
       ...           ...                  ...                  ...
        54        2.0000           -0.4218835             -11.4800
        55        2.0000           -0.4208920             -11.4531
        56        2.0000           -0.4163687             -11.3300
        57        2.0000           -0.4014713             -10.9246
        58        2.0000           -0.3959012             -10.7730
        59        2.0000           -0.3946836             -10.7399
        60        2.0000           -0.3723770             -10.1329 (HOMO)
        61                         -0.1371299              -3.7315 (LUMO)
        62                         -0.1261081              -3.4316
        63                         -0.1109993              -3.0204
        64                         -0.0185891              -0.5058
        65                         -0.0102062              -0.2777
       ...                                ...                  ...
       113                          0.7762181              21.1220
      -------------------------------------------------------------
                  HL-Gap            0.2352472 Eh            6.4014 eV
             Fermi-level           -0.2547535 Eh           -6.9322 eV

 SCC (total)                   0 d,  0 h,  0 min,  0.030 sec
 SCC setup                      ...        0 min,  0.001 sec (  1.965%)
 Dispersion                     ...        0 min,  0.000 sec (  1.011%)
 classical contributions        ...        0 min,  0.000 sec (  0.120%)
 integral evaluation            ...        0 min,  0.004 sec ( 14.276%)
 iterations                     ...        0 min,  0.017 sec ( 57.897%)
 molecular gradient             ...        0 min,  0.007 sec ( 24.191%)
 printout                       ...        0 min,  0.000 sec (  0.497%)

         :::::::::::::::::::::::::::::::::::::::::::::::::::::
         ::                     SUMMARY                     ::
         :::::::::::::::::::::::::::::::::::::::::::::::::::::
         :: total energy             -68.319382829041 Eh    ::
         :: total w/o Gsasa/hb       -68.293523886580 Eh    ::
         :: gradient norm              0.008997933156 Eh/a0 ::
         :: HOMO-LUMO gap              6.401400970985 eV    ::
         ::.................................................::
         :: SCC energy               -68.986623107547 Eh    ::
         :: -> isotropic ES            0.159922729540 Eh    ::
         :: -> anisotropic ES          0.002758563748 Eh    ::
         :: -> anisotropic XC          0.004851742080 Eh    ::
         :: -> dispersion             -0.048723571590 Eh    ::
         :: -> Gsolv                  -0.029439618447 Eh    ::
         ::    -> Gelec               -0.003580675986 Eh    ::
         ::    -> Gsasa               -0.026441170998 Eh    ::
         ::    -> Ghb                 -0.005341912726 Eh    ::
         ::    -> Gshift               0.005924141264 Eh    ::
         :: repulsion energy           0.667240278506 Eh    ::
         :: add. restraining           0.000000000000 Eh    ::
         :: total charge               0.000000000000 e     ::
         :::::::::::::::::::::::::::::::::::::::::::::::::::::


Property printout bound to 'properties.out'

           -------------------------------------------------
          | TOTAL ENERGY              -68.319382829041 Eh   |
          | GRADIENT NORM               0.008997933156 Eh/α |
          | HOMO-LUMO GAP               6.401400970985 eV   |
           -------------------------------------------------

------------------------------------------------------------------------
 * finished run on 2025/09/10 at 11:36:45.683     
------------------------------------------------------------------------
 total:
 * wall-time:     0 d,  0 h,  0 min,  0.052 sec
 *  cpu-time:     0 d,  0 h,  0 min,  0.187 sec
 * ratio c/w:     3.586 speedup
 SCF:
 * wall-time:     0 d,  0 h,  0 min,  0.030 sec
 *  cpu-time:     0 d,  0 h,  0 min,  0.120 sec
 * ratio c/w:     3.980 speedup


-------------------------   --------------------
FINAL SINGLE POINT ENERGY       -68.319382829040
-------------------------   --------------------


-------------
DIPOLE MOMENT
-------------
                                X             Y             Z
Total Dipole Moment    :     -0.09400       0.93300      -1.76600
                        -----------------------------------------
Magnitude (a.u.)       :      1.99952
Magnitude (Debye)      :      5.08238


------------------
CARTESIAN GRADIENT
------------------

   1   O   :    0.000512350    0.000333671    0.000623180
   2   C   :   -0.002076838    0.000215263    0.000180721
   3   H   :   -0.000098101   -0.000051425    0.000254121
   4   C   :    0.002728920    0.000290415    0.000064313
   5   H   :   -0.000434089   -0.000530656    0.000139539
   6   O   :   -0.000982559   -0.000940744    0.000061703
   7   C   :   -0.000946718   -0.000025499   -0.001345368
   8   H   :    0.000127827   -0.000185504    0.000220454
   9   C   :   -0.001126723   -0.000269181   -0.000328312
  10   O   :   -0.000159171   -0.000728776    0.001431861
  11   Si  :   -0.000015178   -0.002598303    0.001834800
  12   C   :    0.002347775    0.004422934   -0.001325997
  13   C   :    0.000088548   -0.001052251    0.000677639
  14   C   :   -0.001076805   -0.000260363    0.000238601
  15   C   :   -0.000462890   -0.001045519   -0.000370335
  16   C   :   -0.000100764    0.000265713   -0.000696857
  17   C   :    0.000595188    0.000708204   -0.000554802
  18   O   :    0.001151676    0.000698984    0.000789818
  19   C   :   -0.001468198   -0.000811243   -0.000629761
  20   H   :    0.000486457   -0.000156875   -0.000664964
  21   O   :    0.000358123    0.000684282   -0.000107700
  22   C   :   -0.000664458    0.000247478    0.000050668
  23   C   :    0.000919791    0.000088261    0.000708382
  24   H   :   -0.000366779   -0.000080199   -0.000135992
  25   O   :   -0.000211362   -0.000135843   -0.000162286
  26   H   :   -0.000450304   -0.000115727   -0.000467613
  27   H   :    0.000600252    0.000895230   -0.000028359
  28   H   :    0.000361967    0.000173633   -0.000326701
  29   H   :    0.000059289   -0.000181087   -0.000024784
  30   H   :   -0.000026652    0.000266492    0.000248513
  31   H   :    0.000254892    0.000028730    0.000060427
  32   H   :   -0.000062269   -0.000241559    0.000201090
  33   H   :   -0.000085287    0.000050882    0.000313828
  34   H   :   -0.000191063   -0.000240711   -0.000008223
  35   H   :   -0.000166661   -0.000030193   -0.000295941
  36   H   :    0.000223086   -0.000211158    0.000174731
  37   H   :   -0.000148611   -0.000012148   -0.000215191
  38   H   :    0.000062163   -0.000285646    0.000072738
  39   H   :    0.000318743    0.000157200    0.000578552
  40   H   :   -0.000526776   -0.000279057   -0.000548749
  41   H   :   -0.000211070    0.000469978    0.000560028
  42   H   :    0.000068267   -0.000043215   -0.000497284
  43   H   :   -0.000016013    0.000229938   -0.000659102
  44   H   :   -0.000578685    0.000113308   -0.000087957
  45   H   :   -0.000061566   -0.000155715    0.000259084
  46   H   :    0.000286920    0.000196472   -0.000271920
  47   H   :    0.000258802   -0.000115871   -0.000196792
  48   H   :    0.000904550    0.000247400    0.000206198

Difference to translation invariance:
           :   -0.0000000000    0.0000000000   -0.0000000000

Difference to rotation invariance:
           :   -0.0003540511   -0.0002983287    0.0002220417

Norm of the Cartesian gradient     ...    0.0089979332
RMS gradient                       ...    0.0007498278
MAX gradient                       ...    0.0044229339
------------------------------------------------------------------------------
                         ORCA GEOMETRY RELAXATION STEP
------------------------------------------------------------------------------

Reading the OPT-File                    .... done
Getting information on internals        .... done
Copying old internal coords+grads       .... done
Making the new internal coordinates     .... (2022 redundants) done
Validating the new internal coordinates .... (2022 redundants) done
Calculating the B-matrix                .... done
Calculating the G,G- and P matrices     .... done
Transforming gradient to internals      .... done
Projecting the internal gradient        .... done
Number of atoms                         ....  48
Number of internal coordinates          .... 234
Current Energy                          ....   -68.319382829 Eh
Current gradient norm                   ....     0.008997933 Eh/bohr
Maximum allowed component of the step   ....  0.300
Current trust radius                    ....  0.675
Updating the Hessian (BFGS)             .... done
Forming the augmented Hessian           .... done
Diagonalizing the augmented Hessian     .... done
Last element of RFO vector              ....  0.996025845
Lowest eigenvalues of augmented Hessian:
 -0.000266272  0.008668380  0.010000352  0.010002176  0.010026644
Length of the computed step             ....  0.089420046
The final length of the internal step   ....  0.089420046
Converting the step to Cartesian space:
 Initial RMS(Int)=    0.0058455712
Transforming coordinates:
 Iter   0:  RMS(Cart)=    0.0519084114 RMS(Int)=    0.4103770676
done
Storing new coordinates                 .... done
The predicted energy change is          ....    -0.000134201
Previously predicted energy change      ....    -0.000595334
Actually observed energy change         ....    -0.000493318
Ratio of predicted to observed change   ....     0.828641219
New trust radius                        ....     0.700000000

                                .--------------------.
          ----------------------|Geometry convergence|-------------------------
          Item                value                   Tolerance       Converged
          ---------------------------------------------------------------------
          Energy change      -0.0004933184            0.0000050000      NO
          RMS gradient        0.0004681746            0.0001000000      NO
          MAX gradient        0.0019113833            0.0003000000      NO
          RMS step            0.0058455712            0.0020000000      NO
          MAX step            0.0294948161            0.0040000000      NO
          -------------------------------------------------------------------------
          ........................................................
          Max(Bonds)      0.0086      Max(Angles)    0.33
          Max(Dihed)        1.69      Max(Improp)    0.00
          ---------------------------------------------------------------------

    ---------------------------------------------------------------------------
                         Redundant Internal Coordinates
                            (Angstroem and degrees)

        Definition                    Value    dE/dq     Step     New-Value
    ----------------------------------------------------------------------------
     1. B(C   1,O   0)                1.3917 -0.000079  0.0008    1.3925   
     2. B(H   2,C   1)                1.0992  0.000212 -0.0002    1.0990   
     3. B(C   3,C   1)                1.5453  0.001341 -0.0014    1.5439   
     4. B(H   4,C   3)                1.0975  0.000695 -0.0007    1.0968   
     5. B(O   5,C   3)                1.4061 -0.000192  0.0010    1.4072   
     6. B(C   6,C   3)                1.5485  0.000484 -0.0007    1.5479   
     7. B(H   7,C   6)                1.0990  0.000143 -0.0002    1.0987   
     8. B(C   8,C   6)                1.5408  0.000459 -0.0003    1.5406   
     9. B(O   9,C   8)                1.3942  0.000247  0.0003    1.3945   
    10. B(Si 10,O   9)                1.6473 -0.000202 -0.0001    1.6471   
    11. B(C  11,Si 10)                1.9295 -0.001587  0.0061    1.9356   
    12. B(C  12,C  11)                1.5358  0.001433 -0.0010    1.5348   
    13. B(C  13,C  11)                1.5347  0.001479 -0.0010    1.5337   
    14. B(C  14,C  11)                1.5364  0.001297 -0.0010    1.5355   
    15. B(C  15,Si 10)                1.8987  0.000614 -0.0008    1.8980   
    16. B(C  16,Si 10)                1.9165  0.001911 -0.0025    1.9140   
    17. B(O  17,C   6)                1.4240  0.000538  0.0003    1.4243   
    18. B(C  18,O  17)                1.4009 -0.000502  0.0018    1.4026   
    19. B(H  19,C  18)                1.1094  0.000500 -0.0010    1.1084   
    20. B(O  20,C  18)                1.3943  0.000162  0.0005    1.3947   
    21. B(C  21,O  20)                1.4146  0.000221  0.0002    1.4149   
    22. B(C  22,C  18)                1.5413  0.000863 -0.0009    1.5404   
    23. B(C  22,C   1)                1.5446  0.000855 -0.0009    1.5437   
    24. B(H  23,C  22)                1.0991  0.000015  0.0000    1.0991   
    25. B(O  24,C  22)                1.4084  0.000617 -0.0003    1.4081   
    26. B(H  25,O   0)                0.9755  0.000702 -0.0004    0.9751   
    27. B(H  25,O  20)                2.3951  0.000190 -0.0011    2.3940   
    28. B(H  25,O   9)                1.8592  0.000016  0.0028    1.8620   
    29. B(H  26,O   5)                0.9714  0.000841 -0.0006    0.9708   
    30. B(H  26,O  24)                2.0585 -0.000315  0.0086    2.0671   
    31. B(H  27,C   8)                1.0961  0.000373 -0.0002    1.0959   
    32. B(H  28,C   8)                1.0963  0.000168 -0.0000    1.0963   
    33. B(H  29,C  12)                1.0879  0.000362 -0.0001    1.0879   
    34. B(H  30,C  12)                1.0882  0.000246  0.0000    1.0883   
    35. B(H  31,C  12)                1.0903  0.000292 -0.0003    1.0901   
    36. B(H  32,C  13)                1.0868  0.000275  0.0000    1.0869   
    37. B(H  33,C  13)                1.0898  0.000288 -0.0003    1.0895   
    38. B(H  34,C  13)                1.0877  0.000314 -0.0000    1.0876   
    39. B(H  35,C  14)                1.0887  0.000231 -0.0001    1.0887   
    40. B(H  36,C  14)                1.0874  0.000249  0.0000    1.0875   
    41. B(H  37,C  14)                1.0903  0.000242 -0.0002    1.0900   
    42. B(H  38,C  15)                1.0860  0.000562 -0.0003    1.0857   
    43. B(H  39,C  15)                1.0850  0.000594 -0.0002    1.0848   
    44. B(H  40,C  15)                1.0849  0.000193  0.0000    1.0850   
    45. B(H  41,C  16)                1.0873  0.000327 -0.0001    1.0872   
    46. B(H  42,C  16)                1.0865  0.000376 -0.0003    1.0862   
    47. B(H  43,C  16)                1.0863  0.000585 -0.0003    1.0860   
    48. B(H  44,C  21)                1.0867  0.000012  0.0001    1.0867   
    49. B(H  45,C  21)                1.0932  0.000072 -0.0001    1.0930   
    50. B(H  46,C  21)                1.0965  0.000107 -0.0002    1.0963   
    51. B(H  47,O  24)                0.9662  0.000607 -0.0002    0.9660   
    52. A(C   1,O   0,H  25)          108.51  0.000209   -0.06    108.45   
    53. A(H   2,C   1,C   3)          106.83 -0.000207   -0.01    106.82   
    54. A(O   0,C   1,H   2)          106.05 -0.000154    0.13    106.17   
    55. A(C   3,C   1,C  22)          109.56 -0.000522    0.17    109.73   
    56. A(O   0,C   1,C  22)          112.33 -0.000033   -0.03    112.30   
    57. A(O   0,C   1,C   3)          114.50  0.000792   -0.22    114.28   
    58. A(H   2,C   1,C  22)          107.10  0.000091   -0.04    107.06   
    59. A(H   4,C   3,O   5)          105.77 -0.000228    0.09    105.86   
    60. A(C   1,C   3,C   6)          113.97 -0.000289    0.06    114.03   
    61. A(C   1,C   3,H   4)          108.09  0.000030   -0.00    108.09   
    62. A(C   1,C   3,O   5)          110.47  0.000298   -0.08    110.38   
    63. A(O   5,C   3,C   6)          110.37  0.000771   -0.10    110.27   
    64. A(H   4,C   3,C   6)          107.78 -0.000627    0.04    107.82   
    65. A(C   3,O   5,H  26)          107.72  0.000176    0.03    107.75   
    66. A(H   7,C   6,C   8)          105.80  0.000026   -0.03    105.76   
    67. A(C   3,C   6,C   8)          113.74 -0.000458   -0.12    113.62   
    68. A(C   3,C   6,H   7)          106.02  0.000119    0.01    106.03   
    69. A(C   3,C   6,O  17)          114.25 -0.000407    0.16    114.41   
    70. A(C   8,C   6,O  17)          113.12  0.001021   -0.06    113.05   
    71. A(H   7,C   6,O  17)          102.61 -0.000318    0.04    102.65   
    72. A(H  27,C   8,H  28)          108.33 -0.000278    0.02    108.34   
    73. A(C   6,C   8,O   9)          113.25  0.000334   -0.04    113.21   
    74. A(C   6,C   8,H  27)          107.83 -0.000725    0.16    107.99   
    75. A(O   9,C   8,H  28)          109.76  0.000054   -0.02    109.74   
    76. A(O   9,C   8,H  27)          110.12  0.000558   -0.06    110.06   
    77. A(C   6,C   8,H  28)          107.40  0.000006   -0.06    107.34   
    78. A(C   8,O   9,Si 10)          128.10 -0.001749    0.33    128.43   
    79. A(C  15,Si 10,C  16)          110.89 -0.000881    0.20    111.08   
    80. A(C  11,Si 10,C  16)          110.48  0.000973   -0.13    110.35   
    81. A(O   9,Si 10,C  16)          111.27 -0.000182   -0.03    111.24   
    82. A(C  11,Si 10,C  15)          111.60 -0.000397    0.16    111.76   
    83. A(O   9,Si 10,C  15)          101.64  0.001020   -0.32    101.33   
    84. A(O   9,Si 10,C  11)          110.69 -0.000586    0.11    110.80   
    85. A(C  12,C  11,C  14)          108.12 -0.000357    0.16    108.28   
    86. A(C  13,C  11,C  14)          107.76 -0.000435    0.18    107.94   
    87. A(Si 10,C  11,C  13)          110.53  0.000214   -0.13    110.40   
    88. A(Si 10,C  11,C  14)          112.30  0.000570   -0.24    112.05   
    89. A(Si 10,C  11,C  12)          109.83  0.000055   -0.07    109.76   
    90. A(C  12,C  11,C  13)          108.17 -0.000088    0.10    108.27   
    91. A(H  29,C  12,H  31)          108.30 -0.000078   -0.01    108.30   
    92. A(C  11,C  12,H  31)          110.56  0.000201   -0.04    110.52   
    93. A(H  29,C  12,H  30)          107.91 -0.000059    0.02    107.94   
    94. A(C  11,C  12,H  30)          110.90  0.000038    0.01    110.91   
    95. A(C  11,C  12,H  29)          110.87 -0.000052    0.03    110.90   
    96. A(H  30,C  12,H  31)          108.19 -0.000059   -0.01    108.18   
    97. A(H  32,C  13,H  33)          108.24 -0.000071    0.02    108.26   
    98. A(C  11,C  13,H  33)          110.36  0.000013    0.01    110.37   
    99. A(C  11,C  13,H  32)          110.69  0.000060    0.00    110.69   
   100. A(C  11,C  13,H  34)          110.85  0.000044   -0.01    110.84   
   101. A(H  33,C  13,H  34)          108.18 -0.000179    0.02    108.20   
   102. A(H  32,C  13,H  34)          108.44  0.000126   -0.05    108.39   
   103. A(H  36,C  14,H  37)          108.15  0.000075   -0.00    108.15   
   104. A(H  35,C  14,H  37)          107.84 -0.000285    0.07    107.91   
   105. A(C  11,C  14,H  37)          110.21  0.000088    0.00    110.21   
   106. A(H  35,C  14,H  36)          108.50  0.000075   -0.06    108.44   
   107. A(C  11,C  14,H  36)          110.91  0.000148   -0.03    110.88   
   108. A(C  11,C  14,H  35)          111.13 -0.000108    0.02    111.14   
   109. A(H  39,C  15,H  40)          108.01 -0.000089    0.02    108.03   
   110. A(H  38,C  15,H  40)          106.85 -0.000563    0.10    106.95   
   111. A(H  38,C  15,H  39)          108.07  0.000381   -0.06    108.00   
   112. A(Si 10,C  15,H  39)          110.37 -0.000957    0.17    110.54   
   113. A(Si 10,C  15,H  38)          111.61  0.000111   -0.03    111.58   
   114. A(Si 10,C  15,H  40)          111.75  0.001112   -0.19    111.56   
   115. A(H  42,C  16,H  43)          107.21 -0.000338    0.09    107.31   
   116. A(H  41,C  16,H  43)          107.35 -0.000070    0.04    107.39   
   117. A(Si 10,C  16,H  43)          111.38 -0.000327    0.06    111.44   
   118. A(H  41,C  16,H  42)          107.39 -0.000529    0.08    107.47   
   119. A(Si 10,C  16,H  41)          112.18  0.000460   -0.11    112.07   
   120. A(Si 10,C  16,H  42)          111.08  0.000739   -0.15    110.93   
   121. A(C   6,O  17,C  18)          118.66  0.000558   -0.04    118.61   
   122. A(O  17,C  18,H  19)          102.27 -0.000417    0.17    102.44   
   123. A(O  20,C  18,C  22)          108.02 -0.000460    0.07    108.10   
   124. A(H  19,C  18,C  22)          109.31  0.000367   -0.12    109.20   
   125. A(O  17,C  18,C  22)          112.49 -0.000038    0.05    112.54   
   126. A(H  19,C  18,O  20)          109.81 -0.000104   -0.04    109.77   
   127. A(O  17,C  18,O  20)          114.74  0.000672   -0.14    114.60   
   128. A(C  18,O  20,C  21)          114.23  0.000987   -0.22    114.02   
   129. A(H  44,C  21,H  46)          110.28  0.000279   -0.06    110.21   
   130. A(H  45,C  21,H  46)          108.88 -0.000430    0.08    108.96   
   131. A(O  20,C  21,H  46)          110.47  0.000059   -0.02    110.45   
   132. A(H  44,C  21,H  45)          110.16  0.000145   -0.05    110.11   
   133. A(O  20,C  21,H  45)          111.19  0.000351   -0.05    111.14   
   134. A(O  20,C  21,H  44)          105.84 -0.000387    0.10    105.94   
   135. A(H  23,C  22,O  24)          111.82 -0.000120   -0.07    111.75   
   136. A(C  18,C  22,O  24)          111.18  0.000416   -0.02    111.16   
   137. A(C   1,C  22,O  24)          107.65  0.000051    0.01    107.65   
   138. A(C  18,C  22,H  23)          107.64 -0.000278    0.01    107.65   
   139. A(C   1,C  22,H  23)          107.84  0.000133    0.03    107.88   
   140. A(C   1,C  22,C  18)          110.67 -0.000213    0.04    110.72   
   141. A(C  22,O  24,H  47)          110.51  0.001328   -0.22    110.29   
   142. D(H   2,C   1,O   0,H  25)   -168.01 -0.000057   -0.13   -168.14   
   143. D(C  22,C   1,O   0,H  25)     75.32 -0.000056   -0.15     75.17   
   144. D(C   3,C   1,O   0,H  25)    -50.48  0.000031   -0.18    -50.66   
   145. D(H   4,C   3,C   1,C  22)   -166.33 -0.000360    0.26   -166.06   
   146. D(O   5,C   3,C   1,C  22)     78.39 -0.000266    0.20     78.59   
   147. D(O   5,C   3,C   1,H   2)    -37.30  0.000003    0.16    -37.14   
   148. D(H   4,C   3,C   1,H   2)     77.98 -0.000091    0.22     78.20   
   149. D(O   5,C   3,C   1,O   0)   -154.38 -0.000122    0.13   -154.25   
   150. D(H   4,C   3,C   1,O   0)    -39.09 -0.000217    0.19    -38.90   
   151. D(H  26,O   5,C   3,H   4)   -166.43 -0.000184   -0.23   -166.65   
   152. D(H  26,O   5,C   3,C   6)     77.26  0.000296   -0.27     76.99   
   153. D(H  26,O   5,C   3,C   1)    -49.69 -0.000125   -0.23    -49.92   
   154. D(H   7,C   6,C   3,O   5)     28.21 -0.000423   -0.11     28.11   
   155. D(H   7,C   6,C   3,H   4)    -86.84 -0.000207   -0.18    -87.02   
   156. D(H   7,C   6,C   3,C   1)    153.20  0.000374   -0.25    152.94   
   157. D(C   8,C   6,C   3,H   4)     28.98 -0.000344   -0.27     28.71   
   158. D(C   8,C   6,C   3,C   1)    -90.98  0.000237   -0.35    -91.33   
   159. D(C   8,C   6,C   3,O   5)    144.04 -0.000560   -0.20    143.84   
   160. D(H  27,C   8,C   6,O  17)     39.21 -0.000199    1.63     40.84   
   161. D(H  27,C   8,C   6,H   7)    -72.34 -0.000319    1.63    -70.72   
   162. D(H  27,C   8,C   6,C   3)    171.70 -0.000238    1.69    173.39   
   163. D(O   9,C   8,C   6,O  17)    -82.90 -0.000608    1.62    -81.28   
   164. D(O   9,C   8,C   6,C   3)     49.59 -0.000648    1.68     51.27   
   165. D(O   9,C   8,C   6,H   7)    165.55 -0.000729    1.61    167.16   
   166. D(Si 10,O   9,C   8,H  27)     54.61 -0.000194    0.80     55.41   
   167. D(Si 10,O   9,C   8,C   6)    175.43 -0.000497    0.94    176.37   
   168. D(Si 10,O   9,C   8,H  28)    -64.56 -0.000230    0.83    -63.73   
   169. D(C  16,Si 10,O   9,C   8)    -49.05 -0.000614    0.33    -48.73   
   170. D(C  15,Si 10,O   9,C   8)   -167.14 -0.000074    0.30   -166.84   
   171. D(C  11,Si 10,O   9,C   8)     74.20  0.000089    0.23     74.42   
   172. D(C  12,C  11,Si 10,O   9)     38.55  0.000125    0.31     38.86   
   173. D(C  13,C  11,Si 10,C  16)    -78.47  0.000226    0.27    -78.20   
   174. D(C  13,C  11,Si 10,C  15)     45.40 -0.000488    0.54     45.94   
   175. D(C  13,C  11,Si 10,O   9)    157.83  0.000185    0.32    158.14   
   176. D(C  12,C  11,Si 10,C  16)    162.26  0.000166    0.26    162.52   
   177. D(C  12,C  11,Si 10,C  15)    -73.88 -0.000548    0.54    -73.34   
   178. D(H  30,C  12,C  11,C  14)     61.25  0.000470   -0.32     60.93   
   179. D(H  30,C  12,C  11,C  13)    177.69 -0.000278    0.07    177.76   
   180. D(H  30,C  12,C  11,Si 10)    -61.60 -0.000038   -0.07    -61.67   
   181. D(H  29,C  12,C  11,C  14)   -178.89  0.000387   -0.26   -179.15   
   182. D(H  29,C  12,C  11,C  13)    -62.45 -0.000361    0.12    -62.32   
   183. D(H  29,C  12,C  11,Si 10)     58.27 -0.000121   -0.02     58.25   
   184. D(H  33,C  13,C  11,C  14)     55.88 -0.000440    0.47     56.35   
   185. D(H  33,C  13,C  11,C  12)    -60.80  0.000255    0.11    -60.69   
   186. D(H  33,C  13,C  11,Si 10)    178.93  0.000114    0.21    179.14   
   187. D(H  32,C  13,C  11,C  12)     59.01  0.000214    0.14     59.14   
   188. D(H  32,C  13,C  11,Si 10)    -61.27  0.000073    0.24    -61.03   
   189. D(H  32,C  13,C  11,C  14)    175.68 -0.000482    0.50    176.18   
   190. D(H  36,C  14,C  11,C  13)     59.50  0.000234   -0.29     59.21   
   191. D(H  36,C  14,C  11,C  12)    176.20 -0.000285    0.05    176.25   
   192. D(H  36,C  14,C  11,Si 10)    -62.47 -0.000098   -0.09    -62.56   
   193. D(H  35,C  14,C  11,C  13)   -179.72  0.000357   -0.37   -180.09   
   194. D(H  35,C  14,C  11,C  12)    -63.01 -0.000162   -0.03    -63.05   
   195. D(H  35,C  14,C  11,Si 10)     58.32  0.000025   -0.17     58.14   
   196. D(H  39,C  15,Si 10,C  16)     56.29  0.000204   -0.23     56.06   
   197. D(H  39,C  15,Si 10,C  11)    -67.34 -0.000128   -0.29    -67.63   
   198. D(H  39,C  15,Si 10,O   9)    174.65  0.000161   -0.33    174.32   
   199. D(H  38,C  15,Si 10,C  16)    176.48  0.000113   -0.21    176.27   
   200. D(H  38,C  15,Si 10,C  11)     52.85 -0.000219   -0.27     52.58   
   201. D(H  38,C  15,Si 10,O   9)    -65.16  0.000070   -0.31    -65.47   
   202. D(H  41,C  16,Si 10,C  15)    174.84  0.000450   -0.34    174.50   
   203. D(H  41,C  16,Si 10,C  11)    -60.89  0.000010   -0.10    -60.99   
   204. D(H  41,C  16,Si 10,O   9)     62.49 -0.000177   -0.07     62.42   
   205. D(H  42,C  16,Si 10,C  15)     54.64  0.000298   -0.27     54.37   
   206. D(H  42,C  16,Si 10,C  11)    178.91 -0.000142   -0.03    178.88   
   207. D(H  42,C  16,Si 10,O   9)    -57.72 -0.000329    0.00    -57.71   
   208. D(C  18,O  17,C   6,C   8)     88.21 -0.000394    0.25     88.46   
   209. D(C  18,O  17,C   6,H   7)   -158.29 -0.000103    0.21   -158.08   
   210. D(C  18,O  17,C   6,C   3)    -44.03 -0.000334    0.33    -43.71   
   211. D(C  22,C  18,O  17,C   6)     51.72 -0.000111   -0.19     51.53   
   212. D(O  20,C  18,O  17,C   6)    -72.31  0.000006   -0.22    -72.52   
   213. D(H  19,C  18,O  17,C   6)    168.88  0.000063   -0.20    168.68   
   214. D(C  21,O  20,C  18,C  22)    165.85 -0.000172    0.27    166.12   
   215. D(C  21,O  20,C  18,H  19)     46.72 -0.000283    0.39     47.11   
   216. D(C  21,O  20,C  18,O  17)    -67.78 -0.000096    0.29    -67.49   
   217. D(H  46,C  21,O  20,C  18)    -63.34  0.000040    0.21    -63.14   
   218. D(H  45,C  21,O  20,C  18)     57.67 -0.000228    0.27     57.93   
   219. D(H  44,C  21,O  20,C  18)    177.29 -0.000097    0.24    177.53   
   220. D(H  23,C  22,C  18,O  20)    -45.68  0.000561   -0.06    -45.75   
   221. D(H  23,C  22,C  18,H  19)     73.76  0.000377   -0.13     73.63   
   222. D(H  23,C  22,C  18,O  17)   -173.35  0.000068    0.03   -173.32   
   223. D(C   1,C  22,C  18,O  20)     71.94  0.000438    0.02     71.96   
   224. D(C   1,C  22,C  18,H  19)   -168.61  0.000254   -0.05   -168.66   
   225. D(C   1,C  22,C  18,O  17)    -55.73 -0.000055    0.11    -55.62   
   226. D(H  23,C  22,C   1,C   3)    170.63  0.000368   -0.12    170.51   
   227. D(H  23,C  22,C   1,H   2)    -73.86 -0.000092   -0.05    -73.91   
   228. D(H  23,C  22,C   1,O   0)     42.18 -0.000241    0.06     42.24   
   229. D(C  18,C  22,C   1,C   3)     53.12  0.000744   -0.18     52.94   
   230. D(C  18,C  22,C   1,H   2)    168.64  0.000284   -0.12    168.52   
   231. D(C  18,C  22,C   1,O   0)    -75.32  0.000135   -0.00    -75.32   
   232. D(H  47,O  24,C  22,H  23)    -55.85  0.000182   -0.40    -56.25   
   233. D(H  47,O  24,C  22,C  18)     64.50  0.000033   -0.44     64.05   
   234. D(H  47,O  24,C  22,C   1)   -174.13  0.000057   -0.40   -174.53   
    ----------------------------------------------------------------------------

Geometry step timings:
Preparation and reading OPT file:      0.001 s ( 5.215 %)
Internal coordinates            :      0.000 s ( 0.143 %)
B/P matrices and projection     :      0.005 s (21.486 %)
Hessian update/contruction      :      0.009 s (44.360 %)
Making the step                 :      0.003 s (13.987 %)
Converting the step to Cartesian:      0.000 s ( 2.036 %)
Storing new data                :      0.001 s ( 4.615 %)
Checking convergence            :      0.000 s ( 0.167 %)
Final printing                  :      0.002 s ( 7.990 %)
Total time                      :      0.021 s

Time for energy+gradient        :      0.078 s
Time for complete geometry iter :      0.110 s

         *************************************************************
         *                GEOMETRY OPTIMIZATION CYCLE   6            *
         *************************************************************
---------------------------------
CARTESIAN COORDINATES (ANGSTROEM)
---------------------------------
  O    -1.345841    2.160729    0.123500
  C     0.023546    1.921621    0.041880
  H     0.380059    1.826972    1.077135
  C     0.396468    0.609443   -0.680937
  H    -0.330106   -0.158504   -0.389003
  O     1.647766    0.143545   -0.236811
  C     0.380307    0.714250   -2.225073
  H     1.092680   -0.039481   -2.587893
  C    -0.976647    0.345073   -2.853940
  O    -2.050692    1.024643   -2.280057
  Si   -3.639524    0.979200   -2.712073
  C    -4.456020   -0.685232   -2.155710
  C    -3.920877   -1.089549   -0.775219
  C    -5.978048   -0.526264   -2.053996
  C    -4.164037   -1.827567   -3.139297
  C    -4.331114    2.459529   -1.746368
  C    -3.852879    1.227141   -4.597908
  O     0.921633    1.927501   -2.738524
  C     0.569263    3.135303   -2.118605
  H     1.280453    3.853557   -2.573461
  O    -0.739995    3.551216   -2.359672
  C    -0.988024    3.923749   -3.701915
  C     0.787773    3.102495   -0.594121
  H     0.377114    4.033367   -0.178466
  O     2.151453    2.947461   -0.279409
  H    -1.729875    2.062515   -0.767534
  H     2.273795    0.883985   -0.286147
  H    -0.923397    0.563255   -3.926606
  H    -1.112108   -0.735530   -2.727943
  H    -4.119589   -0.313269   -0.039462
  H    -2.845414   -1.252782   -0.808050
  H    -4.394550   -2.011130   -0.436773
  H    -6.236921    0.228513   -1.316026
  H    -6.438599   -1.467492   -1.755548
  H    -6.400890   -0.229578   -3.011116
  H    -3.092671   -1.984595   -3.251928
  H    -4.585094   -1.612929   -4.118699
  H    -4.602834   -2.757464   -2.777458
  H    -4.273357    2.298925   -0.674152
  H    -5.370950    2.630070   -2.004337
  H    -3.778527    3.368372   -1.960345
  H    -3.377236    0.434748   -5.170454
  H    -3.414951    2.168405   -4.917484
  H    -4.901527    1.246572   -4.879609
  H    -2.043435    4.178185   -3.750810
  H    -0.767671    3.100720   -4.386607
  H    -0.376279    4.790506   -3.978200
  H     2.655196    3.712386   -0.586617

----------------------------
CARTESIAN COORDINATES (A.U.)
----------------------------
  NO LB    ZA    FRAG    MASS        X           Y           Z
   0 O   8.0000    1    15.999   -2.543272    4.083185    0.233382
   1 C   6.0000    1    12.011    0.044495    3.631337    0.079143
   2 H   1.0000    1     1.008    0.718208    3.452476    2.035490
   3 C   6.0000    1    12.011    0.749215    1.151680   -1.286784
   4 H   1.0000    1     1.008   -0.623811   -0.299530   -0.735109
   5 O   8.0000    1    15.999    3.113826    0.271260   -0.447509
   6 C   6.0000    1    12.011    0.718676    1.349737   -4.204779
   7 H   1.0000    1     1.008    2.064866   -0.074609   -4.890410
   8 C   6.0000    1    12.011   -1.845596    0.652094   -5.393165
   9 O   8.0000    1    15.999   -3.875246    1.936294   -4.308683
  10 Si 14.0000    1    28.086   -6.877703    1.850421   -5.125075
  11 C   6.0000    1    12.011   -8.420657   -1.294902   -4.073701
  12 C   6.0000    1    12.011   -7.409384   -2.058949   -1.464951
  13 C   6.0000    1    12.011  -11.296873   -0.994495   -3.881490
  14 C   6.0000    1    12.011   -7.868889   -3.453602   -5.932412
  15 C   6.0000    1    12.011   -8.184619    4.647835   -3.300157
  16 C   6.0000    1    12.011   -7.280886    2.318960   -8.688787
  17 O   8.0000    1    15.999    1.741634    3.642448   -5.175060
  18 C   6.0000    1    12.011    1.075752    5.924864   -4.003582
  19 H   1.0000    1     1.008    2.419706    7.282168   -4.863136
  20 O   8.0000    1    15.999   -1.398388    6.710825   -4.459134
  21 C   6.0000    1    12.011   -1.867094    7.414810   -6.995605
  22 C   6.0000    1    12.011    1.488676    5.862865   -1.122727
  23 H   1.0000    1     1.008    0.712643    7.621958   -0.337252
  24 O   8.0000    1    15.999    4.065657    5.569894   -0.528007
  25 H   1.0000    1     1.008   -3.268990    3.897588   -1.450430
  26 H   1.0000    1     1.008    4.296849    1.670490   -0.540739
  27 H   1.0000    1     1.008   -1.744967    1.064398   -7.420210
  28 H   1.0000    1     1.008   -2.101579   -1.389951   -5.155066
  29 H   1.0000    1     1.008   -7.784895   -0.591992   -0.074573
  30 H   1.0000    1     1.008   -5.377052   -2.367416   -1.526994
  31 H   1.0000    1     1.008   -8.304497   -3.800486   -0.825381
  32 H   1.0000    1     1.008  -11.786073    0.431828   -2.486929
  33 H   1.0000    1     1.008  -12.167188   -2.773158   -3.317506
  34 H   1.0000    1     1.008  -12.095929   -0.433840   -5.690185
  35 H   1.0000    1     1.008   -5.844301   -3.750341   -6.145253
  36 H   1.0000    1     1.008   -8.664572   -3.047995   -7.783213
  37 H   1.0000    1     1.008   -8.698096   -5.210852   -5.248635
  38 H   1.0000    1     1.008   -8.075475    4.344339   -1.273962
  39 H   1.0000    1     1.008  -10.149624    4.970112   -3.787649
  40 H   1.0000    1     1.008   -7.140380    6.365300   -3.704516
  41 H   1.0000    1     1.008   -6.382051    0.821554   -9.770743
  42 H   1.0000    1     1.008   -6.453323    4.097691   -9.292697
  43 H   1.0000    1     1.008   -9.262543    2.355679   -9.221125
  44 H   1.0000    1     1.008   -3.861532    7.895625   -7.088003
  45 H   1.0000    1     1.008   -1.450687    5.859512   -8.289485
  46 H   1.0000    1     1.008   -0.711064    9.052744   -7.517708
  47 H   1.0000    1     1.008    5.017593    7.015393   -1.108545

      -----------------------------------------------------------      
     |                   =====================                   |     
     |                           x T B                           |     
     |                   =====================                   |     
     |                         S. Grimme                         |     
     |          Mulliken Center for Theoretical Chemistry        |     
     |                    University of Bonn                     |     
      -----------------------------------------------------------      

   * xtb version 6.7.1 (edcfbbe) compiled by 'albert@albert-system' on 2024-07-22

   xtb is free software: you can redistribute it and/or modify it under
   the terms of the GNU Lesser General Public License as published by
   the Free Software Foundation, either version 3 of the License, or
   (at your option) any later version.
   
   xtb is distributed in the hope that it will be useful,
   but WITHOUT ANY WARRANTY; without even the implied warranty of
   MERCHANTABILITY or FITNESS FOR A PARTICULAR PURPOSE.  See the
   GNU Lesser General Public License for more details.
   
   Cite this work as:
   * C. Bannwarth, E. Caldeweyher, S. Ehlert, A. Hansen, P. Pracht,
     J. Seibert, S. Spicher, S. Grimme, WIREs Comput. Mol. Sci., 2020, 11,
     e01493. DOI: 10.1002/wcms.1493
   
   for GFN2-xTB:
   * C. Bannwarth, S. Ehlert and S. Grimme., J. Chem. Theory Comput., 2019,
     15, 1652-1671. DOI: 10.1021/acs.jctc.8b01176
   for GFN1-xTB:
   * S. Grimme, C. Bannwarth, P. Shushkov, J. Chem. Theory Comput., 2017,
     13, 1989-2009. DOI: 10.1021/acs.jctc.7b00118
   for GFN0-xTB:
   * P. Pracht, E. Caldeweyher, S. Ehlert, S. Grimme, ChemRxiv, 2019, preprint.
     DOI: 10.26434/chemrxiv.8326202.v1
   for GFN-FF:
   * S. Spicher and S. Grimme, Angew. Chem. Int. Ed., 2020, 59, 15665-15673.
     DOI: 10.1002/anie.202004239
   
   for ALPB and GBSA implicit solvation:
   * S. Ehlert, M. Stahn, S. Spicher, S. Grimme, J. Chem. Theory Comput.,
     2021, 17, 4250-4261. DOI: 10.1021/acs.jctc.1c00471
   
   for ddCOSMO and CPCM-X implicit solvation:
   * M. Stahn, S. Ehlert, S. Grimme, J. Phys. Chem. A,
     2023, XX, XXXX-XXXX. DOI: 10.1021/acs.jpca.3c04382
   
   for DFT-D4:
   * E. Caldeweyher, C. Bannwarth and S. Grimme, J. Chem. Phys., 2017,
     147, 034112. DOI: 10.1063/1.4993215
   * E. Caldeweyher, S. Ehlert, A. Hansen, H. Neugebauer, S. Spicher,
     C. Bannwarth and S. Grimme, J. Chem. Phys., 2019, 150, 154122.
     DOI: 10.1063/1.5090222
   * E. Caldeweyher, J.-M. Mewes, S. Ehlert and S. Grimme, Phys. Chem. Chem. Phys.
     2020, 22, 8499-8512. DOI: 10.1039/D0CP00502A
   
   for sTDA-xTB:
   * S. Grimme and C. Bannwarth, J. Chem. Phys., 2016, 145, 054103.
     DOI: 10.1063/1.4959605
   
   in the mass-spec context:
   * V. Asgeirsson, C. Bauer and S. Grimme, Chem. Sci., 2017, 8, 4879.
     DOI: 10.1039/c7sc00601b
   * J. Koopman and S. Grimme, ACS Omega 2019, 4, 12, 15120-15133.
     DOI: 10.1021/acsomega.9b02011
   
   for metadynamics refer to:
   * S. Grimme, J. Chem. Theory Comput., 2019, 155, 2847-2862
     DOI: 10.1021/acs.jctc.9b00143
   
   for SPH calculations refer to:
   * S. Spicher and S. Grimme, J. Chem. Theory Comput., 2021, 17, 1701-1714
     DOI: 10.1021/acs.jctc.0c01306
   
   for ONIOM refer to:
   * C. Plett, A. Katbashev, S. Ehlert, S. Grimme, M. Bursch,
     Phys. Chem. Chem. Phys., 2023, 25, 17860-17868. DOI: 10.1039/D3CP02178E
   
   for DIPRO refer to:
   * J. Kohn, N. Gildemeister, S. Grimme, D. Fazzi, A. Hansen,
     J. Chem. Phys., 2023, just accepted.
   
   for PTB refer to:
   * S. Grimme, M. Mueller, A. Hansen, J. Chem. Phys., 2023, 158, 124111.
     DOI: 10.1063/5.0137838
   
   with help from (in alphabetical order)
   P. Atkinson, C. Bannwarth, F. Bohle, G. Brandenburg, E. Caldeweyher
   M. Checinski, S. Dohm, S. Ehlert, S. Ehrlich, I. Gerasimov, C. Hölzer
   A. Katbashev, J. Kohn, J. Koopman, C. Lavigne, S. Lehtola, F. März, M. Müller,
   F. Musil, H. Neugebauer, J. Pisarek, C. Plett, P. Pracht, F. Pultar,
   J. Seibert, P. Shushkov, S. Spicher, M. Stahn, M. Steiner, T. Strunk,
   J. Stückrath, T. Rose, and J. Unsleber
   
 * started run on 2025/09/10 at 11:36:45.741     
   ID    Z sym.   atoms
    1    8 O      1, 6, 10, 18, 21, 25
    2    6 C      2, 4, 7, 9, 12-17, 19, 22, 23
    3    1 H      3, 5, 8, 20, 24, 26-48
    4   14 Si     11

           -------------------------------------------------
          |                Calculation Setup                |
           -------------------------------------------------

          program call               : /home/kmoult/orca_6_1/otool_xtb goat_0_XTB.xyz --grad -c 0 -u 0 -P 4 --namespace goat_0 --input goat_0_XTB.input.tmp --alpb ACETONE --acc 0.200000
          hostname                   : node1600
          calculation namespace      : goat_0
          coordinate file            : goat_0_XTB.xyz
          omp threads                :                     4


           -------------------------------------------------
          |                 G F N 2 - x T B                 |
           -------------------------------------------------

        Reference                      10.1021/acs.jctc.8b01176
      * Hamiltonian:
        H0-scaling (s, p, d)           1.850000    2.230000    2.230000
        zeta-weighting                 0.500000
      * Dispersion:
        s8                             2.700000
        a1                             0.520000
        a2                             5.000000
        s9                             5.000000
      * Repulsion:
        kExp                           1.500000    1.000000
        rExp                           1.000000
      * Coulomb:
        alpha                          2.000000
        third order                    shell-resolved
        anisotropic                    true
        a3                             3.000000
        a5                             4.000000
        cn-shift                       1.200000
        cn-exp                         4.000000
        max-rad                        5.000000

      * Solvation model:               ALPB
        Solvent                        ACETONE
        Parameter file                 internal GFN2-xTB/ALPB
        Dielectric constant                2.0700E+01
        Reference state                gsolv [1 M gas/solution]
        Free energy shift                  5.9241E-03 Eh       3.7175E+00 kcal/mol
        Temperature                        2.9815E+02 K
        Density                            7.9000E-01 kg/L
        Solvent mass                       5.8080E+01 g/mol
        Interaction kernel             P16
        Born radius scaling (c1)           1.8274E+00
        Born radii integrator          GBOBC
        Born offset                        0.0000E+00 a0       0.0000E+00 AA
        H-bond correction              true
        Ion screening                  false
        Surface tension                    1.0000E-05 Eh       1.5569E+01 dyn/cm
        Grid points                               230 per atom
q/qsh data taken from xtbrestart
CAMM data taken from xtbrestart

          ...................................................
          :                      SETUP                      :
          :.................................................:
          :  # basis functions                 114          :
          :  # atomic orbitals                 113          :
          :  # shells                           69          :
          :  # electrons                       120          :
          :  max. iterations                   250          :
          :  Hamiltonian                  GFN2-xTB          :
          :  restarted?                       true          :
          :  GBSA solvation                   true          :
          :  PC potential                    false          :
          :  electronic temp.          300.0000000     K    :
          :  accuracy                    0.2000000          :
          :  -> integral cutoff          0.3198970E+02      :
          :  -> integral neglect         0.2000000E-08      :
          :  -> SCF convergence          0.2000000E-06 Eh   :
          :  -> wf. convergence          0.2000000E-04 e    :
          :  Broyden damping             0.4000000          :
          :  net charge                          0          :
          :  unpaired electrons                  0          :
          ...................................................

 iter      E             dE          RMSdq      gap      omega  full diag
   1    -68.9890274 -0.689890E+02  0.695E-02    6.38       0.0  T
   2    -68.9890290 -0.167372E-05  0.451E-02    6.38       1.0  T
   3    -68.9890268  0.226712E-05  0.974E-03    6.38       1.5  T
   4    -68.9890291 -0.232557E-05  0.841E-03    6.38       1.7  T
   5    -68.9890299 -0.798031E-06  0.334E-03    6.38       4.3  T
   6    -68.9890299 -0.220525E-07  0.119E-03    6.38      12.1  T
   7    -68.9890299 -0.509539E-08  0.531E-04    6.38      27.2  T
   8    -68.9890299 -0.125823E-08  0.240E-04    6.38      60.2  T
   9    -68.9890299 -0.157144E-09  0.118E-04    6.38     122.2  T
  10    -68.9890299 -0.205773E-10  0.673E-05    6.38     214.4  T

   *** convergence criteria satisfied after 10 iterations ***

         #    Occupation            Energy/Eh            Energy/eV
      -------------------------------------------------------------
         1        2.0000           -0.7769422             -21.1417
       ...           ...                  ...                  ...
        54        2.0000           -0.4218085             -11.4780
        55        2.0000           -0.4208270             -11.4513
        56        2.0000           -0.4162171             -11.3258
        57        2.0000           -0.4018647             -10.9353
        58        2.0000           -0.3960784             -10.7778
        59        2.0000           -0.3947451             -10.7416
        60        2.0000           -0.3716754             -10.1138 (HOMO)
        61                         -0.1372101              -3.7337 (LUMO)
        62                         -0.1255549              -3.4165
        63                         -0.1111126              -3.0235
        64                         -0.0181908              -0.4950
        65                         -0.0101630              -0.2766
       ...                                ...                  ...
       113                          0.7766213              21.1329
      -------------------------------------------------------------
                  HL-Gap            0.2344653 Eh            6.3801 eV
             Fermi-level           -0.2544428 Eh           -6.9237 eV

 SCC (total)                   0 d,  0 h,  0 min,  0.041 sec
 SCC setup                      ...        0 min,  0.001 sec (  1.420%)
 Dispersion                     ...        0 min,  0.000 sec (  0.717%)
 classical contributions        ...        0 min,  0.000 sec (  0.088%)
 integral evaluation            ...        0 min,  0.017 sec ( 41.896%)
 iterations                     ...        0 min,  0.015 sec ( 37.737%)
 molecular gradient             ...        0 min,  0.007 sec ( 17.734%)
 printout                       ...        0 min,  0.000 sec (  0.365%)

         :::::::::::::::::::::::::::::::::::::::::::::::::::::
         ::                     SUMMARY                     ::
         :::::::::::::::::::::::::::::::::::::::::::::::::::::
         :: total energy             -68.319563576507 Eh    ::
         :: total w/o Gsasa/hb       -68.293743963282 Eh    ::
         :: gradient norm              0.004832992815 Eh/a0 ::
         :: HOMO-LUMO gap              6.380125507142 eV    ::
         ::.................................................::
         :: SCC energy               -68.987684318791 Eh    ::
         :: -> isotropic ES            0.159988112312 Eh    ::
         :: -> anisotropic ES          0.002788134281 Eh    ::
         :: -> anisotropic XC          0.004868706398 Eh    ::
         :: -> dispersion             -0.048798141311 Eh    ::
         :: -> Gsolv                  -0.029394116478 Eh    ::
         ::    -> Gelec               -0.003574503253 Eh    ::
         ::    -> Gsasa               -0.026412993846 Eh    ::
         ::    -> Ghb                 -0.005330760643 Eh    ::
         ::    -> Gshift               0.005924141264 Eh    ::
         :: repulsion energy           0.668120742284 Eh    ::
         :: add. restraining           0.000000000000 Eh    ::
         :: total charge              -0.000000000000 e     ::
         :::::::::::::::::::::::::::::::::::::::::::::::::::::


Property printout bound to 'properties.out'

           -------------------------------------------------
          | TOTAL ENERGY              -68.319563576507 Eh   |
          | GRADIENT NORM               0.004832992815 Eh/α |
          | HOMO-LUMO GAP               6.380125507142 eV   |
           -------------------------------------------------

------------------------------------------------------------------------
 * finished run on 2025/09/10 at 11:36:45.804     
------------------------------------------------------------------------
 total:
 * wall-time:     0 d,  0 h,  0 min,  0.063 sec
 *  cpu-time:     0 d,  0 h,  0 min,  0.217 sec
 * ratio c/w:     3.470 speedup
 SCF:
 * wall-time:     0 d,  0 h,  0 min,  0.041 sec
 *  cpu-time:     0 d,  0 h,  0 min,  0.150 sec
 * ratio c/w:     3.675 speedup


-------------------------   --------------------
FINAL SINGLE POINT ENERGY       -68.319563576510
-------------------------   --------------------


-------------
DIPOLE MOMENT
-------------
                                X             Y             Z
Total Dipole Moment    :     -0.09900       0.95900      -1.74800
                        -----------------------------------------
Magnitude (a.u.)       :      1.99624
Magnitude (Debye)      :      5.07405


------------------
CARTESIAN GRADIENT
------------------

   1   O   :    0.000221959    0.000283262    0.000222476
   2   C   :   -0.001126357   -0.000056722   -0.000017981
   3   H   :    0.000142382   -0.000096719    0.000051559
   4   C   :    0.001220678    0.000072125    0.000190103
   5   H   :   -0.000414212   -0.000194724   -0.000049142
   6   O   :   -0.000410367   -0.000465923    0.000062471
   7   C   :   -0.000612125   -0.000320225   -0.000665917
   8   H   :    0.000060055   -0.000073235    0.000263310
   9   C   :   -0.000496640   -0.000107419   -0.000561253
  10   O   :   -0.000308991   -0.000383529    0.001159973
  11   Si  :    0.000381515   -0.000742620    0.000681654
  12   C   :    0.000976636    0.001765679   -0.000670392
  13   C   :    0.000023192   -0.000833586    0.000608364
  14   C   :   -0.000849601   -0.000289117    0.000245396
  15   C   :   -0.000276537   -0.000848879   -0.000205005
  16   C   :    0.000139350    0.000138813   -0.000663548
  17   C   :    0.000490843    0.000675938   -0.000259479
  18   O   :    0.001050158    0.000009988   -0.000069549
  19   C   :   -0.000660205    0.000093869   -0.000296103
  20   H   :    0.000097501   -0.000120595   -0.000161450
  21   O   :   -0.000185552    0.000367392    0.000130937
  22   C   :   -0.000325763    0.000231410   -0.000066318
  23   C   :    0.000935598    0.000232313    0.000608476
  24   H   :   -0.000203462   -0.000052749   -0.000086385
  25   O   :   -0.000279518   -0.000184702   -0.000091882
  26   H   :   -0.000366739   -0.000226106   -0.000098645
  27   H   :    0.000417768    0.000579148   -0.000022370
  28   H   :    0.000247538    0.000036281   -0.000254979
  29   H   :   -0.000010546   -0.000083268    0.000118870
  30   H   :   -0.000070188    0.000218155    0.000262926
  31   H   :    0.000277235   -0.000022968    0.000040146
  32   H   :   -0.000001820    0.000013293    0.000050181
  33   H   :   -0.000110234    0.000116473    0.000255556
  34   H   :   -0.000072678   -0.000063961   -0.000020115
  35   H   :   -0.000123137   -0.000000098   -0.000242849
  36   H   :    0.000210342   -0.000114812    0.000053623
  37   H   :   -0.000098700    0.000015650   -0.000220696
  38   H   :    0.000057316   -0.000085314    0.000038163
  39   H   :    0.000221331    0.000115254    0.000397574
  40   H   :   -0.000403541   -0.000272945   -0.000397993
  41   H   :   -0.000115345    0.000498923    0.000276433
  42   H   :    0.000040062   -0.000122919   -0.000309707
  43   H   :   -0.000062797    0.000046384   -0.000330501
  44   H   :   -0.000468428    0.000026254    0.000025505
  45   H   :   -0.000075424   -0.000057444    0.000226614
  46   H   :    0.000238912    0.000136725   -0.000213791
  47   H   :    0.000138112   -0.000115175   -0.000118037
  48   H   :    0.000540424    0.000262424    0.000123779

Difference to translation invariance:
           :    0.0000000000   -0.0000000000    0.0000000000

Difference to rotation invariance:
           :   -0.0000003495   -0.0003708346   -0.0001356646

Norm of the Cartesian gradient     ...    0.0048329928
RMS gradient                       ...    0.0004027494
MAX gradient                       ...    0.0017656787
------------------------------------------------------------------------------
                         ORCA GEOMETRY RELAXATION STEP
------------------------------------------------------------------------------

Reading the OPT-File                    .... done
Getting information on internals        .... done
Copying old internal coords+grads       .... done
Making the new internal coordinates     .... (2022 redundants) done
Validating the new internal coordinates .... (2022 redundants) done
Calculating the B-matrix                .... done
Calculating the G,G- and P matrices     .... done
Transforming gradient to internals      .... done
Projecting the internal gradient        .... done
Number of atoms                         ....  48
Number of internal coordinates          .... 234
Current Energy                          ....   -68.319563577 Eh
Current gradient norm                   ....     0.004832993 Eh/bohr
Maximum allowed component of the step   ....  0.300
Current trust radius                    ....  0.700
Updating the Hessian (BFGS)             .... done
Forming the augmented Hessian           .... done
Diagonalizing the augmented Hessian     .... done
Last element of RFO vector              ....  0.993060157
Lowest eigenvalues of augmented Hessian:
 -0.000198055  0.006867760  0.009992569  0.010001628  0.010046250
Length of the computed step             ....  0.118429387
The final length of the internal step   ....  0.118429387
Converting the step to Cartesian space:
 Initial RMS(Int)=    0.0077419712
Transforming coordinates:
 Iter   0:  RMS(Cart)=    0.0338738448 RMS(Int)=    0.0077640430
done
Storing new coordinates                 .... done
The predicted energy change is          ....    -0.000100417
Previously predicted energy change      ....    -0.000134201
Actually observed energy change         ....    -0.000180747
Ratio of predicted to observed change   ....     1.346843741
New trust radius                        ....     0.700000000

                                .--------------------.
          ----------------------|Geometry convergence|-------------------------
          Item                value                   Tolerance       Converged
          ---------------------------------------------------------------------
          Energy change      -0.0001807475            0.0000050000      NO
          RMS gradient        0.0002962936            0.0001000000      NO
          MAX gradient        0.0013834913            0.0003000000      NO
          RMS step            0.0077419712            0.0020000000      NO
          MAX step            0.0377589144            0.0040000000      NO
          -------------------------------------------------------------------------
          ........................................................
          Max(Bonds)      0.0141      Max(Angles)    0.65
          Max(Dihed)        2.16      Max(Improp)    0.00
          ---------------------------------------------------------------------

    ---------------------------------------------------------------------------
                         Redundant Internal Coordinates
                            (Angstroem and degrees)

        Definition                    Value    dE/dq     Step     New-Value
    ----------------------------------------------------------------------------
     1. B(C   1,O   0)                1.3925  0.000106  0.0005    1.3930   
     2. B(H   2,C   1)                1.0990  0.000103 -0.0003    1.0988   
     3. B(C   3,C   1)                1.5438  0.000378 -0.0011    1.5427   
     4. B(H   4,C   3)                1.0968  0.000397 -0.0010    1.0958   
     5. B(O   5,C   3)                1.4071  0.000053  0.0006    1.4077   
     6. B(C   6,C   3)                1.5478  0.000204 -0.0008    1.5470   
     7. B(H   7,C   6)                1.0987  0.000002 -0.0001    1.0986   
     8. B(C   8,C   6)                1.5405  0.000328 -0.0008    1.5397   
     9. B(O   9,C   8)                1.3945  0.000412 -0.0004    1.3941   
    10. B(Si 10,O   9)                1.6471 -0.000070 -0.0007    1.6465   
    11. B(C  11,Si 10)                1.9356  0.000198  0.0026    1.9382   
    12. B(C  12,C  11)                1.5348  0.001113 -0.0021    1.5327   
    13. B(C  13,C  11)                1.5337  0.001137 -0.0021    1.5315   
    14. B(C  14,C  11)                1.5355  0.000961 -0.0019    1.5335   
    15. B(C  15,Si 10)                1.8980  0.000237 -0.0008    1.8972   
    16. B(C  16,Si 10)                1.9140  0.000939 -0.0028    1.9112   
    17. B(O  17,C   6)                1.4243  0.000704 -0.0007    1.4236   
    18. B(C  18,O  17)                1.4026  0.000619  0.0005    1.4031   
    19. B(H  19,C  18)                1.1084  0.000051 -0.0007    1.1077   
    20. B(O  20,C  18)                1.3947  0.000393 -0.0001    1.3946   
    21. B(C  21,O  20)                1.4149  0.000220  0.0001    1.4150   
    22. B(C  22,C  18)                1.5404  0.000533 -0.0013    1.5391   
    23. B(C  22,C   1)                1.5437  0.000512 -0.0011    1.5426   
    24. B(H  23,C  22)                1.0991 -0.000002  0.0001    1.0992   
    25. B(O  24,C  22)                1.4081  0.000220 -0.0006    1.4075   
    26. B(H  25,O   0)                0.9752  0.000407 -0.0006    0.9746   
    27. B(H  25,O  20)                2.3939  0.000160 -0.0065    2.3874   
    28. B(H  25,O   9)                1.8622  0.000103  0.0011    1.8633   
    29. B(H  26,O   5)                0.9709  0.000579 -0.0011    0.9698   
    30. B(H  26,O  24)                2.0671 -0.000186  0.0141    2.0813   
    31. B(H  27,C   8)                1.0959  0.000270 -0.0004    1.0955   
    32. B(H  28,C   8)                1.0963  0.000097 -0.0000    1.0963   
    33. B(H  29,C  12)                1.0879  0.000346 -0.0005    1.0873   
    34. B(H  30,C  12)                1.0883  0.000277 -0.0003    1.0879   
    35. B(H  31,C  12)                1.0901  0.000005 -0.0001    1.0900   
    36. B(H  32,C  13)                1.0869  0.000281 -0.0003    1.0866   
    37. B(H  33,C  13)                1.0895  0.000081 -0.0002    1.0893   
    38. B(H  34,C  13)                1.0876  0.000260 -0.0003    1.0873   
    39. B(H  35,C  14)                1.0887  0.000218 -0.0003    1.0883   
    40. B(H  36,C  14)                1.0875  0.000240 -0.0003    1.0872   
    41. B(H  37,C  14)                1.0900  0.000063 -0.0002    1.0898   
    42. B(H  38,C  15)                1.0857  0.000389 -0.0006    1.0851   
    43. B(H  39,C  15)                1.0848  0.000438 -0.0006    1.0843   
    44. B(H  40,C  15)                1.0850  0.000304 -0.0005    1.0845   
    45. B(H  41,C  16)                1.0872  0.000269 -0.0004    1.0868   
    46. B(H  42,C  16)                1.0862  0.000112 -0.0002    1.0860   
    47. B(H  43,C  16)                1.0860  0.000447 -0.0008    1.0852   
    48. B(H  44,C  21)                1.0867  0.000051  0.0000    1.0868   
    49. B(H  45,C  21)                1.0930  0.000078 -0.0002    1.0928   
    50. B(H  46,C  21)                1.0963  0.000015 -0.0002    1.0961   
    51. B(H  47,O  24)                0.9660  0.000451 -0.0005    0.9655   
    52. A(C   1,O   0,H  25)          108.45  0.000263   -0.09    108.36   
    53. A(H   2,C   1,C   3)          106.83 -0.000166    0.04    106.87   
    54. A(O   0,C   1,H   2)          106.18  0.000035    0.12    106.30   
    55. A(C   3,C   1,C  22)          109.74 -0.000102    0.19    109.92   
    56. A(O   0,C   1,C  22)          112.31  0.000076   -0.08    112.23   
    57. A(O   0,C   1,C   3)          114.26  0.000224   -0.26    114.01   
    58. A(H   2,C   1,C  22)          107.06 -0.000097    0.00    107.06   
    59. A(H   4,C   3,O   5)          105.86  0.000047    0.03    105.89   
    60. A(C   1,C   3,C   6)          114.02  0.000041    0.02    114.04   
    61. A(C   1,C   3,H   4)          108.09 -0.000042   -0.01    108.08   
    62. A(C   1,C   3,O   5)          110.39  0.000010   -0.04    110.35   
    63. A(O   5,C   3,C   6)          110.28  0.000320   -0.08    110.20   
    64. A(H   4,C   3,C   6)          107.82 -0.000395    0.08    107.90   
    65. A(C   3,O   5,H  26)          107.75  0.000130    0.04    107.79   
    66. A(H   7,C   6,C   8)          105.78  0.000047    0.02    105.80   
    67. A(C   3,C   6,C   8)          113.59 -0.000272   -0.15    113.44   
    68. A(C   3,C   6,H   7)          106.03 -0.000085    0.13    106.16   
    69. A(C   3,C   6,O  17)          114.42 -0.000223    0.20    114.61   
    70. A(C   8,C   6,O  17)          113.06  0.000626   -0.19    112.87   
    71. A(H   7,C   6,O  17)          102.64 -0.000108    0.04    102.68   
    72. A(H  27,C   8,H  28)          108.34  0.000059   -0.02    108.32   
    73. A(C   6,C   8,O   9)          113.18  0.000280   -0.12    113.06   
    74. A(C   6,C   8,H  27)          108.00 -0.000257    0.16    108.16   
    75. A(O   9,C   8,H  28)          109.75 -0.000152    0.08    109.83   
    76. A(O   9,C   8,H  27)          110.07  0.000190   -0.10    109.98   
    77. A(C   6,C   8,H  28)          107.35 -0.000135    0.01    107.36   
    78. A(C   8,O   9,Si 10)          128.43 -0.001383    0.65    129.08   
    79. A(C  15,Si 10,C  16)          111.08 -0.000855    0.42    111.50   
    80. A(C  11,Si 10,C  16)          110.34  0.000595   -0.17    110.17   
    81. A(O   9,Si 10,C  16)          111.25  0.000049   -0.10    111.14   
    82. A(C  11,Si 10,C  15)          111.76  0.000004    0.22    111.98   
    83. A(O   9,Si 10,C  15)          101.33  0.000638   -0.57    100.77   
    84. A(O   9,Si 10,C  11)          110.81 -0.000463    0.19    111.00   
    85. A(C  12,C  11,C  14)          108.29 -0.000204    0.23    108.52   
    86. A(C  13,C  11,C  14)          107.96 -0.000209    0.25    108.20   
    87. A(Si 10,C  11,C  13)          110.40  0.000152   -0.19    110.20   
    88. A(Si 10,C  11,C  14)          112.05  0.000269   -0.31    111.73   
    89. A(Si 10,C  11,C  12)          109.75  0.000080   -0.12    109.64   
    90. A(C  12,C  11,C  13)          108.28 -0.000111    0.17    108.45   
    91. A(H  29,C  12,H  31)          108.30 -0.000077    0.02    108.31   
    92. A(C  11,C  12,H  31)          110.52  0.000045   -0.04    110.47   
    93. A(H  29,C  12,H  30)          107.94 -0.000041    0.02    107.96   
    94. A(C  11,C  12,H  30)          110.91  0.000064   -0.01    110.91   
    95. A(C  11,C  12,H  29)          110.90  0.000010    0.02    110.91   
    96. A(H  30,C  12,H  31)          108.18 -0.000006   -0.01    108.17   
    97. A(H  32,C  13,H  33)          108.26 -0.000058    0.04    108.29   
    98. A(C  11,C  13,H  33)          110.37 -0.000010    0.02    110.39   
    99. A(C  11,C  13,H  32)          110.69  0.000091   -0.03    110.67   
   100. A(C  11,C  13,H  34)          110.84  0.000011   -0.01    110.83   
   101. A(H  33,C  13,H  34)          108.20 -0.000109    0.04    108.24   
   102. A(H  32,C  13,H  34)          108.39  0.000070   -0.06    108.33   
   103. A(H  36,C  14,H  37)          108.15  0.000060   -0.00    108.15   
   104. A(H  35,C  14,H  37)          107.91 -0.000147    0.10    108.01   
   105. A(C  11,C  14,H  37)          110.21  0.000017    0.00    110.21   
   106. A(H  35,C  14,H  36)          108.44  0.000014   -0.06    108.38   
   107. A(C  11,C  14,H  36)          110.88  0.000093   -0.05    110.84   
   108. A(C  11,C  14,H  35)          111.14 -0.000040    0.01    111.16   
   109. A(H  39,C  15,H  40)          108.04 -0.000159    0.05    108.08   
   110. A(H  38,C  15,H  40)          106.95 -0.000250    0.10    107.05   
   111. A(H  38,C  15,H  39)          108.00  0.000292   -0.10    107.90   
   112. A(Si 10,C  15,H  39)          110.54 -0.000852    0.31    110.86   
   113. A(Si 10,C  15,H  38)          111.58  0.000171   -0.05    111.53   
   114. A(Si 10,C  15,H  40)          111.56  0.000799   -0.31    111.24   
   115. A(H  42,C  16,H  43)          107.31 -0.000101    0.11    107.42   
   116. A(H  41,C  16,H  43)          107.39 -0.000011    0.05    107.44   
   117. A(Si 10,C  16,H  43)          111.44 -0.000355    0.15    111.59   
   118. A(H  41,C  16,H  42)          107.47 -0.000271    0.08    107.56   
   119. A(Si 10,C  16,H  41)          112.07  0.000257   -0.15    111.92   
   120. A(Si 10,C  16,H  42)          110.93  0.000455   -0.23    110.70   
   121. A(C   6,O  17,C  18)          118.60 -0.000028   -0.04    118.57   
   122. A(O  17,C  18,H  19)          102.44 -0.000144    0.14    102.58   
   123. A(O  20,C  18,C  22)          108.09 -0.000399    0.11    108.21   
   124. A(H  19,C  18,C  22)          109.20  0.000071   -0.06    109.14   
   125. A(O  17,C  18,C  22)          112.55 -0.000001    0.06    112.61   
   126. A(H  19,C  18,O  20)          109.76 -0.000003   -0.01    109.75   
   127. A(O  17,C  18,O  20)          114.60  0.000490   -0.25    114.35   
   128. A(C  18,O  20,C  21)          114.02  0.000511   -0.24    113.78   
   129. A(H  44,C  21,H  46)          110.21  0.000175   -0.07    110.14   
   130. A(H  45,C  21,H  46)          108.96 -0.000310    0.13    109.10   
   131. A(O  20,C  21,H  46)          110.45  0.000029   -0.02    110.43   
   132. A(H  44,C  21,H  45)          110.11  0.000159   -0.08    110.03   
   133. A(O  20,C  21,H  45)          111.14  0.000284   -0.10    111.04   
   134. A(O  20,C  21,H  44)          105.94 -0.000327    0.13    106.07   
   135. A(H  23,C  22,O  24)          111.75 -0.000127   -0.05    111.70   
   136. A(C  18,C  22,O  24)          111.16  0.000328   -0.06    111.10   
   137. A(C   1,C  22,O  24)          107.65  0.000079   -0.04    107.61   
   138. A(C  18,C  22,H  23)          107.65 -0.000118   -0.00    107.65   
   139. A(C   1,C  22,H  23)          107.89  0.000048    0.05    107.93   
   140. A(C   1,C  22,C  18)          110.72 -0.000223    0.11    110.83   
   141. A(C  22,O  24,H  47)          110.29  0.000711   -0.26    110.03   
   142. D(H   2,C   1,O   0,H  25)   -168.13  0.000104   -0.68   -168.81   
   143. D(C  22,C   1,O   0,H  25)     75.17  0.000159   -0.72     74.45   
   144. D(C   3,C   1,O   0,H  25)    -50.66  0.000049   -0.70    -51.36   
   145. D(H   4,C   3,C   1,C  22)   -166.07 -0.000201    0.37   -165.69   
   146. D(O   5,C   3,C   1,C  22)     78.59 -0.000238    0.37     78.95   
   147. D(O   5,C   3,C   1,H   2)    -37.14  0.000019    0.24    -36.90   
   148. D(H   4,C   3,C   1,H   2)     78.20  0.000056    0.25     78.45   
   149. D(O   5,C   3,C   1,O   0)   -154.25 -0.000043    0.22   -154.03   
   150. D(H   4,C   3,C   1,O   0)    -38.90 -0.000006    0.22    -38.68   
   151. D(H  26,O   5,C   3,H   4)   -166.65 -0.000100   -0.24   -166.89   
   152. D(H  26,O   5,C   3,C   6)     76.98  0.000180   -0.32     76.66   
   153. D(H  26,O   5,C   3,C   1)    -49.91 -0.000118   -0.26    -50.17   
   154. D(H   7,C   6,C   3,O   5)     28.11 -0.000109   -0.09     28.02   
   155. D(H   7,C   6,C   3,H   4)    -87.03 -0.000113   -0.13    -87.16   
   156. D(H   7,C   6,C   3,C   1)    152.95  0.000191   -0.19    152.76   
   157. D(C   8,C   6,C   3,H   4)     28.71 -0.000253   -0.10     28.61   
   158. D(C   8,C   6,C   3,C   1)    -91.31  0.000051   -0.16    -91.47   
   159. D(C   8,C   6,C   3,O   5)    143.85 -0.000250   -0.07    143.78   
   160. D(H  27,C   8,C   6,O  17)     40.84  0.000096    1.27     42.11   
   161. D(H  27,C   8,C   6,H   7)    -70.72 -0.000098    1.30    -69.42   
   162. D(H  27,C   8,C   6,C   3)    173.39  0.000119    1.21    174.60   
   163. D(O   9,C   8,C   6,O  17)    -81.28 -0.000145    1.36    -79.92   
   164. D(O   9,C   8,C   6,C   3)     51.27 -0.000122    1.30     52.57   
   165. D(O   9,C   8,C   6,H   7)    167.16 -0.000339    1.39    168.54   
   166. D(Si 10,O   9,C   8,H  27)     55.42  0.000065    0.27     55.69   
   167. D(Si 10,O   9,C   8,C   6)    176.37  0.000063    0.33    176.70   
   168. D(Si 10,O   9,C   8,H  28)    -63.74 -0.000030    0.31    -63.43   
   169. D(C  16,Si 10,O   9,C   8)    -48.72 -0.000154   -2.01    -50.72   
   170. D(C  15,Si 10,O   9,C   8)   -166.85  0.000464   -2.13   -168.98   
   171. D(C  11,Si 10,O   9,C   8)     74.42  0.000315   -2.16     72.26   
   172. D(C  12,C  11,Si 10,O   9)     38.86  0.000077    0.46     39.32   
   173. D(C  13,C  11,Si 10,C  16)    -78.19  0.000242    0.36    -77.83   
   174. D(C  13,C  11,Si 10,C  15)     45.93 -0.000425    0.92     46.86   
   175. D(C  13,C  11,Si 10,O   9)    158.15  0.000084    0.47    158.62   
   176. D(C  12,C  11,Si 10,C  16)    162.53  0.000235    0.34    162.87   
   177. D(C  12,C  11,Si 10,C  15)    -73.35 -0.000432    0.91    -72.44   
   178. D(H  30,C  12,C  11,C  14)     60.93  0.000232   -0.43     60.51   
   179. D(H  30,C  12,C  11,C  13)    177.75 -0.000184    0.09    177.85   
   180. D(H  30,C  12,C  11,Si 10)    -61.67 -0.000019   -0.11    -61.78   
   181. D(H  29,C  12,C  11,C  14)   -179.15  0.000228   -0.39   -179.54   
   182. D(H  29,C  12,C  11,C  13)    -62.33 -0.000188    0.13    -62.20   
   183. D(H  29,C  12,C  11,Si 10)     58.25 -0.000023   -0.08     58.17   
   184. D(H  33,C  13,C  11,C  14)     56.35 -0.000247    0.64     56.99   
   185. D(H  33,C  13,C  11,C  12)    -60.69  0.000164    0.14    -60.55   
   186. D(H  33,C  13,C  11,Si 10)    179.14  0.000045    0.29    179.43   
   187. D(H  32,C  13,C  11,C  12)     59.14  0.000144    0.18     59.32   
   188. D(H  32,C  13,C  11,Si 10)    -61.03  0.000025    0.34    -60.69   
   189. D(H  32,C  13,C  11,C  14)    176.18 -0.000267    0.69    176.87   
   190. D(H  36,C  14,C  11,C  13)     59.22  0.000166   -0.38     58.84   
   191. D(H  36,C  14,C  11,C  12)    176.25 -0.000186    0.08    176.33   
   192. D(H  36,C  14,C  11,Si 10)    -62.56 -0.000053   -0.11    -62.66   
   193. D(H  35,C  14,C  11,C  13)    179.92  0.000219   -0.48    179.44   
   194. D(H  35,C  14,C  11,C  12)    -63.05 -0.000132   -0.02    -63.07   
   195. D(H  35,C  14,C  11,Si 10)     58.14  0.000000   -0.21     57.94   
   196. D(H  39,C  15,Si 10,C  16)     56.07  0.000151   -0.66     55.41   
   197. D(H  39,C  15,Si 10,C  11)    -67.64  0.000004   -0.87    -68.51   
   198. D(H  39,C  15,Si 10,O   9)    174.32  0.000184   -0.88    173.44   
   199. D(H  38,C  15,Si 10,C  16)    176.28  0.000057   -0.61    175.67   
   200. D(H  38,C  15,Si 10,C  11)     52.57 -0.000089   -0.82     51.75   
   201. D(H  38,C  15,Si 10,O   9)    -65.47  0.000090   -0.83    -66.30   
   202. D(H  41,C  16,Si 10,C  15)    174.49  0.000246   -0.59    173.91   
   203. D(H  41,C  16,Si 10,C  11)    -60.99  0.000070   -0.15    -61.14   
   204. D(H  41,C  16,Si 10,O   9)     62.42 -0.000066   -0.10     62.32   
   205. D(H  42,C  16,Si 10,C  15)     54.37  0.000103   -0.44     53.93   
   206. D(H  42,C  16,Si 10,C  11)    178.88 -0.000074    0.00    178.88   
   207. D(H  42,C  16,Si 10,O   9)    -57.71 -0.000210    0.05    -57.66   
   208. D(C  18,O  17,C   6,C   8)     88.44 -0.000112    0.04     88.48   
   209. D(C  18,O  17,C   6,H   7)   -158.09  0.000151    0.01   -158.08   
   210. D(C  18,O  17,C   6,C   3)    -43.71 -0.000116    0.27    -43.44   
   211. D(C  22,C  18,O  17,C   6)     51.52  0.000029   -0.21     51.32   
   212. D(O  20,C  18,O  17,C   6)    -72.53  0.000178   -0.21    -72.74   
   213. D(H  19,C  18,O  17,C   6)    168.67  0.000028   -0.16    168.51   
   214. D(C  21,O  20,C  18,C  22)    166.12 -0.000275    1.03    167.15   
   215. D(C  21,O  20,C  18,H  19)     47.11 -0.000123    1.04     48.15   
   216. D(C  21,O  20,C  18,O  17)    -67.49 -0.000236    1.02    -66.47   
   217. D(H  46,C  21,O  20,C  18)    -63.14  0.000007    0.35    -62.79   
   218. D(H  45,C  21,O  20,C  18)     57.93 -0.000174    0.44     58.37   
   219. D(H  44,C  21,O  20,C  18)    177.53 -0.000025    0.36    177.89   
   220. D(H  23,C  22,C  18,O  20)    -45.74  0.000353   -0.11    -45.85   
   221. D(H  23,C  22,C  18,H  19)     73.63  0.000157   -0.09     73.54   
   222. D(H  23,C  22,C  18,O  17)   -173.32  0.000024    0.08   -173.23   
   223. D(C   1,C  22,C  18,O  20)     71.96  0.000216    0.02     71.98   
   224. D(C   1,C  22,C  18,H  19)   -168.66  0.000020    0.04   -168.63   
   225. D(C   1,C  22,C  18,O  17)    -55.61 -0.000113    0.21    -55.40   
   226. D(H  23,C  22,C   1,C   3)    170.51  0.000162   -0.23    170.28   
   227. D(H  23,C  22,C   1,H   2)    -73.91 -0.000139   -0.08    -73.99   
   228. D(H  23,C  22,C   1,O   0)     42.26 -0.000114    0.02     42.28   
   229. D(C  18,C  22,C   1,C   3)     52.95  0.000401   -0.32     52.62   
   230. D(C  18,C  22,C   1,H   2)    168.53  0.000100   -0.18    168.35   
   231. D(C  18,C  22,C   1,O   0)    -75.31  0.000126   -0.07    -75.38   
   232. D(H  47,O  24,C  22,H  23)    -56.25  0.000098   -0.72    -56.97   
   233. D(H  47,O  24,C  22,C  18)     64.05  0.000087   -0.80     63.25   
   234. D(H  47,O  24,C  22,C   1)   -174.53  0.000063   -0.73   -175.26   
    ----------------------------------------------------------------------------

Geometry step timings:
Preparation and reading OPT file:      0.001 s ( 4.829 %)
Internal coordinates            :      0.000 s ( 0.189 %)
B/P matrices and projection     :      0.005 s (22.152 %)
Hessian update/contruction      :      0.010 s (44.530 %)
Making the step                 :      0.003 s (14.373 %)
Converting the step to Cartesian:      0.000 s ( 1.908 %)
Storing new data                :      0.001 s ( 4.046 %)
Checking convergence            :      0.000 s ( 0.512 %)
Final printing                  :      0.002 s ( 7.461 %)
Total time                      :      0.022 s

Time for energy+gradient        :      0.091 s
Time for complete geometry iter :      0.124 s

         *************************************************************
         *                GEOMETRY OPTIMIZATION CYCLE   7            *
         *************************************************************
---------------------------------
CARTESIAN COORDINATES (ANGSTROEM)
---------------------------------
  O    -1.352807    2.151568    0.126691
  C     0.019201    1.924770    0.045601
  H     0.378956    1.838077    1.080162
  C     0.397057    0.612034   -0.671224
  H    -0.326422   -0.156494   -0.376917
  O     1.650355    0.153019   -0.223687
  C     0.384560    0.710782   -2.215028
  H     1.101846   -0.039389   -2.575231
  C    -0.969427    0.331171   -2.842110
  O    -2.042059    1.029622   -2.289686
  Si   -3.633704    0.988492   -2.708937
  C    -4.452736   -0.681244   -2.163402
  C    -3.916995   -1.092378   -0.787520
  C    -5.972106   -0.517008   -2.062694
  C    -4.157693   -1.810212   -3.158430
  C    -4.299654    2.463000   -1.718117
  C    -3.858681    1.248993   -4.588854
  O     0.914393    1.925172   -2.735757
  C     0.553004    3.133265   -2.120516
  H     1.257453    3.856455   -2.576398
  O    -0.759631    3.534274   -2.367664
  C    -1.007638    3.874404   -3.718595
  C     0.769865    3.109361   -0.596949
  H     0.350728    4.038669   -0.186015
  O     2.134486    2.969994   -0.281653
  H    -1.733044    2.055982   -0.765543
  H     2.274196    0.893449   -0.279171
  H    -0.912716    0.523159   -3.919157
  H    -1.109449   -0.745599   -2.690898
  H    -4.113575   -0.320033   -0.047831
  H    -2.842192   -1.257255   -0.822815
  H    -4.391634   -2.015036   -0.453692
  H    -6.228147    0.238097   -1.324532
  H    -6.436541   -1.456603   -1.765935
  H    -6.392707   -0.216632   -3.019277
  H    -3.086178   -1.961559   -3.274344
  H    -4.579762   -1.585283   -4.134786
  H    -4.593944   -2.745177   -2.807299
  H    -4.241242    2.283607   -0.649568
  H    -5.336673    2.658575   -1.967027
  H    -3.729224    3.362709   -1.921233
  H    -3.385588    0.459883   -5.167230
  H    -3.419816    2.192052   -4.900949
  H    -4.907604    1.271312   -4.866218
  H    -2.062899    4.127658   -3.776189
  H    -0.787646    3.033958   -4.381515
  H    -0.396345    4.734585   -4.015092
  H     2.628208    3.734335   -0.604619

----------------------------
CARTESIAN COORDINATES (A.U.)
----------------------------
  NO LB    ZA    FRAG    MASS        X           Y           Z
   0 O   8.0000    1    15.999   -2.556435    4.065875    0.239411
   1 C   6.0000    1    12.011    0.036284    3.637289    0.086173
   2 H   1.0000    1     1.008    0.716124    3.473462    2.041210
   3 C   6.0000    1    12.011    0.750329    1.156577   -1.268429
   4 H   1.0000    1     1.008   -0.616849   -0.295732   -0.712270
   5 O   8.0000    1    15.999    3.118720    0.289164   -0.422707
   6 C   6.0000    1    12.011    0.726713    1.343183   -4.185796
   7 H   1.0000    1     1.008    2.082188   -0.074435   -4.866481
   8 C   6.0000    1    12.011   -1.831952    0.625823   -5.370810
   9 O   8.0000    1    15.999   -3.858932    1.945703   -4.326879
  10 Si 14.0000    1    28.086   -6.866705    1.867980   -5.119150
  11 C   6.0000    1    12.011   -8.414452   -1.287364   -4.088237
  12 C   6.0000    1    12.011   -7.402048   -2.064295   -1.488197
  13 C   6.0000    1    12.011  -11.285646   -0.977003   -3.897926
  14 C   6.0000    1    12.011   -7.856901   -3.420806   -5.968568
  15 C   6.0000    1    12.011   -8.125168    4.654396   -3.246770
  16 C   6.0000    1    12.011   -7.291851    2.360255   -8.671677
  17 O   8.0000    1    15.999    1.727953    3.638048   -5.169832
  18 C   6.0000    1    12.011    1.045026    5.921013   -4.007195
  19 H   1.0000    1     1.008    2.376243    7.287643   -4.868687
  20 O   8.0000    1    15.999   -1.435495    6.678810   -4.474237
  21 C   6.0000    1    12.011   -1.904159    7.321563   -7.027127
  22 C   6.0000    1    12.011    1.454834    5.875841   -1.128070
  23 H   1.0000    1     1.008    0.662779    7.631978   -0.351518
  24 O   8.0000    1    15.999    4.033594    5.612475   -0.532246
  25 H   1.0000    1     1.008   -3.274978    3.885243   -1.446666
  26 H   1.0000    1     1.008    4.297607    1.688373   -0.527556
  27 H   1.0000    1     1.008   -1.724784    0.988627   -7.406133
  28 H   1.0000    1     1.008   -2.096555   -1.408978   -5.085061
  29 H   1.0000    1     1.008   -7.773531   -0.604775   -0.090387
  30 H   1.0000    1     1.008   -5.370964   -2.375868   -1.554896
  31 H   1.0000    1     1.008   -8.298985   -3.807866   -0.857354
  32 H   1.0000    1     1.008  -11.769493    0.449939   -2.503002
  33 H   1.0000    1     1.008  -12.163299   -2.752582   -3.337134
  34 H   1.0000    1     1.008  -12.080465   -0.409376   -5.705606
  35 H   1.0000    1     1.008   -5.832032   -3.706810   -6.187613
  36 H   1.0000    1     1.008   -8.654496   -2.995751   -7.813614
  37 H   1.0000    1     1.008   -8.681295   -5.187632   -5.305026
  38 H   1.0000    1     1.008   -8.014786    4.315392   -1.227506
  39 H   1.0000    1     1.008  -10.084851    5.023979   -3.717142
  40 H   1.0000    1     1.008   -7.047212    6.354598   -3.630604
  41 H   1.0000    1     1.008   -6.397834    0.869053   -9.764651
  42 H   1.0000    1     1.008   -6.462515    4.142378   -9.261452
  43 H   1.0000    1     1.008   -9.274028    2.402431   -9.195819
  44 H   1.0000    1     1.008   -3.898314    7.800142   -7.135963
  45 H   1.0000    1     1.008   -1.488435    5.733351   -8.279864
  46 H   1.0000    1     1.008   -0.748984    8.947069   -7.587423
  47 H   1.0000    1     1.008    4.966594    7.056870   -1.142564

      -----------------------------------------------------------      
     |                   =====================                   |     
     |                           x T B                           |     
     |                   =====================                   |     
     |                         S. Grimme                         |     
     |          Mulliken Center for Theoretical Chemistry        |     
     |                    University of Bonn                     |     
      -----------------------------------------------------------      

   * xtb version 6.7.1 (edcfbbe) compiled by 'albert@albert-system' on 2024-07-22

   xtb is free software: you can redistribute it and/or modify it under
   the terms of the GNU Lesser General Public License as published by
   the Free Software Foundation, either version 3 of the License, or
   (at your option) any later version.
   
   xtb is distributed in the hope that it will be useful,
   but WITHOUT ANY WARRANTY; without even the implied warranty of
   MERCHANTABILITY or FITNESS FOR A PARTICULAR PURPOSE.  See the
   GNU Lesser General Public License for more details.
   
   Cite this work as:
   * C. Bannwarth, E. Caldeweyher, S. Ehlert, A. Hansen, P. Pracht,
     J. Seibert, S. Spicher, S. Grimme, WIREs Comput. Mol. Sci., 2020, 11,
     e01493. DOI: 10.1002/wcms.1493
   
   for GFN2-xTB:
   * C. Bannwarth, S. Ehlert and S. Grimme., J. Chem. Theory Comput., 2019,
     15, 1652-1671. DOI: 10.1021/acs.jctc.8b01176
   for GFN1-xTB:
   * S. Grimme, C. Bannwarth, P. Shushkov, J. Chem. Theory Comput., 2017,
     13, 1989-2009. DOI: 10.1021/acs.jctc.7b00118
   for GFN0-xTB:
   * P. Pracht, E. Caldeweyher, S. Ehlert, S. Grimme, ChemRxiv, 2019, preprint.
     DOI: 10.26434/chemrxiv.8326202.v1
   for GFN-FF:
   * S. Spicher and S. Grimme, Angew. Chem. Int. Ed., 2020, 59, 15665-15673.
     DOI: 10.1002/anie.202004239
   
   for ALPB and GBSA implicit solvation:
   * S. Ehlert, M. Stahn, S. Spicher, S. Grimme, J. Chem. Theory Comput.,
     2021, 17, 4250-4261. DOI: 10.1021/acs.jctc.1c00471
   
   for ddCOSMO and CPCM-X implicit solvation:
   * M. Stahn, S. Ehlert, S. Grimme, J. Phys. Chem. A,
     2023, XX, XXXX-XXXX. DOI: 10.1021/acs.jpca.3c04382
   
   for DFT-D4:
   * E. Caldeweyher, C. Bannwarth and S. Grimme, J. Chem. Phys., 2017,
     147, 034112. DOI: 10.1063/1.4993215
   * E. Caldeweyher, S. Ehlert, A. Hansen, H. Neugebauer, S. Spicher,
     C. Bannwarth and S. Grimme, J. Chem. Phys., 2019, 150, 154122.
     DOI: 10.1063/1.5090222
   * E. Caldeweyher, J.-M. Mewes, S. Ehlert and S. Grimme, Phys. Chem. Chem. Phys.
     2020, 22, 8499-8512. DOI: 10.1039/D0CP00502A
   
   for sTDA-xTB:
   * S. Grimme and C. Bannwarth, J. Chem. Phys., 2016, 145, 054103.
     DOI: 10.1063/1.4959605
   
   in the mass-spec context:
   * V. Asgeirsson, C. Bauer and S. Grimme, Chem. Sci., 2017, 8, 4879.
     DOI: 10.1039/c7sc00601b
   * J. Koopman and S. Grimme, ACS Omega 2019, 4, 12, 15120-15133.
     DOI: 10.1021/acsomega.9b02011
   
   for metadynamics refer to:
   * S. Grimme, J. Chem. Theory Comput., 2019, 155, 2847-2862
     DOI: 10.1021/acs.jctc.9b00143
   
   for SPH calculations refer to:
   * S. Spicher and S. Grimme, J. Chem. Theory Comput., 2021, 17, 1701-1714
     DOI: 10.1021/acs.jctc.0c01306
   
   for ONIOM refer to:
   * C. Plett, A. Katbashev, S. Ehlert, S. Grimme, M. Bursch,
     Phys. Chem. Chem. Phys., 2023, 25, 17860-17868. DOI: 10.1039/D3CP02178E
   
   for DIPRO refer to:
   * J. Kohn, N. Gildemeister, S. Grimme, D. Fazzi, A. Hansen,
     J. Chem. Phys., 2023, just accepted.
   
   for PTB refer to:
   * S. Grimme, M. Mueller, A. Hansen, J. Chem. Phys., 2023, 158, 124111.
     DOI: 10.1063/5.0137838
   
   with help from (in alphabetical order)
   P. Atkinson, C. Bannwarth, F. Bohle, G. Brandenburg, E. Caldeweyher
   M. Checinski, S. Dohm, S. Ehlert, S. Ehrlich, I. Gerasimov, C. Hölzer
   A. Katbashev, J. Kohn, J. Koopman, C. Lavigne, S. Lehtola, F. März, M. Müller,
   F. Musil, H. Neugebauer, J. Pisarek, C. Plett, P. Pracht, F. Pultar,
   J. Seibert, P. Shushkov, S. Spicher, M. Stahn, M. Steiner, T. Strunk,
   J. Stückrath, T. Rose, and J. Unsleber
   
 * started run on 2025/09/10 at 11:36:45.865     
   ID    Z sym.   atoms
    1    8 O      1, 6, 10, 18, 21, 25
    2    6 C      2, 4, 7, 9, 12-17, 19, 22, 23
    3    1 H      3, 5, 8, 20, 24, 26-48
    4   14 Si     11

           -------------------------------------------------
          |                Calculation Setup                |
           -------------------------------------------------

          program call               : /home/kmoult/orca_6_1/otool_xtb goat_0_XTB.xyz --grad -c 0 -u 0 -P 4 --namespace goat_0 --input goat_0_XTB.input.tmp --alpb ACETONE --acc 0.200000
          hostname                   : node1600
          calculation namespace      : goat_0
          coordinate file            : goat_0_XTB.xyz
          omp threads                :                     4


           -------------------------------------------------
          |                 G F N 2 - x T B                 |
           -------------------------------------------------

        Reference                      10.1021/acs.jctc.8b01176
      * Hamiltonian:
        H0-scaling (s, p, d)           1.850000    2.230000    2.230000
        zeta-weighting                 0.500000
      * Dispersion:
        s8                             2.700000
        a1                             0.520000
        a2                             5.000000
        s9                             5.000000
      * Repulsion:
        kExp                           1.500000    1.000000
        rExp                           1.000000
      * Coulomb:
        alpha                          2.000000
        third order                    shell-resolved
        anisotropic                    true
        a3                             3.000000
        a5                             4.000000
        cn-shift                       1.200000
        cn-exp                         4.000000
        max-rad                        5.000000

      * Solvation model:               ALPB
        Solvent                        ACETONE
        Parameter file                 internal GFN2-xTB/ALPB
        Dielectric constant                2.0700E+01
        Reference state                gsolv [1 M gas/solution]
        Free energy shift                  5.9241E-03 Eh       3.7175E+00 kcal/mol
        Temperature                        2.9815E+02 K
        Density                            7.9000E-01 kg/L
        Solvent mass                       5.8080E+01 g/mol
        Interaction kernel             P16
        Born radius scaling (c1)           1.8274E+00
        Born radii integrator          GBOBC
        Born offset                        0.0000E+00 a0       0.0000E+00 AA
        H-bond correction              true
        Ion screening                  false
        Surface tension                    1.0000E-05 Eh       1.5569E+01 dyn/cm
        Grid points                               230 per atom
q/qsh data taken from xtbrestart
CAMM data taken from xtbrestart

          ...................................................
          :                      SETUP                      :
          :.................................................:
          :  # basis functions                 114          :
          :  # atomic orbitals                 113          :
          :  # shells                           69          :
          :  # electrons                       120          :
          :  max. iterations                   250          :
          :  Hamiltonian                  GFN2-xTB          :
          :  restarted?                       true          :
          :  GBSA solvation                   true          :
          :  PC potential                    false          :
          :  electronic temp.          300.0000000     K    :
          :  accuracy                    0.2000000          :
          :  -> integral cutoff          0.3198970E+02      :
          :  -> integral neglect         0.2000000E-08      :
          :  -> SCF convergence          0.2000000E-06 Eh   :
          :  -> wf. convergence          0.2000000E-04 e    :
          :  Broyden damping             0.4000000          :
          :  net charge                          0          :
          :  unpaired electrons                  0          :
          ...................................................

 iter      E             dE          RMSdq      gap      omega  full diag
   1    -68.9917009 -0.689917E+02  0.676E-02    6.36       0.0  T
   2    -68.9917019 -0.998005E-06  0.434E-02    6.36       1.0  T
   3    -68.9917021 -0.224273E-06  0.907E-03    6.36       1.6  T
   4    -68.9917022 -0.117906E-06  0.652E-03    6.36       2.2  T
   5    -68.9917021  0.937915E-07  0.210E-03    6.36       6.9  T
   6    -68.9917023 -0.174148E-06  0.859E-04    6.36      16.8  T
   7    -68.9917023 -0.891859E-08  0.317E-04    6.36      45.5  T
   8    -68.9917023 -0.423924E-09  0.153E-04    6.36      94.3  T
   9    -68.9917023 -0.438973E-10  0.640E-05    6.36     225.7  T

   *** convergence criteria satisfied after 9 iterations ***

         #    Occupation            Energy/Eh            Energy/eV
      -------------------------------------------------------------
         1        2.0000           -0.7769312             -21.1414
       ...           ...                  ...                  ...
        54        2.0000           -0.4218969             -11.4804
        55        2.0000           -0.4208212             -11.4511
        56        2.0000           -0.4160859             -11.3223
        57        2.0000           -0.4022899             -10.9469
        58        2.0000           -0.3960982             -10.7784
        59        2.0000           -0.3945921             -10.7374
        60        2.0000           -0.3709474             -10.0940 (HOMO)
        61                         -0.1372586              -3.7350 (LUMO)
        62                         -0.1244198              -3.3856
        63                         -0.1104911              -3.0066
        64                         -0.0172924              -0.4706
        65                         -0.0097587              -0.2655
       ...                                ...                  ...
       113                          0.7791441              21.2016
      -------------------------------------------------------------
                  HL-Gap            0.2336887 Eh            6.3590 eV
             Fermi-level           -0.2541030 Eh           -6.9145 eV

 SCC (total)                   0 d,  0 h,  0 min,  0.037 sec
 SCC setup                      ...        0 min,  0.001 sec (  1.442%)
 Dispersion                     ...        0 min,  0.000 sec (  0.754%)
 classical contributions        ...        0 min,  0.000 sec (  0.099%)
 integral evaluation            ...        0 min,  0.017 sec ( 46.685%)
 iterations                     ...        0 min,  0.012 sec ( 32.251%)
 molecular gradient             ...        0 min,  0.007 sec ( 18.373%)
 printout                       ...        0 min,  0.000 sec (  0.366%)

         :::::::::::::::::::::::::::::::::::::::::::::::::::::
         ::                     SUMMARY                     ::
         :::::::::::::::::::::::::::::::::::::::::::::::::::::
         :: total energy             -68.319658717161 Eh    ::
         :: total w/o Gsasa/hb       -68.293925523235 Eh    ::
         :: gradient norm              0.002575367597 Eh/a0 ::
         :: HOMO-LUMO gap              6.358994434239 eV    ::
         ::.................................................::
         :: SCC energy               -68.990346738750 Eh    ::
         :: -> isotropic ES            0.160048189534 Eh    ::
         :: -> anisotropic ES          0.002686079786 Eh    ::
         :: -> anisotropic XC          0.004835692216 Eh    ::
         :: -> dispersion             -0.048986078735 Eh    ::
         :: -> Gsolv                  -0.029282658271 Eh    ::
         ::    -> Gelec               -0.003549464345 Eh    ::
         ::    -> Gsasa               -0.026344752165 Eh    ::
         ::    -> Ghb                 -0.005312583024 Eh    ::
         ::    -> Gshift               0.005924141264 Eh    ::
         :: repulsion energy           0.670688021589 Eh    ::
         :: add. restraining           0.000000000000 Eh    ::
         :: total charge              -0.000000000000 e     ::
         :::::::::::::::::::::::::::::::::::::::::::::::::::::


Property printout bound to 'properties.out'

           -------------------------------------------------
          | TOTAL ENERGY              -68.319658717161 Eh   |
          | GRADIENT NORM               0.002575367597 Eh/α |
          | HOMO-LUMO GAP               6.358994434239 eV   |
           -------------------------------------------------

------------------------------------------------------------------------
 * finished run on 2025/09/10 at 11:36:45.924     
------------------------------------------------------------------------
 total:
 * wall-time:     0 d,  0 h,  0 min,  0.059 sec
 *  cpu-time:     0 d,  0 h,  0 min,  0.200 sec
 * ratio c/w:     3.416 speedup
 SCF:
 * wall-time:     0 d,  0 h,  0 min,  0.037 sec
 *  cpu-time:     0 d,  0 h,  0 min,  0.136 sec
 * ratio c/w:     3.640 speedup


-------------------------   --------------------
FINAL SINGLE POINT ENERGY       -68.319658717160
-------------------------   --------------------


-------------
DIPOLE MOMENT
-------------
                                X             Y             Z
Total Dipole Moment    :     -0.10200       0.94700      -1.75800
                        -----------------------------------------
Magnitude (a.u.)       :      1.99944
Magnitude (Debye)      :      5.08218


------------------
CARTESIAN GRADIENT
------------------

   1   O   :   -0.000053233    0.000066599   -0.000534915
   2   C   :   -0.000140058   -0.000236092   -0.000027396
   3   H   :    0.000294656   -0.000079189   -0.000071082
   4   C   :   -0.000244012   -0.000217159    0.000320468
   5   H   :   -0.000168178    0.000183272   -0.000182847
   6   O   :    0.000092607    0.000276586   -0.000034416
   7   C   :   -0.000129915   -0.000259556   -0.000063671
   8   H   :    0.000016813    0.000045831    0.000127315
   9   C   :    0.000250454    0.000201718   -0.000417760
  10   O   :   -0.000318614    0.000051077    0.000555960
  11   Si  :    0.000350556    0.000239052   -0.000280463
  12   C   :   -0.000349717   -0.000768635    0.000182271
  13   C   :    0.000008223   -0.000153171    0.000180549
  14   C   :   -0.000155737   -0.000067529    0.000144391
  15   C   :   -0.000007442   -0.000221987   -0.000013449
  16   C   :    0.000294604    0.000231635   -0.000411485
  17   C   :    0.000217824    0.000403416    0.000045367
  18   O   :    0.000092153   -0.000485557   -0.000523747
  19   C   :    0.000059710    0.000846659    0.000085337
  20   H   :   -0.000195063   -0.000187128    0.000218500
  21   O   :   -0.000211434   -0.000342111    0.000192541
  22   C   :   -0.000009906    0.000036386   -0.000105089
  23   C   :    0.000871816    0.000245568    0.000345314
  24   H   :   -0.000072312   -0.000029857   -0.000132012
  25   O   :   -0.000442704   -0.000042100   -0.000095881
  26   H   :   -0.000130900   -0.000172772    0.000324014
  27   H   :   -0.000031454   -0.000060271   -0.000005372
  28   H   :   -0.000002859   -0.000029472    0.000087632
  29   H   :    0.000033590    0.000016621    0.000102674
  30   H   :   -0.000000690    0.000045082    0.000004483
  31   H   :    0.000053492    0.000025595   -0.000027519
  32   H   :    0.000012192    0.000172779   -0.000124700
  33   H   :    0.000004788    0.000054826    0.000010559
  34   H   :    0.000122240    0.000103787   -0.000050300
  35   H   :    0.000028672    0.000028240   -0.000042086
  36   H   :    0.000060544    0.000077956   -0.000038837
  37   H   :    0.000049829    0.000081158   -0.000035783
  38   H   :    0.000032211    0.000175954    0.000030295
  39   H   :    0.000076823    0.000055919   -0.000020015
  40   H   :   -0.000052449   -0.000246670   -0.000068923
  41   H   :   -0.000138238    0.000134828    0.000142428
  42   H   :   -0.000068198   -0.000079220    0.000021892
  43   H   :    0.000045456    0.000043668    0.000099729
  44   H   :   -0.000062376   -0.000036466    0.000169920
  45   H   :   -0.000066440   -0.000054712   -0.000062482
  46   H   :    0.000059679   -0.000005917   -0.000057494
  47   H   :   -0.000017962   -0.000083344   -0.000014833
  48   H   :   -0.000059042    0.000014702    0.000050918

Difference to translation invariance:
           :    0.0000000000   -0.0000000000    0.0000000000

Difference to rotation invariance:
           :   -0.0001294623   -0.0001830475   -0.0002146794

Norm of the Cartesian gradient     ...    0.0025753676
RMS gradient                       ...    0.0002146140
MAX gradient                       ...    0.0008718165
------------------------------------------------------------------------------
                         ORCA GEOMETRY RELAXATION STEP
------------------------------------------------------------------------------

Reading the OPT-File                    .... done
Getting information on internals        .... done
Copying old internal coords+grads       .... done
Making the new internal coordinates     .... (2022 redundants) done
Validating the new internal coordinates .... (2022 redundants) done
Calculating the B-matrix                .... done
Calculating the G,G- and P matrices     .... done
Transforming gradient to internals      .... done
Projecting the internal gradient        .... done
Number of atoms                         ....  48
Number of internal coordinates          .... 234
Current Energy                          ....   -68.319658717 Eh
Current gradient norm                   ....     0.002575368 Eh/bohr
Maximum allowed component of the step   ....  0.300
Current trust radius                    ....  0.700
Updating the Hessian (BFGS)             .... done
Forming the augmented Hessian           .... done
Diagonalizing the augmented Hessian     .... done
Last element of RFO vector              ....  0.998787350
Lowest eigenvalues of augmented Hessian:
 -0.000050821  0.005812035  0.009983620  0.010014484  0.010107692
Length of the computed step             ....  0.049292168
The final length of the internal step   ....  0.049292168
Converting the step to Cartesian space:
 Initial RMS(Int)=    0.0032223298
Transforming coordinates:
 Iter   0:  RMS(Cart)=    0.0212750997 RMS(Int)=    0.0032226104
done
Storing new coordinates                 .... done
The predicted energy change is          ....    -0.000025472
Previously predicted energy change      ....    -0.000100417
Actually observed energy change         ....    -0.000095141
Ratio of predicted to observed change   ....     0.947460271
New trust radius                        ....     0.700000000

                                .--------------------.
          ----------------------|Geometry convergence|-------------------------
          Item                value                   Tolerance       Converged
          ---------------------------------------------------------------------
          Energy change      -0.0000951406            0.0000050000      NO
          RMS gradient        0.0001836012            0.0001000000      NO
          MAX gradient        0.0006859665            0.0003000000      NO
          RMS step            0.0032223298            0.0020000000      NO
          MAX step            0.0113757662            0.0040000000      NO
          -------------------------------------------------------------------------
          ........................................................
          Max(Bonds)      0.0052      Max(Angles)    0.21
          Max(Dihed)        0.65      Max(Improp)    0.00
          ---------------------------------------------------------------------

    ---------------------------------------------------------------------------
                         Redundant Internal Coordinates
                            (Angstroem and degrees)

        Definition                    Value    dE/dq     Step     New-Value
    ----------------------------------------------------------------------------
     1. B(C   1,O   0)                1.3930  0.000142 -0.0001    1.3929   
     2. B(H   2,C   1)                1.0988  0.000036 -0.0001    1.0987   
     3. B(C   3,C   1)                1.5427 -0.000282  0.0000    1.5427   
     4. B(H   4,C   3)                1.0958 -0.000067 -0.0001    1.0957   
     5. B(O   5,C   3)                1.4077 -0.000061  0.0000    1.4078   
     6. B(C   6,C   3)                1.5470  0.000035 -0.0001    1.5469   
     7. B(H   7,C   6)                1.0986 -0.000062  0.0001    1.0987   
     8. B(C   8,C   6)                1.5397 -0.000481  0.0004    1.5401   
     9. B(O   9,C   8)                1.3941  0.000061 -0.0004    1.3938   
    10. B(Si 10,O   9)                1.6465 -0.000497 -0.0001    1.6464   
    11. B(C  11,Si 10)                1.9382  0.000511 -0.0012    1.9370   
    12. B(C  12,C  11)                1.5327  0.000032 -0.0005    1.5322   
    13. B(C  13,C  11)                1.5315  0.000015 -0.0004    1.5311   
    14. B(C  14,C  11)                1.5335 -0.000018 -0.0003    1.5332   
    15. B(C  15,Si 10)                1.8972 -0.000113  0.0000    1.8972   
    16. B(C  16,Si 10)                1.9112 -0.000304 -0.0001    1.9110   
    17. B(O  17,C   6)                1.4236 -0.000154 -0.0001    1.4235   
    18. B(C  18,O  17)                1.4031  0.000514 -0.0004    1.4027   
    19. B(H  19,C  18)                1.1077 -0.000336  0.0004    1.1081   
    20. B(O  20,C  18)                1.3946  0.000118 -0.0001    1.3945   
    21. B(C  21,O  20)                1.4150  0.000208 -0.0002    1.4148   
    22. B(C  22,C  18)                1.5391  0.000175 -0.0003    1.5388   
    23. B(C  22,C   1)                1.5426  0.000065 -0.0004    1.5422   
    24. B(H  23,C  22)                1.0992 -0.000047  0.0001    1.0993   
    25. B(O  24,C  22)                1.4075 -0.000480  0.0003    1.4078   
    26. B(H  25,O   0)                0.9746 -0.000486  0.0003    0.9748   
    27. B(H  25,O  20)                2.3874  0.000003 -0.0027    2.3847   
    28. B(H  25,O   9)                1.8633 -0.000298  0.0052    1.8685   
    29. B(H  26,O   5)                0.9698 -0.000004 -0.0002    0.9696   
    30. B(H  26,O  24)                2.0812  0.000085  0.0011    2.0823   
    31. B(H  27,C   8)                1.0955 -0.000091  0.0001    1.0956   
    32. B(H  28,C   8)                1.0963 -0.000007  0.0000    1.0963   
    33. B(H  29,C  12)                1.0873  0.000034 -0.0002    1.0872   
    34. B(H  30,C  12)                1.0879  0.000051 -0.0001    1.0878   
    35. B(H  31,C  12)                1.0900 -0.000189  0.0002    1.0902   
    36. B(H  32,C  13)                1.0866  0.000044 -0.0001    1.0864   
    37. B(H  33,C  13)                1.0893 -0.000154  0.0002    1.0895   
    38. B(H  34,C  13)                1.0873  0.000033 -0.0001    1.0872   
    39. B(H  35,C  14)                1.0883  0.000053 -0.0001    1.0882   
    40. B(H  36,C  14)                1.0872  0.000030 -0.0001    1.0871   
    41. B(H  37,C  14)                1.0898 -0.000154  0.0002    1.0900   
    42. B(H  38,C  15)                1.0851 -0.000023 -0.0001    1.0850   
    43. B(H  39,C  15)                1.0843  0.000021 -0.0001    1.0841   
    44. B(H  40,C  15)                1.0845  0.000011 -0.0001    1.0844   
    45. B(H  41,C  16)                1.0868  0.000015 -0.0001    1.0866   
    46. B(H  42,C  16)                1.0860  0.000028 -0.0001    1.0859   
    47. B(H  43,C  16)                1.0852  0.000017 -0.0002    1.0850   
    48. B(H  44,C  21)                1.0868  0.000057 -0.0001    1.0867   
    49. B(H  45,C  21)                1.0928  0.000050 -0.0001    1.0927   
    50. B(H  46,C  21)                1.0961 -0.000072  0.0001    1.0962   
    51. B(H  47,O  24)                0.9655 -0.000035 -0.0001    0.9655   
    52. A(C   1,O   0,H  25)          108.36  0.000512   -0.07    108.29   
    53. A(H   2,C   1,C   3)          106.87 -0.000039    0.06    106.93   
    54. A(O   0,C   1,H   2)          106.29  0.000047    0.00    106.30   
    55. A(C   3,C   1,C  22)          109.92  0.000185   -0.01    109.92   
    56. A(O   0,C   1,C  22)          112.24 -0.000110   -0.03    112.21   
    57. A(O   0,C   1,C   3)          114.01 -0.000043   -0.07    113.93   
    58. A(H   2,C   1,C  22)          107.07 -0.000045    0.05    107.12   
    59. A(H   4,C   3,O   5)          105.89  0.000226   -0.08    105.81   
    60. A(C   1,C   3,C   6)          114.04  0.000137   -0.04    114.00   
    61. A(C   1,C   3,H   4)          108.08 -0.000106   -0.01    108.07   
    62. A(C   1,C   3,O   5)          110.35 -0.000113    0.06    110.42   
    63. A(O   5,C   3,C   6)          110.20 -0.000293    0.04    110.23   
    64. A(H   4,C   3,C   6)          107.91  0.000169    0.02    107.93   
    65. A(C   3,O   5,H  26)          107.79 -0.000080    0.03    107.82   
    66. A(H   7,C   6,C   8)          105.80  0.000196   -0.08    105.72   
    67. A(C   3,C   6,C   8)          113.44  0.000249   -0.01    113.43   
    68. A(C   3,C   6,H   7)          106.16 -0.000134   -0.00    106.16   
    69. A(C   3,C   6,O  17)          114.61  0.000250    0.04    114.65   
    70. A(C   8,C   6,O  17)          112.87 -0.000686    0.06    112.93   
    71. A(H   7,C   6,O  17)          102.68  0.000156   -0.03    102.65   
    72. A(H  27,C   8,H  28)          108.32  0.000060   -0.03    108.29   
    73. A(C   6,C   8,O   9)          113.06 -0.000638    0.08    113.14   
    74. A(C   6,C   8,H  27)          108.16  0.000058    0.03    108.19   
    75. A(O   9,C   8,H  28)          109.82  0.000118    0.01    109.83   
    76. A(O   9,C   8,H  27)          109.98  0.000185   -0.05    109.92   
    77. A(C   6,C   8,H  28)          107.36  0.000241   -0.03    107.32   
    78. A(C   8,O   9,Si 10)          129.08 -0.000018    0.20    129.27   
    79. A(C  15,Si 10,C  16)          111.50 -0.000553    0.21    111.71   
    80. A(C  11,Si 10,C  16)          110.15  0.000348   -0.10    110.05   
    81. A(O   9,Si 10,C  16)          111.15  0.000030   -0.03    111.12   
    82. A(C  11,Si 10,C  15)          111.98  0.000204    0.03    112.01   
    83. A(O   9,Si 10,C  15)          100.77  0.000186   -0.19    100.58   
    84. A(O   9,Si 10,C  11)          111.00 -0.000247    0.08    111.08   
    85. A(C  12,C  11,C  14)          108.53  0.000024    0.03    108.55   
    86. A(C  13,C  11,C  14)          108.21  0.000127    0.00    108.21   
    87. A(Si 10,C  11,C  13)          110.20  0.000001   -0.03    110.17   
    88. A(Si 10,C  11,C  14)          111.73 -0.000124   -0.01    111.72   
    89. A(Si 10,C  11,C  12)          109.64 -0.000002    0.00    109.64   
    90. A(C  12,C  11,C  13)          108.45 -0.000022    0.02    108.47   
    91. A(H  29,C  12,H  31)          108.31  0.000037   -0.00    108.31   
    92. A(C  11,C  12,H  31)          110.47 -0.000120    0.01    110.49   
    93. A(H  29,C  12,H  30)          107.96  0.000014    0.00    107.96   
    94. A(C  11,C  12,H  30)          110.91 -0.000009   -0.00    110.91   
    95. A(C  11,C  12,H  29)          110.91 -0.000016    0.00    110.92   
    96. A(H  30,C  12,H  31)          108.17  0.000101   -0.02    108.15   
    97. A(H  32,C  13,H  33)          108.29  0.000052   -0.00    108.29   
    98. A(C  11,C  13,H  33)          110.39 -0.000075    0.02    110.40   
    99. A(C  11,C  13,H  32)          110.67  0.000003   -0.01    110.66   
   100. A(C  11,C  13,H  34)          110.83 -0.000049    0.01    110.83   
   101. A(H  33,C  13,H  34)          108.24  0.000061    0.00    108.24   
   102. A(H  32,C  13,H  34)          108.33  0.000014   -0.01    108.32   
   103. A(H  36,C  14,H  37)          108.15  0.000100   -0.02    108.12   
   104. A(H  35,C  14,H  37)          108.01  0.000087    0.00    108.01   
   105. A(C  11,C  14,H  37)          110.21 -0.000097    0.01    110.22   
   106. A(H  35,C  14,H  36)          108.38 -0.000004    0.00    108.38   
   107. A(C  11,C  14,H  36)          110.84 -0.000033   -0.00    110.83   
   108. A(C  11,C  14,H  35)          111.16 -0.000044    0.01    111.17   
   109. A(H  39,C  15,H  40)          108.09 -0.000080    0.01    108.10   
   110. A(H  38,C  15,H  40)          107.05 -0.000061    0.02    107.07   
   111. A(H  38,C  15,H  39)          107.90  0.000118   -0.02    107.88   
   112. A(Si 10,C  15,H  39)          110.86 -0.000455    0.14    111.00   
   113. A(Si 10,C  15,H  38)          111.53  0.000062   -0.01    111.51   
   114. A(Si 10,C  15,H  40)          111.24  0.000418   -0.14    111.10   
   115. A(H  42,C  16,H  43)          107.42  0.000134    0.01    107.42   
   116. A(H  41,C  16,H  43)          107.44  0.000109    0.00    107.44   
   117. A(Si 10,C  16,H  43)          111.59 -0.000250    0.09    111.68   
   118. A(H  41,C  16,H  42)          107.56  0.000097   -0.02    107.54   
   119. A(Si 10,C  16,H  41)          111.92  0.000044   -0.04    111.88   
   120. A(Si 10,C  16,H  42)          110.70 -0.000113   -0.04    110.66   
   121. A(C   6,O  17,C  18)          118.57 -0.000351    0.13    118.71   
   122. A(O  17,C  18,H  19)          102.58  0.000004   -0.03    102.56   
   123. A(O  20,C  18,C  22)          108.21  0.000309   -0.02    108.19   
   124. A(H  19,C  18,C  22)          109.14 -0.000144   -0.02    109.13   
   125. A(O  17,C  18,C  22)          112.61  0.000041    0.05    112.65   
   126. A(H  19,C  18,O  20)          109.75  0.000225   -0.05    109.70   
   127. A(O  17,C  18,O  20)          114.35 -0.000443    0.06    114.41   
   128. A(C  18,O  20,C  21)          113.78 -0.000201    0.01    113.79   
   129. A(H  44,C  21,H  46)          110.14  0.000027   -0.02    110.12   
   130. A(H  45,C  21,H  46)          109.10 -0.000076    0.05    109.14   
   131. A(O  20,C  21,H  46)          110.43  0.000020   -0.01    110.43   
   132. A(H  44,C  21,H  45)          110.03 -0.000044   -0.00    110.03   
   133. A(O  20,C  21,H  45)          111.04 -0.000004   -0.02    111.02   
   134. A(O  20,C  21,H  44)          106.07  0.000081    0.00    106.07   
   135. A(H  23,C  22,O  24)          111.70  0.000145   -0.03    111.67   
   136. A(C  18,C  22,O  24)          111.09  0.000120   -0.03    111.07   
   137. A(C   1,C  22,O  24)          107.61 -0.000138    0.02    107.62   
   138. A(C  18,C  22,H  23)          107.65  0.000129   -0.01    107.64   
   139. A(C   1,C  22,H  23)          107.94 -0.000124    0.01    107.94   
   140. A(C   1,C  22,C  18)          110.84 -0.000141    0.04    110.88   
   141. A(C  22,O  24,H  47)          110.03 -0.000069   -0.03    110.00   
   142. D(H   2,C   1,O   0,H  25)   -168.81  0.000052   -0.29   -169.10   
   143. D(C  22,C   1,O   0,H  25)     74.46  0.000137   -0.34     74.11   
   144. D(C   3,C   1,O   0,H  25)    -51.35  0.000011   -0.25    -51.61   
   145. D(H   4,C   3,C   1,C  22)   -165.69  0.000238   -0.09   -165.78   
   146. D(O   5,C   3,C   1,C  22)     78.95  0.000088   -0.03     78.92   
   147. D(O   5,C   3,C   1,H   2)    -36.90  0.000068   -0.13    -37.03   
   148. D(H   4,C   3,C   1,H   2)     78.45  0.000217   -0.19     78.27   
   149. D(O   5,C   3,C   1,O   0)   -154.03  0.000060   -0.13   -154.16   
   150. D(H   4,C   3,C   1,O   0)    -38.67  0.000209   -0.19    -38.86   
   151. D(H  26,O   5,C   3,H   4)   -166.89  0.000083   -0.06   -166.95   
   152. D(H  26,O   5,C   3,C   6)     76.66 -0.000095   -0.06     76.60   
   153. D(H  26,O   5,C   3,C   1)    -50.17  0.000027   -0.08    -50.25   
   154. D(H   7,C   6,C   3,O   5)     28.02  0.000172   -0.18     27.84   
   155. D(H   7,C   6,C   3,H   4)    -87.16 -0.000037   -0.12    -87.28   
   156. D(H   7,C   6,C   3,C   1)    152.76 -0.000108   -0.10    152.66   
   157. D(C   8,C   6,C   3,H   4)     28.60  0.000250   -0.23     28.38   
   158. D(C   8,C   6,C   3,C   1)    -91.48  0.000178   -0.21    -91.68   
   159. D(C   8,C   6,C   3,O   5)    143.78  0.000458   -0.29    143.49   
   160. D(H  27,C   8,C   6,O  17)     42.11 -0.000028    0.42     42.53   
   161. D(H  27,C   8,C   6,H   7)    -69.42 -0.000001    0.48    -68.94   
   162. D(H  27,C   8,C   6,C   3)    174.60 -0.000091    0.54    175.14   
   163. D(O   9,C   8,C   6,O  17)    -79.93  0.000113    0.42    -79.51   
   164. D(O   9,C   8,C   6,C   3)     52.57  0.000049    0.54     53.11   
   165. D(O   9,C   8,C   6,H   7)    168.54  0.000140    0.48    169.02   
   166. D(Si 10,O   9,C   8,H  27)     55.69 -0.000088    0.58     56.27   
   167. D(Si 10,O   9,C   8,C   6)    176.70 -0.000315    0.64    177.34   
   168. D(Si 10,O   9,C   8,H  28)    -63.43 -0.000348    0.65    -62.78   
   169. D(C  16,Si 10,O   9,C   8)    -50.72 -0.000333    0.02    -50.70   
   170. D(C  15,Si 10,O   9,C   8)   -168.99  0.000191   -0.11   -169.10   
   171. D(C  11,Si 10,O   9,C   8)     72.26 -0.000040   -0.08     72.18   
   172. D(C  12,C  11,Si 10,O   9)     39.32  0.000035    0.14     39.46   
   173. D(C  13,C  11,Si 10,C  16)    -77.83  0.000119    0.08    -77.75   
   174. D(C  13,C  11,Si 10,C  15)     46.85 -0.000192    0.31     47.17   
   175. D(C  13,C  11,Si 10,O   9)    158.62  0.000007    0.14    158.76   
   176. D(C  12,C  11,Si 10,C  16)    162.87  0.000147    0.08    162.95   
   177. D(C  12,C  11,Si 10,C  15)    -72.45 -0.000164    0.31    -72.14   
   178. D(H  30,C  12,C  11,C  14)     60.51 -0.000103   -0.01     60.49   
   179. D(H  30,C  12,C  11,C  13)    177.84  0.000049    0.01    177.86   
   180. D(H  30,C  12,C  11,Si 10)    -61.78  0.000035   -0.01    -61.80   
   181. D(H  29,C  12,C  11,C  14)   -179.54 -0.000102   -0.01   -179.55   
   182. D(H  29,C  12,C  11,C  13)    -62.20  0.000050    0.02    -62.18   
   183. D(H  29,C  12,C  11,Si 10)     58.17  0.000037   -0.00     58.16   
   184. D(H  33,C  13,C  11,C  14)     56.99  0.000043    0.11     57.10   
   185. D(H  33,C  13,C  11,C  12)    -60.55 -0.000043    0.07    -60.48   
   186. D(H  33,C  13,C  11,Si 10)    179.43 -0.000027    0.08    179.51   
   187. D(H  32,C  13,C  11,C  12)     59.33 -0.000025    0.07     59.40   
   188. D(H  32,C  13,C  11,Si 10)    -60.69 -0.000010    0.08    -60.61   
   189. D(H  32,C  13,C  11,C  14)    176.87  0.000061    0.11    176.98   
   190. D(H  36,C  14,C  11,C  13)     58.84  0.000013   -0.08     58.76   
   191. D(H  36,C  14,C  11,C  12)    176.33  0.000070   -0.05    176.28   
   192. D(H  36,C  14,C  11,Si 10)    -62.66  0.000005   -0.04    -62.70   
   193. D(H  35,C  14,C  11,C  13)    179.44 -0.000045   -0.07    179.37   
   194. D(H  35,C  14,C  11,C  12)    -63.07  0.000012   -0.04    -63.11   
   195. D(H  35,C  14,C  11,Si 10)     57.94 -0.000053   -0.03     57.91   
   196. D(H  39,C  15,Si 10,C  16)     55.42  0.000226   -0.56     54.86   
   197. D(H  39,C  15,Si 10,C  11)    -68.51  0.000033   -0.59    -69.11   
   198. D(H  39,C  15,Si 10,O   9)    173.44  0.000128   -0.59    172.85   
   199. D(H  38,C  15,Si 10,C  16)    175.68  0.000109   -0.50    175.18   
   200. D(H  38,C  15,Si 10,C  11)     51.74 -0.000084   -0.53     51.21   
   201. D(H  38,C  15,Si 10,O   9)    -66.30  0.000010   -0.52    -66.83   
   202. D(H  41,C  16,Si 10,C  15)    173.90  0.000002   -0.32    173.59   
   203. D(H  41,C  16,Si 10,C  11)    -61.14  0.000123   -0.20    -61.34   
   204. D(H  41,C  16,Si 10,O   9)     62.32  0.000075   -0.20     62.12   
   205. D(H  42,C  16,Si 10,C  15)     53.93 -0.000074   -0.25     53.68   
   206. D(H  42,C  16,Si 10,C  11)    178.89  0.000047   -0.13    178.75   
   207. D(H  42,C  16,Si 10,O   9)    -57.66 -0.000001   -0.13    -57.79   
   208. D(C  18,O  17,C   6,C   8)     88.48  0.000021    0.38     88.85   
   209. D(C  18,O  17,C   6,H   7)   -158.08  0.000043    0.29   -157.79   
   210. D(C  18,O  17,C   6,C   3)    -43.44  0.000093    0.28    -43.16   
   211. D(C  22,C  18,O  17,C   6)     51.32  0.000255   -0.35     50.96   
   212. D(O  20,C  18,O  17,C   6)    -72.74  0.000158   -0.42    -73.16   
   213. D(H  19,C  18,O  17,C   6)    168.50  0.000107   -0.37    168.14   
   214. D(C  21,O  20,C  18,C  22)    167.15  0.000163    0.02    167.18   
   215. D(C  21,O  20,C  18,H  19)     48.15  0.000024    0.09     48.23   
   216. D(C  21,O  20,C  18,O  17)    -66.47  0.000137    0.12    -66.35   
   217. D(H  46,C  21,O  20,C  18)    -62.79 -0.000005    0.23    -62.56   
   218. D(H  45,C  21,O  20,C  18)     58.37 -0.000090    0.27     58.64   
   219. D(H  44,C  21,O  20,C  18)    177.89 -0.000096    0.25    178.14   
   220. D(H  23,C  22,C  18,O  20)    -45.85 -0.000374    0.25    -45.60   
   221. D(H  23,C  22,C  18,H  19)     73.54 -0.000005    0.17     73.71   
   222. D(H  23,C  22,C  18,O  17)   -173.23 -0.000064    0.15   -173.08   
   223. D(C   1,C  22,C  18,O  20)     71.99 -0.000526    0.28     72.26   
   224. D(C   1,C  22,C  18,H  19)   -168.62 -0.000157    0.19   -168.43   
   225. D(C   1,C  22,C  18,O  17)    -55.40 -0.000216    0.18    -55.22   
   226. D(H  23,C  22,C   1,C   3)    170.28 -0.000191    0.09    170.37   
   227. D(H  23,C  22,C   1,H   2)    -73.99 -0.000167    0.19    -73.80   
   228. D(H  23,C  22,C   1,O   0)     42.28 -0.000197    0.21     42.49   
   229. D(C  18,C  22,C   1,C   3)     52.62 -0.000193    0.07     52.69   
   230. D(C  18,C  22,C   1,H   2)    168.35 -0.000168    0.17    168.52   
   231. D(C  18,C  22,C   1,O   0)    -75.38 -0.000199    0.19    -75.19   
   232. D(H  47,O  24,C  22,H  23)    -56.97 -0.000132   -0.27    -57.24   
   233. D(H  47,O  24,C  22,C  18)     63.25  0.000213   -0.31     62.93   
   234. D(H  47,O  24,C  22,C   1)   -175.26  0.000022   -0.27   -175.53   
    ----------------------------------------------------------------------------

Geometry step timings:
Preparation and reading OPT file:      0.001 s ( 5.246 %)
Internal coordinates            :      0.000 s ( 0.203 %)
B/P matrices and projection     :      0.005 s (22.208 %)
Hessian update/contruction      :      0.009 s (44.171 %)
Making the step                 :      0.003 s (14.132 %)
Converting the step to Cartesian:      0.000 s ( 1.982 %)
Storing new data                :      0.001 s ( 4.026 %)
Checking convergence            :      0.000 s ( 0.164 %)
Final printing                  :      0.002 s ( 7.854 %)
Total time                      :      0.021 s

Time for energy+gradient        :      0.086 s
Time for complete geometry iter :      0.119 s

         *************************************************************
         *                GEOMETRY OPTIMIZATION CYCLE   8            *
         *************************************************************
---------------------------------
CARTESIAN COORDINATES (ANGSTROEM)
---------------------------------
  O    -1.356304    2.141169    0.121414
  C     0.015767    1.914086    0.044689
  H     0.371100    1.820261    1.080053
  C     0.394047    0.606012   -0.680447
  H    -0.329852   -0.164140   -0.391813
  O     1.646146    0.141869   -0.234771
  C     0.382528    0.715962   -2.223410
  H     1.101351   -0.030484   -2.588535
  C    -0.970073    0.336097   -2.854380
  O    -2.044999    1.034383   -2.307114
  Si   -3.638201    0.985120   -2.719287
  C    -4.451516   -0.681015   -2.158519
  C    -3.912649   -1.078923   -0.780479
  C    -5.970667   -0.519193   -2.057054
  C    -4.155483   -1.817054   -3.144641
  C    -4.299014    2.465732   -1.734143
  C    -3.870825    1.227083   -4.600615
  O     0.911034    1.934327   -2.735760
  C     0.554567    3.138585   -2.111134
  H     1.263634    3.862073   -2.560297
  O    -0.755060    3.549692   -2.356843
  C    -0.999471    3.900887   -3.705423
  C     0.768809    3.102098   -0.587798
  H     0.350766    4.029053   -0.170183
  O     2.133188    2.958674   -0.271930
  H    -1.730975    2.056124   -0.774520
  H     2.271624    0.881014   -0.285088
  H    -0.910603    0.526796   -3.931581
  H    -1.110099   -0.740648   -2.702810
  H    -4.109883   -0.300953   -0.047130
  H    -2.837658   -1.241497   -0.816194
  H    -4.384289   -2.000175   -0.437818
  H    -6.227000    0.242598   -1.326101
  H    -6.432874   -1.456839   -1.750198
  H    -6.393452   -0.229030   -3.015684
  H    -3.083975   -1.966332   -3.261906
  H    -4.580569   -1.601491   -4.121682
  H    -4.588397   -2.750539   -2.785004
  H    -4.242308    2.289580   -0.665065
  H    -5.334522    2.667482   -1.983771
  H    -3.722305    3.360588   -1.940398
  H    -3.394713    0.435330   -5.172657
  H    -3.437366    2.169341   -4.922241
  H    -4.920177    1.241380   -4.876126
  H    -2.051928    4.165663   -3.761367
  H    -0.788575    3.062131   -4.373252
  H    -0.379357    4.756735   -3.996326
  H     2.628404    3.722970   -0.592510

----------------------------
CARTESIAN COORDINATES (A.U.)
----------------------------
  NO LB    ZA    FRAG    MASS        X           Y           Z
   0 O   8.0000    1    15.999   -2.563042    4.046222    0.229439
   1 C   6.0000    1    12.011    0.029796    3.617099    0.084449
   2 H   1.0000    1     1.008    0.701278    3.439795    2.041004
   3 C   6.0000    1    12.011    0.744641    1.145197   -1.285859
   4 H   1.0000    1     1.008   -0.623330   -0.310179   -0.740419
   5 O   8.0000    1    15.999    3.110765    0.268093   -0.443653
   6 C   6.0000    1    12.011    0.722874    1.352971   -4.201636
   7 H   1.0000    1     1.008    2.081251   -0.057607   -4.891622
   8 C   6.0000    1    12.011   -1.833171    0.635131   -5.393996
   9 O   8.0000    1    15.999   -3.864489    1.954701   -4.359814
  10 Si 14.0000    1    28.086   -6.875203    1.861607   -5.138708
  11 C   6.0000    1    12.011   -8.412146   -1.286932   -4.079010
  12 C   6.0000    1    12.011   -7.393834   -2.038869   -1.474891
  13 C   6.0000    1    12.011  -11.282925   -0.981133   -3.887269
  14 C   6.0000    1    12.011   -7.852724   -3.433735   -5.942510
  15 C   6.0000    1    12.011   -8.123959    4.659559   -3.277056
  16 C   6.0000    1    12.011   -7.314799    2.318850   -8.693903
  17 O   8.0000    1    15.999    1.721605    3.655348   -5.169836
  18 C   6.0000    1    12.011    1.047980    5.931066   -3.989464
  19 H   1.0000    1     1.008    2.387922    7.298261   -4.838261
  20 O   8.0000    1    15.999   -1.426857    6.707946   -4.453788
  21 C   6.0000    1    12.011   -1.888727    7.371608   -7.002234
  22 C   6.0000    1    12.011    1.452839    5.862116   -1.110778
  23 H   1.0000    1     1.008    0.662851    7.613807   -0.321600
  24 O   8.0000    1    15.999    4.031141    5.591083   -0.513873
  25 H   1.0000    1     1.008   -3.271068    3.885511   -1.463631
  26 H   1.0000    1     1.008    4.292748    1.664874   -0.538738
  27 H   1.0000    1     1.008   -1.720789    0.995499   -7.429611
  28 H   1.0000    1     1.008   -2.097783   -1.399622   -5.107570
  29 H   1.0000    1     1.008   -7.766554   -0.568719   -0.089062
  30 H   1.0000    1     1.008   -5.362396   -2.346089   -1.542384
  31 H   1.0000    1     1.008   -8.285105   -3.779782   -0.827357
  32 H   1.0000    1     1.008  -11.767324    0.458443   -2.505967
  33 H   1.0000    1     1.008  -12.156371   -2.753027   -3.307396
  34 H   1.0000    1     1.008  -12.081874   -0.432804   -5.698817
  35 H   1.0000    1     1.008   -5.827868   -3.715829   -6.164108
  36 H   1.0000    1     1.008   -8.656021   -3.026379   -7.788850
  37 H   1.0000    1     1.008   -8.670814   -5.197765   -5.262896
  38 H   1.0000    1     1.008   -8.016800    4.326680   -1.256791
  39 H   1.0000    1     1.008  -10.080786    5.040810   -3.748784
  40 H   1.0000    1     1.008   -7.034138    6.350591   -3.666822
  41 H   1.0000    1     1.008   -6.415077    0.822654   -9.774906
  42 H   1.0000    1     1.008   -6.495680    4.099460   -9.301688
  43 H   1.0000    1     1.008   -9.297786    2.345869   -9.214542
  44 H   1.0000    1     1.008   -3.877582    7.871963   -7.107954
  45 H   1.0000    1     1.008   -1.490191    5.786588   -8.264249
  46 H   1.0000    1     1.008   -0.716880    8.988927   -7.551961
  47 H   1.0000    1     1.008    4.966964    7.035394   -1.119681

      -----------------------------------------------------------      
     |                   =====================                   |     
     |                           x T B                           |     
     |                   =====================                   |     
     |                         S. Grimme                         |     
     |          Mulliken Center for Theoretical Chemistry        |     
     |                    University of Bonn                     |     
      -----------------------------------------------------------      

   * xtb version 6.7.1 (edcfbbe) compiled by 'albert@albert-system' on 2024-07-22

   xtb is free software: you can redistribute it and/or modify it under
   the terms of the GNU Lesser General Public License as published by
   the Free Software Foundation, either version 3 of the License, or
   (at your option) any later version.
   
   xtb is distributed in the hope that it will be useful,
   but WITHOUT ANY WARRANTY; without even the implied warranty of
   MERCHANTABILITY or FITNESS FOR A PARTICULAR PURPOSE.  See the
   GNU Lesser General Public License for more details.
   
   Cite this work as:
   * C. Bannwarth, E. Caldeweyher, S. Ehlert, A. Hansen, P. Pracht,
     J. Seibert, S. Spicher, S. Grimme, WIREs Comput. Mol. Sci., 2020, 11,
     e01493. DOI: 10.1002/wcms.1493
   
   for GFN2-xTB:
   * C. Bannwarth, S. Ehlert and S. Grimme., J. Chem. Theory Comput., 2019,
     15, 1652-1671. DOI: 10.1021/acs.jctc.8b01176
   for GFN1-xTB:
   * S. Grimme, C. Bannwarth, P. Shushkov, J. Chem. Theory Comput., 2017,
     13, 1989-2009. DOI: 10.1021/acs.jctc.7b00118
   for GFN0-xTB:
   * P. Pracht, E. Caldeweyher, S. Ehlert, S. Grimme, ChemRxiv, 2019, preprint.
     DOI: 10.26434/chemrxiv.8326202.v1
   for GFN-FF:
   * S. Spicher and S. Grimme, Angew. Chem. Int. Ed., 2020, 59, 15665-15673.
     DOI: 10.1002/anie.202004239
   
   for ALPB and GBSA implicit solvation:
   * S. Ehlert, M. Stahn, S. Spicher, S. Grimme, J. Chem. Theory Comput.,
     2021, 17, 4250-4261. DOI: 10.1021/acs.jctc.1c00471
   
   for ddCOSMO and CPCM-X implicit solvation:
   * M. Stahn, S. Ehlert, S. Grimme, J. Phys. Chem. A,
     2023, XX, XXXX-XXXX. DOI: 10.1021/acs.jpca.3c04382
   
   for DFT-D4:
   * E. Caldeweyher, C. Bannwarth and S. Grimme, J. Chem. Phys., 2017,
     147, 034112. DOI: 10.1063/1.4993215
   * E. Caldeweyher, S. Ehlert, A. Hansen, H. Neugebauer, S. Spicher,
     C. Bannwarth and S. Grimme, J. Chem. Phys., 2019, 150, 154122.
     DOI: 10.1063/1.5090222
   * E. Caldeweyher, J.-M. Mewes, S. Ehlert and S. Grimme, Phys. Chem. Chem. Phys.
     2020, 22, 8499-8512. DOI: 10.1039/D0CP00502A
   
   for sTDA-xTB:
   * S. Grimme and C. Bannwarth, J. Chem. Phys., 2016, 145, 054103.
     DOI: 10.1063/1.4959605
   
   in the mass-spec context:
   * V. Asgeirsson, C. Bauer and S. Grimme, Chem. Sci., 2017, 8, 4879.
     DOI: 10.1039/c7sc00601b
   * J. Koopman and S. Grimme, ACS Omega 2019, 4, 12, 15120-15133.
     DOI: 10.1021/acsomega.9b02011
   
   for metadynamics refer to:
   * S. Grimme, J. Chem. Theory Comput., 2019, 155, 2847-2862
     DOI: 10.1021/acs.jctc.9b00143
   
   for SPH calculations refer to:
   * S. Spicher and S. Grimme, J. Chem. Theory Comput., 2021, 17, 1701-1714
     DOI: 10.1021/acs.jctc.0c01306
   
   for ONIOM refer to:
   * C. Plett, A. Katbashev, S. Ehlert, S. Grimme, M. Bursch,
     Phys. Chem. Chem. Phys., 2023, 25, 17860-17868. DOI: 10.1039/D3CP02178E
   
   for DIPRO refer to:
   * J. Kohn, N. Gildemeister, S. Grimme, D. Fazzi, A. Hansen,
     J. Chem. Phys., 2023, just accepted.
   
   for PTB refer to:
   * S. Grimme, M. Mueller, A. Hansen, J. Chem. Phys., 2023, 158, 124111.
     DOI: 10.1063/5.0137838
   
   with help from (in alphabetical order)
   P. Atkinson, C. Bannwarth, F. Bohle, G. Brandenburg, E. Caldeweyher
   M. Checinski, S. Dohm, S. Ehlert, S. Ehrlich, I. Gerasimov, C. Hölzer
   A. Katbashev, J. Kohn, J. Koopman, C. Lavigne, S. Lehtola, F. März, M. Müller,
   F. Musil, H. Neugebauer, J. Pisarek, C. Plett, P. Pracht, F. Pultar,
   J. Seibert, P. Shushkov, S. Spicher, M. Stahn, M. Steiner, T. Strunk,
   J. Stückrath, T. Rose, and J. Unsleber
   
 * started run on 2025/09/10 at 11:36:45.984     
   ID    Z sym.   atoms
    1    8 O      1, 6, 10, 18, 21, 25
    2    6 C      2, 4, 7, 9, 12-17, 19, 22, 23
    3    1 H      3, 5, 8, 20, 24, 26-48
    4   14 Si     11

           -------------------------------------------------
          |                Calculation Setup                |
           -------------------------------------------------

          program call               : /home/kmoult/orca_6_1/otool_xtb goat_0_XTB.xyz --grad -c 0 -u 0 -P 4 --namespace goat_0 --input goat_0_XTB.input.tmp --alpb ACETONE --acc 0.200000
          hostname                   : node1600
          calculation namespace      : goat_0
          coordinate file            : goat_0_XTB.xyz
          omp threads                :                     4


           -------------------------------------------------
          |                 G F N 2 - x T B                 |
           -------------------------------------------------

        Reference                      10.1021/acs.jctc.8b01176
      * Hamiltonian:
        H0-scaling (s, p, d)           1.850000    2.230000    2.230000
        zeta-weighting                 0.500000
      * Dispersion:
        s8                             2.700000
        a1                             0.520000
        a2                             5.000000
        s9                             5.000000
      * Repulsion:
        kExp                           1.500000    1.000000
        rExp                           1.000000
      * Coulomb:
        alpha                          2.000000
        third order                    shell-resolved
        anisotropic                    true
        a3                             3.000000
        a5                             4.000000
        cn-shift                       1.200000
        cn-exp                         4.000000
        max-rad                        5.000000

      * Solvation model:               ALPB
        Solvent                        ACETONE
        Parameter file                 internal GFN2-xTB/ALPB
        Dielectric constant                2.0700E+01
        Reference state                gsolv [1 M gas/solution]
        Free energy shift                  5.9241E-03 Eh       3.7175E+00 kcal/mol
        Temperature                        2.9815E+02 K
        Density                            7.9000E-01 kg/L
        Solvent mass                       5.8080E+01 g/mol
        Interaction kernel             P16
        Born radius scaling (c1)           1.8274E+00
        Born radii integrator          GBOBC
        Born offset                        0.0000E+00 a0       0.0000E+00 AA
        H-bond correction              true
        Ion screening                  false
        Surface tension                    1.0000E-05 Eh       1.5569E+01 dyn/cm
        Grid points                               230 per atom
q/qsh data taken from xtbrestart
CAMM data taken from xtbrestart

          ...................................................
          :                      SETUP                      :
          :.................................................:
          :  # basis functions                 114          :
          :  # atomic orbitals                 113          :
          :  # shells                           69          :
          :  # electrons                       120          :
          :  max. iterations                   250          :
          :  Hamiltonian                  GFN2-xTB          :
          :  restarted?                       true          :
          :  GBSA solvation                   true          :
          :  PC potential                    false          :
          :  electronic temp.          300.0000000     K    :
          :  accuracy                    0.2000000          :
          :  -> integral cutoff          0.3198970E+02      :
          :  -> integral neglect         0.2000000E-08      :
          :  -> SCF convergence          0.2000000E-06 Eh   :
          :  -> wf. convergence          0.2000000E-04 e    :
          :  Broyden damping             0.4000000          :
          :  net charge                          0          :
          :  unpaired electrons                  0          :
          ...................................................

 iter      E             dE          RMSdq      gap      omega  full diag
   1    -68.9921148 -0.689921E+02  0.270E-02    6.35       0.0  T
   2    -68.9921150 -0.212950E-06  0.174E-02    6.35       1.0  T
   3    -68.9921151 -0.627198E-07  0.414E-03    6.35       3.5  T
   4    -68.9921151 -0.500066E-08  0.229E-03    6.35       6.3  T
   5    -68.9921151 -0.109874E-07  0.126E-03    6.35      11.4  T
   6    -68.9921151 -0.130093E-07  0.352E-04    6.35      41.0  T
   7    -68.9921151 -0.148925E-08  0.191E-04    6.35      75.5  T
   8    -68.9921151 -0.272763E-09  0.103E-04    6.35     140.7  T

   *** convergence criteria satisfied after 8 iterations ***

         #    Occupation            Energy/Eh            Energy/eV
      -------------------------------------------------------------
         1        2.0000           -0.7768968             -21.1404
       ...           ...                  ...                  ...
        54        2.0000           -0.4218514             -11.4792
        55        2.0000           -0.4208347             -11.4515
        56        2.0000           -0.4161413             -11.3238
        57        2.0000           -0.4025428             -10.9537
        58        2.0000           -0.3961514             -10.7798
        59        2.0000           -0.3945901             -10.7373
        60        2.0000           -0.3708450             -10.0912 (HOMO)
        61                         -0.1373790              -3.7383 (LUMO)
        62                         -0.1240061              -3.3744
        63                         -0.1104135              -3.0045
        64                         -0.0171660              -0.4671
        65                         -0.0096591              -0.2628
       ...                                ...                  ...
       113                          0.7792023              21.2032
      -------------------------------------------------------------
                  HL-Gap            0.2334660 Eh            6.3529 eV
             Fermi-level           -0.2541120 Eh           -6.9147 eV

 SCC (total)                   0 d,  0 h,  0 min,  0.038 sec
 SCC setup                      ...        0 min,  0.001 sec (  1.542%)
 Dispersion                     ...        0 min,  0.000 sec (  0.753%)
 classical contributions        ...        0 min,  0.000 sec (  0.094%)
 integral evaluation            ...        0 min,  0.017 sec ( 45.236%)
 iterations                     ...        0 min,  0.013 sec ( 32.917%)
 molecular gradient             ...        0 min,  0.007 sec ( 19.018%)
 printout                       ...        0 min,  0.000 sec (  0.397%)

         :::::::::::::::::::::::::::::::::::::::::::::::::::::
         ::                     SUMMARY                     ::
         :::::::::::::::::::::::::::::::::::::::::::::::::::::
         :: total energy             -68.319688495610 Eh    ::
         :: total w/o Gsasa/hb       -68.293942875274 Eh    ::
         :: gradient norm              0.001902576573 Eh/a0 ::
         :: HOMO-LUMO gap              6.352933475271 eV    ::
         ::.................................................::
         :: SCC energy               -68.990759820201 Eh    ::
         :: -> isotropic ES            0.160004111618 Eh    ::
         :: -> anisotropic ES          0.002704306871 Eh    ::
         :: -> anisotropic XC          0.004830557537 Eh    ::
         :: -> dispersion             -0.048943019007 Eh    ::
         :: -> Gsolv                  -0.029286538381 Eh    ::
         ::    -> Gelec               -0.003540918045 Eh    ::
         ::    -> Gsasa               -0.026358226085 Eh    ::
         ::    -> Ghb                 -0.005311535515 Eh    ::
         ::    -> Gshift               0.005924141264 Eh    ::
         :: repulsion energy           0.671071324591 Eh    ::
         :: add. restraining           0.000000000000 Eh    ::
         :: total charge              -0.000000000000 e     ::
         :::::::::::::::::::::::::::::::::::::::::::::::::::::


Property printout bound to 'properties.out'

           -------------------------------------------------
          | TOTAL ENERGY              -68.319688495610 Eh   |
          | GRADIENT NORM               0.001902576573 Eh/α |
          | HOMO-LUMO GAP               6.352933475271 eV   |
           -------------------------------------------------

------------------------------------------------------------------------
 * finished run on 2025/09/10 at 11:36:46.045     
------------------------------------------------------------------------
 total:
 * wall-time:     0 d,  0 h,  0 min,  0.061 sec
 *  cpu-time:     0 d,  0 h,  0 min,  0.209 sec
 * ratio c/w:     3.443 speedup
 SCF:
 * wall-time:     0 d,  0 h,  0 min,  0.038 sec
 *  cpu-time:     0 d,  0 h,  0 min,  0.140 sec
 * ratio c/w:     3.650 speedup


-------------------------   --------------------
FINAL SINGLE POINT ENERGY       -68.319688495610
-------------------------   --------------------


-------------
DIPOLE MOMENT
-------------
                                X             Y             Z
Total Dipole Moment    :     -0.09100       0.95400      -1.75000
                        -----------------------------------------
Magnitude (a.u.)       :      1.99522
Magnitude (Debye)      :      5.07144


------------------
CARTESIAN GRADIENT
------------------

   1   O   :    0.000133423    0.000071301   -0.000196484
   2   C   :   -0.000170039   -0.000136821    0.000007425
   3   H   :    0.000226731   -0.000058559   -0.000062824
   4   C   :   -0.000301707   -0.000169825    0.000202675
   5   H   :   -0.000056692    0.000185874   -0.000155978
   6   O   :    0.000186275    0.000297738    0.000001125
   7   C   :   -0.000022873   -0.000053981    0.000017479
   8   H   :    0.000031001    0.000076442    0.000080886
   9   C   :    0.000205964    0.000273374   -0.000237617
  10   O   :   -0.000423085   -0.000275909    0.000243083
  11   Si  :    0.000161504    0.000087005   -0.000257982
  12   C   :   -0.000338624   -0.000705522    0.000209713
  13   C   :    0.000058584    0.000115862    0.000019999
  14   C   :    0.000068929    0.000049169    0.000051064
  15   C   :    0.000086595    0.000029044    0.000000230
  16   C   :    0.000263095    0.000212646   -0.000307483
  17   C   :    0.000078840    0.000255526    0.000001550
  18   O   :    0.000094394   -0.000402737   -0.000330605
  19   C   :   -0.000079409    0.000607109    0.000125134
  20   H   :   -0.000118537   -0.000102228    0.000150990
  21   O   :    0.000014587   -0.000141585    0.000091701
  22   C   :    0.000048995    0.000027156   -0.000049015
  23   C   :    0.000516925    0.000092382    0.000154613
  24   H   :   -0.000083071    0.000008663   -0.000088703
  25   O   :   -0.000283074    0.000020460   -0.000102765
  26   H   :   -0.000002727   -0.000171294    0.000078428
  27   H   :   -0.000121395   -0.000207911   -0.000022843
  28   H   :   -0.000101779   -0.000083569    0.000090881
  29   H   :   -0.000028276    0.000027890    0.000101433
  30   H   :   -0.000001365   -0.000023050   -0.000061079
  31   H   :   -0.000049163    0.000026748   -0.000035432
  32   H   :   -0.000027227    0.000070248   -0.000100102
  33   H   :    0.000050466   -0.000005772   -0.000065788
  34   H   :    0.000088464    0.000038284   -0.000021305
  35   H   :    0.000068005    0.000019040    0.000029990
  36   H   :   -0.000032974    0.000104829   -0.000037147
  37   H   :    0.000063821    0.000071175    0.000040272
  38   H   :   -0.000015657    0.000107536    0.000033200
  39   H   :    0.000027335    0.000073525   -0.000073291
  40   H   :    0.000022409   -0.000193662    0.000028471
  41   H   :   -0.000112739    0.000013132    0.000078354
  42   H   :   -0.000109346   -0.000023416    0.000047136
  43   H   :   -0.000015457   -0.000100245    0.000129492
  44   H   :    0.000043819   -0.000058913    0.000140948
  45   H   :    0.000023419   -0.000004681   -0.000004216
  46   H   :    0.000047312    0.000008014    0.000006736
  47   H   :   -0.000004334   -0.000014015    0.000017229
  48   H   :   -0.000111344   -0.000036477    0.000030423

Difference to translation invariance:
           :   -0.0000000000    0.0000000000   -0.0000000000

Difference to rotation invariance:
           :    0.0000520835   -0.0002703413   -0.0002595929

Norm of the Cartesian gradient     ...    0.0019025766
RMS gradient                       ...    0.0001585480
MAX gradient                       ...    0.0007055216
------------------------------------------------------------------------------
                         ORCA GEOMETRY RELAXATION STEP
------------------------------------------------------------------------------

Reading the OPT-File                    .... done
Getting information on internals        .... done
Copying old internal coords+grads       .... done
Making the new internal coordinates     .... (2022 redundants) done
Validating the new internal coordinates .... (2022 redundants) done
Calculating the B-matrix                .... done
Calculating the G,G- and P matrices     .... done
Transforming gradient to internals      .... done
Projecting the internal gradient        .... done
Number of atoms                         ....  48
Number of internal coordinates          .... 234
Current Energy                          ....   -68.319688496 Eh
Current gradient norm                   ....     0.001902577 Eh/bohr
Maximum allowed component of the step   ....  0.300
Current trust radius                    ....  0.700
Updating the Hessian (BFGS)             .... done
Forming the augmented Hessian           .... done
Diagonalizing the augmented Hessian     .... done
Last element of RFO vector              ....  0.999056170
Lowest eigenvalues of augmented Hessian:
 -0.000022584  0.004832976  0.009491853  0.009998668  0.010066281
Length of the computed step             ....  0.043477995
The final length of the internal step   ....  0.043477995
Converting the step to Cartesian space:
 Initial RMS(Int)=    0.0028422454
Transforming coordinates:
 Iter   0:  RMS(Cart)=    0.0081534863 RMS(Int)=    0.0028444291
done
Storing new coordinates                 .... done
The predicted energy change is          ....    -0.000011313
Previously predicted energy change      ....    -0.000025472
Actually observed energy change         ....    -0.000029778
Ratio of predicted to observed change   ....     1.169049768
New trust radius                        ....     0.700000000

                                .--------------------.
          ----------------------|Geometry convergence|-------------------------
          Item                value                   Tolerance       Converged
          ---------------------------------------------------------------------
          Energy change      -0.0000297784            0.0000050000      NO
          RMS gradient        0.0001073809            0.0001000000      NO
          MAX gradient        0.0004981385            0.0003000000      NO
          RMS step            0.0028422454            0.0020000000      NO
          MAX step            0.0123849261            0.0040000000      NO
          -------------------------------------------------------------------------
          ........................................................
          Max(Bonds)      0.0045      Max(Angles)    0.17
          Max(Dihed)        0.71      Max(Improp)    0.00
          ---------------------------------------------------------------------

    ---------------------------------------------------------------------------
                         Redundant Internal Coordinates
                            (Angstroem and degrees)

        Definition                    Value    dE/dq     Step     New-Value
    ----------------------------------------------------------------------------
     1. B(C   1,O   0)                1.3929 -0.000168  0.0001    1.3930   
     2. B(H   2,C   1)                1.0987  0.000019 -0.0001    1.0986   
     3. B(C   3,C   1)                1.5427 -0.000274  0.0003    1.5431   
     4. B(H   4,C   3)                1.0957 -0.000135  0.0001    1.0958   
     5. B(O   5,C   3)                1.4078  0.000012 -0.0000    1.4078   
     6. B(C   6,C   3)                1.5469 -0.000041  0.0000    1.5470   
     7. B(H   7,C   6)                1.0987 -0.000059  0.0001    1.0988   
     8. B(C   8,C   6)                1.5401 -0.000033  0.0002    1.5403   
     9. B(O   9,C   8)                1.3938 -0.000025 -0.0002    1.3936   
    10. B(Si 10,O   9)                1.6464 -0.000342  0.0002    1.6466   
    11. B(C  11,Si 10)                1.9370  0.000106 -0.0004    1.9366   
    12. B(C  12,C  11)                1.5322 -0.000211  0.0001    1.5323   
    13. B(C  13,C  11)                1.5311 -0.000266  0.0002    1.5313   
    14. B(C  14,C  11)                1.5332 -0.000235  0.0002    1.5333   
    15. B(C  15,Si 10)                1.8972 -0.000129  0.0001    1.8974   
    16. B(C  16,Si 10)                1.9110 -0.000307  0.0003    1.9113   
    17. B(O  17,C   6)                1.4235  0.000047 -0.0001    1.4233   
    18. B(C  18,O  17)                1.4027  0.000498 -0.0007    1.4020   
    19. B(H  19,C  18)                1.1081 -0.000203  0.0005    1.1086   
    20. B(O  20,C  18)                1.3945 -0.000160  0.0001    1.3946   
    21. B(C  21,O  20)                1.4148  0.000014 -0.0001    1.4147   
    22. B(C  22,C  18)                1.5388 -0.000076 -0.0001    1.5387   
    23. B(C  22,C   1)                1.5422 -0.000023 -0.0002    1.5421   
    24. B(H  23,C  22)                1.0993  0.000005  0.0000    1.0993   
    25. B(O  24,C  22)                1.4078 -0.000394  0.0006    1.4084   
    26. B(H  25,O   0)                0.9748 -0.000107  0.0001    0.9750   
    27. B(H  25,O  20)                2.3847  0.000039 -0.0045    2.3802   
    28. B(H  25,O   9)                1.8685 -0.000076  0.0035    1.8720   
    29. B(H  26,O   5)                0.9696 -0.000218  0.0001    0.9697   
    30. B(H  26,O  24)                2.0823  0.000023 -0.0009    2.0814   
    31. B(H  27,C   8)                1.0956 -0.000109  0.0002    1.0958   
    32. B(H  28,C   8)                1.0963 -0.000010  0.0000    1.0963   
    33. B(H  29,C  12)                1.0872 -0.000058  0.0000    1.0872   
    34. B(H  30,C  12)                1.0878 -0.000050  0.0000    1.0878   
    35. B(H  31,C  12)                1.0902 -0.000079  0.0002    1.0904   
    36. B(H  32,C  13)                1.0864 -0.000060  0.0000    1.0865   
    37. B(H  33,C  13)                1.0895 -0.000075  0.0002    1.0896   
    38. B(H  34,C  13)                1.0872 -0.000049  0.0000    1.0872   
    39. B(H  35,C  14)                1.0882 -0.000042 -0.0000    1.0882   
    40. B(H  36,C  14)                1.0871 -0.000048  0.0000    1.0871   
    41. B(H  37,C  14)                1.0900 -0.000075  0.0002    1.0902   
    42. B(H  38,C  15)                1.0850 -0.000082  0.0000    1.0850   
    43. B(H  39,C  15)                1.0841 -0.000064 -0.0000    1.0841   
    44. B(H  40,C  15)                1.0844 -0.000065  0.0001    1.0845   
    45. B(H  41,C  16)                1.0866 -0.000056  0.0000    1.0867   
    46. B(H  42,C  16)                1.0859 -0.000132  0.0001    1.0860   
    47. B(H  43,C  16)                1.0850 -0.000078  0.0000    1.0850   
    48. B(H  44,C  21)                1.0867 -0.000022  0.0000    1.0867   
    49. B(H  45,C  21)                1.0927 -0.000002 -0.0000    1.0927   
    50. B(H  46,C  21)                1.0962 -0.000018  0.0000    1.0962   
    51. B(H  47,O  24)                0.9655 -0.000095  0.0000    0.9655   
    52. A(C   1,O   0,H  25)          108.29 -0.000006   -0.03    108.26   
    53. A(H   2,C   1,C   3)          106.93 -0.000032    0.05    106.99   
    54. A(O   0,C   1,H   2)          106.30  0.000131   -0.05    106.24   
    55. A(C   3,C   1,C  22)          109.92  0.000110   -0.02    109.89   
    56. A(O   0,C   1,C  22)          112.21 -0.000012   -0.01    112.20   
    57. A(O   0,C   1,C   3)          113.93 -0.000118   -0.01    113.92   
    58. A(H   2,C   1,C  22)          107.12 -0.000081    0.05    107.17   
    59. A(H   4,C   3,O   5)          105.81  0.000122   -0.09    105.73   
    60. A(C   1,C   3,C   6)          114.00  0.000095   -0.03    113.97   
    61. A(C   1,C   3,H   4)          108.07 -0.000016    0.01    108.08   
    62. A(C   1,C   3,O   5)          110.42 -0.000093    0.04    110.46   
    63. A(O   5,C   3,C   6)          110.23 -0.000093    0.03    110.26   
    64. A(H   4,C   3,C   6)          107.93 -0.000010    0.03    107.96   
    65. A(C   3,O   5,H  26)          107.82  0.000021    0.01    107.83   
    66. A(H   7,C   6,C   8)          105.72  0.000055   -0.05    105.66   
    67. A(C   3,C   6,C   8)          113.43 -0.000104    0.04    113.47   
    68. A(C   3,C   6,H   7)          106.16 -0.000048    0.02    106.18   
    69. A(C   3,C   6,O  17)          114.65  0.000040   -0.00    114.65   
    70. A(C   8,C   6,O  17)          112.94  0.000084   -0.01    112.93   
    71. A(H   7,C   6,O  17)          102.65 -0.000027   -0.00    102.65   
    72. A(H  27,C   8,H  28)          108.29  0.000096   -0.02    108.27   
    73. A(C   6,C   8,O   9)          113.14  0.000066    0.02    113.16   
    74. A(C   6,C   8,H  27)          108.19  0.000175   -0.04    108.16   
    75. A(O   9,C   8,H  28)          109.83 -0.000152    0.04    109.88   
    76. A(O   9,C   8,H  27)          109.92 -0.000101   -0.03    109.89   
    77. A(C   6,C   8,H  28)          107.32 -0.000076    0.02    107.34   
    78. A(C   8,O   9,Si 10)          129.27 -0.000000    0.09    129.37   
    79. A(C  15,Si 10,C  16)          111.71 -0.000334    0.17    111.89   
    80. A(C  11,Si 10,C  16)          110.05  0.000043   -0.07    109.98   
    81. A(O   9,Si 10,C  16)          111.13  0.000213   -0.05    111.08   
    82. A(C  11,Si 10,C  15)          112.01  0.000286   -0.05    111.96   
    83. A(O   9,Si 10,C  15)          100.59  0.000001   -0.09    100.50   
    84. A(O   9,Si 10,C  11)          111.07 -0.000214    0.08    111.15   
    85. A(C  12,C  11,C  14)          108.55  0.000075   -0.02    108.53   
    86. A(C  13,C  11,C  14)          108.21  0.000124   -0.05    108.16   
    87. A(Si 10,C  11,C  13)          110.17 -0.000007    0.00    110.18   
    88. A(Si 10,C  11,C  14)          111.72 -0.000171    0.06    111.78   
    89. A(Si 10,C  11,C  12)          109.64  0.000004    0.02    109.66   
    90. A(C  12,C  11,C  13)          108.47 -0.000019   -0.01    108.46   
    91. A(H  29,C  12,H  31)          108.31  0.000055   -0.01    108.30   
    92. A(C  11,C  12,H  31)          110.49 -0.000123    0.03    110.52   
    93. A(H  29,C  12,H  30)          107.96  0.000030   -0.01    107.96   
    94. A(C  11,C  12,H  30)          110.91 -0.000023    0.00    110.91   
    95. A(C  11,C  12,H  29)          110.92 -0.000016    0.01    110.92   
    96. A(H  30,C  12,H  31)          108.15  0.000084   -0.02    108.13   
    97. A(H  32,C  13,H  33)          108.29  0.000063   -0.02    108.27   
    98. A(C  11,C  13,H  33)          110.40 -0.000054    0.02    110.42   
    99. A(C  11,C  13,H  32)          110.66 -0.000039    0.00    110.66   
   100. A(C  11,C  13,H  34)          110.83 -0.000054    0.02    110.85   
   101. A(H  33,C  13,H  34)          108.24  0.000085   -0.01    108.23   
   102. A(H  32,C  13,H  34)          108.32  0.000006   -0.00    108.32   
   103. A(H  36,C  14,H  37)          108.12  0.000070   -0.03    108.09   
   104. A(H  35,C  14,H  37)          108.01  0.000114   -0.03    107.98   
   105. A(C  11,C  14,H  37)          110.22 -0.000075    0.01    110.23   
   106. A(H  35,C  14,H  36)          108.38  0.000006    0.02    108.40   
   107. A(C  11,C  14,H  36)          110.83 -0.000069    0.02    110.85   
   108. A(C  11,C  14,H  35)          111.17 -0.000037    0.02    111.18   
   109. A(H  39,C  15,H  40)          108.10 -0.000048    0.00    108.10   
   110. A(H  38,C  15,H  40)          107.07 -0.000016    0.01    107.08   
   111. A(H  38,C  15,H  39)          107.88  0.000030    0.00    107.88   
   112. A(Si 10,C  15,H  39)          111.00 -0.000275    0.12    111.12   
   113. A(Si 10,C  15,H  38)          111.51  0.000095   -0.02    111.50   
   114. A(Si 10,C  15,H  40)          111.10  0.000216   -0.12    110.98   
   115. A(H  42,C  16,H  43)          107.42  0.000136   -0.01    107.41   
   116. A(H  41,C  16,H  43)          107.44  0.000037    0.00    107.44   
   117. A(Si 10,C  16,H  43)          111.68 -0.000181    0.08    111.76   
   118. A(H  41,C  16,H  42)          107.54  0.000082   -0.04    107.51   
   119. A(Si 10,C  16,H  41)          111.88  0.000029   -0.03    111.85   
   120. A(Si 10,C  16,H  42)          110.66 -0.000086   -0.01    110.65   
   121. A(C   6,O  17,C  18)          118.70 -0.000184    0.08    118.78   
   122. A(O  17,C  18,H  19)          102.56  0.000074   -0.02    102.53   
   123. A(O  20,C  18,C  22)          108.19  0.000122   -0.03    108.16   
   124. A(H  19,C  18,C  22)          109.13 -0.000098    0.02    109.14   
   125. A(O  17,C  18,C  22)          112.65 -0.000002    0.01    112.66   
   126. A(H  19,C  18,O  20)          109.70  0.000024   -0.03    109.67   
   127. A(O  17,C  18,O  20)          114.41 -0.000128    0.05    114.47   
   128. A(C  18,O  20,C  21)          113.79 -0.000349    0.06    113.85   
   129. A(H  44,C  21,H  46)          110.12  0.000005   -0.01    110.11   
   130. A(H  45,C  21,H  46)          109.14 -0.000010    0.03    109.17   
   131. A(O  20,C  21,H  46)          110.43 -0.000030    0.00    110.43   
   132. A(H  44,C  21,H  45)          110.03  0.000027   -0.01    110.02   
   133. A(O  20,C  21,H  45)          111.02 -0.000018   -0.01    111.01   
   134. A(O  20,C  21,H  44)          106.07  0.000026   -0.01    106.07   
   135. A(H  23,C  22,O  24)          111.67  0.000055   -0.04    111.63   
   136. A(C  18,C  22,O  24)          111.07  0.000006   -0.02    111.05   
   137. A(C   1,C  22,O  24)          107.62 -0.000031    0.01    107.63   
   138. A(C  18,C  22,H  23)          107.65 -0.000009    0.03    107.67   
   139. A(C   1,C  22,H  23)          107.94 -0.000010    0.01    107.95   
   140. A(C   1,C  22,C  18)          110.87 -0.000012    0.01    110.88   
   141. A(C  22,O  24,H  47)          110.00 -0.000127    0.00    110.00   
   142. D(H   2,C   1,O   0,H  25)   -169.10  0.000066   -0.34   -169.45   
   143. D(C  22,C   1,O   0,H  25)     74.11  0.000091   -0.37     73.74   
   144. D(C   3,C   1,O   0,H  25)    -51.61  0.000047   -0.32    -51.92   
   145. D(H   4,C   3,C   1,C  22)   -165.78  0.000063   -0.11   -165.90   
   146. D(O   5,C   3,C   1,C  22)     78.92 -0.000024   -0.04     78.88   
   147. D(O   5,C   3,C   1,H   2)    -37.03  0.000032   -0.12    -37.15   
   148. D(H   4,C   3,C   1,H   2)     78.27  0.000120   -0.19     78.07   
   149. D(O   5,C   3,C   1,O   0)   -154.16 -0.000042   -0.08   -154.24   
   150. D(H   4,C   3,C   1,O   0)    -38.86  0.000046   -0.16    -39.02   
   151. D(H  26,O   5,C   3,H   4)   -166.95 -0.000022    0.07   -166.88   
   152. D(H  26,O   5,C   3,C   6)     76.60 -0.000032    0.06     76.67   
   153. D(H  26,O   5,C   3,C   1)    -50.25 -0.000019    0.05    -50.20   
   154. D(H   7,C   6,C   3,O   5)     27.84  0.000058   -0.05     27.79   
   155. D(H   7,C   6,C   3,H   4)    -87.28 -0.000033    0.02    -87.26   
   156. D(H   7,C   6,C   3,C   1)    152.66 -0.000067    0.01    152.67   
   157. D(C   8,C   6,C   3,H   4)     28.38 -0.000051   -0.01     28.37   
   158. D(C   8,C   6,C   3,C   1)    -91.68 -0.000085   -0.02    -91.70   
   159. D(C   8,C   6,C   3,O   5)    143.49  0.000040   -0.08    143.41   
   160. D(H  27,C   8,C   6,O  17)     42.53  0.000064    0.12     42.65   
   161. D(H  27,C   8,C   6,H   7)    -68.94  0.000025    0.16    -68.79   
   162. D(H  27,C   8,C   6,C   3)    175.14  0.000104    0.14    175.28   
   163. D(O   9,C   8,C   6,O  17)    -79.50  0.000025    0.17    -79.33   
   164. D(O   9,C   8,C   6,C   3)     53.11  0.000065    0.19     53.30   
   165. D(O   9,C   8,C   6,H   7)    169.02 -0.000014    0.21    169.23   
   166. D(Si 10,O   9,C   8,H  27)     56.27 -0.000050    0.28     56.55   
   167. D(Si 10,O   9,C   8,C   6)    177.34  0.000148    0.22    177.56   
   168. D(Si 10,O   9,C   8,H  28)    -62.78 -0.000011    0.29    -62.49   
   169. D(C  16,Si 10,O   9,C   8)    -50.69  0.000002   -0.53    -51.22   
   170. D(C  15,Si 10,O   9,C   8)   -169.10  0.000296   -0.66   -169.76   
   171. D(C  11,Si 10,O   9,C   8)     72.18  0.000057   -0.60     71.58   
   172. D(C  12,C  11,Si 10,O   9)     39.46 -0.000022    0.05     39.51   
   173. D(C  13,C  11,Si 10,C  16)    -77.75  0.000107   -0.01    -77.76   
   174. D(C  13,C  11,Si 10,C  15)     47.16 -0.000087    0.14     47.30   
   175. D(C  13,C  11,Si 10,O   9)    158.76 -0.000047    0.05    158.81   
   176. D(C  12,C  11,Si 10,C  16)    162.95  0.000132   -0.01    162.94   
   177. D(C  12,C  11,Si 10,C  15)    -72.14 -0.000062    0.14    -72.00   
   178. D(H  30,C  12,C  11,C  14)     60.49 -0.000120    0.06     60.55   
   179. D(H  30,C  12,C  11,C  13)    177.86  0.000057   -0.02    177.84   
   180. D(H  30,C  12,C  11,Si 10)    -61.80  0.000040   -0.01    -61.81   
   181. D(H  29,C  12,C  11,C  14)   -179.55 -0.000108    0.06   -179.49   
   182. D(H  29,C  12,C  11,C  13)    -62.18  0.000070   -0.02    -62.20   
   183. D(H  29,C  12,C  11,Si 10)     58.16  0.000052   -0.01     58.15   
   184. D(H  33,C  13,C  11,C  14)     57.10  0.000088   -0.00     57.10   
   185. D(H  33,C  13,C  11,C  12)    -60.48 -0.000059    0.07    -60.41   
   186. D(H  33,C  13,C  11,Si 10)    179.51 -0.000048    0.05    179.56   
   187. D(H  32,C  13,C  11,C  12)     59.40 -0.000040    0.06     59.45   
   188. D(H  32,C  13,C  11,Si 10)    -60.61 -0.000030    0.04    -60.58   
   189. D(H  32,C  13,C  11,C  14)    176.98  0.000106   -0.01    176.97   
   190. D(H  36,C  14,C  11,C  13)     58.75 -0.000009   -0.02     58.74   
   191. D(H  36,C  14,C  11,C  12)    176.28  0.000077   -0.08    176.20   
   192. D(H  36,C  14,C  11,Si 10)    -62.70  0.000025   -0.03    -62.73   
   193. D(H  35,C  14,C  11,C  13)    179.36 -0.000073    0.02    179.39   
   194. D(H  35,C  14,C  11,C  12)    -63.11  0.000013   -0.03    -63.14   
   195. D(H  35,C  14,C  11,Si 10)     57.91 -0.000039    0.01     57.92   
   196. D(H  39,C  15,Si 10,C  16)     54.87  0.000078   -0.69     54.18   
   197. D(H  39,C  15,Si 10,C  11)    -69.11  0.000059   -0.70    -69.81   
   198. D(H  39,C  15,Si 10,O   9)    172.85  0.000184   -0.71    172.14   
   199. D(H  38,C  15,Si 10,C  16)    175.19 -0.000007   -0.61    174.57   
   200. D(H  38,C  15,Si 10,C  11)     51.21 -0.000027   -0.62     50.59   
   201. D(H  38,C  15,Si 10,O   9)    -66.83  0.000099   -0.63    -67.47   
   202. D(H  41,C  16,Si 10,C  15)    173.58 -0.000019   -0.31    173.28   
   203. D(H  41,C  16,Si 10,C  11)    -61.34  0.000142   -0.29    -61.63   
   204. D(H  41,C  16,Si 10,O   9)     62.12  0.000047   -0.28     61.84   
   205. D(H  42,C  16,Si 10,C  15)     53.68 -0.000084   -0.24     53.44   
   206. D(H  42,C  16,Si 10,C  11)    178.75  0.000077   -0.22    178.53   
   207. D(H  42,C  16,Si 10,O   9)    -57.78 -0.000018   -0.21    -57.99   
   208. D(C  18,O  17,C   6,C   8)     88.85 -0.000003    0.14     89.00   
   209. D(C  18,O  17,C   6,H   7)   -157.79  0.000082    0.07   -157.72   
   210. D(C  18,O  17,C   6,C   3)    -43.16  0.000026    0.10    -43.06   
   211. D(C  22,C  18,O  17,C   6)     50.96  0.000038   -0.14     50.82   
   212. D(O  20,C  18,O  17,C   6)    -73.16 -0.000023   -0.15    -73.31   
   213. D(H  19,C  18,O  17,C   6)    168.14 -0.000035   -0.13    168.01   
   214. D(C  21,O  20,C  18,C  22)    167.18 -0.000062    0.19    167.37   
   215. D(C  21,O  20,C  18,H  19)     48.23 -0.000029    0.21     48.44   
   216. D(C  21,O  20,C  18,O  17)    -66.36 -0.000061    0.22    -66.13   
   217. D(H  46,C  21,O  20,C  18)    -62.56 -0.000014    0.19    -62.37   
   218. D(H  45,C  21,O  20,C  18)     58.64 -0.000058    0.23     58.87   
   219. D(H  44,C  21,O  20,C  18)    178.14 -0.000019    0.21    178.36   
   220. D(H  23,C  22,C  18,O  20)    -45.60 -0.000050    0.08    -45.52   
   221. D(H  23,C  22,C  18,H  19)     73.71 -0.000006    0.04     73.75   
   222. D(H  23,C  22,C  18,O  17)   -173.08  0.000024    0.02   -173.06   
   223. D(C   1,C  22,C  18,O  20)     72.26 -0.000074    0.11     72.37   
   224. D(C   1,C  22,C  18,H  19)   -168.43 -0.000030    0.07   -168.36   
   225. D(C   1,C  22,C  18,O  17)    -55.22  0.000001    0.06    -55.17   
   226. D(H  23,C  22,C   1,C   3)    170.37 -0.000085    0.11    170.48   
   227. D(H  23,C  22,C   1,H   2)    -73.80 -0.000110    0.19    -73.61   
   228. D(H  23,C  22,C   1,O   0)     42.49 -0.000007    0.15     42.64   
   229. D(C  18,C  22,C   1,C   3)     52.69 -0.000062    0.06     52.75   
   230. D(C  18,C  22,C   1,H   2)    168.52 -0.000087    0.14    168.67   
   231. D(C  18,C  22,C   1,O   0)    -75.19  0.000016    0.11    -75.08   
   232. D(H  47,O  24,C  22,H  23)    -57.24  0.000005   -0.18    -57.42   
   233. D(H  47,O  24,C  22,C  18)     62.93  0.000035   -0.19     62.75   
   234. D(H  47,O  24,C  22,C   1)   -175.53  0.000004   -0.18   -175.71   
    ----------------------------------------------------------------------------

Geometry step timings:
Preparation and reading OPT file:      0.001 s ( 4.858 %)
Internal coordinates            :      0.000 s ( 0.199 %)
B/P matrices and projection     :      0.005 s (22.592 %)
Hessian update/contruction      :      0.009 s (44.027 %)
Making the step                 :      0.003 s (14.518 %)
Converting the step to Cartesian:      0.000 s ( 1.931 %)
Storing new data                :      0.001 s ( 4.132 %)
Checking convergence            :      0.000 s ( 0.441 %)
Final printing                  :      0.002 s ( 7.301 %)
Total time                      :      0.021 s

Time for energy+gradient        :      0.086 s
Time for complete geometry iter :      0.120 s

         *************************************************************
         *                GEOMETRY OPTIMIZATION CYCLE   9            *
         *************************************************************
---------------------------------
CARTESIAN COORDINATES (ANGSTROEM)
---------------------------------
  O    -1.356634    2.148968    0.118877
  C     0.015393    1.919710    0.045291
  H     0.367668    1.828306    1.081811
  C     0.392981    0.609128   -0.676415
  H    -0.331058   -0.160128   -0.385235
  O     1.644282    0.144096   -0.229452
  C     0.381213    0.715590   -2.219666
  H     1.099475   -0.032114   -2.583683
  C    -0.971323    0.334671   -2.850726
  O    -2.046186    1.036961   -2.308896
  Si   -3.640237    0.985815   -2.718484
  C    -4.451641   -0.681934   -2.161233
  C    -3.912119   -1.082911   -0.784265
  C    -5.971063   -0.521738   -2.058663
  C    -4.156298   -1.816544   -3.149461
  C    -4.299841    2.462215   -1.725959
  C    -3.874905    1.229741   -4.599573
  O     0.910210    1.932476   -2.734713
  C     0.557338    3.138470   -2.112946
  H     1.269102    3.858910   -2.563904
  O    -0.750813    3.554249   -2.359417
  C    -0.996470    3.899637   -3.709157
  C     0.770870    3.104700   -0.589531
  H     0.355197    4.033498   -0.173562
  O     2.135534    2.959333   -0.273208
  H    -1.728585    2.067407   -0.778659
  H     2.270887    0.882387   -0.280428
  H    -0.909674    0.521056   -3.928758
  H    -1.112847   -0.741361   -2.695479
  H    -4.109492   -0.306887   -0.048889
  H    -2.837043   -1.244836   -0.820621
  H    -4.382826   -2.005467   -0.443241
  H    -6.227799    0.238625   -1.326328
  H    -6.432527   -1.460282   -1.752873
  H    -6.394937   -0.230548   -3.016504
  H    -3.084941   -1.965806   -3.268055
  H    -4.582745   -1.600112   -4.125734
  H    -4.588555   -2.750929   -2.790872
  H    -4.250304    2.277371   -0.657948
  H    -5.332430    2.673511   -1.979698
  H    -3.715347    3.354341   -1.922254
  H    -3.393915    0.441723   -5.172732
  H    -3.446160    2.174813   -4.919743
  H    -4.924037    1.238979   -4.876148
  H    -2.047000    4.172348   -3.763394
  H    -0.794486    3.055309   -4.372640
  H    -0.370744    4.749123   -4.006789
  H     2.632662    3.720711   -0.597895

----------------------------
CARTESIAN COORDINATES (A.U.)
----------------------------
  NO LB    ZA    FRAG    MASS        X           Y           Z
   0 O   8.0000    1    15.999   -2.563666    4.060961    0.224646
   1 C   6.0000    1    12.011    0.029089    3.627727    0.085588
   2 H   1.0000    1     1.008    0.694792    3.454997    2.044327
   3 C   6.0000    1    12.011    0.742627    1.151086   -1.278239
   4 H   1.0000    1     1.008   -0.625610   -0.302598   -0.727989
   5 O   8.0000    1    15.999    3.107242    0.272301   -0.433601
   6 C   6.0000    1    12.011    0.720389    1.352269   -4.194560
   7 H   1.0000    1     1.008    2.077706   -0.060687   -4.882454
   8 C   6.0000    1    12.011   -1.835534    0.632436   -5.387092
   9 O   8.0000    1    15.999   -3.866731    1.959573   -4.363182
  10 Si 14.0000    1    28.086   -6.879050    1.862921   -5.137189
  11 C   6.0000    1    12.011   -8.412383   -1.288669   -4.084138
  12 C   6.0000    1    12.011   -7.392834   -2.046406   -1.482046
  13 C   6.0000    1    12.011  -11.283675   -0.985943   -3.890309
  14 C   6.0000    1    12.011   -7.854265   -3.432771   -5.951618
  15 C   6.0000    1    12.011   -8.125522    4.652913   -3.261589
  16 C   6.0000    1    12.011   -7.322510    2.323874   -8.691934
  17 O   8.0000    1    15.999    1.720048    3.651850   -5.167859
  18 C   6.0000    1    12.011    1.053216    5.930850   -3.992889
  19 H   1.0000    1     1.008    2.398254    7.292282   -4.845077
  20 O   8.0000    1    15.999   -1.418831    6.716557   -4.458652
  21 C   6.0000    1    12.011   -1.883055    7.369246   -7.009291
  22 C   6.0000    1    12.011    1.456734    5.867032   -1.114052
  23 H   1.0000    1     1.008    0.671225    7.622206   -0.327985
  24 O   8.0000    1    15.999    4.035574    5.592330   -0.516288
  25 H   1.0000    1     1.008   -3.266551    3.906834   -1.471452
  26 H   1.0000    1     1.008    4.291355    1.667470   -0.529932
  27 H   1.0000    1     1.008   -1.719035    0.984653   -7.424276
  28 H   1.0000    1     1.008   -2.102976   -1.400970   -5.093717
  29 H   1.0000    1     1.008   -7.765814   -0.579933   -0.092386
  30 H   1.0000    1     1.008   -5.361233   -2.352398   -1.550750
  31 H   1.0000    1     1.008   -8.282341   -3.789784   -0.837605
  32 H   1.0000    1     1.008  -11.768834    0.450936   -2.506397
  33 H   1.0000    1     1.008  -12.155715   -2.759533   -3.312450
  34 H   1.0000    1     1.008  -12.084680   -0.435673   -5.700366
  35 H   1.0000    1     1.008   -5.829694   -3.714834   -6.175730
  36 H   1.0000    1     1.008   -8.660133   -3.023773   -7.796508
  37 H   1.0000    1     1.008   -8.671112   -5.198502   -5.273985
  38 H   1.0000    1     1.008   -8.031911    4.303608   -1.243342
  39 H   1.0000    1     1.008  -10.076833    5.052204   -3.741087
  40 H   1.0000    1     1.008   -7.020989    6.338786   -3.632534
  41 H   1.0000    1     1.008   -6.413569    0.834735   -9.775046
  42 H   1.0000    1     1.008   -6.512299    4.109801   -9.296967
  43 H   1.0000    1     1.008   -9.305081    2.341331   -9.214584
  44 H   1.0000    1     1.008   -3.868269    7.884595   -7.111784
  45 H   1.0000    1     1.008   -1.501360    5.773697   -8.263091
  46 H   1.0000    1     1.008   -0.700604    8.974542   -7.571733
  47 H   1.0000    1     1.008    4.975010    7.031124   -1.129857

      -----------------------------------------------------------      
     |                   =====================                   |     
     |                           x T B                           |     
     |                   =====================                   |     
     |                         S. Grimme                         |     
     |          Mulliken Center for Theoretical Chemistry        |     
     |                    University of Bonn                     |     
      -----------------------------------------------------------      

   * xtb version 6.7.1 (edcfbbe) compiled by 'albert@albert-system' on 2024-07-22

   xtb is free software: you can redistribute it and/or modify it under
   the terms of the GNU Lesser General Public License as published by
   the Free Software Foundation, either version 3 of the License, or
   (at your option) any later version.
   
   xtb is distributed in the hope that it will be useful,
   but WITHOUT ANY WARRANTY; without even the implied warranty of
   MERCHANTABILITY or FITNESS FOR A PARTICULAR PURPOSE.  See the
   GNU Lesser General Public License for more details.
   
   Cite this work as:
   * C. Bannwarth, E. Caldeweyher, S. Ehlert, A. Hansen, P. Pracht,
     J. Seibert, S. Spicher, S. Grimme, WIREs Comput. Mol. Sci., 2020, 11,
     e01493. DOI: 10.1002/wcms.1493
   
   for GFN2-xTB:
   * C. Bannwarth, S. Ehlert and S. Grimme., J. Chem. Theory Comput., 2019,
     15, 1652-1671. DOI: 10.1021/acs.jctc.8b01176
   for GFN1-xTB:
   * S. Grimme, C. Bannwarth, P. Shushkov, J. Chem. Theory Comput., 2017,
     13, 1989-2009. DOI: 10.1021/acs.jctc.7b00118
   for GFN0-xTB:
   * P. Pracht, E. Caldeweyher, S. Ehlert, S. Grimme, ChemRxiv, 2019, preprint.
     DOI: 10.26434/chemrxiv.8326202.v1
   for GFN-FF:
   * S. Spicher and S. Grimme, Angew. Chem. Int. Ed., 2020, 59, 15665-15673.
     DOI: 10.1002/anie.202004239
   
   for ALPB and GBSA implicit solvation:
   * S. Ehlert, M. Stahn, S. Spicher, S. Grimme, J. Chem. Theory Comput.,
     2021, 17, 4250-4261. DOI: 10.1021/acs.jctc.1c00471
   
   for ddCOSMO and CPCM-X implicit solvation:
   * M. Stahn, S. Ehlert, S. Grimme, J. Phys. Chem. A,
     2023, XX, XXXX-XXXX. DOI: 10.1021/acs.jpca.3c04382
   
   for DFT-D4:
   * E. Caldeweyher, C. Bannwarth and S. Grimme, J. Chem. Phys., 2017,
     147, 034112. DOI: 10.1063/1.4993215
   * E. Caldeweyher, S. Ehlert, A. Hansen, H. Neugebauer, S. Spicher,
     C. Bannwarth and S. Grimme, J. Chem. Phys., 2019, 150, 154122.
     DOI: 10.1063/1.5090222
   * E. Caldeweyher, J.-M. Mewes, S. Ehlert and S. Grimme, Phys. Chem. Chem. Phys.
     2020, 22, 8499-8512. DOI: 10.1039/D0CP00502A
   
   for sTDA-xTB:
   * S. Grimme and C. Bannwarth, J. Chem. Phys., 2016, 145, 054103.
     DOI: 10.1063/1.4959605
   
   in the mass-spec context:
   * V. Asgeirsson, C. Bauer and S. Grimme, Chem. Sci., 2017, 8, 4879.
     DOI: 10.1039/c7sc00601b
   * J. Koopman and S. Grimme, ACS Omega 2019, 4, 12, 15120-15133.
     DOI: 10.1021/acsomega.9b02011
   
   for metadynamics refer to:
   * S. Grimme, J. Chem. Theory Comput., 2019, 155, 2847-2862
     DOI: 10.1021/acs.jctc.9b00143
   
   for SPH calculations refer to:
   * S. Spicher and S. Grimme, J. Chem. Theory Comput., 2021, 17, 1701-1714
     DOI: 10.1021/acs.jctc.0c01306
   
   for ONIOM refer to:
   * C. Plett, A. Katbashev, S. Ehlert, S. Grimme, M. Bursch,
     Phys. Chem. Chem. Phys., 2023, 25, 17860-17868. DOI: 10.1039/D3CP02178E
   
   for DIPRO refer to:
   * J. Kohn, N. Gildemeister, S. Grimme, D. Fazzi, A. Hansen,
     J. Chem. Phys., 2023, just accepted.
   
   for PTB refer to:
   * S. Grimme, M. Mueller, A. Hansen, J. Chem. Phys., 2023, 158, 124111.
     DOI: 10.1063/5.0137838
   
   with help from (in alphabetical order)
   P. Atkinson, C. Bannwarth, F. Bohle, G. Brandenburg, E. Caldeweyher
   M. Checinski, S. Dohm, S. Ehlert, S. Ehrlich, I. Gerasimov, C. Hölzer
   A. Katbashev, J. Kohn, J. Koopman, C. Lavigne, S. Lehtola, F. März, M. Müller,
   F. Musil, H. Neugebauer, J. Pisarek, C. Plett, P. Pracht, F. Pultar,
   J. Seibert, P. Shushkov, S. Spicher, M. Stahn, M. Steiner, T. Strunk,
   J. Stückrath, T. Rose, and J. Unsleber
   
 * started run on 2025/09/10 at 11:36:46.104     
   ID    Z sym.   atoms
    1    8 O      1, 6, 10, 18, 21, 25
    2    6 C      2, 4, 7, 9, 12-17, 19, 22, 23
    3    1 H      3, 5, 8, 20, 24, 26-48
    4   14 Si     11

           -------------------------------------------------
          |                Calculation Setup                |
           -------------------------------------------------

          program call               : /home/kmoult/orca_6_1/otool_xtb goat_0_XTB.xyz --grad -c 0 -u 0 -P 4 --namespace goat_0 --input goat_0_XTB.input.tmp --alpb ACETONE --acc 0.200000
          hostname                   : node1600
          calculation namespace      : goat_0
          coordinate file            : goat_0_XTB.xyz
          omp threads                :                     4


           -------------------------------------------------
          |                 G F N 2 - x T B                 |
           -------------------------------------------------

        Reference                      10.1021/acs.jctc.8b01176
      * Hamiltonian:
        H0-scaling (s, p, d)           1.850000    2.230000    2.230000
        zeta-weighting                 0.500000
      * Dispersion:
        s8                             2.700000
        a1                             0.520000
        a2                             5.000000
        s9                             5.000000
      * Repulsion:
        kExp                           1.500000    1.000000
        rExp                           1.000000
      * Coulomb:
        alpha                          2.000000
        third order                    shell-resolved
        anisotropic                    true
        a3                             3.000000
        a5                             4.000000
        cn-shift                       1.200000
        cn-exp                         4.000000
        max-rad                        5.000000

      * Solvation model:               ALPB
        Solvent                        ACETONE
        Parameter file                 internal GFN2-xTB/ALPB
        Dielectric constant                2.0700E+01
        Reference state                gsolv [1 M gas/solution]
        Free energy shift                  5.9241E-03 Eh       3.7175E+00 kcal/mol
        Temperature                        2.9815E+02 K
        Density                            7.9000E-01 kg/L
        Solvent mass                       5.8080E+01 g/mol
        Interaction kernel             P16
        Born radius scaling (c1)           1.8274E+00
        Born radii integrator          GBOBC
        Born offset                        0.0000E+00 a0       0.0000E+00 AA
        H-bond correction              true
        Ion screening                  false
        Surface tension                    1.0000E-05 Eh       1.5569E+01 dyn/cm
        Grid points                               230 per atom
q/qsh data taken from xtbrestart
CAMM data taken from xtbrestart

          ...................................................
          :                      SETUP                      :
          :.................................................:
          :  # basis functions                 114          :
          :  # atomic orbitals                 113          :
          :  # shells                           69          :
          :  # electrons                       120          :
          :  max. iterations                   250          :
          :  Hamiltonian                  GFN2-xTB          :
          :  restarted?                       true          :
          :  GBSA solvation                   true          :
          :  PC potential                    false          :
          :  electronic temp.          300.0000000     K    :
          :  accuracy                    0.2000000          :
          :  -> integral cutoff          0.3198970E+02      :
          :  -> integral neglect         0.2000000E-08      :
          :  -> SCF convergence          0.2000000E-06 Eh   :
          :  -> wf. convergence          0.2000000E-04 e    :
          :  Broyden damping             0.4000000          :
          :  net charge                          0          :
          :  unpaired electrons                  0          :
          ...................................................

 iter      E             dE          RMSdq      gap      omega  full diag
   1    -68.9917957 -0.689918E+02  0.179E-02    6.35       0.0  T
   2    -68.9917959 -0.132561E-06  0.118E-02    6.35       1.2  T
   3    -68.9917958  0.101732E-06  0.303E-03    6.35       4.8  T
   4    -68.9917959 -0.126787E-06  0.203E-03    6.35       7.1  T
   5    -68.9917959 -0.181972E-07  0.824E-04    6.35      17.5  T
   6    -68.9917959 -0.818210E-08  0.381E-04    6.35      37.8  T
   7    -68.9917959 -0.861093E-09  0.970E-05    6.35     148.8  T
   8    -68.9917959 -0.308518E-10  0.682E-05    6.35     211.6  T

   *** convergence criteria satisfied after 8 iterations ***

         #    Occupation            Energy/Eh            Energy/eV
      -------------------------------------------------------------
         1        2.0000           -0.7767939             -21.1376
       ...           ...                  ...                  ...
        54        2.0000           -0.4218153             -11.4782
        55        2.0000           -0.4208284             -11.4513
        56        2.0000           -0.4161800             -11.3248
        57        2.0000           -0.4026977             -10.9580
        58        2.0000           -0.3961516             -10.7798
        59        2.0000           -0.3945629             -10.7366
        60        2.0000           -0.3708770             -10.0921 (HOMO)
        61                         -0.1375018              -3.7416 (LUMO)
        62                         -0.1238401              -3.3699
        63                         -0.1104610              -3.0058
        64                         -0.0173846              -0.4731
        65                         -0.0096686              -0.2631
       ...                                ...                  ...
       113                          0.7784318              21.1822
      -------------------------------------------------------------
                  HL-Gap            0.2333752 Eh            6.3505 eV
             Fermi-level           -0.2541894 Eh           -6.9168 eV

 SCC (total)                   0 d,  0 h,  0 min,  0.039 sec
 SCC setup                      ...        0 min,  0.001 sec (  1.594%)
 Dispersion                     ...        0 min,  0.000 sec (  0.840%)
 classical contributions        ...        0 min,  0.000 sec (  0.094%)
 integral evaluation            ...        0 min,  0.018 sec ( 45.173%)
 iterations                     ...        0 min,  0.013 sec ( 33.117%)
 molecular gradient             ...        0 min,  0.007 sec ( 18.726%)
 printout                       ...        0 min,  0.000 sec (  0.416%)

         :::::::::::::::::::::::::::::::::::::::::::::::::::::
         ::                     SUMMARY                     ::
         :::::::::::::::::::::::::::::::::::::::::::::::::::::
         :: total energy             -68.319704672176 Eh    ::
         :: total w/o Gsasa/hb       -68.293953422329 Eh    ::
         :: gradient norm              0.001055622504 Eh/a0 ::
         :: HOMO-LUMO gap              6.350461994456 eV    ::
         ::.................................................::
         :: SCC energy               -68.990441900717 Eh    ::
         :: -> isotropic ES            0.159966371535 Eh    ::
         :: -> anisotropic ES          0.002719363338 Eh    ::
         :: -> anisotropic XC          0.004847357011 Eh    ::
         :: -> dispersion             -0.048927109555 Eh    ::
         :: -> Gsolv                  -0.029284839401 Eh    ::
         ::    -> Gelec               -0.003533589553 Eh    ::
         ::    -> Gsasa               -0.026365757271 Eh    ::
         ::    -> Ghb                 -0.005309633841 Eh    ::
         ::    -> Gshift               0.005924141264 Eh    ::
         :: repulsion energy           0.670737228540 Eh    ::
         :: add. restraining           0.000000000000 Eh    ::
         :: total charge               0.000000000000 e     ::
         :::::::::::::::::::::::::::::::::::::::::::::::::::::


Property printout bound to 'properties.out'

           -------------------------------------------------
          | TOTAL ENERGY              -68.319704672176 Eh   |
          | GRADIENT NORM               0.001055622504 Eh/α |
          | HOMO-LUMO GAP               6.350461994456 eV   |
           -------------------------------------------------

------------------------------------------------------------------------
 * finished run on 2025/09/10 at 11:36:46.165     
------------------------------------------------------------------------
 total:
 * wall-time:     0 d,  0 h,  0 min,  0.061 sec
 *  cpu-time:     0 d,  0 h,  0 min,  0.212 sec
 * ratio c/w:     3.454 speedup
 SCF:
 * wall-time:     0 d,  0 h,  0 min,  0.039 sec
 *  cpu-time:     0 d,  0 h,  0 min,  0.144 sec
 * ratio c/w:     3.653 speedup


-------------------------   --------------------
FINAL SINGLE POINT ENERGY       -68.319704672180
-------------------------   --------------------


-------------
DIPOLE MOMENT
-------------
                                X             Y             Z
Total Dipole Moment    :     -0.08700       0.95000      -1.75100
                        -----------------------------------------
Magnitude (a.u.)       :      1.99401
Magnitude (Debye)      :      5.06837


------------------
CARTESIAN GRADIENT
------------------

   1   O   :    0.000053388    0.000077270    0.000053722
   2   C   :   -0.000094103   -0.000016638    0.000075892
   3   H   :    0.000097947   -0.000013994   -0.000031154
   4   C   :   -0.000160633   -0.000059306    0.000053737
   5   H   :    0.000019279    0.000068163   -0.000051849
   6   O   :    0.000116409    0.000096927    0.000028969
   7   C   :    0.000058814    0.000094845   -0.000000819
   8   H   :    0.000038012    0.000038744    0.000002181
   9   C   :    0.000161317    0.000193996   -0.000065530
  10   O   :   -0.000304514   -0.000317736    0.000103534
  11   Si  :    0.000077642    0.000115439   -0.000198757
  12   C   :   -0.000139502   -0.000336669    0.000146552
  13   C   :    0.000054966    0.000164660   -0.000032737
  14   C   :    0.000104799    0.000055420   -0.000021009
  15   C   :    0.000088977    0.000084401   -0.000013846
  16   C   :    0.000107648    0.000151655   -0.000208001
  17   C   :   -0.000017397    0.000094624    0.000011417
  18   O   :   -0.000015361   -0.000224625   -0.000064601
  19   C   :   -0.000140606    0.000246058    0.000122864
  20   H   :    0.000026723   -0.000007475    0.000034197
  21   O   :    0.000124148   -0.000024354   -0.000040979
  22   C   :    0.000025540    0.000002160   -0.000018803
  23   C   :    0.000115010   -0.000025170    0.000005244
  24   H   :   -0.000072589    0.000018286   -0.000049082
  25   O   :   -0.000016058    0.000022627   -0.000041721
  26   H   :    0.000040061   -0.000110906   -0.000091935
  27   H   :   -0.000073122   -0.000157802   -0.000019457
  28   H   :   -0.000126741   -0.000047259    0.000041730
  29   H   :   -0.000017360   -0.000005753    0.000043795
  30   H   :    0.000004387   -0.000025244   -0.000056259
  31   H   :   -0.000058260    0.000010171   -0.000018185
  32   H   :   -0.000035209   -0.000035394   -0.000024897
  33   H   :    0.000041432   -0.000015700   -0.000053121
  34   H   :    0.000007931   -0.000025447    0.000009516
  35   H   :    0.000032665    0.000008524    0.000031620
  36   H   :   -0.000043552    0.000057253   -0.000014966
  37   H   :    0.000020364    0.000015988    0.000032757
  38   H   :   -0.000030988    0.000004450    0.000015519
  39   H   :    0.000024285    0.000054358   -0.000029897
  40   H   :    0.000005224   -0.000104963    0.000073809
  41   H   :   -0.000055424   -0.000048132    0.000041183
  42   H   :   -0.000085430    0.000010525    0.000022101
  43   H   :    0.000023686   -0.000062074    0.000092816
  44   H   :    0.000041293   -0.000038603    0.000066085
  45   H   :    0.000033107    0.000010946   -0.000027982
  46   H   :    0.000011126   -0.000018945    0.000044900
  47   H   :   -0.000008793    0.000038671    0.000017485
  48   H   :   -0.000060539   -0.000013971    0.000003965

Difference to translation invariance:
           :   -0.0000000000    0.0000000000   -0.0000000000

Difference to rotation invariance:
           :   -0.0000240656   -0.0002555398   -0.0002034552

Norm of the Cartesian gradient     ...    0.0010556225
RMS gradient                       ...    0.0000879685
MAX gradient                       ...    0.0003366691
------------------------------------------------------------------------------
                         ORCA GEOMETRY RELAXATION STEP
------------------------------------------------------------------------------

Reading the OPT-File                    .... done
Getting information on internals        .... done
Copying old internal coords+grads       .... done
Making the new internal coordinates     .... (2022 redundants) done
Validating the new internal coordinates .... (2022 redundants) done
Calculating the B-matrix                .... done
Calculating the G,G- and P matrices     .... done
Transforming gradient to internals      .... done
Projecting the internal gradient        .... done
Number of atoms                         ....  48
Number of internal coordinates          .... 234
Current Energy                          ....   -68.319704672 Eh
Current gradient norm                   ....     0.001055623 Eh/bohr
Maximum allowed component of the step   ....  0.300
Current trust radius                    ....  0.700
Updating the Hessian (BFGS)             .... done
Forming the augmented Hessian           .... done
Diagonalizing the augmented Hessian     .... done
Last element of RFO vector              ....  0.998356225
Lowest eigenvalues of augmented Hessian:
 -0.000016153  0.003216442  0.008438364  0.009994821  0.010066287
Length of the computed step             ....  0.057407963
The final length of the internal step   ....  0.057407963
Converting the step to Cartesian space:
 Initial RMS(Int)=    0.0037528759
Transforming coordinates:
 Iter   0:  RMS(Cart)=    0.0066129366 RMS(Int)=    0.0037540763
done
Storing new coordinates                 .... done
The predicted energy change is          ....    -0.000008103
Previously predicted energy change      ....    -0.000011313
Actually observed energy change         ....    -0.000016177
Ratio of predicted to observed change   ....     1.429871344
New trust radius                        ....     0.700000000

                                .--------------------.
          ----------------------|Geometry convergence|-------------------------
          Item                value                   Tolerance       Converged
          ---------------------------------------------------------------------
          Energy change      -0.0000161766            0.0000050000      NO
          RMS gradient        0.0000682870            0.0001000000      YES
          MAX gradient        0.0002274779            0.0003000000      YES
          RMS step            0.0037528759            0.0020000000      NO
          MAX step            0.0177065118            0.0040000000      NO
          -------------------------------------------------------------------------
          ........................................................
          Max(Bonds)      0.0068      Max(Angles)    0.20
          Max(Dihed)        1.01      Max(Improp)    0.00
          ---------------------------------------------------------------------

    ---------------------------------------------------------------------------
                         Redundant Internal Coordinates
                            (Angstroem and degrees)

        Definition                    Value    dE/dq     Step     New-Value
    ----------------------------------------------------------------------------
     1. B(C   1,O   0)                1.3930 -0.000117  0.0002    1.3932   
     2. B(H   2,C   1)                1.0986  0.000003 -0.0001    1.0985   
     3. B(C   3,C   1)                1.5431 -0.000029  0.0002    1.5433   
     4. B(H   4,C   3)                1.0958 -0.000075  0.0002    1.0960   
     5. B(O   5,C   3)                1.4078  0.000050 -0.0001    1.4077   
     6. B(C   6,C   3)                1.5470  0.000014 -0.0001    1.5469   
     7. B(H   7,C   6)                1.0988 -0.000002  0.0001    1.0989   
     8. B(C   8,C   6)                1.5404  0.000120  0.0000    1.5404   
     9. B(O   9,C   8)                1.3936 -0.000006 -0.0001    1.3935   
    10. B(Si 10,O   9)                1.6466 -0.000142  0.0003    1.6469   
    11. B(C  11,Si 10)                1.9366  0.000019 -0.0005    1.9361   
    12. B(C  12,C  11)                1.5323 -0.000158  0.0002    1.5325   
    13. B(C  13,C  11)                1.5313 -0.000187  0.0003    1.5316   
    14. B(C  14,C  11)                1.5333 -0.000125  0.0002    1.5335   
    15. B(C  15,Si 10)                1.8974 -0.000051  0.0002    1.8975   
    16. B(C  16,Si 10)                1.9113 -0.000186  0.0004    1.9117   
    17. B(O  17,C   6)                1.4233 -0.000020  0.0001    1.4234   
    18. B(C  18,O  17)                1.4020  0.000169 -0.0007    1.4013   
    19. B(H  19,C  18)                1.1086 -0.000001  0.0003    1.1089   
    20. B(O  20,C  18)                1.3946 -0.000156  0.0002    1.3948   
    21. B(C  21,O  20)                1.4147 -0.000017 -0.0001    1.4146   
    22. B(C  22,C  18)                1.5387 -0.000101 -0.0000    1.5387   
    23. B(C  22,C   1)                1.5421 -0.000018 -0.0002    1.5419   
    24. B(H  23,C  22)                1.0993  0.000024 -0.0000    1.0993   
    25. B(O  24,C  22)                1.4084 -0.000079  0.0005    1.4088   
    26. B(H  25,O   0)                0.9750  0.000084 -0.0000    0.9749   
    27. B(H  25,O  20)                2.3802  0.000046 -0.0068    2.3734   
    28. B(H  25,O   9)                1.8720 -0.000015  0.0032    1.8751   
    29. B(H  26,O   5)                0.9697 -0.000143  0.0002    0.9699   
    30. B(H  26,O  24)                2.0814  0.000031 -0.0030    2.0783   
    31. B(H  27,C   8)                1.0958 -0.000056  0.0002    1.0960   
    32. B(H  28,C   8)                1.0963  0.000014 -0.0000    1.0963   
    33. B(H  29,C  12)                1.0872 -0.000057  0.0001    1.0872   
    34. B(H  30,C  12)                1.0878 -0.000057  0.0001    1.0879   
    35. B(H  31,C  12)                1.0904  0.000038  0.0000    1.0904   
    36. B(H  32,C  13)                1.0865 -0.000057  0.0001    1.0865   
    37. B(H  33,C  13)                1.0896  0.000022  0.0000    1.0897   
    38. B(H  34,C  13)                1.0872 -0.000040  0.0000    1.0872   
    39. B(H  35,C  14)                1.0882 -0.000049  0.0001    1.0882   
    40. B(H  36,C  14)                1.0871 -0.000035  0.0000    1.0871   
    41. B(H  37,C  14)                1.0902  0.000014  0.0001    1.0903   
    42. B(H  38,C  15)                1.0850 -0.000036  0.0000    1.0851   
    43. B(H  39,C  15)                1.0841 -0.000043  0.0000    1.0841   
    44. B(H  40,C  15)                1.0845 -0.000078  0.0002    1.0846   
    45. B(H  41,C  16)                1.0867 -0.000058  0.0001    1.0868   
    46. B(H  42,C  16)                1.0860 -0.000073  0.0002    1.0862   
    47. B(H  43,C  16)                1.0850 -0.000056  0.0000    1.0851   
    48. B(H  44,C  21)                1.0867 -0.000026  0.0000    1.0867   
    49. B(H  45,C  21)                1.0927 -0.000011 -0.0000    1.0926   
    50. B(H  46,C  21)                1.0962  0.000020 -0.0000    1.0962   
    51. B(H  47,O  24)                0.9655 -0.000043  0.0000    0.9656   
    52. A(C   1,O   0,H  25)          108.26 -0.000204    0.01    108.28   
    53. A(H   2,C   1,C   3)          106.99 -0.000011    0.04    107.03   
    54. A(O   0,C   1,H   2)          106.24  0.000091   -0.08    106.16   
    55. A(C   3,C   1,C  22)          109.89  0.000013   -0.03    109.86   
    56. A(O   0,C   1,C  22)          112.20 -0.000014    0.01    112.21   
    57. A(O   0,C   1,C   3)          113.92 -0.000039    0.00    113.93   
    58. A(H   2,C   1,C  22)          107.17 -0.000038    0.06    107.23   
    59. A(H   4,C   3,O   5)          105.73  0.000005   -0.07    105.65   
    60. A(C   1,C   3,C   6)          113.97 -0.000007   -0.02    113.95   
    61. A(C   1,C   3,H   4)          108.08  0.000033    0.01    108.09   
    62. A(C   1,C   3,O   5)          110.46 -0.000017    0.03    110.49   
    63. A(O   5,C   3,C   6)          110.26  0.000021    0.01    110.27   
    64. A(H   4,C   3,C   6)          107.96 -0.000034    0.04    108.00   
    65. A(C   3,O   5,H  26)          107.83  0.000024    0.01    107.84   
    66. A(H   7,C   6,C   8)          105.66 -0.000006   -0.04    105.62   
    67. A(C   3,C   6,C   8)          113.48 -0.000145    0.05    113.53   
    68. A(C   3,C   6,H   7)          106.18  0.000034    0.02    106.20   
    69. A(C   3,C   6,O  17)          114.65 -0.000031   -0.01    114.63   
    70. A(C   8,C   6,O  17)          112.92  0.000227   -0.04    112.88   
    71. A(H   7,C   6,O  17)          102.65 -0.000086    0.03    102.67   
    72. A(H  27,C   8,H  28)          108.27  0.000007    0.00    108.27   
    73. A(C   6,C   8,O   9)          113.16  0.000220   -0.01    113.15   
    74. A(C   6,C   8,H  27)          108.16  0.000113   -0.07    108.09   
    75. A(O   9,C   8,H  28)          109.88 -0.000124    0.06    109.94   
    76. A(O   9,C   8,H  27)          109.89 -0.000116   -0.02    109.87   
    77. A(C   6,C   8,H  28)          107.34 -0.000103    0.04    107.38   
    78. A(C   8,O   9,Si 10)          129.37  0.000127    0.06    129.42   
    79. A(C  15,Si 10,C  16)          111.89 -0.000170    0.20    112.09   
    80. A(C  11,Si 10,C  16)          109.98 -0.000007   -0.08    109.90   
    81. A(O   9,Si 10,C  16)          111.08  0.000182   -0.08    111.01   
    82. A(C  11,Si 10,C  15)          111.96  0.000182   -0.08    111.88   
    83. A(O   9,Si 10,C  15)          100.50 -0.000028   -0.06    100.44   
    84. A(O   9,Si 10,C  11)          111.15 -0.000160    0.10    111.25   
    85. A(C  12,C  11,C  14)          108.52  0.000053   -0.03    108.49   
    86. A(C  13,C  11,C  14)          108.16  0.000042   -0.05    108.11   
    87. A(Si 10,C  11,C  13)          110.18  0.000006   -0.00    110.18   
    88. A(Si 10,C  11,C  14)          111.78 -0.000083    0.07    111.86   
    89. A(Si 10,C  11,C  12)          109.66 -0.000011    0.03    109.69   
    90. A(C  12,C  11,C  13)          108.45 -0.000004   -0.02    108.44   
    91. A(H  29,C  12,H  31)          108.30  0.000039   -0.02    108.28   
    92. A(C  11,C  12,H  31)          110.52 -0.000049    0.03    110.55   
    93. A(H  29,C  12,H  30)          107.96  0.000021   -0.01    107.95   
    94. A(C  11,C  12,H  30)          110.91 -0.000017    0.01    110.92   
    95. A(C  11,C  12,H  29)          110.92 -0.000015    0.01    110.93   
    96. A(H  30,C  12,H  31)          108.13  0.000025   -0.02    108.10   
    97. A(H  32,C  13,H  33)          108.27  0.000031   -0.02    108.25   
    98. A(C  11,C  13,H  33)          110.42 -0.000003    0.01    110.43   
    99. A(C  11,C  13,H  32)          110.66 -0.000046    0.01    110.67   
   100. A(C  11,C  13,H  34)          110.85 -0.000015    0.01    110.86   
   101. A(H  33,C  13,H  34)          108.23  0.000041   -0.02    108.21   
   102. A(H  32,C  13,H  34)          108.32 -0.000005   -0.00    108.32   
   103. A(H  36,C  14,H  37)          108.09  0.000010   -0.03    108.06   
   104. A(H  35,C  14,H  37)          107.98  0.000055   -0.04    107.94   
   105. A(C  11,C  14,H  37)          110.23 -0.000018    0.01    110.24   
   106. A(H  35,C  14,H  36)          108.40  0.000005    0.02    108.42   
   107. A(C  11,C  14,H  36)          110.85 -0.000029    0.02    110.87   
   108. A(C  11,C  14,H  35)          111.18 -0.000020    0.02    111.20   
   109. A(H  39,C  15,H  40)          108.10  0.000003   -0.00    108.09   
   110. A(H  38,C  15,H  40)          107.08 -0.000020    0.01    107.09   
   111. A(H  38,C  15,H  39)          107.88 -0.000020    0.02    107.90   
   112. A(Si 10,C  15,H  39)          111.12 -0.000073    0.12    111.24   
   113. A(Si 10,C  15,H  38)          111.50  0.000048   -0.02    111.48   
   114. A(Si 10,C  15,H  40)          110.98  0.000060   -0.12    110.86   
   115. A(H  42,C  16,H  43)          107.41  0.000081   -0.03    107.38   
   116. A(H  41,C  16,H  43)          107.44  0.000008    0.00    107.44   
   117. A(Si 10,C  16,H  43)          111.76 -0.000075    0.09    111.84   
   118. A(H  41,C  16,H  42)          107.51  0.000045   -0.04    107.46   
   119. A(Si 10,C  16,H  41)          111.85  0.000053   -0.04    111.81   
   120. A(Si 10,C  16,H  42)          110.65 -0.000102    0.01    110.67   
   121. A(C   6,O  17,C  18)          118.78  0.000019    0.04    118.82   
   122. A(O  17,C  18,H  19)          102.53  0.000056   -0.01    102.53   
   123. A(O  20,C  18,C  22)          108.16  0.000113   -0.06    108.10   
   124. A(H  19,C  18,C  22)          109.14 -0.000041    0.03    109.17   
   125. A(O  17,C  18,C  22)          112.66 -0.000033    0.01    112.67   
   126. A(H  19,C  18,O  20)          109.67 -0.000038   -0.03    109.64   
   127. A(O  17,C  18,O  20)          114.47 -0.000065    0.06    114.53   
   128. A(C  18,O  20,C  21)          113.85 -0.000214    0.06    113.91   
   129. A(H  44,C  21,H  46)          110.11 -0.000028   -0.00    110.10   
   130. A(H  45,C  21,H  46)          109.17  0.000042    0.02    109.19   
   131. A(O  20,C  21,H  46)          110.43 -0.000017    0.01    110.44   
   132. A(H  44,C  21,H  45)          110.02  0.000013   -0.01    110.01   
   133. A(O  20,C  21,H  45)          111.01 -0.000071    0.01    111.02   
   134. A(O  20,C  21,H  44)          106.07  0.000059   -0.02    106.05   
   135. A(H  23,C  22,O  24)          111.63  0.000037   -0.05    111.58   
   136. A(C  18,C  22,O  24)          111.05 -0.000055   -0.01    111.03   
   137. A(C   1,C  22,O  24)          107.63  0.000009    0.00    107.64   
   138. A(C  18,C  22,H  23)          107.68 -0.000053    0.05    107.73   
   139. A(C   1,C  22,H  23)          107.95  0.000020    0.02    107.97   
   140. A(C   1,C  22,C  18)          110.88  0.000046   -0.01    110.87   
   141. A(C  22,O  24,H  47)          110.00 -0.000082    0.01    110.00   
   142. D(H   2,C   1,O   0,H  25)   -169.45  0.000019   -0.43   -169.88   
   143. D(C  22,C   1,O   0,H  25)     73.74  0.000017   -0.45     73.29   
   144. D(C   3,C   1,O   0,H  25)    -51.92  0.000043   -0.42    -52.35   
   145. D(H   4,C   3,C   1,C  22)   -165.90 -0.000009   -0.13   -166.03   
   146. D(O   5,C   3,C   1,C  22)     78.88 -0.000025   -0.07     78.82   
   147. D(O   5,C   3,C   1,H   2)    -37.15  0.000019   -0.14    -37.29   
   148. D(H   4,C   3,C   1,H   2)     78.07  0.000035   -0.21     77.86   
   149. D(O   5,C   3,C   1,O   0)   -154.24 -0.000064   -0.08   -154.32   
   150. D(H   4,C   3,C   1,O   0)    -39.02 -0.000048   -0.14    -39.16   
   151. D(H  26,O   5,C   3,H   4)   -166.88 -0.000041    0.13   -166.75   
   152. D(H  26,O   5,C   3,C   6)     76.67 -0.000014    0.12     76.79   
   153. D(H  26,O   5,C   3,C   1)    -50.20 -0.000008    0.11    -50.08   
   154. D(H   7,C   6,C   3,O   5)     27.79 -0.000026    0.02     27.81   
   155. D(H   7,C   6,C   3,H   4)    -87.26 -0.000024    0.08    -87.18   
   156. D(H   7,C   6,C   3,C   1)    152.67 -0.000037    0.05    152.72   
   157. D(C   8,C   6,C   3,H   4)     28.37 -0.000087    0.06     28.43   
   158. D(C   8,C   6,C   3,C   1)    -91.71 -0.000100    0.04    -91.67   
   159. D(C   8,C   6,C   3,O   5)    143.41 -0.000089    0.01    143.42   
   160. D(H  27,C   8,C   6,O  17)     42.65 -0.000002    0.34     42.99   
   161. D(H  27,C   8,C   6,H   7)    -68.79 -0.000004    0.35    -68.44   
   162. D(H  27,C   8,C   6,C   3)    175.28  0.000034    0.33    175.61   
   163. D(O   9,C   8,C   6,O  17)    -79.34 -0.000079    0.42    -78.92   
   164. D(O   9,C   8,C   6,C   3)     53.30 -0.000042    0.41     53.70   
   165. D(O   9,C   8,C   6,H   7)    169.23 -0.000081    0.43    169.66   
   166. D(Si 10,O   9,C   8,H  27)     56.55 -0.000108    0.40     56.95   
   167. D(Si 10,O   9,C   8,C   6)    177.56  0.000103    0.29    177.85   
   168. D(Si 10,O   9,C   8,H  28)    -62.49  0.000030    0.37    -62.11   
   169. D(C  16,Si 10,O   9,C   8)    -51.22 -0.000015   -0.48    -51.70   
   170. D(C  15,Si 10,O   9,C   8)   -169.77  0.000118   -0.64   -170.41   
   171. D(C  11,Si 10,O   9,C   8)     71.58 -0.000008   -0.56     71.02   
   172. D(C  12,C  11,Si 10,O   9)     39.51 -0.000038    0.04     39.55   
   173. D(C  13,C  11,Si 10,C  16)    -77.75  0.000072   -0.04    -77.80   
   174. D(C  13,C  11,Si 10,C  15)     47.30 -0.000022    0.10     47.40   
   175. D(C  13,C  11,Si 10,O   9)    158.81 -0.000046    0.03    158.84   
   176. D(C  12,C  11,Si 10,C  16)    162.94  0.000080   -0.04    162.90   
   177. D(C  12,C  11,Si 10,C  15)    -72.00 -0.000014    0.10    -71.90   
   178. D(H  30,C  12,C  11,C  14)     60.55 -0.000054    0.08     60.63   
   179. D(H  30,C  12,C  11,C  13)    177.84  0.000023   -0.02    177.82   
   180. D(H  30,C  12,C  11,Si 10)    -61.81  0.000021   -0.01    -61.82   
   181. D(H  29,C  12,C  11,C  14)   -179.49 -0.000049    0.07   -179.41   
   182. D(H  29,C  12,C  11,C  13)    -62.20  0.000027   -0.02    -62.22   
   183. D(H  29,C  12,C  11,Si 10)     58.15  0.000026   -0.01     58.14   
   184. D(H  33,C  13,C  11,C  14)     57.10  0.000051   -0.03     57.07   
   185. D(H  33,C  13,C  11,C  12)    -60.41 -0.000032    0.05    -60.37   
   186. D(H  33,C  13,C  11,Si 10)    179.56 -0.000020    0.03    179.58   
   187. D(H  32,C  13,C  11,C  12)     59.45 -0.000025    0.04     59.49   
   188. D(H  32,C  13,C  11,Si 10)    -60.58 -0.000012    0.01    -60.56   
   189. D(H  32,C  13,C  11,C  14)    176.97  0.000059   -0.04    176.92   
   190. D(H  36,C  14,C  11,C  13)     58.74 -0.000012    0.03     58.76   
   191. D(H  36,C  14,C  11,C  12)    176.20  0.000035   -0.04    176.16   
   192. D(H  36,C  14,C  11,Si 10)    -62.73  0.000004    0.02    -62.72   
   193. D(H  35,C  14,C  11,C  13)    179.39 -0.000039    0.07    179.46   
   194. D(H  35,C  14,C  11,C  12)    -63.14  0.000008    0.01    -63.14   
   195. D(H  35,C  14,C  11,Si 10)     57.92 -0.000023    0.06     57.98   
   196. D(H  39,C  15,Si 10,C  16)     54.18  0.000028   -0.98     53.20   
   197. D(H  39,C  15,Si 10,C  11)    -69.81  0.000029   -0.97    -70.77   
   198. D(H  39,C  15,Si 10,O   9)    172.13  0.000152   -1.01    171.12   
   199. D(H  38,C  15,Si 10,C  16)    174.58 -0.000014   -0.89    173.69   
   200. D(H  38,C  15,Si 10,C  11)     50.59 -0.000014   -0.88     49.71   
   201. D(H  38,C  15,Si 10,O   9)    -67.47  0.000110   -0.92    -68.39   
   202. D(H  41,C  16,Si 10,C  15)    173.28 -0.000011   -0.43    172.85   
   203. D(H  41,C  16,Si 10,C  11)    -61.63  0.000097   -0.45    -62.08   
   204. D(H  41,C  16,Si 10,O   9)     61.84  0.000014   -0.42     61.42   
   205. D(H  42,C  16,Si 10,C  15)     53.44 -0.000033   -0.35     53.08   
   206. D(H  42,C  16,Si 10,C  11)    178.53  0.000074   -0.38    178.15   
   207. D(H  42,C  16,Si 10,O   9)    -57.99 -0.000009   -0.35    -58.34   
   208. D(C  18,O  17,C   6,C   8)     89.00 -0.000042    0.08     89.08   
   209. D(C  18,O  17,C   6,H   7)   -157.72  0.000000    0.03   -157.69   
   210. D(C  18,O  17,C   6,C   3)    -43.06 -0.000026    0.06    -43.00   
   211. D(C  22,C  18,O  17,C   6)     50.82 -0.000037   -0.07     50.76   
   212. D(O  20,C  18,O  17,C   6)    -73.31 -0.000111   -0.04    -73.35   
   213. D(H  19,C  18,O  17,C   6)    168.01 -0.000068   -0.03    167.97   
   214. D(C  21,O  20,C  18,C  22)    167.37 -0.000038    0.20    167.57   
   215. D(C  21,O  20,C  18,H  19)     48.44 -0.000033    0.22     48.66   
   216. D(C  21,O  20,C  18,O  17)    -66.13 -0.000039    0.21    -65.92   
   217. D(H  46,C  21,O  20,C  18)    -62.37 -0.000016    0.23    -62.14   
   218. D(H  45,C  21,O  20,C  18)     58.87 -0.000022    0.26     59.13   
   219. D(H  44,C  21,O  20,C  18)    178.36 -0.000009    0.24    178.60   
   220. D(H  23,C  22,C  18,O  20)    -45.52  0.000028   -0.01    -45.53   
   221. D(H  23,C  22,C  18,H  19)     73.75  0.000024   -0.06     73.69   
   222. D(H  23,C  22,C  18,O  17)   -173.06  0.000049   -0.05   -173.11   
   223. D(C   1,C  22,C  18,O  20)     72.38  0.000046    0.04     72.41   
   224. D(C   1,C  22,C  18,H  19)   -168.36  0.000042   -0.01   -168.37   
   225. D(C   1,C  22,C  18,O  17)    -55.17  0.000068   -0.00    -55.17   
   226. D(H  23,C  22,C   1,C   3)    170.48 -0.000016    0.14    170.62   
   227. D(H  23,C  22,C   1,H   2)    -73.61 -0.000043    0.21    -73.40   
   228. D(H  23,C  22,C   1,O   0)     42.64  0.000037    0.15     42.79   
   229. D(C  18,C  22,C   1,C   3)     52.75  0.000011    0.08     52.83   
   230. D(C  18,C  22,C   1,H   2)    168.67 -0.000016    0.14    168.81   
   231. D(C  18,C  22,C   1,O   0)    -75.08  0.000063    0.09    -75.00   
   232. D(H  47,O  24,C  22,H  23)    -57.42  0.000047   -0.19    -57.61   
   233. D(H  47,O  24,C  22,C  18)     62.75 -0.000033   -0.17     62.58   
   234. D(H  47,O  24,C  22,C   1)   -175.71 -0.000004   -0.19   -175.90   
    ----------------------------------------------------------------------------

Geometry step timings:
Preparation and reading OPT file:      0.001 s ( 4.666 %)
Internal coordinates            :      0.000 s ( 0.181 %)
B/P matrices and projection     :      0.005 s (22.373 %)
Hessian update/contruction      :      0.009 s (43.748 %)
Making the step                 :      0.003 s (14.747 %)
Converting the step to Cartesian:      0.000 s ( 2.014 %)
Storing new data                :      0.001 s ( 4.281 %)
Checking convergence            :      0.000 s ( 0.171 %)
Final printing                  :      0.002 s ( 7.811 %)
Total time                      :      0.021 s

Time for energy+gradient        :      0.088 s
Time for complete geometry iter :      0.122 s

         *************************************************************
         *                GEOMETRY OPTIMIZATION CYCLE  10            *
         *************************************************************
---------------------------------
CARTESIAN COORDINATES (ANGSTROEM)
---------------------------------
  O    -1.357154    2.147693    0.118126
  C     0.015324    1.919448    0.045760
  H     0.365321    1.828638    1.083005
  C     0.394664    0.609001   -0.675673
  H    -0.327555   -0.161733   -0.383203
  O     1.646606    0.145394   -0.229220
  C     0.381660    0.715275   -2.218838
  H     1.100149   -0.031911   -2.583667
  C    -0.970496    0.333279   -2.850058
  O    -2.044521    1.041197   -2.314268
  Si   -3.639609    0.987569   -2.720774
  C    -4.450341   -0.679738   -2.162824
  C    -3.910258   -1.081064   -0.785984
  C    -5.969984   -0.519555   -2.059153
  C    -4.157016   -1.815769   -3.150292
  C    -4.298073    2.462158   -1.724505
  C    -3.875750    1.228415   -4.602482
  O     0.908720    1.932971   -2.734107
  C     0.556332    3.138244   -2.112237
  H     1.267717    3.858966   -2.564088
  O    -0.752116    3.555038   -2.356729
  C    -1.002198    3.896959   -3.706424
  C     0.770527    3.104437   -0.588932
  H     0.356055    4.033291   -0.171966
  O     2.135828    2.958739   -0.273404
  H    -1.727399    2.072537   -0.780649
  H     2.272161    0.884906   -0.278851
  H    -0.905773    0.514787   -3.928955
  H    -1.114338   -0.741745   -2.690360
  H    -4.106981   -0.305089   -0.050289
  H    -2.835174   -1.243344   -0.822724
  H    -4.380725   -2.003559   -0.444347
  H    -6.226453    0.241106   -1.326914
  H    -6.431368   -1.457883   -1.752449
  H    -6.394890   -0.229026   -3.016771
  H    -3.085942   -1.966939   -3.269504
  H    -4.584202   -1.600261   -4.126482
  H    -4.590002   -2.749459   -2.790562
  H    -4.260349    2.269250   -0.657406
  H    -5.326003    2.685672   -1.986563
  H    -3.702724    3.349777   -1.909150
  H    -3.387907    0.443586   -5.174401
  H    -3.453535    2.176287   -4.923665
  H    -4.924487    1.229773   -4.880850
  H    -2.051612    4.174817   -3.756462
  H    -0.807989    3.049357   -4.367991
  H    -0.373713    4.742310   -4.009925
  H     2.633404    3.718778   -0.600641

----------------------------
CARTESIAN COORDINATES (A.U.)
----------------------------
  NO LB    ZA    FRAG    MASS        X           Y           Z
   0 O   8.0000    1    15.999   -2.564650    4.058551    0.223226
   1 C   6.0000    1    12.011    0.028958    3.627231    0.086474
   2 H   1.0000    1     1.008    0.690357    3.455625    2.046583
   3 C   6.0000    1    12.011    0.745807    1.150844   -1.276837
   4 H   1.0000    1     1.008   -0.618990   -0.305631   -0.724148
   5 O   8.0000    1    15.999    3.111634    0.274755   -0.433163
   6 C   6.0000    1    12.011    0.721232    1.351674   -4.192997
   7 H   1.0000    1     1.008    2.078980   -0.060303   -4.882423
   8 C   6.0000    1    12.011   -1.833971    0.629806   -5.385829
   9 O   8.0000    1    15.999   -3.863584    1.967578   -4.373334
  10 Si 14.0000    1    28.086   -6.877864    1.866235   -5.141517
  11 C   6.0000    1    12.011   -8.409926   -1.284519   -4.087146
  12 C   6.0000    1    12.011   -7.389317   -2.042915   -1.485295
  13 C   6.0000    1    12.011  -11.281635   -0.981816   -3.891235
  14 C   6.0000    1    12.011   -7.855622   -3.431307   -5.953189
  15 C   6.0000    1    12.011   -8.122181    4.652805   -3.258843
  16 C   6.0000    1    12.011   -7.324106    2.321368   -8.697431
  17 O   8.0000    1    15.999    1.717231    3.652787   -5.166714
  18 C   6.0000    1    12.011    1.051315    5.930422   -3.991549
  19 H   1.0000    1     1.008    2.395637    7.292389   -4.845424
  20 O   8.0000    1    15.999   -1.421293    6.718049   -4.453573
  21 C   6.0000    1    12.011   -1.893880    7.364185   -7.004126
  22 C   6.0000    1    12.011    1.456085    5.866536   -1.112921
  23 H   1.0000    1     1.008    0.672847    7.621816   -0.324969
  24 O   8.0000    1    15.999    4.036129    5.591207   -0.516659
  25 H   1.0000    1     1.008   -3.264312    3.916527   -1.475213
  26 H   1.0000    1     1.008    4.293763    1.672231   -0.526953
  27 H   1.0000    1     1.008   -1.711663    0.972806   -7.424648
  28 H   1.0000    1     1.008   -2.105794   -1.401696   -5.084043
  29 H   1.0000    1     1.008   -7.761069   -0.576535   -0.095033
  30 H   1.0000    1     1.008   -5.357702   -2.349580   -1.554722
  31 H   1.0000    1     1.008   -8.278371   -3.786177   -0.839695
  32 H   1.0000    1     1.008  -11.766291    0.455625   -2.507504
  33 H   1.0000    1     1.008  -12.153523   -2.755000   -3.311649
  34 H   1.0000    1     1.008  -12.084591   -0.432797   -5.700871
  35 H   1.0000    1     1.008   -5.831586   -3.716976   -6.178467
  36 H   1.0000    1     1.008   -8.662886   -3.024055   -7.797921
  37 H   1.0000    1     1.008   -8.673846   -5.195725   -5.273398
  38 H   1.0000    1     1.008   -8.050893    4.288261   -1.242317
  39 H   1.0000    1     1.008  -10.064687    5.075184   -3.754060
  40 H   1.0000    1     1.008   -6.997134    6.330162   -3.607771
  41 H   1.0000    1     1.008   -6.402216    0.838255   -9.778200
  42 H   1.0000    1     1.008   -6.526235    4.112587   -9.304379
  43 H   1.0000    1     1.008   -9.305931    2.323935   -9.223470
  44 H   1.0000    1     1.008   -3.876986    7.889261   -7.098684
  45 H   1.0000    1     1.008   -1.526878    5.762449   -8.254306
  46 H   1.0000    1     1.008   -0.706215    8.961666   -7.577659
  47 H   1.0000    1     1.008    4.976412    7.027472   -1.135047

      -----------------------------------------------------------      
     |                   =====================                   |     
     |                           x T B                           |     
     |                   =====================                   |     
     |                         S. Grimme                         |     
     |          Mulliken Center for Theoretical Chemistry        |     
     |                    University of Bonn                     |     
      -----------------------------------------------------------      

   * xtb version 6.7.1 (edcfbbe) compiled by 'albert@albert-system' on 2024-07-22

   xtb is free software: you can redistribute it and/or modify it under
   the terms of the GNU Lesser General Public License as published by
   the Free Software Foundation, either version 3 of the License, or
   (at your option) any later version.
   
   xtb is distributed in the hope that it will be useful,
   but WITHOUT ANY WARRANTY; without even the implied warranty of
   MERCHANTABILITY or FITNESS FOR A PARTICULAR PURPOSE.  See the
   GNU Lesser General Public License for more details.
   
   Cite this work as:
   * C. Bannwarth, E. Caldeweyher, S. Ehlert, A. Hansen, P. Pracht,
     J. Seibert, S. Spicher, S. Grimme, WIREs Comput. Mol. Sci., 2020, 11,
     e01493. DOI: 10.1002/wcms.1493
   
   for GFN2-xTB:
   * C. Bannwarth, S. Ehlert and S. Grimme., J. Chem. Theory Comput., 2019,
     15, 1652-1671. DOI: 10.1021/acs.jctc.8b01176
   for GFN1-xTB:
   * S. Grimme, C. Bannwarth, P. Shushkov, J. Chem. Theory Comput., 2017,
     13, 1989-2009. DOI: 10.1021/acs.jctc.7b00118
   for GFN0-xTB:
   * P. Pracht, E. Caldeweyher, S. Ehlert, S. Grimme, ChemRxiv, 2019, preprint.
     DOI: 10.26434/chemrxiv.8326202.v1
   for GFN-FF:
   * S. Spicher and S. Grimme, Angew. Chem. Int. Ed., 2020, 59, 15665-15673.
     DOI: 10.1002/anie.202004239
   
   for ALPB and GBSA implicit solvation:
   * S. Ehlert, M. Stahn, S. Spicher, S. Grimme, J. Chem. Theory Comput.,
     2021, 17, 4250-4261. DOI: 10.1021/acs.jctc.1c00471
   
   for ddCOSMO and CPCM-X implicit solvation:
   * M. Stahn, S. Ehlert, S. Grimme, J. Phys. Chem. A,
     2023, XX, XXXX-XXXX. DOI: 10.1021/acs.jpca.3c04382
   
   for DFT-D4:
   * E. Caldeweyher, C. Bannwarth and S. Grimme, J. Chem. Phys., 2017,
     147, 034112. DOI: 10.1063/1.4993215
   * E. Caldeweyher, S. Ehlert, A. Hansen, H. Neugebauer, S. Spicher,
     C. Bannwarth and S. Grimme, J. Chem. Phys., 2019, 150, 154122.
     DOI: 10.1063/1.5090222
   * E. Caldeweyher, J.-M. Mewes, S. Ehlert and S. Grimme, Phys. Chem. Chem. Phys.
     2020, 22, 8499-8512. DOI: 10.1039/D0CP00502A
   
   for sTDA-xTB:
   * S. Grimme and C. Bannwarth, J. Chem. Phys., 2016, 145, 054103.
     DOI: 10.1063/1.4959605
   
   in the mass-spec context:
   * V. Asgeirsson, C. Bauer and S. Grimme, Chem. Sci., 2017, 8, 4879.
     DOI: 10.1039/c7sc00601b
   * J. Koopman and S. Grimme, ACS Omega 2019, 4, 12, 15120-15133.
     DOI: 10.1021/acsomega.9b02011
   
   for metadynamics refer to:
   * S. Grimme, J. Chem. Theory Comput., 2019, 155, 2847-2862
     DOI: 10.1021/acs.jctc.9b00143
   
   for SPH calculations refer to:
   * S. Spicher and S. Grimme, J. Chem. Theory Comput., 2021, 17, 1701-1714
     DOI: 10.1021/acs.jctc.0c01306
   
   for ONIOM refer to:
   * C. Plett, A. Katbashev, S. Ehlert, S. Grimme, M. Bursch,
     Phys. Chem. Chem. Phys., 2023, 25, 17860-17868. DOI: 10.1039/D3CP02178E
   
   for DIPRO refer to:
   * J. Kohn, N. Gildemeister, S. Grimme, D. Fazzi, A. Hansen,
     J. Chem. Phys., 2023, just accepted.
   
   for PTB refer to:
   * S. Grimme, M. Mueller, A. Hansen, J. Chem. Phys., 2023, 158, 124111.
     DOI: 10.1063/5.0137838
   
   with help from (in alphabetical order)
   P. Atkinson, C. Bannwarth, F. Bohle, G. Brandenburg, E. Caldeweyher
   M. Checinski, S. Dohm, S. Ehlert, S. Ehrlich, I. Gerasimov, C. Hölzer
   A. Katbashev, J. Kohn, J. Koopman, C. Lavigne, S. Lehtola, F. März, M. Müller,
   F. Musil, H. Neugebauer, J. Pisarek, C. Plett, P. Pracht, F. Pultar,
   J. Seibert, P. Shushkov, S. Spicher, M. Stahn, M. Steiner, T. Strunk,
   J. Stückrath, T. Rose, and J. Unsleber
   
 * started run on 2025/09/10 at 11:36:46.226     
   ID    Z sym.   atoms
    1    8 O      1, 6, 10, 18, 21, 25
    2    6 C      2, 4, 7, 9, 12-17, 19, 22, 23
    3    1 H      3, 5, 8, 20, 24, 26-48
    4   14 Si     11

           -------------------------------------------------
          |                Calculation Setup                |
           -------------------------------------------------

          program call               : /home/kmoult/orca_6_1/otool_xtb goat_0_XTB.xyz --grad -c 0 -u 0 -P 4 --namespace goat_0 --input goat_0_XTB.input.tmp --alpb ACETONE --acc 0.200000
          hostname                   : node1600
          calculation namespace      : goat_0
          coordinate file            : goat_0_XTB.xyz
          omp threads                :                     4


           -------------------------------------------------
          |                 G F N 2 - x T B                 |
           -------------------------------------------------

        Reference                      10.1021/acs.jctc.8b01176
      * Hamiltonian:
        H0-scaling (s, p, d)           1.850000    2.230000    2.230000
        zeta-weighting                 0.500000
      * Dispersion:
        s8                             2.700000
        a1                             0.520000
        a2                             5.000000
        s9                             5.000000
      * Repulsion:
        kExp                           1.500000    1.000000
        rExp                           1.000000
      * Coulomb:
        alpha                          2.000000
        third order                    shell-resolved
        anisotropic                    true
        a3                             3.000000
        a5                             4.000000
        cn-shift                       1.200000
        cn-exp                         4.000000
        max-rad                        5.000000

      * Solvation model:               ALPB
        Solvent                        ACETONE
        Parameter file                 internal GFN2-xTB/ALPB
        Dielectric constant                2.0700E+01
        Reference state                gsolv [1 M gas/solution]
        Free energy shift                  5.9241E-03 Eh       3.7175E+00 kcal/mol
        Temperature                        2.9815E+02 K
        Density                            7.9000E-01 kg/L
        Solvent mass                       5.8080E+01 g/mol
        Interaction kernel             P16
        Born radius scaling (c1)           1.8274E+00
        Born radii integrator          GBOBC
        Born offset                        0.0000E+00 a0       0.0000E+00 AA
        H-bond correction              true
        Ion screening                  false
        Surface tension                    1.0000E-05 Eh       1.5569E+01 dyn/cm
        Grid points                               230 per atom
q/qsh data taken from xtbrestart
CAMM data taken from xtbrestart

          ...................................................
          :                      SETUP                      :
          :.................................................:
          :  # basis functions                 114          :
          :  # atomic orbitals                 113          :
          :  # shells                           69          :
          :  # electrons                       120          :
          :  max. iterations                   250          :
          :  Hamiltonian                  GFN2-xTB          :
          :  restarted?                       true          :
          :  GBSA solvation                   true          :
          :  PC potential                    false          :
          :  electronic temp.          300.0000000     K    :
          :  accuracy                    0.2000000          :
          :  -> integral cutoff          0.3198970E+02      :
          :  -> integral neglect         0.2000000E-08      :
          :  -> SCF convergence          0.2000000E-06 Eh   :
          :  -> wf. convergence          0.2000000E-04 e    :
          :  Broyden damping             0.4000000          :
          :  net charge                          0          :
          :  unpaired electrons                  0          :
          ...................................................

 iter      E             dE          RMSdq      gap      omega  full diag
   1    -68.9914910 -0.689915E+02  0.181E-02    6.35       0.0  T
   2    -68.9914911 -0.103728E-06  0.117E-02    6.35       1.2  T
   3    -68.9914910  0.793119E-07  0.302E-03    6.35       4.8  T
   4    -68.9914911 -0.114899E-06  0.196E-03    6.35       7.4  T
   5    -68.9914911  0.433684E-08  0.748E-04    6.35      19.3  T
   6    -68.9914911 -0.134739E-07  0.333E-04    6.35      43.3  T
   7    -68.9914911 -0.718870E-09  0.995E-05    6.35     145.1  T
   8    -68.9914911 -0.182325E-10  0.687E-05    6.35     210.1  T

   *** convergence criteria satisfied after 8 iterations ***

         #    Occupation            Energy/Eh            Energy/eV
      -------------------------------------------------------------
         1        2.0000           -0.7766816             -21.1346
       ...           ...                  ...                  ...
        54        2.0000           -0.4217594             -11.4767
        55        2.0000           -0.4207898             -11.4503
        56        2.0000           -0.4161551             -11.3242
        57        2.0000           -0.4028244             -10.9614
        58        2.0000           -0.3961315             -10.7793
        59        2.0000           -0.3945305             -10.7357
        60        2.0000           -0.3709131             -10.0931 (HOMO)
        61                         -0.1376385              -3.7453 (LUMO)
        62                         -0.1237011              -3.3661
        63                         -0.1105599              -3.0085
        64                         -0.0176170              -0.4794
        65                         -0.0097050              -0.2641
       ...                                ...                  ...
       113                          0.7774286              21.1549
      -------------------------------------------------------------
                  HL-Gap            0.2332746 Eh            6.3477 eV
             Fermi-level           -0.2542758 Eh           -6.9192 eV

 SCC (total)                   0 d,  0 h,  0 min,  0.069 sec
 SCC setup                      ...        0 min,  0.001 sec (  1.390%)
 Dispersion                     ...        0 min,  0.001 sec (  0.770%)
 classical contributions        ...        0 min,  0.000 sec (  0.129%)
 integral evaluation            ...        0 min,  0.019 sec ( 27.083%)
 iterations                     ...        0 min,  0.038 sec ( 54.826%)
 molecular gradient             ...        0 min,  0.011 sec ( 15.325%)
 printout                       ...        0 min,  0.000 sec (  0.446%)

         :::::::::::::::::::::::::::::::::::::::::::::::::::::
         ::                     SUMMARY                     ::
         :::::::::::::::::::::::::::::::::::::::::::::::::::::
         :: total energy             -68.319714963932 Eh    ::
         :: total w/o Gsasa/hb       -68.293968824994 Eh    ::
         :: gradient norm              0.000760132508 Eh/a0 ::
         :: HOMO-LUMO gap              6.347725631557 eV    ::
         ::.................................................::
         :: SCC energy               -68.990136342265 Eh    ::
         :: -> isotropic ES            0.159939606932 Eh    ::
         :: -> anisotropic ES          0.002725318137 Eh    ::
         :: -> anisotropic XC          0.004860906858 Eh    ::
         :: -> dispersion             -0.048942438084 Eh    ::
         :: -> Gsolv                  -0.029272746083 Eh    ::
         ::    -> Gelec               -0.003526607146 Eh    ::
         ::    -> Gsasa               -0.026363406146 Eh    ::
         ::    -> Ghb                 -0.005306874056 Eh    ::
         ::    -> Gshift               0.005924141264 Eh    ::
         :: repulsion energy           0.670421378333 Eh    ::
         :: add. restraining           0.000000000000 Eh    ::
         :: total charge              -0.000000000000 e     ::
         :::::::::::::::::::::::::::::::::::::::::::::::::::::


Property printout bound to 'properties.out'

           -------------------------------------------------
          | TOTAL ENERGY              -68.319714963932 Eh   |
          | GRADIENT NORM               0.000760132508 Eh/α |
          | HOMO-LUMO GAP               6.347725631557 eV   |
           -------------------------------------------------

------------------------------------------------------------------------
 * finished run on 2025/09/10 at 11:36:46.319     
------------------------------------------------------------------------
 total:
 * wall-time:     0 d,  0 h,  0 min,  0.093 sec
 *  cpu-time:     0 d,  0 h,  0 min,  0.260 sec
 * ratio c/w:     2.799 speedup
 SCF:
 * wall-time:     0 d,  0 h,  0 min,  0.069 sec
 *  cpu-time:     0 d,  0 h,  0 min,  0.207 sec
 * ratio c/w:     2.986 speedup


-------------------------   --------------------
FINAL SINGLE POINT ENERGY       -68.319714963930
-------------------------   --------------------


-------------
DIPOLE MOMENT
-------------
                                X             Y             Z
Total Dipole Moment    :     -0.08700       0.95100      -1.74800
                        -----------------------------------------
Magnitude (a.u.)       :      1.99185
Magnitude (Debye)      :      5.06289


------------------
CARTESIAN GRADIENT
------------------

   1   O   :   -0.000073678    0.000051410    0.000146279
   2   C   :    0.000088073    0.000048266    0.000061520
   3   H   :   -0.000042834    0.000024008   -0.000009613
   4   C   :   -0.000017536    0.000060950   -0.000095740
   5   H   :    0.000067115   -0.000052386    0.000056168
   6   O   :   -0.000023611   -0.000069088    0.000030802
   7   C   :    0.000086593    0.000165788    0.000014609
   8   H   :    0.000005803   -0.000010458   -0.000053758
   9   C   :    0.000128986    0.000038853    0.000078915
  10   O   :   -0.000048005   -0.000195060    0.000026031
  11   Si  :   -0.000014575    0.000133576   -0.000085653
  12   C   :    0.000080073    0.000067766    0.000023563
  13   C   :    0.000007575    0.000102280   -0.000057465
  14   C   :    0.000078377    0.000001228   -0.000071643
  15   C   :    0.000048791    0.000090224    0.000000991
  16   C   :   -0.000095152    0.000027894   -0.000076187
  17   C   :   -0.000105607   -0.000066166    0.000037622
  18   O   :   -0.000105052    0.000012194    0.000134992
  19   C   :   -0.000076668   -0.000122805    0.000067999
  20   H   :    0.000105604    0.000057567   -0.000046760
  21   O   :    0.000129220    0.000033841   -0.000122526
  22   C   :    0.000004235   -0.000030918    0.000010497
  23   C   :   -0.000246393   -0.000075435   -0.000106011
  24   H   :   -0.000023866    0.000008314    0.000015062
  25   O   :    0.000173405    0.000024208    0.000004482
  26   H   :    0.000038099   -0.000034541   -0.000116626
  27   H   :    0.000005481   -0.000067249   -0.000009637
  28   H   :   -0.000083910    0.000008076   -0.000008993
  29   H   :    0.000001016   -0.000023585    0.000000680
  30   H   :   -0.000008243   -0.000014020   -0.000019583
  31   H   :   -0.000025288   -0.000017496    0.000001635
  32   H   :   -0.000005368   -0.000061894    0.000032247
  33   H   :    0.000008488   -0.000010154   -0.000004171
  34   H   :   -0.000043334   -0.000026052    0.000016913
  35   H   :   -0.000013820   -0.000007041    0.000017502
  36   H   :   -0.000023643   -0.000010180    0.000007475
  37   H   :   -0.000029969   -0.000035667    0.000015999
  38   H   :   -0.000021298   -0.000051776   -0.000017468
  39   H   :    0.000039143    0.000025241    0.000011213
  40   H   :   -0.000012504    0.000000614    0.000097591
  41   H   :    0.000032340   -0.000051775   -0.000031881
  42   H   :   -0.000036064    0.000018793   -0.000027786
  43   H   :    0.000059004   -0.000002630    0.000030715
  44   H   :    0.000023565   -0.000005959   -0.000019242
  45   H   :    0.000024005    0.000023286   -0.000018568
  46   H   :   -0.000015281   -0.000027190    0.000046296
  47   H   :   -0.000029359    0.000050731    0.000019777
  48   H   :   -0.000013933   -0.000005586   -0.000008264

Difference to translation invariance:
           :   -0.0000000000    0.0000000000   -0.0000000000

Difference to rotation invariance:
           :   -0.0000432093   -0.0002623960   -0.0001588167

Norm of the Cartesian gradient     ...    0.0007601325
RMS gradient                       ...    0.0000633444
MAX gradient                       ...    0.0002463928
------------------------------------------------------------------------------
                         ORCA GEOMETRY RELAXATION STEP
------------------------------------------------------------------------------

Reading the OPT-File                    .... done
Getting information on internals        .... done
Copying old internal coords+grads       .... done
Making the new internal coordinates     .... (2022 redundants) done
Validating the new internal coordinates .... (2022 redundants) done
Calculating the B-matrix                .... done
Calculating the G,G- and P matrices     .... done
Transforming gradient to internals      .... done
Projecting the internal gradient        .... done
Number of atoms                         ....  48
Number of internal coordinates          .... 234
Current Energy                          ....   -68.319714964 Eh
Current gradient norm                   ....     0.000760133 Eh/bohr
Maximum allowed component of the step   ....  0.300
Current trust radius                    ....  0.700
Updating the Hessian (BFGS)             .... done
Forming the augmented Hessian           .... done
Diagonalizing the augmented Hessian     .... done
Last element of RFO vector              ....  0.999402750
Lowest eigenvalues of augmented Hessian:
 -0.000005267  0.002398913  0.007766474  0.009993457  0.010066356
Length of the computed step             ....  0.034577023
The final length of the internal step   ....  0.034577023
Converting the step to Cartesian space:
 Initial RMS(Int)=    0.0022603707
Transforming coordinates:
 Iter   0:  RMS(Cart)=    0.0041773485 RMS(Int)=    0.0022603816
done
Storing new coordinates                 .... done
The predicted energy change is          ....    -0.000002637
Previously predicted energy change      ....    -0.000008103
Actually observed energy change         ....    -0.000010292
Ratio of predicted to observed change   ....     1.270101512
New trust radius                        ....     0.700000000

                                .--------------------.
          ----------------------|Geometry convergence|-------------------------
          Item                value                   Tolerance       Converged
          ---------------------------------------------------------------------
          Energy change      -0.0000102918            0.0000050000      NO
          RMS gradient        0.0000475252            0.0001000000      YES
          MAX gradient        0.0002336246            0.0003000000      YES
          RMS step            0.0022603707            0.0020000000      NO
          MAX step            0.0116612690            0.0040000000      NO
          -------------------------------------------------------------------------
          ........................................................
          Max(Bonds)      0.0037      Max(Angles)    0.07
          Max(Dihed)        0.67      Max(Improp)    0.00
          ---------------------------------------------------------------------

    ---------------------------------------------------------------------------
                         Redundant Internal Coordinates
                            (Angstroem and degrees)

        Definition                    Value    dE/dq     Step     New-Value
    ----------------------------------------------------------------------------
     1. B(C   1,O   0)                1.3932  0.000030  0.0000    1.3932   
     2. B(H   2,C   1)                1.0985 -0.000025  0.0000    1.0985   
     3. B(C   3,C   1)                1.5433  0.000094 -0.0000    1.5432   
     4. B(H   4,C   3)                1.0960  0.000007  0.0001    1.0960   
     5. B(O   5,C   3)                1.4077  0.000021 -0.0000    1.4077   
     6. B(C   6,C   3)                1.5469  0.000022 -0.0001    1.5468   
     7. B(H   7,C   6)                1.0989  0.000029 -0.0000    1.0989   
     8. B(C   8,C   6)                1.5404  0.000074 -0.0000    1.5403   
     9. B(O   9,C   8)                1.3935  0.000001 -0.0000    1.3934   
    10. B(Si 10,O   9)                1.6469  0.000077  0.0001    1.6471   
    11. B(C  11,Si 10)                1.9361 -0.000056 -0.0000    1.9361   
    12. B(C  12,C  11)                1.5325 -0.000049  0.0001    1.5326   
    13. B(C  13,C  11)                1.5316 -0.000038  0.0001    1.5317   
    14. B(C  14,C  11)                1.5335 -0.000004  0.0001    1.5336   
    15. B(C  15,Si 10)                1.8975  0.000016  0.0000    1.8976   
    16. B(C  16,Si 10)                1.9117 -0.000023  0.0002    1.9119   
    17. B(O  17,C   6)                1.4234 -0.000083  0.0002    1.4236   
    18. B(C  18,O  17)                1.4013 -0.000137 -0.0001    1.4011   
    19. B(H  19,C  18)                1.1089  0.000124 -0.0001    1.1088   
    20. B(O  20,C  18)                1.3948 -0.000071  0.0002    1.3950   
    21. B(C  21,O  20)                1.4146 -0.000048  0.0000    1.4146   
    22. B(C  22,C  18)                1.5387 -0.000081  0.0001    1.5387   
    23. B(C  22,C   1)                1.5419 -0.000042 -0.0000    1.5419   
    24. B(H  23,C  22)                1.0993  0.000022 -0.0000    1.0992   
    25. B(O  24,C  22)                1.4088  0.000158  0.0000    1.4089   
    26. B(H  25,O   0)                0.9749  0.000103 -0.0001    0.9749   
    27. B(H  25,O  20)                2.3734  0.000024 -0.0037    2.3697   
    28. B(H  25,O   9)                1.8752 -0.000002  0.0014    1.8766   
    29. B(H  26,O   5)                0.9699 -0.000018  0.0001    0.9700   
    30. B(H  26,O  24)                2.0783  0.000039 -0.0030    2.0753   
    31. B(H  27,C   8)                1.0960  0.000006  0.0001    1.0960   
    32. B(H  28,C   8)                1.0963  0.000023 -0.0001    1.0962   
    33. B(H  29,C  12)                1.0872 -0.000022  0.0001    1.0873   
    34. B(H  30,C  12)                1.0879 -0.000021  0.0001    1.0879   
    35. B(H  31,C  12)                1.0904  0.000065 -0.0001    1.0904   
    36. B(H  32,C  13)                1.0865 -0.000012  0.0000    1.0866   
    37. B(H  33,C  13)                1.0897  0.000046 -0.0000    1.0896   
    38. B(H  34,C  13)                1.0872 -0.000013  0.0000    1.0872   
    39. B(H  35,C  14)                1.0882 -0.000022  0.0000    1.0883   
    40. B(H  36,C  14)                1.0871 -0.000010  0.0000    1.0872   
    41. B(H  37,C  14)                1.0903  0.000047 -0.0000    1.0902   
    42. B(H  38,C  15)                1.0851  0.000009 -0.0000    1.0850   
    43. B(H  39,C  15)                1.0841 -0.000012  0.0000    1.0841   
    44. B(H  40,C  15)                1.0846 -0.000020  0.0001    1.0847   
    45. B(H  41,C  16)                1.0868 -0.000016  0.0001    1.0868   
    46. B(H  42,C  16)                1.0862  0.000011  0.0000    1.0863   
    47. B(H  43,C  16)                1.0851 -0.000017  0.0000    1.0851   
    48. B(H  44,C  21)                1.0867 -0.000015  0.0000    1.0868   
    49. B(H  45,C  21)                1.0926 -0.000011 -0.0000    1.0926   
    50. B(H  46,C  21)                1.0962  0.000017 -0.0000    1.0962   
    51. B(H  47,O  24)                0.9656 -0.000008  0.0000    0.9656   
    52. A(C   1,O   0,H  25)          108.28 -0.000175    0.03    108.30   
    53. A(H   2,C   1,C   3)          107.03  0.000017    0.00    107.04   
    54. A(O   0,C   1,H   2)          106.16 -0.000000   -0.03    106.13   
    55. A(C   3,C   1,C  22)          109.86 -0.000048   -0.01    109.85   
    56. A(O   0,C   1,C  22)          112.21 -0.000009    0.02    112.23   
    57. A(O   0,C   1,C   3)          113.93  0.000030    0.01    113.93   
    58. A(H   2,C   1,C  22)          107.23  0.000013    0.02    107.24   
    59. A(H   4,C   3,O   5)          105.65 -0.000079    0.00    105.66   
    60. A(C   1,C   3,C   6)          113.95 -0.000053    0.00    113.95   
    61. A(C   1,C   3,H   4)          108.08  0.000034    0.01    108.09   
    62. A(C   1,C   3,O   5)          110.49  0.000050   -0.01    110.47   
    63. A(O   5,C   3,C   6)          110.27  0.000032   -0.00    110.27   
    64. A(H   4,C   3,C   6)          108.00  0.000013    0.01    108.00   
    65. A(C   3,O   5,H  26)          107.84  0.000028   -0.01    107.83   
    66. A(H   7,C   6,C   8)          105.62 -0.000039   -0.00    105.62   
    67. A(C   3,C   6,C   8)          113.52 -0.000066    0.03    113.55   
    68. A(C   3,C   6,H   7)          106.20  0.000051   -0.00    106.20   
    69. A(C   3,C   6,O  17)          114.63 -0.000024   -0.01    114.62   
    70. A(C   8,C   6,O  17)          112.88  0.000116   -0.03    112.86   
    71. A(H   7,C   6,O  17)          102.67 -0.000041    0.02    102.69   
    72. A(H  27,C   8,H  28)          108.27 -0.000019    0.00    108.28   
    73. A(C   6,C   8,O   9)          113.14  0.000111   -0.02    113.13   
    74. A(C   6,C   8,H  27)          108.09  0.000054   -0.04    108.05   
    75. A(O   9,C   8,H  28)          109.94 -0.000024    0.02    109.96   
    76. A(O   9,C   8,H  27)          109.87 -0.000078    0.01    109.88   
    77. A(C   6,C   8,H  28)          107.38 -0.000046    0.02    107.40   
    78. A(C   8,O   9,Si 10)          129.42  0.000234   -0.03    129.39   
    79. A(C  15,Si 10,C  16)          112.09 -0.000010    0.07    112.16   
    80. A(C  11,Si 10,C  16)          109.90 -0.000052   -0.02    109.88   
    81. A(O   9,Si 10,C  16)          111.01  0.000124   -0.06    110.95   
    82. A(C  11,Si 10,C  15)          111.88  0.000075   -0.05    111.82   
    83. A(O   9,Si 10,C  15)          100.44 -0.000055    0.01    100.44   
    84. A(O   9,Si 10,C  11)          111.25 -0.000078    0.06    111.31   
    85. A(C  12,C  11,C  14)          108.49  0.000014   -0.01    108.48   
    86. A(C  13,C  11,C  14)          108.11 -0.000035   -0.01    108.10   
    87. A(Si 10,C  11,C  13)          110.18  0.000018   -0.01    110.17   
    88. A(Si 10,C  11,C  14)          111.86  0.000014    0.02    111.88   
    89. A(Si 10,C  11,C  12)          109.69 -0.000017    0.01    109.70   
    90. A(C  12,C  11,C  13)          108.44  0.000006   -0.01    108.43   
    91. A(H  29,C  12,H  31)          108.28  0.000004   -0.01    108.28   
    92. A(C  11,C  12,H  31)          110.55  0.000031    0.01    110.56   
    93. A(H  29,C  12,H  30)          107.95  0.000010   -0.01    107.94   
    94. A(C  11,C  12,H  30)          110.92 -0.000002    0.00    110.92   
    95. A(C  11,C  12,H  29)          110.93 -0.000010    0.00    110.94   
    96. A(H  30,C  12,H  31)          108.10 -0.000035   -0.00    108.10   
    97. A(H  32,C  13,H  33)          108.25 -0.000013   -0.00    108.25   
    98. A(C  11,C  13,H  33)          110.43  0.000037   -0.00    110.43   
    99. A(C  11,C  13,H  32)          110.67 -0.000025    0.01    110.68   
   100. A(C  11,C  13,H  34)          110.86  0.000027   -0.00    110.86   
   101. A(H  33,C  13,H  34)          108.21 -0.000020   -0.00    108.21   
   102. A(H  32,C  13,H  34)          108.32 -0.000009    0.00    108.32   
   103. A(H  36,C  14,H  37)          108.06 -0.000049    0.00    108.06   
   104. A(H  35,C  14,H  37)          107.94 -0.000011   -0.01    107.93   
   105. A(C  11,C  14,H  37)          110.24  0.000034   -0.00    110.24   
   106. A(H  35,C  14,H  36)          108.42  0.000005    0.00    108.42   
   107. A(C  11,C  14,H  36)          110.87  0.000008    0.00    110.87   
   108. A(C  11,C  14,H  35)          111.20  0.000011    0.00    111.21   
   109. A(H  39,C  15,H  40)          108.09  0.000031   -0.01    108.09   
   110. A(H  38,C  15,H  40)          107.09  0.000009    0.00    107.09   
   111. A(H  38,C  15,H  39)          107.90 -0.000050    0.01    107.91   
   112. A(Si 10,C  15,H  39)          111.24  0.000123    0.02    111.27   
   113. A(Si 10,C  15,H  38)          111.48 -0.000003   -0.01    111.47   
   114. A(Si 10,C  15,H  40)          110.86 -0.000112   -0.02    110.84   
   115. A(H  42,C  16,H  43)          107.38  0.000003   -0.01    107.37   
   116. A(H  41,C  16,H  43)          107.44 -0.000019    0.00    107.45   
   117. A(Si 10,C  16,H  43)          111.84  0.000037    0.02    111.87   
   118. A(H  41,C  16,H  42)          107.46 -0.000005   -0.01    107.45   
   119. A(Si 10,C  16,H  41)          111.81  0.000076   -0.03    111.78   
   120. A(Si 10,C  16,H  42)          110.67 -0.000094    0.03    110.70   
   121. A(C   6,O  17,C  18)          118.82  0.000097   -0.01    118.81   
   122. A(O  17,C  18,H  19)          102.53  0.000011    0.01    102.53   
   123. A(O  20,C  18,C  22)          108.10  0.000031   -0.03    108.07   
   124. A(H  19,C  18,C  22)          109.17  0.000008    0.02    109.19   
   125. A(O  17,C  18,C  22)          112.67 -0.000029    0.00    112.68   
   126. A(H  19,C  18,O  20)          109.64 -0.000026   -0.01    109.63   
   127. A(O  17,C  18,O  20)          114.53  0.000004    0.02    114.55   
   128. A(C  18,O  20,C  21)          113.91  0.000054    0.01    113.92   
   129. A(H  44,C  21,H  46)          110.10 -0.000044    0.01    110.11   
   130. A(H  45,C  21,H  46)          109.19  0.000064   -0.01    109.18   
   131. A(O  20,C  21,H  46)          110.44 -0.000001    0.00    110.44   
   132. A(H  44,C  21,H  45)          110.01  0.000008   -0.01    110.00   
   133. A(O  20,C  21,H  45)          111.02 -0.000060    0.01    111.04   
   134. A(O  20,C  21,H  44)          106.05  0.000031   -0.01    106.04   
   135. A(H  23,C  22,O  24)          111.58  0.000032   -0.02    111.56   
   136. A(C  18,C  22,O  24)          111.03 -0.000091    0.01    111.04   
   137. A(C   1,C  22,O  24)          107.64  0.000021   -0.00    107.64   
   138. A(C  18,C  22,H  23)          107.73 -0.000026    0.02    107.75   
   139. A(C   1,C  22,H  23)          107.97  0.000002    0.02    107.99   
   140. A(C   1,C  22,C  18)          110.87  0.000066   -0.03    110.84   
   141. A(C  22,O  24,H  47)          110.00 -0.000024    0.01    110.01   
   142. D(H   2,C   1,O   0,H  25)   -169.88 -0.000013   -0.17   -170.05   
   143. D(C  22,C   1,O   0,H  25)     73.29 -0.000025   -0.18     73.11   
   144. D(C   3,C   1,O   0,H  25)    -52.35  0.000024   -0.19    -52.53   
   145. D(H   4,C   3,C   1,C  22)   -166.03 -0.000034   -0.06   -166.09   
   146. D(O   5,C   3,C   1,C  22)     78.82  0.000014   -0.06     78.76   
   147. D(O   5,C   3,C   1,H   2)    -37.29  0.000014   -0.07    -37.36   
   148. D(H   4,C   3,C   1,H   2)     77.86 -0.000034   -0.07     77.79   
   149. D(O   5,C   3,C   1,O   0)   -154.32 -0.000014   -0.04   -154.36   
   150. D(H   4,C   3,C   1,O   0)    -39.16 -0.000062   -0.04    -39.21   
   151. D(H  26,O   5,C   3,H   4)   -166.75 -0.000022    0.10   -166.65   
   152. D(H  26,O   5,C   3,C   6)     76.79 -0.000009    0.09     76.88   
   153. D(H  26,O   5,C   3,C   1)    -50.08 -0.000001    0.10    -49.98   
   154. D(H   7,C   6,C   3,O   5)     27.81 -0.000052    0.05     27.86   
   155. D(H   7,C   6,C   3,H   4)    -87.18  0.000019    0.05    -87.14   
   156. D(H   7,C   6,C   3,C   1)    152.72  0.000000    0.03    152.76   
   157. D(C   8,C   6,C   3,H   4)     28.43 -0.000033    0.06     28.49   
   158. D(C   8,C   6,C   3,C   1)    -91.66 -0.000051    0.04    -91.62   
   159. D(C   8,C   6,C   3,O   5)    143.42 -0.000103    0.06    143.48   
   160. D(H  27,C   8,C   6,O  17)     42.99 -0.000030    0.17     43.16   
   161. D(H  27,C   8,C   6,H   7)    -68.44 -0.000013    0.16    -68.28   
   162. D(H  27,C   8,C   6,C   3)    175.61 -0.000016    0.15    175.76   
   163. D(O   9,C   8,C   6,O  17)    -78.92 -0.000041    0.20    -78.72   
   164. D(O   9,C   8,C   6,C   3)     53.70 -0.000027    0.18     53.88   
   165. D(O   9,C   8,C   6,H   7)    169.66 -0.000025    0.19    169.85   
   166. D(Si 10,O   9,C   8,H  27)     56.95 -0.000064    0.21     57.16   
   167. D(Si 10,O   9,C   8,C   6)    177.85  0.000025    0.15    178.00   
   168. D(Si 10,O   9,C   8,H  28)    -62.12  0.000023    0.18    -61.93   
   169. D(C  16,Si 10,O   9,C   8)    -51.70  0.000014   -0.22    -51.93   
   170. D(C  15,Si 10,O   9,C   8)   -170.41  0.000003   -0.28   -170.69   
   171. D(C  11,Si 10,O   9,C   8)     71.02 -0.000020   -0.25     70.77   
   172. D(C  12,C  11,Si 10,O   9)     39.55 -0.000045   -0.00     39.54   
   173. D(C  13,C  11,Si 10,C  16)    -77.80  0.000031   -0.05    -77.85   
   174. D(C  13,C  11,Si 10,C  15)     47.39  0.000033   -0.02     47.37   
   175. D(C  13,C  11,Si 10,O   9)    158.84 -0.000037   -0.01    158.83   
   176. D(C  12,C  11,Si 10,C  16)    162.91  0.000023   -0.05    162.86   
   177. D(C  12,C  11,Si 10,C  15)    -71.90  0.000025   -0.02    -71.92   
   178. D(H  30,C  12,C  11,C  14)     60.63  0.000014    0.02     60.65   
   179. D(H  30,C  12,C  11,C  13)    177.82 -0.000017   -0.00    177.82   
   180. D(H  30,C  12,C  11,Si 10)    -61.82 -0.000002   -0.01    -61.83   
   181. D(H  29,C  12,C  11,C  14)   -179.41  0.000020    0.01   -179.40   
   182. D(H  29,C  12,C  11,C  13)    -62.22 -0.000012   -0.01    -62.23   
   183. D(H  29,C  12,C  11,Si 10)     58.14  0.000004   -0.02     58.12   
   184. D(H  33,C  13,C  11,C  14)     57.07  0.000004   -0.02     57.04   
   185. D(H  33,C  13,C  11,C  12)    -60.37  0.000003   -0.00    -60.37   
   186. D(H  33,C  13,C  11,Si 10)    179.58  0.000010   -0.01    179.57   
   187. D(H  32,C  13,C  11,C  12)     59.49 -0.000005   -0.00     59.49   
   188. D(H  32,C  13,C  11,Si 10)    -60.56  0.000002   -0.01    -60.57   
   189. D(H  32,C  13,C  11,C  14)    176.92 -0.000004   -0.02    176.90   
   190. D(H  36,C  14,C  11,C  13)     58.76 -0.000011    0.06     58.82   
   191. D(H  36,C  14,C  11,C  12)    176.16 -0.000016    0.04    176.20   
   192. D(H  36,C  14,C  11,Si 10)    -62.72 -0.000019    0.06    -62.66   
   193. D(H  35,C  14,C  11,C  13)    179.46  0.000008    0.06    179.52   
   194. D(H  35,C  14,C  11,C  12)    -63.14  0.000003    0.04    -63.09   
   195. D(H  35,C  14,C  11,Si 10)     57.98  0.000000    0.06     58.05   
   196. D(H  39,C  15,Si 10,C  16)     53.20 -0.000016   -0.63     52.57   
   197. D(H  39,C  15,Si 10,C  11)    -70.77  0.000003   -0.62    -71.39   
   198. D(H  39,C  15,Si 10,O   9)    171.12  0.000092   -0.67    170.45   
   199. D(H  38,C  15,Si 10,C  16)    173.69  0.000002   -0.61    173.08   
   200. D(H  38,C  15,Si 10,C  11)     49.71  0.000022   -0.59     49.12   
   201. D(H  38,C  15,Si 10,O   9)    -68.40  0.000111   -0.64    -69.04   
   202. D(H  41,C  16,Si 10,C  15)    172.85 -0.000008   -0.27    172.58   
   203. D(H  41,C  16,Si 10,C  11)    -62.08  0.000042   -0.31    -62.39   
   204. D(H  41,C  16,Si 10,O   9)     61.42 -0.000008   -0.28     61.14   
   205. D(H  42,C  16,Si 10,C  15)     53.08  0.000011   -0.26     52.83   
   206. D(H  42,C  16,Si 10,C  11)    178.16  0.000061   -0.29    177.86   
   207. D(H  42,C  16,Si 10,O   9)    -58.34  0.000011   -0.27    -58.61   
   208. D(C  18,O  17,C   6,C   8)     89.07 -0.000029    0.00     89.08   
   209. D(C  18,O  17,C   6,H   7)   -157.69 -0.000048   -0.00   -157.69   
   210. D(C  18,O  17,C   6,C   3)    -43.00 -0.000023   -0.00    -43.01   
   211. D(C  22,C  18,O  17,C   6)     50.76 -0.000050    0.02     50.78   
   212. D(O  20,C  18,O  17,C   6)    -73.35 -0.000071    0.04    -73.31   
   213. D(H  19,C  18,O  17,C   6)    167.97 -0.000048    0.04    168.02   
   214. D(C  21,O  20,C  18,C  22)    167.57  0.000000    0.06    167.64   
   215. D(C  21,O  20,C  18,H  19)     48.66 -0.000012    0.07     48.73   
   216. D(C  21,O  20,C  18,O  17)    -65.92 -0.000010    0.06    -65.86   
   217. D(H  46,C  21,O  20,C  18)    -62.14 -0.000030    0.12    -62.02   
   218. D(H  45,C  21,O  20,C  18)     59.13  0.000010    0.12     59.25   
   219. D(H  44,C  21,O  20,C  18)    178.60  0.000005    0.11    178.71   
   220. D(H  23,C  22,C  18,O  20)    -45.53  0.000031   -0.05    -45.57   
   221. D(H  23,C  22,C  18,H  19)     73.69  0.000021   -0.07     73.61   
   222. D(H  23,C  22,C  18,O  17)   -173.11  0.000023   -0.05   -173.16   
   223. D(C   1,C  22,C  18,O  20)     72.41  0.000055   -0.03     72.38   
   224. D(C   1,C  22,C  18,H  19)   -168.37  0.000046   -0.06   -168.43   
   225. D(C   1,C  22,C  18,O  17)    -55.17  0.000047   -0.04    -55.20   
   226. D(H  23,C  22,C   1,C   3)    170.62  0.000028    0.06    170.68   
   227. D(H  23,C  22,C   1,H   2)    -73.40  0.000030    0.07    -73.33   
   228. D(H  23,C  22,C   1,O   0)     42.80  0.000033    0.05     42.84   
   229. D(C  18,C  22,C   1,C   3)     52.83  0.000021    0.04     52.87   
   230. D(C  18,C  22,C   1,H   2)    168.81  0.000023    0.05    168.86   
   231. D(C  18,C  22,C   1,O   0)    -75.00  0.000026    0.03    -74.97   
   232. D(H  47,O  24,C  22,H  23)    -57.61  0.000031   -0.05    -57.66   
   233. D(H  47,O  24,C  22,C  18)     62.58 -0.000043   -0.03     62.55   
   234. D(H  47,O  24,C  22,C   1)   -175.90 -0.000003   -0.06   -175.96   
    ----------------------------------------------------------------------------

Geometry step timings:
Preparation and reading OPT file:      0.001 s ( 5.135 %)
Internal coordinates            :      0.000 s ( 0.181 %)
B/P matrices and projection     :      0.005 s (22.433 %)
Hessian update/contruction      :      0.009 s (43.969 %)
Making the step                 :      0.003 s (14.809 %)
Converting the step to Cartesian:      0.000 s ( 1.936 %)
Storing new data                :      0.001 s ( 4.148 %)
Checking convergence            :      0.000 s ( 0.167 %)
Final printing                  :      0.002 s ( 7.218 %)
Total time                      :      0.021 s

Time for energy+gradient        :      0.120 s
Time for complete geometry iter :      0.154 s

         *************************************************************
         *                GEOMETRY OPTIMIZATION CYCLE  11            *
         *************************************************************
---------------------------------
CARTESIAN COORDINATES (ANGSTROEM)
---------------------------------
  O    -1.356599    2.146488    0.118539
  C     0.015978    1.918773    0.045834
  H     0.365639    1.827836    1.083192
  C     0.395843    0.608637   -0.675794
  H    -0.325485   -0.162789   -0.382752
  O     1.648534    0.146390   -0.230093
  C     0.381845    0.714844   -2.218895
  H     1.100215   -0.032249   -2.584090
  C    -0.970399    0.333006   -2.849919
  O    -2.043543    1.043942   -2.316431
  Si   -3.638988    0.988622   -2.721829
  C    -4.449636   -0.678472   -2.163250
  C    -3.909274   -1.079797   -0.786377
  C    -5.969352   -0.517915   -2.059068
  C    -4.157164   -1.815159   -3.150308
  C    -4.298460    2.462478   -1.725061
  C    -3.874774    1.227660   -4.603997
  O     0.908250    1.932974   -2.734265
  C     0.555628    3.137797   -2.111949
  H     1.265818    3.859175   -2.564448
  O    -0.753497    3.554059   -2.354631
  C    -1.006145    3.894965   -3.704106
  C     0.770971    3.103946   -0.588724
  H     0.357241    4.032762   -0.171066
  O     2.136435    2.957938   -0.273931
  H    -1.726948    2.074353   -0.780353
  H     2.272895    0.887099   -0.278776
  H    -0.904164    0.512283   -3.929162
  H    -1.115807   -0.741437   -2.688164
  H    -4.105443   -0.303625   -0.050667
  H    -2.834200   -1.242434   -0.823331
  H    -4.379906   -2.001977   -0.444332
  H    -6.225601    0.242876   -1.326833
  H    -6.430789   -1.456091   -1.752121
  H    -6.394530   -0.227497   -3.016631
  H    -3.086178   -1.967534   -3.269203
  H    -4.583903   -1.599644   -4.126717
  H    -4.591051   -2.748296   -2.790329
  H    -4.270164    2.265073   -0.658499
  H    -5.323040    2.692533   -1.994523
  H    -3.696945    3.347708   -1.901458
  H    -3.381852    0.445138   -5.174821
  H    -3.457436    2.177595   -4.925609
  H    -4.923172    1.223145   -4.883755
  H    -2.055291    4.174336   -3.751860
  H    -0.814904    3.046517   -4.365449
  H    -0.376999    4.738941   -4.009991
  H     2.634179    3.717606   -0.601848

----------------------------
CARTESIAN COORDINATES (A.U.)
----------------------------
  NO LB    ZA    FRAG    MASS        X           Y           Z
   0 O   8.0000    1    15.999   -2.563601    4.056275    0.224006
   1 C   6.0000    1    12.011    0.030193    3.625955    0.086614
   2 H   1.0000    1     1.008    0.690957    3.454109    2.046937
   3 C   6.0000    1    12.011    0.748036    1.150157   -1.277065
   4 H   1.0000    1     1.008   -0.615078   -0.307626   -0.723297
   5 O   8.0000    1    15.999    3.115277    0.276637   -0.434813
   6 C   6.0000    1    12.011    0.721583    1.350860   -4.193105
   7 H   1.0000    1     1.008    2.079105   -0.060942   -4.883223
   8 C   6.0000    1    12.011   -1.833789    0.629290   -5.385566
   9 O   8.0000    1    15.999   -3.861737    1.972765   -4.377419
  10 Si 14.0000    1    28.086   -6.876690    1.868225   -5.143511
  11 C   6.0000    1    12.011   -8.408593   -1.282126   -4.087950
  12 C   6.0000    1    12.011   -7.387458   -2.040520   -1.486038
  13 C   6.0000    1    12.011  -11.280441   -0.978718   -3.891075
  14 C   6.0000    1    12.011   -7.855902   -3.430153   -5.953218
  15 C   6.0000    1    12.011   -8.122911    4.653410   -3.259894
  16 C   6.0000    1    12.011   -7.322262    2.319941   -8.700294
  17 O   8.0000    1    15.999    1.716344    3.652792   -5.167011
  18 C   6.0000    1    12.011    1.049984    5.929577   -3.991005
  19 H   1.0000    1     1.008    2.392050    7.292783   -4.846104
  20 O   8.0000    1    15.999   -1.423902    6.716198   -4.449608
  21 C   6.0000    1    12.011   -1.901339    7.360416   -6.999746
  22 C   6.0000    1    12.011    1.456925    5.865609   -1.112527
  23 H   1.0000    1     1.008    0.675087    7.620816   -0.323268
  24 O   8.0000    1    15.999    4.037277    5.589692   -0.517655
  25 H   1.0000    1     1.008   -3.263459    3.919959   -1.474654
  26 H   1.0000    1     1.008    4.295149    1.676375   -0.526809
  27 H   1.0000    1     1.008   -1.708623    0.968074   -7.425039
  28 H   1.0000    1     1.008   -2.108571   -1.401112   -5.079894
  29 H   1.0000    1     1.008   -7.758163   -0.573768   -0.095746
  30 H   1.0000    1     1.008   -5.355863   -2.347860   -1.555871
  31 H   1.0000    1     1.008   -8.276822   -3.783188   -0.839667
  32 H   1.0000    1     1.008  -11.764681    0.458970   -2.507352
  33 H   1.0000    1     1.008  -12.152429   -2.751614   -3.311029
  34 H   1.0000    1     1.008  -12.083911   -0.429908   -5.700606
  35 H   1.0000    1     1.008   -5.832031   -3.718101   -6.177898
  36 H   1.0000    1     1.008   -8.662322   -3.022890   -7.798364
  37 H   1.0000    1     1.008   -8.675829   -5.193526   -5.272958
  38 H   1.0000    1     1.008   -8.069441    4.280368   -1.244383
  39 H   1.0000    1     1.008  -10.059087    5.088149   -3.769102
  40 H   1.0000    1     1.008   -6.986214    6.326251   -3.593234
  41 H   1.0000    1     1.008   -6.390774    0.841189   -9.778995
  42 H   1.0000    1     1.008   -6.533607    4.115058   -9.308052
  43 H   1.0000    1     1.008   -9.303446    2.311409   -9.228959
  44 H   1.0000    1     1.008   -3.883936    7.888352   -7.089987
  45 H   1.0000    1     1.008   -1.539945    5.757082   -8.249503
  46 H   1.0000    1     1.008   -0.712425    8.955301   -7.577785
  47 H   1.0000    1     1.008    4.977876    7.025258   -1.137327

      -----------------------------------------------------------      
     |                   =====================                   |     
     |                           x T B                           |     
     |                   =====================                   |     
     |                         S. Grimme                         |     
     |          Mulliken Center for Theoretical Chemistry        |     
     |                    University of Bonn                     |     
      -----------------------------------------------------------      

   * xtb version 6.7.1 (edcfbbe) compiled by 'albert@albert-system' on 2024-07-22

   xtb is free software: you can redistribute it and/or modify it under
   the terms of the GNU Lesser General Public License as published by
   the Free Software Foundation, either version 3 of the License, or
   (at your option) any later version.
   
   xtb is distributed in the hope that it will be useful,
   but WITHOUT ANY WARRANTY; without even the implied warranty of
   MERCHANTABILITY or FITNESS FOR A PARTICULAR PURPOSE.  See the
   GNU Lesser General Public License for more details.
   
   Cite this work as:
   * C. Bannwarth, E. Caldeweyher, S. Ehlert, A. Hansen, P. Pracht,
     J. Seibert, S. Spicher, S. Grimme, WIREs Comput. Mol. Sci., 2020, 11,
     e01493. DOI: 10.1002/wcms.1493
   
   for GFN2-xTB:
   * C. Bannwarth, S. Ehlert and S. Grimme., J. Chem. Theory Comput., 2019,
     15, 1652-1671. DOI: 10.1021/acs.jctc.8b01176
   for GFN1-xTB:
   * S. Grimme, C. Bannwarth, P. Shushkov, J. Chem. Theory Comput., 2017,
     13, 1989-2009. DOI: 10.1021/acs.jctc.7b00118
   for GFN0-xTB:
   * P. Pracht, E. Caldeweyher, S. Ehlert, S. Grimme, ChemRxiv, 2019, preprint.
     DOI: 10.26434/chemrxiv.8326202.v1
   for GFN-FF:
   * S. Spicher and S. Grimme, Angew. Chem. Int. Ed., 2020, 59, 15665-15673.
     DOI: 10.1002/anie.202004239
   
   for ALPB and GBSA implicit solvation:
   * S. Ehlert, M. Stahn, S. Spicher, S. Grimme, J. Chem. Theory Comput.,
     2021, 17, 4250-4261. DOI: 10.1021/acs.jctc.1c00471
   
   for ddCOSMO and CPCM-X implicit solvation:
   * M. Stahn, S. Ehlert, S. Grimme, J. Phys. Chem. A,
     2023, XX, XXXX-XXXX. DOI: 10.1021/acs.jpca.3c04382
   
   for DFT-D4:
   * E. Caldeweyher, C. Bannwarth and S. Grimme, J. Chem. Phys., 2017,
     147, 034112. DOI: 10.1063/1.4993215
   * E. Caldeweyher, S. Ehlert, A. Hansen, H. Neugebauer, S. Spicher,
     C. Bannwarth and S. Grimme, J. Chem. Phys., 2019, 150, 154122.
     DOI: 10.1063/1.5090222
   * E. Caldeweyher, J.-M. Mewes, S. Ehlert and S. Grimme, Phys. Chem. Chem. Phys.
     2020, 22, 8499-8512. DOI: 10.1039/D0CP00502A
   
   for sTDA-xTB:
   * S. Grimme and C. Bannwarth, J. Chem. Phys., 2016, 145, 054103.
     DOI: 10.1063/1.4959605
   
   in the mass-spec context:
   * V. Asgeirsson, C. Bauer and S. Grimme, Chem. Sci., 2017, 8, 4879.
     DOI: 10.1039/c7sc00601b
   * J. Koopman and S. Grimme, ACS Omega 2019, 4, 12, 15120-15133.
     DOI: 10.1021/acsomega.9b02011
   
   for metadynamics refer to:
   * S. Grimme, J. Chem. Theory Comput., 2019, 155, 2847-2862
     DOI: 10.1021/acs.jctc.9b00143
   
   for SPH calculations refer to:
   * S. Spicher and S. Grimme, J. Chem. Theory Comput., 2021, 17, 1701-1714
     DOI: 10.1021/acs.jctc.0c01306
   
   for ONIOM refer to:
   * C. Plett, A. Katbashev, S. Ehlert, S. Grimme, M. Bursch,
     Phys. Chem. Chem. Phys., 2023, 25, 17860-17868. DOI: 10.1039/D3CP02178E
   
   for DIPRO refer to:
   * J. Kohn, N. Gildemeister, S. Grimme, D. Fazzi, A. Hansen,
     J. Chem. Phys., 2023, just accepted.
   
   for PTB refer to:
   * S. Grimme, M. Mueller, A. Hansen, J. Chem. Phys., 2023, 158, 124111.
     DOI: 10.1063/5.0137838
   
   with help from (in alphabetical order)
   P. Atkinson, C. Bannwarth, F. Bohle, G. Brandenburg, E. Caldeweyher
   M. Checinski, S. Dohm, S. Ehlert, S. Ehrlich, I. Gerasimov, C. Hölzer
   A. Katbashev, J. Kohn, J. Koopman, C. Lavigne, S. Lehtola, F. März, M. Müller,
   F. Musil, H. Neugebauer, J. Pisarek, C. Plett, P. Pracht, F. Pultar,
   J. Seibert, P. Shushkov, S. Spicher, M. Stahn, M. Steiner, T. Strunk,
   J. Stückrath, T. Rose, and J. Unsleber
   
 * started run on 2025/09/10 at 11:36:46.380     
   ID    Z sym.   atoms
    1    8 O      1, 6, 10, 18, 21, 25
    2    6 C      2, 4, 7, 9, 12-17, 19, 22, 23
    3    1 H      3, 5, 8, 20, 24, 26-48
    4   14 Si     11

           -------------------------------------------------
          |                Calculation Setup                |
           -------------------------------------------------

          program call               : /home/kmoult/orca_6_1/otool_xtb goat_0_XTB.xyz --grad -c 0 -u 0 -P 4 --namespace goat_0 --input goat_0_XTB.input.tmp --alpb ACETONE --acc 0.200000
          hostname                   : node1600
          calculation namespace      : goat_0
          coordinate file            : goat_0_XTB.xyz
          omp threads                :                     4


           -------------------------------------------------
          |                 G F N 2 - x T B                 |
           -------------------------------------------------

        Reference                      10.1021/acs.jctc.8b01176
      * Hamiltonian:
        H0-scaling (s, p, d)           1.850000    2.230000    2.230000
        zeta-weighting                 0.500000
      * Dispersion:
        s8                             2.700000
        a1                             0.520000
        a2                             5.000000
        s9                             5.000000
      * Repulsion:
        kExp                           1.500000    1.000000
        rExp                           1.000000
      * Coulomb:
        alpha                          2.000000
        third order                    shell-resolved
        anisotropic                    true
        a3                             3.000000
        a5                             4.000000
        cn-shift                       1.200000
        cn-exp                         4.000000
        max-rad                        5.000000

      * Solvation model:               ALPB
        Solvent                        ACETONE
        Parameter file                 internal GFN2-xTB/ALPB
        Dielectric constant                2.0700E+01
        Reference state                gsolv [1 M gas/solution]
        Free energy shift                  5.9241E-03 Eh       3.7175E+00 kcal/mol
        Temperature                        2.9815E+02 K
        Density                            7.9000E-01 kg/L
        Solvent mass                       5.8080E+01 g/mol
        Interaction kernel             P16
        Born radius scaling (c1)           1.8274E+00
        Born radii integrator          GBOBC
        Born offset                        0.0000E+00 a0       0.0000E+00 AA
        H-bond correction              true
        Ion screening                  false
        Surface tension                    1.0000E-05 Eh       1.5569E+01 dyn/cm
        Grid points                               230 per atom
q/qsh data taken from xtbrestart
CAMM data taken from xtbrestart

          ...................................................
          :                      SETUP                      :
          :.................................................:
          :  # basis functions                 114          :
          :  # atomic orbitals                 113          :
          :  # shells                           69          :
          :  # electrons                       120          :
          :  max. iterations                   250          :
          :  Hamiltonian                  GFN2-xTB          :
          :  restarted?                       true          :
          :  GBSA solvation                   true          :
          :  PC potential                    false          :
          :  electronic temp.          300.0000000     K    :
          :  accuracy                    0.2000000          :
          :  -> integral cutoff          0.3198970E+02      :
          :  -> integral neglect         0.2000000E-08      :
          :  -> SCF convergence          0.2000000E-06 Eh   :
          :  -> wf. convergence          0.2000000E-04 e    :
          :  Broyden damping             0.4000000          :
          :  net charge                          0          :
          :  unpaired electrons                  0          :
          ...................................................

 iter      E             dE          RMSdq      gap      omega  full diag
   1    -68.9913924 -0.689914E+02  0.938E-03    6.35       0.0  T
   2    -68.9913924 -0.143113E-07  0.585E-03    6.35       2.5  T
   3    -68.9913924  0.151358E-08  0.945E-04    6.35      15.3  T
   4    -68.9913924 -0.834352E-08  0.645E-04    6.35      22.4  T
   5    -68.9913924  0.395275E-09  0.277E-04    6.35      52.0  T
   6    -68.9913924 -0.926761E-09  0.126E-04    6.35     114.8  T
   7    -68.9913924 -0.198213E-09  0.463E-05    6.35     311.5  T

   *** convergence criteria satisfied after 7 iterations ***

         #    Occupation            Energy/Eh            Energy/eV
      -------------------------------------------------------------
         1        2.0000           -0.7766477             -21.1337
       ...           ...                  ...                  ...
        54        2.0000           -0.4217496             -11.4764
        55        2.0000           -0.4207747             -11.4499
        56        2.0000           -0.4161328             -11.3235
        57        2.0000           -0.4028448             -10.9620
        58        2.0000           -0.3961160             -10.7789
        59        2.0000           -0.3945147             -10.7353
        60        2.0000           -0.3709346             -10.0936 (HOMO)
        61                         -0.1376845              -3.7466 (LUMO)
        62                         -0.1236903              -3.3658
        63                         -0.1106393              -3.0106
        64                         -0.0176877              -0.4813
        65                         -0.0097542              -0.2654
       ...                                ...                  ...
       113                          0.7769505              21.1419
      -------------------------------------------------------------
                  HL-Gap            0.2332502 Eh            6.3471 eV
             Fermi-level           -0.2543096 Eh           -6.9201 eV

 SCC (total)                   0 d,  0 h,  0 min,  0.024 sec
 SCC setup                      ...        0 min,  0.001 sec (  2.487%)
 Dispersion                     ...        0 min,  0.000 sec (  1.369%)
 classical contributions        ...        0 min,  0.000 sec (  0.154%)
 integral evaluation            ...        0 min,  0.004 sec ( 17.863%)
 iterations                     ...        0 min,  0.011 sec ( 47.361%)
 molecular gradient             ...        0 min,  0.007 sec ( 30.125%)
 printout                       ...        0 min,  0.000 sec (  0.576%)

         :::::::::::::::::::::::::::::::::::::::::::::::::::::
         ::                     SUMMARY                     ::
         :::::::::::::::::::::::::::::::::::::::::::::::::::::
         :: total energy             -68.319718806656 Eh    ::
         :: total w/o Gsasa/hb       -68.293976284412 Eh    ::
         :: gradient norm              0.000726520452 Eh/a0 ::
         :: HOMO-LUMO gap              6.347060009943 eV    ::
         ::.................................................::
         :: SCC energy               -68.990037165267 Eh    ::
         :: -> isotropic ES            0.159928155154 Eh    ::
         :: -> anisotropic ES          0.002729518153 Eh    ::
         :: -> anisotropic XC          0.004863339393 Eh    ::
         :: -> dispersion             -0.048954350932 Eh    ::
         :: -> Gsolv                  -0.029267303844 Eh    ::
         ::    -> Gelec               -0.003524781600 Eh    ::
         ::    -> Gsasa               -0.026361204109 Eh    ::
         ::    -> Ghb                 -0.005305459399 Eh    ::
         ::    -> Gshift               0.005924141264 Eh    ::
         :: repulsion energy           0.670318358610 Eh    ::
         :: add. restraining           0.000000000000 Eh    ::
         :: total charge               0.000000000000 e     ::
         :::::::::::::::::::::::::::::::::::::::::::::::::::::


Property printout bound to 'properties.out'

           -------------------------------------------------
          | TOTAL ENERGY              -68.319718806656 Eh   |
          | GRADIENT NORM               0.000726520452 Eh/α |
          | HOMO-LUMO GAP               6.347060009943 eV   |
           -------------------------------------------------

------------------------------------------------------------------------
 * finished run on 2025/09/10 at 11:36:46.427     
------------------------------------------------------------------------
 total:
 * wall-time:     0 d,  0 h,  0 min,  0.046 sec
 *  cpu-time:     0 d,  0 h,  0 min,  0.164 sec
 * ratio c/w:     3.544 speedup
 SCF:
 * wall-time:     0 d,  0 h,  0 min,  0.024 sec
 *  cpu-time:     0 d,  0 h,  0 min,  0.096 sec
 * ratio c/w:     3.975 speedup


-------------------------   --------------------
FINAL SINGLE POINT ENERGY       -68.319718806660
-------------------------   --------------------


-------------
DIPOLE MOMENT
-------------
                                X             Y             Z
Total Dipole Moment    :     -0.08900       0.95200      -1.74600
                        -----------------------------------------
Magnitude (a.u.)       :      1.99066
Magnitude (Debye)      :      5.05986


------------------
CARTESIAN GRADIENT
------------------

   1   O   :   -0.000091923    0.000013652    0.000102872
   2   C   :    0.000160718    0.000036645    0.000005103
   3   H   :   -0.000078304    0.000027741    0.000007436
   4   C   :    0.000010705    0.000079151   -0.000114327
   5   H   :    0.000056443   -0.000072418    0.000073904
   6   O   :   -0.000071585   -0.000078140    0.000026628
   7   C   :    0.000067353    0.000108825    0.000031927
   8   H   :   -0.000017057   -0.000024205   -0.000048030
   9   C   :    0.000071552   -0.000040744    0.000084145
  10   O   :    0.000069431   -0.000088313    0.000023116
  11   Si  :   -0.000036983    0.000131284   -0.000029297
  12   C   :    0.000121206    0.000158574   -0.000040463
  13   C   :   -0.000020505    0.000019954   -0.000037012
  14   C   :    0.000031823   -0.000025217   -0.000058096
  15   C   :    0.000014717    0.000052632    0.000015323
  16   C   :   -0.000180974   -0.000033028   -0.000020360
  17   C   :   -0.000095438   -0.000091902    0.000044774
  18   O   :   -0.000079839    0.000088492    0.000123253
  19   C   :    0.000014139   -0.000194085    0.000004639
  20   H   :    0.000064397    0.000044508   -0.000037904
  21   O   :    0.000052309    0.000046180   -0.000086763
  22   C   :    0.000011251   -0.000039066    0.000017227
  23   C   :   -0.000281167   -0.000037537   -0.000096672
  24   H   :    0.000020822   -0.000006428    0.000041475
  25   O   :    0.000154197    0.000012424    0.000024799
  26   H   :    0.000020210    0.000004551   -0.000062491
  27   H   :    0.000038887   -0.000013745   -0.000001112
  28   H   :   -0.000027038    0.000022045   -0.000022969
  29   H   :    0.000005653   -0.000010194   -0.000012316
  30   H   :   -0.000012589   -0.000001398    0.000007685
  31   H   :    0.000003397   -0.000020706    0.000009355
  32   H   :    0.000014930   -0.000029339    0.000037289
  33   H   :   -0.000012015   -0.000002251    0.000021995
  34   H   :   -0.000039469   -0.000003958    0.000008955
  35   H   :   -0.000028081   -0.000009406    0.000000757
  36   H   :    0.000000391   -0.000033770    0.000010847
  37   H   :   -0.000040069   -0.000040386   -0.000001436
  38   H   :   -0.000005087   -0.000041094   -0.000025543
  39   H   :    0.000053811    0.000006539    0.000018841
  40   H   :   -0.000016652    0.000039943    0.000079904
  41   H   :    0.000058411   -0.000033083   -0.000050101
  42   H   :   -0.000008633    0.000011165   -0.000041501
  43   H   :    0.000055947    0.000015621   -0.000005132
  44   H   :    0.000007881    0.000010648   -0.000043015
  45   H   :    0.000002119    0.000022067   -0.000009358
  46   H   :   -0.000016761   -0.000016795    0.000021018
  47   H   :   -0.000026133    0.000030608    0.000009800
  48   H   :    0.000003602    0.000003960   -0.000009173

Difference to translation invariance:
           :    0.0000000000   -0.0000000000    0.0000000000

Difference to rotation invariance:
           :   -0.0000471160   -0.0002781088   -0.0001296290

Norm of the Cartesian gradient     ...    0.0007265205
RMS gradient                       ...    0.0000605434
MAX gradient                       ...    0.0002811668
------------------------------------------------------------------------------
                         ORCA GEOMETRY RELAXATION STEP
------------------------------------------------------------------------------

Reading the OPT-File                    .... done
Getting information on internals        .... done
Copying old internal coords+grads       .... done
Making the new internal coordinates     .... (2022 redundants) done
Validating the new internal coordinates .... (2022 redundants) done
Calculating the B-matrix                .... done
Calculating the G,G- and P matrices     .... done
Transforming gradient to internals      .... done
Projecting the internal gradient        .... done
Number of atoms                         ....  48
Number of internal coordinates          .... 234
Current Energy                          ....   -68.319718807 Eh
Current gradient norm                   ....     0.000726520 Eh/bohr
Maximum allowed component of the step   ....  0.300
Current trust radius                    ....  0.700
Updating the Hessian (BFGS)             .... done
Forming the augmented Hessian           .... done
Diagonalizing the augmented Hessian     .... done
Last element of RFO vector              ....  0.999284050
Lowest eigenvalues of augmented Hessian:
 -0.000004478  0.001692857  0.006944601  0.009990104  0.010066281
Length of the computed step             ....  0.037860794
The final length of the internal step   ....  0.037860794
Converting the step to Cartesian space:
 Initial RMS(Int)=    0.0024750376
Transforming coordinates:
 Iter   0:  RMS(Cart)=    0.0045218310 RMS(Int)=    0.0024748074
done
Storing new coordinates                 .... done
The predicted energy change is          ....    -0.000002242
Previously predicted energy change      ....    -0.000002637
Actually observed energy change         ....    -0.000003843
Ratio of predicted to observed change   ....     1.457369071
New trust radius                        ....     0.700000000

                                .--------------------.
          ----------------------|Geometry convergence|-------------------------
          Item                value                   Tolerance       Converged
          ---------------------------------------------------------------------
          Energy change      -0.0000038427            0.0000050000      YES
          RMS gradient        0.0000386686            0.0001000000      YES
          MAX gradient        0.0001753618            0.0003000000      YES
          RMS step            0.0024750376            0.0020000000      NO
          MAX step            0.0135744912            0.0040000000      NO
          -------------------------------------------------------------------------
          ........................................................
          Max(Bonds)      0.0033      Max(Angles)    0.07
          Max(Dihed)        0.78      Max(Improp)    0.00
          ---------------------------------------------------------------------

    ---------------------------------------------------------------------------
                         Redundant Internal Coordinates
                            (Angstroem and degrees)

        Definition                    Value    dE/dq     Step     New-Value
    ----------------------------------------------------------------------------
     1. B(C   1,O   0)                1.3932  0.000073 -0.0001    1.3932   
     2. B(H   2,C   1)                1.0985 -0.000021  0.0001    1.0985   
     3. B(C   3,C   1)                1.5432  0.000065 -0.0001    1.5431   
     4. B(H   4,C   3)                1.0960  0.000033 -0.0000    1.0960   
     5. B(O   5,C   3)                1.4077 -0.000003 -0.0000    1.4077   
     6. B(C   6,C   3)                1.5468  0.000008 -0.0000    1.5468   
     7. B(H   7,C   6)                1.0989  0.000021 -0.0000    1.0989   
     8. B(C   8,C   6)                1.5403  0.000027 -0.0001    1.5402   
     9. B(O   9,C   8)                1.3934  0.000021 -0.0000    1.3934   
    10. B(Si 10,O   9)                1.6471  0.000147 -0.0000    1.6470   
    11. B(C  11,Si 10)                1.9361 -0.000042  0.0000    1.9361   
    12. B(C  12,C  11)                1.5326  0.000021  0.0001    1.5327   
    13. B(C  13,C  11)                1.5317  0.000040  0.0001    1.5318   
    14. B(C  14,C  11)                1.5336  0.000041 -0.0000    1.5336   
    15. B(C  15,Si 10)                1.8976  0.000031 -0.0000    1.8975   
    16. B(C  16,Si 10)                1.9119  0.000040  0.0001    1.9120   
    17. B(O  17,C   6)                1.4236 -0.000055  0.0002    1.4238   
    18. B(C  18,O  17)                1.4011 -0.000169  0.0001    1.4012   
    19. B(H  19,C  18)                1.1088  0.000086 -0.0002    1.1087   
    20. B(O  20,C  18)                1.3950  0.000006  0.0001    1.3951   
    21. B(C  21,O  20)                1.4146 -0.000032  0.0000    1.4147   
    22. B(C  22,C  18)                1.5387 -0.000031  0.0001    1.5389   
    23. B(C  22,C   1)                1.5419 -0.000044  0.0001    1.5419   
    24. B(H  23,C  22)                1.0992  0.000002 -0.0000    1.0992   
    25. B(O  24,C  22)                1.4089  0.000160 -0.0002    1.4087   
    26. B(H  25,O   0)                0.9749  0.000053 -0.0001    0.9748   
    27. B(H  25,O  20)                2.3697  0.000006 -0.0030    2.3667   
    28. B(H  25,O   9)                1.8766  0.000002  0.0012    1.8777   
    29. B(H  26,O   5)                0.9700  0.000038  0.0000    0.9700   
    30. B(H  26,O  24)                2.0753  0.000031 -0.0033    2.0721   
    31. B(H  27,C   8)                1.0960  0.000025  0.0000    1.0960   
    32. B(H  28,C   8)                1.0962  0.000007 -0.0000    1.0962   
    33. B(H  29,C  12)                1.0873  0.000006  0.0000    1.0873   
    34. B(H  30,C  12)                1.0879  0.000007  0.0000    1.0880   
    35. B(H  31,C  12)                1.0904  0.000030 -0.0001    1.0903   
    36. B(H  32,C  13)                1.0866  0.000016 -0.0000    1.0866   
    37. B(H  33,C  13)                1.0896  0.000023 -0.0001    1.0896   
    38. B(H  34,C  13)                1.0872  0.000006  0.0000    1.0872   
    39. B(H  35,C  14)                1.0883  0.000004  0.0000    1.0883   
    40. B(H  36,C  14)                1.0872  0.000009  0.0000    1.0872   
    41. B(H  37,C  14)                1.0902  0.000029 -0.0001    1.0902   
    42. B(H  38,C  15)                1.0850  0.000020 -0.0000    1.0850   
    43. B(H  39,C  15)                1.0841  0.000004  0.0000    1.0841   
    44. B(H  40,C  15)                1.0847  0.000013  0.0000    1.0847   
    45. B(H  41,C  16)                1.0868  0.000009  0.0000    1.0868   
    46. B(H  42,C  16)                1.0863  0.000036 -0.0000    1.0862   
    47. B(H  43,C  16)                1.0851  0.000004  0.0000    1.0851   
    48. B(H  44,C  21)                1.0868  0.000005  0.0000    1.0868   
    49. B(H  45,C  21)                1.0926 -0.000004  0.0000    1.0926   
    50. B(H  46,C  21)                1.0962  0.000006 -0.0000    1.0962   
    51. B(H  47,O  24)                0.9656  0.000009  0.0000    0.9656   
    52. A(C   1,O   0,H  25)          108.30 -0.000081    0.04    108.34   
    53. A(H   2,C   1,C   3)          107.04  0.000021   -0.02    107.02   
    54. A(O   0,C   1,H   2)          106.13 -0.000033   -0.01    106.12   
    55. A(C   3,C   1,C  22)          109.85 -0.000031   -0.01    109.84   
    56. A(O   0,C   1,C  22)          112.23 -0.000002    0.02    112.25   
    57. A(O   0,C   1,C   3)          113.93  0.000025    0.01    113.95   
    58. A(H   2,C   1,C  22)          107.24  0.000023   -0.00    107.24   
    59. A(H   4,C   3,O   5)          105.66 -0.000071    0.04    105.70   
    60. A(C   1,C   3,C   6)          113.95 -0.000040    0.01    113.96   
    61. A(C   1,C   3,H   4)          108.09  0.000018    0.00    108.09   
    62. A(C   1,C   3,O   5)          110.47  0.000037   -0.03    110.45   
    63. A(O   5,C   3,C   6)          110.27  0.000023   -0.01    110.26   
    64. A(H   4,C   3,C   6)          108.00  0.000030   -0.01    107.99   
    65. A(C   3,O   5,H  26)          107.83  0.000029   -0.02    107.81   
    66. A(H   7,C   6,C   8)          105.62 -0.000035    0.02    105.63   
    67. A(C   3,C   6,C   8)          113.55  0.000001    0.02    113.57   
    68. A(C   3,C   6,H   7)          106.20  0.000032   -0.01    106.18   
    69. A(C   3,C   6,O  17)          114.62 -0.000007   -0.01    114.60   
    70. A(C   8,C   6,O  17)          112.86  0.000010   -0.02    112.84   
    71. A(H   7,C   6,O  17)          102.69 -0.000003    0.01    102.70   
    72. A(H  27,C   8,H  28)          108.28 -0.000017    0.00    108.28   
    73. A(C   6,C   8,O   9)          113.13  0.000024   -0.02    113.11   
    74. A(C   6,C   8,H  27)          108.05  0.000002   -0.03    108.02   
    75. A(O   9,C   8,H  28)          109.96  0.000018    0.01    109.97   
    76. A(O   9,C   8,H  27)          109.88 -0.000027    0.02    109.91   
    77. A(C   6,C   8,H  28)          107.40 -0.000000    0.01    107.40   
    78. A(C   8,O   9,Si 10)          129.39  0.000175   -0.05    129.34   
    79. A(C  15,Si 10,C  16)          112.16  0.000040    0.03    112.19   
    80. A(C  11,Si 10,C  16)          109.88 -0.000040   -0.00    109.88   
    81. A(O   9,Si 10,C  16)          110.95  0.000062   -0.07    110.88   
    82. A(C  11,Si 10,C  15)          111.82  0.000010   -0.04    111.78   
    83. A(O   9,Si 10,C  15)          100.44 -0.000030    0.01    100.45   
    84. A(O   9,Si 10,C  11)          111.31 -0.000038    0.07    111.39   
    85. A(C  12,C  11,C  14)          108.48 -0.000006   -0.00    108.47   
    86. A(C  13,C  11,C  14)          108.10 -0.000043    0.01    108.11   
    87. A(Si 10,C  11,C  13)          110.17  0.000016   -0.02    110.15   
    88. A(Si 10,C  11,C  14)          111.88  0.000040    0.00    111.88   
    89. A(Si 10,C  11,C  12)          109.70 -0.000014    0.01    109.71   
    90. A(C  12,C  11,C  13)          108.43  0.000005   -0.00    108.43   
    91. A(H  29,C  12,H  31)          108.28 -0.000015   -0.00    108.28   
    92. A(C  11,C  12,H  31)          110.56  0.000050   -0.00    110.55   
    93. A(H  29,C  12,H  30)          107.94  0.000001   -0.01    107.93   
    94. A(C  11,C  12,H  30)          110.92  0.000006   -0.00    110.92   
    95. A(C  11,C  12,H  29)          110.94 -0.000003    0.00    110.94   
    96. A(H  30,C  12,H  31)          108.10 -0.000042    0.01    108.11   
    97. A(H  32,C  13,H  33)          108.25 -0.000027    0.01    108.26   
    98. A(C  11,C  13,H  33)          110.43  0.000035   -0.01    110.42   
    99. A(C  11,C  13,H  32)          110.68 -0.000002    0.01    110.69   
   100. A(C  11,C  13,H  34)          110.86  0.000033   -0.01    110.85   
   101. A(H  33,C  13,H  34)          108.21 -0.000036    0.00    108.21   
   102. A(H  32,C  13,H  34)          108.32 -0.000006   -0.00    108.32   
   103. A(H  36,C  14,H  37)          108.06 -0.000051    0.02    108.08   
   104. A(H  35,C  14,H  37)          107.93 -0.000032    0.00    107.94   
   105. A(C  11,C  14,H  37)          110.24  0.000037   -0.00    110.24   
   106. A(H  35,C  14,H  36)          108.42  0.000002   -0.01    108.41   
   107. A(C  11,C  14,H  36)          110.87  0.000018   -0.00    110.87   
   108. A(C  11,C  14,H  35)          111.21  0.000022   -0.00    111.20   
   109. A(H  39,C  15,H  40)          108.09  0.000031   -0.01    108.08   
   110. A(H  38,C  15,H  40)          107.09  0.000017    0.00    107.09   
   111. A(H  38,C  15,H  39)          107.91 -0.000038    0.01    107.92   
   112. A(Si 10,C  15,H  39)          111.27  0.000167   -0.02    111.24   
   113. A(Si 10,C  15,H  38)          111.47 -0.000036   -0.00    111.47   
   114. A(Si 10,C  15,H  40)          110.84 -0.000142    0.02    110.86   
   115. A(H  42,C  16,H  43)          107.37 -0.000031   -0.01    107.36   
   116. A(H  41,C  16,H  43)          107.45 -0.000019    0.00    107.45   
   117. A(Si 10,C  16,H  43)          111.87  0.000062    0.00    111.87   
   118. A(H  41,C  16,H  42)          107.45 -0.000024    0.00    107.45   
   119. A(Si 10,C  16,H  41)          111.78  0.000065   -0.04    111.75   
   120. A(Si 10,C  16,H  42)          110.70 -0.000059    0.04    110.73   
   121. A(C   6,O  17,C  18)          118.81  0.000066   -0.02    118.79   
   122. A(O  17,C  18,H  19)          102.53 -0.000005    0.01    102.54   
   123. A(O  20,C  18,C  22)          108.07 -0.000010   -0.03    108.04   
   124. A(H  19,C  18,C  22)          109.19  0.000016    0.01    109.20   
   125. A(O  17,C  18,C  22)          112.68 -0.000011    0.00    112.68   
   126. A(H  19,C  18,O  20)          109.63 -0.000011   -0.01    109.62   
   127. A(O  17,C  18,O  20)          114.55  0.000022    0.01    114.56   
   128. A(C  18,O  20,C  21)          113.92  0.000109   -0.01    113.91   
   129. A(H  44,C  21,H  46)          110.11 -0.000035    0.02    110.13   
   130. A(H  45,C  21,H  46)          109.18  0.000039   -0.02    109.16   
   131. A(O  20,C  21,H  46)          110.44  0.000007   -0.00    110.44   
   132. A(H  44,C  21,H  45)          110.00  0.000001   -0.00    109.99   
   133. A(O  20,C  21,H  45)          111.04 -0.000022    0.01    111.05   
   134. A(O  20,C  21,H  44)          106.04  0.000009   -0.01    106.03   
   135. A(H  23,C  22,O  24)          111.56  0.000009   -0.01    111.55   
   136. A(C  18,C  22,O  24)          111.04 -0.000056    0.03    111.07   
   137. A(C   1,C  22,O  24)          107.64  0.000011   -0.00    107.63   
   138. A(C  18,C  22,H  23)          107.75  0.000006    0.00    107.75   
   139. A(C   1,C  22,H  23)          107.99 -0.000006    0.01    108.00   
   140. A(C   1,C  22,C  18)          110.84  0.000038   -0.04    110.81   
   141. A(C  22,O  24,H  47)          110.01 -0.000004    0.01    110.02   
   142. D(H   2,C   1,O   0,H  25)   -170.05 -0.000015   -0.10   -170.15   
   143. D(C  22,C   1,O   0,H  25)     73.11 -0.000022   -0.10     73.00   
   144. D(C   3,C   1,O   0,H  25)    -52.53  0.000002   -0.12    -52.65   
   145. D(H   4,C   3,C   1,C  22)   -166.09 -0.000027   -0.03   -166.12   
   146. D(O   5,C   3,C   1,C  22)     78.76  0.000028   -0.07     78.69   
   147. D(O   5,C   3,C   1,H   2)    -37.36  0.000006   -0.05    -37.41   
   148. D(H   4,C   3,C   1,H   2)     77.79 -0.000049   -0.02     77.77   
   149. D(O   5,C   3,C   1,O   0)   -154.36  0.000019   -0.04   -154.40   
   150. D(H   4,C   3,C   1,O   0)    -39.21 -0.000035   -0.00    -39.21   
   151. D(H  26,O   5,C   3,H   4)   -166.65 -0.000002    0.10   -166.55   
   152. D(H  26,O   5,C   3,C   6)     76.88 -0.000009    0.10     76.98   
   153. D(H  26,O   5,C   3,C   1)    -49.98 -0.000001    0.11    -49.87   
   154. D(H   7,C   6,C   3,O   5)     27.86 -0.000027    0.05     27.91   
   155. D(H   7,C   6,C   3,H   4)    -87.14  0.000029    0.02    -87.12   
   156. D(H   7,C   6,C   3,C   1)    152.76  0.000011    0.02    152.77   
   157. D(C   8,C   6,C   3,H   4)     28.49  0.000007    0.03     28.52   
   158. D(C   8,C   6,C   3,C   1)    -91.62 -0.000012    0.04    -91.58   
   159. D(C   8,C   6,C   3,O   5)    143.48 -0.000049    0.07    143.56   
   160. D(H  27,C   8,C   6,O  17)     43.16 -0.000026    0.14     43.30   
   161. D(H  27,C   8,C   6,H   7)    -68.28 -0.000008    0.13    -68.15   
   162. D(H  27,C   8,C   6,C   3)    175.76 -0.000025    0.12    175.89   
   163. D(O   9,C   8,C   6,O  17)    -78.72 -0.000008    0.14    -78.57   
   164. D(O   9,C   8,C   6,C   3)     53.88 -0.000007    0.13     54.01   
   165. D(O   9,C   8,C   6,H   7)    169.85  0.000010    0.13    169.98   
   166. D(Si 10,O   9,C   8,H  27)     57.16 -0.000022    0.20     57.35   
   167. D(Si 10,O   9,C   8,C   6)    178.00 -0.000023    0.16    178.16   
   168. D(Si 10,O   9,C   8,H  28)    -61.93  0.000005    0.17    -61.76   
   169. D(C  16,Si 10,O   9,C   8)    -51.93  0.000019   -0.18    -52.10   
   170. D(C  15,Si 10,O   9,C   8)   -170.69 -0.000037   -0.19   -170.88   
   171. D(C  11,Si 10,O   9,C   8)     70.77 -0.000016   -0.18     70.59   
   172. D(C  12,C  11,Si 10,O   9)     39.54 -0.000026   -0.03     39.51   
   173. D(C  13,C  11,Si 10,C  16)    -77.85  0.000006   -0.07    -77.92   
   174. D(C  13,C  11,Si 10,C  15)     47.37  0.000035   -0.06     47.31   
   175. D(C  13,C  11,Si 10,O   9)    158.83 -0.000018   -0.03    158.80   
   176. D(C  12,C  11,Si 10,C  16)    162.86 -0.000002   -0.07    162.79   
   177. D(C  12,C  11,Si 10,C  15)    -71.92  0.000027   -0.06    -71.97   
   178. D(H  30,C  12,C  11,C  14)     60.65  0.000030   -0.01     60.63   
   179. D(H  30,C  12,C  11,C  13)    177.82 -0.000022   -0.01    177.81   
   180. D(H  30,C  12,C  11,Si 10)    -61.83 -0.000007   -0.02    -61.85   
   181. D(H  29,C  12,C  11,C  14)   -179.40  0.000034   -0.02   -179.42   
   182. D(H  29,C  12,C  11,C  13)    -62.23 -0.000018   -0.02    -62.25   
   183. D(H  29,C  12,C  11,Si 10)     58.12 -0.000004   -0.03     58.09   
   184. D(H  33,C  13,C  11,C  14)     57.04 -0.000015   -0.00     57.04   
   185. D(H  33,C  13,C  11,C  12)    -60.37  0.000014   -0.01    -60.37   
   186. D(H  33,C  13,C  11,Si 10)    179.57  0.000017   -0.01    179.57   
   187. D(H  32,C  13,C  11,C  12)     59.49  0.000001    0.00     59.49   
   188. D(H  32,C  13,C  11,Si 10)    -60.57  0.000005    0.00    -60.57   
   189. D(H  32,C  13,C  11,C  14)    176.90 -0.000027    0.00    176.91   
   190. D(H  36,C  14,C  11,C  13)     58.82 -0.000007    0.08     58.90   
   191. D(H  36,C  14,C  11,C  12)    176.20 -0.000028    0.08    176.28   
   192. D(H  36,C  14,C  11,Si 10)    -62.66 -0.000023    0.09    -62.57   
   193. D(H  35,C  14,C  11,C  13)    179.53  0.000022    0.06    179.59   
   194. D(H  35,C  14,C  11,C  12)    -63.09  0.000002    0.07    -63.03   
   195. D(H  35,C  14,C  11,Si 10)     58.05  0.000006    0.08     58.12   
   196. D(H  39,C  15,Si 10,C  16)     52.57 -0.000022   -0.71     51.86   
   197. D(H  39,C  15,Si 10,C  11)    -71.39 -0.000007   -0.70    -72.09   
   198. D(H  39,C  15,Si 10,O   9)    170.45  0.000049   -0.77    169.68   
   199. D(H  38,C  15,Si 10,C  16)    173.08  0.000019   -0.72    172.37   
   200. D(H  38,C  15,Si 10,C  11)     49.12  0.000035   -0.71     48.42   
   201. D(H  38,C  15,Si 10,O   9)    -69.04  0.000091   -0.78    -69.81   
   202. D(H  41,C  16,Si 10,C  15)    172.58  0.000005   -0.34    172.24   
   203. D(H  41,C  16,Si 10,C  11)    -62.39  0.000017   -0.37    -62.76   
   204. D(H  41,C  16,Si 10,O   9)     61.14 -0.000017   -0.33     60.81   
   205. D(H  42,C  16,Si 10,C  15)     52.83  0.000032   -0.34     52.48   
   206. D(H  42,C  16,Si 10,C  11)    177.86  0.000043   -0.37    177.49   
   207. D(H  42,C  16,Si 10,O   9)    -58.61  0.000010   -0.33    -58.94   
   208. D(C  18,O  17,C   6,C   8)     89.08 -0.000006   -0.01     89.07   
   209. D(C  18,O  17,C   6,H   7)   -157.69 -0.000044    0.01   -157.69   
   210. D(C  18,O  17,C   6,C   3)    -43.01 -0.000011   -0.01    -43.01   
   211. D(C  22,C  18,O  17,C   6)     50.77 -0.000027    0.04     50.81   
   212. D(O  20,C  18,O  17,C   6)    -73.31 -0.000022    0.06    -73.24   
   213. D(H  19,C  18,O  17,C   6)    168.02 -0.000016    0.06    168.08   
   214. D(C  21,O  20,C  18,C  22)    167.64  0.000013    0.02    167.65   
   215. D(C  21,O  20,C  18,H  19)     48.73  0.000006    0.02     48.75   
   216. D(C  21,O  20,C  18,O  17)    -65.86  0.000007    0.01    -65.86   
   217. D(H  46,C  21,O  20,C  18)    -62.02 -0.000023    0.10    -61.92   
   218. D(H  45,C  21,O  20,C  18)     59.25  0.000016    0.08     59.33   
   219. D(H  44,C  21,O  20,C  18)    178.71  0.000010    0.08    178.79   
   220. D(H  23,C  22,C  18,O  20)    -45.57  0.000014   -0.05    -45.63   
   221. D(H  23,C  22,C  18,H  19)     73.61  0.000005   -0.07     73.54   
   222. D(H  23,C  22,C  18,O  17)   -173.16  0.000002   -0.05   -173.21   
   223. D(C   1,C  22,C  18,O  20)     72.38  0.000032   -0.06     72.32   
   224. D(C   1,C  22,C  18,H  19)   -168.43  0.000023   -0.08   -168.51   
   225. D(C   1,C  22,C  18,O  17)    -55.20  0.000020   -0.06    -55.26   
   226. D(H  23,C  22,C   1,C   3)    170.68  0.000030    0.03    170.72   
   227. D(H  23,C  22,C   1,H   2)    -73.33  0.000051    0.01    -73.32   
   228. D(H  23,C  22,C   1,O   0)     42.85  0.000023    0.01     42.85   
   229. D(C  18,C  22,C   1,C   3)     52.87  0.000004    0.04     52.91   
   230. D(C  18,C  22,C   1,H   2)    168.86  0.000025    0.02    168.88   
   231. D(C  18,C  22,C   1,O   0)    -74.97 -0.000003    0.02    -74.95   
   232. D(H  47,O  24,C  22,H  23)    -57.66  0.000005   -0.02    -57.68   
   233. D(H  47,O  24,C  22,C  18)     62.55 -0.000019   -0.01     62.55   
   234. D(H  47,O  24,C  22,C   1)   -175.96  0.000000   -0.03   -175.99   
    ----------------------------------------------------------------------------

Geometry step timings:
Preparation and reading OPT file:      0.001 s ( 5.154 %)
Internal coordinates            :      0.000 s ( 0.169 %)
B/P matrices and projection     :      0.005 s (23.101 %)
Hessian update/contruction      :      0.009 s (42.953 %)
Making the step                 :      0.003 s (15.186 %)
Converting the step to Cartesian:      0.000 s ( 2.016 %)
Storing new data                :      0.001 s ( 4.289 %)
Checking convergence            :      0.000 s ( 0.184 %)
Final printing                  :      0.001 s ( 6.938 %)
Total time                      :      0.021 s

Time for energy+gradient        :      0.073 s
Time for complete geometry iter :      0.106 s

         *************************************************************
         *                GEOMETRY OPTIMIZATION CYCLE  12            *
         *************************************************************
---------------------------------
CARTESIAN COORDINATES (ANGSTROEM)
---------------------------------
  O    -1.356066    2.145325    0.118934
  C     0.016429    1.917792    0.045634
  H     0.366310    1.826177    1.082912
  C     0.396467    0.608123   -0.676558
  H    -0.324518   -0.163642   -0.383594
  O     1.649851    0.147040   -0.231629
  C     0.381814    0.714602   -2.219603
  H     1.100121   -0.032404   -2.584967
  C    -0.970565    0.333312   -2.850515
  O    -2.042820    1.046559   -2.318454
  Si   -3.638438    0.989101   -2.722744
  C    -4.449048   -0.677666   -2.162997
  C    -3.908088   -1.078694   -0.786188
  C    -5.968695   -0.516390   -2.058058
  C    -4.157406   -1.814825   -3.149752
  C    -4.299154    2.462922   -1.726754
  C    -3.873494    1.226260   -4.605348
  O     0.908012    1.933147   -2.734745
  C     0.555079    3.137530   -2.111553
  H     1.263968    3.859663   -2.564441
  O    -0.754744    3.553010   -2.352420
  C    -1.009162    3.894087   -3.701569
  C     0.771628    3.103224   -0.588395
  H     0.358435    4.031976   -0.170146
  O     2.136958    2.956620   -0.274113
  H    -1.726950    2.075504   -0.779808
  H     2.272890    0.889009   -0.279040
  H    -0.903120    0.510927   -3.929967
  H    -1.117349   -0.740668   -2.687261
  H    -4.103252   -0.302044   -0.050671
  H    -2.833101   -1.241933   -0.823694
  H    -4.379165   -2.000309   -0.443490
  H    -6.224370    0.244820   -1.326064
  H    -6.430219   -1.454295   -1.750598
  H    -6.394092   -0.226193   -3.015605
  H    -3.086494   -1.968267   -3.268186
  H    -4.583342   -1.598861   -4.126416
  H    -4.592370   -2.747364   -2.789709
  H    -4.282630    2.261173   -0.660786
  H    -5.319690    2.699668   -2.005668
  H    -3.691103    3.345562   -1.893633
  H    -3.374559    0.446567   -5.174867
  H    -3.462256    2.178725   -4.927254
  H    -4.921506    1.214482   -4.886464
  H    -2.058212    4.174108   -3.747654
  H    -0.819545    3.045649   -4.363397
  H    -0.379663    4.737407   -4.008480
  H     2.635053    3.716065   -0.602073

----------------------------
CARTESIAN COORDINATES (A.U.)
----------------------------
  NO LB    ZA    FRAG    MASS        X           Y           Z
   0 O   8.0000    1    15.999   -2.562593    4.054077    0.224752
   1 C   6.0000    1    12.011    0.031047    3.624101    0.086237
   2 H   1.0000    1     1.008    0.692226    3.450975    2.046407
   3 C   6.0000    1    12.011    0.749214    1.149186   -1.278510
   4 H   1.0000    1     1.008   -0.613250   -0.309238   -0.724888
   5 O   8.0000    1    15.999    3.117767    0.277866   -0.437716
   6 C   6.0000    1    12.011    0.721523    1.350402   -4.194442
   7 H   1.0000    1     1.008    2.078928   -0.061234   -4.884880
   8 C   6.0000    1    12.011   -1.834101    0.629868   -5.386692
   9 O   8.0000    1    15.999   -3.860370    1.977710   -4.381243
  10 Si 14.0000    1    28.086   -6.875651    1.869130   -5.145241
  11 C   6.0000    1    12.011   -8.407483   -1.280603   -4.087473
  12 C   6.0000    1    12.011   -7.385216   -2.038437   -1.485680
  13 C   6.0000    1    12.011  -11.279200   -0.975836   -3.889166
  14 C   6.0000    1    12.011   -7.856360   -3.429522   -5.952169
  15 C   6.0000    1    12.011   -8.124224    4.654249   -3.263093
  16 C   6.0000    1    12.011   -7.319843    2.317296   -8.702847
  17 O   8.0000    1    15.999    1.715894    3.653118   -5.167918
  18 C   6.0000    1    12.011    1.048947    5.929072   -3.990257
  19 H   1.0000    1     1.008    2.388554    7.293707   -4.846091
  20 O   8.0000    1    15.999   -1.426260    6.714217   -4.445429
  21 C   6.0000    1    12.011   -1.907040    7.358758   -6.994952
  22 C   6.0000    1    12.011    1.458166    5.864244   -1.111905
  23 H   1.0000    1     1.008    0.677344    7.619330   -0.321530
  24 O   8.0000    1    15.999    4.038266    5.587202   -0.517999
  25 H   1.0000    1     1.008   -3.263462    3.922134   -1.473624
  26 H   1.0000    1     1.008    4.295139    1.679984   -0.527309
  27 H   1.0000    1     1.008   -1.706649    0.965512   -7.426561
  28 H   1.0000    1     1.008   -2.111483   -1.399660   -5.078187
  29 H   1.0000    1     1.008   -7.754022   -0.570781   -0.095754
  30 H   1.0000    1     1.008   -5.353785   -2.346913   -1.556556
  31 H   1.0000    1     1.008   -8.275423   -3.780037   -0.838075
  32 H   1.0000    1     1.008  -11.762355    0.462642   -2.505898
  33 H   1.0000    1     1.008  -12.151353   -2.748220   -3.308151
  34 H   1.0000    1     1.008  -12.083082   -0.427443   -5.698667
  35 H   1.0000    1     1.008   -5.832628   -3.719486   -6.175976
  36 H   1.0000    1     1.008   -8.661260   -3.021409   -7.797795
  37 H   1.0000    1     1.008   -8.678322   -5.191766   -5.271785
  38 H   1.0000    1     1.008   -8.092998    4.272998   -1.248706
  39 H   1.0000    1     1.008  -10.052757    5.101633   -3.790164
  40 H   1.0000    1     1.008   -6.975174    6.322197   -3.578448
  41 H   1.0000    1     1.008   -6.376992    0.843890   -9.779082
  42 H   1.0000    1     1.008   -6.542716    4.117193   -9.311160
  43 H   1.0000    1     1.008   -9.300299    2.295038   -9.234078
  44 H   1.0000    1     1.008   -3.889457    7.887920   -7.082040
  45 H   1.0000    1     1.008   -1.548716    5.755442   -8.245626
  46 H   1.0000    1     1.008   -0.717459    8.952403   -7.574929
  47 H   1.0000    1     1.008    4.979528    7.022344   -1.137754

      -----------------------------------------------------------      
     |                   =====================                   |     
     |                           x T B                           |     
     |                   =====================                   |     
     |                         S. Grimme                         |     
     |          Mulliken Center for Theoretical Chemistry        |     
     |                    University of Bonn                     |     
      -----------------------------------------------------------      

   * xtb version 6.7.1 (edcfbbe) compiled by 'albert@albert-system' on 2024-07-22

   xtb is free software: you can redistribute it and/or modify it under
   the terms of the GNU Lesser General Public License as published by
   the Free Software Foundation, either version 3 of the License, or
   (at your option) any later version.
   
   xtb is distributed in the hope that it will be useful,
   but WITHOUT ANY WARRANTY; without even the implied warranty of
   MERCHANTABILITY or FITNESS FOR A PARTICULAR PURPOSE.  See the
   GNU Lesser General Public License for more details.
   
   Cite this work as:
   * C. Bannwarth, E. Caldeweyher, S. Ehlert, A. Hansen, P. Pracht,
     J. Seibert, S. Spicher, S. Grimme, WIREs Comput. Mol. Sci., 2020, 11,
     e01493. DOI: 10.1002/wcms.1493
   
   for GFN2-xTB:
   * C. Bannwarth, S. Ehlert and S. Grimme., J. Chem. Theory Comput., 2019,
     15, 1652-1671. DOI: 10.1021/acs.jctc.8b01176
   for GFN1-xTB:
   * S. Grimme, C. Bannwarth, P. Shushkov, J. Chem. Theory Comput., 2017,
     13, 1989-2009. DOI: 10.1021/acs.jctc.7b00118
   for GFN0-xTB:
   * P. Pracht, E. Caldeweyher, S. Ehlert, S. Grimme, ChemRxiv, 2019, preprint.
     DOI: 10.26434/chemrxiv.8326202.v1
   for GFN-FF:
   * S. Spicher and S. Grimme, Angew. Chem. Int. Ed., 2020, 59, 15665-15673.
     DOI: 10.1002/anie.202004239
   
   for ALPB and GBSA implicit solvation:
   * S. Ehlert, M. Stahn, S. Spicher, S. Grimme, J. Chem. Theory Comput.,
     2021, 17, 4250-4261. DOI: 10.1021/acs.jctc.1c00471
   
   for ddCOSMO and CPCM-X implicit solvation:
   * M. Stahn, S. Ehlert, S. Grimme, J. Phys. Chem. A,
     2023, XX, XXXX-XXXX. DOI: 10.1021/acs.jpca.3c04382
   
   for DFT-D4:
   * E. Caldeweyher, C. Bannwarth and S. Grimme, J. Chem. Phys., 2017,
     147, 034112. DOI: 10.1063/1.4993215
   * E. Caldeweyher, S. Ehlert, A. Hansen, H. Neugebauer, S. Spicher,
     C. Bannwarth and S. Grimme, J. Chem. Phys., 2019, 150, 154122.
     DOI: 10.1063/1.5090222
   * E. Caldeweyher, J.-M. Mewes, S. Ehlert and S. Grimme, Phys. Chem. Chem. Phys.
     2020, 22, 8499-8512. DOI: 10.1039/D0CP00502A
   
   for sTDA-xTB:
   * S. Grimme and C. Bannwarth, J. Chem. Phys., 2016, 145, 054103.
     DOI: 10.1063/1.4959605
   
   in the mass-spec context:
   * V. Asgeirsson, C. Bauer and S. Grimme, Chem. Sci., 2017, 8, 4879.
     DOI: 10.1039/c7sc00601b
   * J. Koopman and S. Grimme, ACS Omega 2019, 4, 12, 15120-15133.
     DOI: 10.1021/acsomega.9b02011
   
   for metadynamics refer to:
   * S. Grimme, J. Chem. Theory Comput., 2019, 155, 2847-2862
     DOI: 10.1021/acs.jctc.9b00143
   
   for SPH calculations refer to:
   * S. Spicher and S. Grimme, J. Chem. Theory Comput., 2021, 17, 1701-1714
     DOI: 10.1021/acs.jctc.0c01306
   
   for ONIOM refer to:
   * C. Plett, A. Katbashev, S. Ehlert, S. Grimme, M. Bursch,
     Phys. Chem. Chem. Phys., 2023, 25, 17860-17868. DOI: 10.1039/D3CP02178E
   
   for DIPRO refer to:
   * J. Kohn, N. Gildemeister, S. Grimme, D. Fazzi, A. Hansen,
     J. Chem. Phys., 2023, just accepted.
   
   for PTB refer to:
   * S. Grimme, M. Mueller, A. Hansen, J. Chem. Phys., 2023, 158, 124111.
     DOI: 10.1063/5.0137838
   
   with help from (in alphabetical order)
   P. Atkinson, C. Bannwarth, F. Bohle, G. Brandenburg, E. Caldeweyher
   M. Checinski, S. Dohm, S. Ehlert, S. Ehrlich, I. Gerasimov, C. Hölzer
   A. Katbashev, J. Kohn, J. Koopman, C. Lavigne, S. Lehtola, F. März, M. Müller,
   F. Musil, H. Neugebauer, J. Pisarek, C. Plett, P. Pracht, F. Pultar,
   J. Seibert, P. Shushkov, S. Spicher, M. Stahn, M. Steiner, T. Strunk,
   J. Stückrath, T. Rose, and J. Unsleber
   
 * started run on 2025/09/10 at 11:36:46.486     
   ID    Z sym.   atoms
    1    8 O      1, 6, 10, 18, 21, 25
    2    6 C      2, 4, 7, 9, 12-17, 19, 22, 23
    3    1 H      3, 5, 8, 20, 24, 26-48
    4   14 Si     11

           -------------------------------------------------
          |                Calculation Setup                |
           -------------------------------------------------

          program call               : /home/kmoult/orca_6_1/otool_xtb goat_0_XTB.xyz --grad -c 0 -u 0 -P 4 --namespace goat_0 --input goat_0_XTB.input.tmp --alpb ACETONE --acc 0.200000
          hostname                   : node1600
          calculation namespace      : goat_0
          coordinate file            : goat_0_XTB.xyz
          omp threads                :                     4


           -------------------------------------------------
          |                 G F N 2 - x T B                 |
           -------------------------------------------------

        Reference                      10.1021/acs.jctc.8b01176
      * Hamiltonian:
        H0-scaling (s, p, d)           1.850000    2.230000    2.230000
        zeta-weighting                 0.500000
      * Dispersion:
        s8                             2.700000
        a1                             0.520000
        a2                             5.000000
        s9                             5.000000
      * Repulsion:
        kExp                           1.500000    1.000000
        rExp                           1.000000
      * Coulomb:
        alpha                          2.000000
        third order                    shell-resolved
        anisotropic                    true
        a3                             3.000000
        a5                             4.000000
        cn-shift                       1.200000
        cn-exp                         4.000000
        max-rad                        5.000000

      * Solvation model:               ALPB
        Solvent                        ACETONE
        Parameter file                 internal GFN2-xTB/ALPB
        Dielectric constant                2.0700E+01
        Reference state                gsolv [1 M gas/solution]
        Free energy shift                  5.9241E-03 Eh       3.7175E+00 kcal/mol
        Temperature                        2.9815E+02 K
        Density                            7.9000E-01 kg/L
        Solvent mass                       5.8080E+01 g/mol
        Interaction kernel             P16
        Born radius scaling (c1)           1.8274E+00
        Born radii integrator          GBOBC
        Born offset                        0.0000E+00 a0       0.0000E+00 AA
        H-bond correction              true
        Ion screening                  false
        Surface tension                    1.0000E-05 Eh       1.5569E+01 dyn/cm
        Grid points                               230 per atom
q/qsh data taken from xtbrestart
CAMM data taken from xtbrestart

          ...................................................
          :                      SETUP                      :
          :.................................................:
          :  # basis functions                 114          :
          :  # atomic orbitals                 113          :
          :  # shells                           69          :
          :  # electrons                       120          :
          :  max. iterations                   250          :
          :  Hamiltonian                  GFN2-xTB          :
          :  restarted?                       true          :
          :  GBSA solvation                   true          :
          :  PC potential                    false          :
          :  electronic temp.          300.0000000     K    :
          :  accuracy                    0.2000000          :
          :  -> integral cutoff          0.3198970E+02      :
          :  -> integral neglect         0.2000000E-08      :
          :  -> SCF convergence          0.2000000E-06 Eh   :
          :  -> wf. convergence          0.2000000E-04 e    :
          :  Broyden damping             0.4000000          :
          :  net charge                          0          :
          :  unpaired electrons                  0          :
          ...................................................

 iter      E             dE          RMSdq      gap      omega  full diag
   1    -68.9914102 -0.689914E+02  0.928E-03    6.35       0.0  T
   2    -68.9914102 -0.219523E-07  0.578E-03    6.35       2.5  T
   3    -68.9914102 -0.147628E-08  0.795E-04    6.35      18.2  T
   4    -68.9914102 -0.299374E-08  0.605E-04    6.35      23.9  T
   5    -68.9914102 -0.241309E-08  0.304E-04    6.35      47.5  T
   6    -68.9914102 -0.291223E-09  0.129E-04    6.35     111.8  T
   7    -68.9914102 -0.256691E-09  0.564E-05    6.35     256.0  T

   *** convergence criteria satisfied after 7 iterations ***

         #    Occupation            Energy/Eh            Energy/eV
      -------------------------------------------------------------
         1        2.0000           -0.7766556             -21.1339
       ...           ...                  ...                  ...
        54        2.0000           -0.4217629             -11.4768
        55        2.0000           -0.4207712             -11.4498
        56        2.0000           -0.4161094             -11.3229
        57        2.0000           -0.4028292             -10.9615
        58        2.0000           -0.3960973             -10.7784
        59        2.0000           -0.3944918             -10.7347
        60        2.0000           -0.3709581             -10.0943 (HOMO)
        61                         -0.1377142              -3.7474 (LUMO)
        62                         -0.1237165              -3.3665
        63                         -0.1106987              -3.0123
        64                         -0.0176533              -0.4804
        65                         -0.0097905              -0.2664
       ...                                ...                  ...
       113                          0.7768290              21.1386
      -------------------------------------------------------------
                  HL-Gap            0.2332439 Eh            6.3469 eV
             Fermi-level           -0.2543362 Eh           -6.9208 eV

 SCC (total)                   0 d,  0 h,  0 min,  0.024 sec
 SCC setup                      ...        0 min,  0.001 sec (  2.498%)
 Dispersion                     ...        0 min,  0.000 sec (  1.257%)
 classical contributions        ...        0 min,  0.000 sec (  0.151%)
 integral evaluation            ...        0 min,  0.004 sec ( 17.859%)
 iterations                     ...        0 min,  0.011 sec ( 47.161%)
 molecular gradient             ...        0 min,  0.007 sec ( 30.400%)
 printout                       ...        0 min,  0.000 sec (  0.614%)

         :::::::::::::::::::::::::::::::::::::::::::::::::::::
         ::                     SUMMARY                     ::
         :::::::::::::::::::::::::::::::::::::::::::::::::::::
         :: total energy             -68.319721824521 Eh    ::
         :: total w/o Gsasa/hb       -68.293982638685 Eh    ::
         :: gradient norm              0.000518723649 Eh/a0 ::
         :: HOMO-LUMO gap              6.346890630635 eV    ::
         ::.................................................::
         :: SCC energy               -68.990054516465 Eh    ::
         :: -> isotropic ES            0.159913413832 Eh    ::
         :: -> anisotropic ES          0.002730906083 Eh    ::
         :: -> anisotropic XC          0.004859983315 Eh    ::
         :: -> dispersion             -0.048965197550 Eh    ::
         :: -> Gsolv                  -0.029263269891 Eh    ::
         ::    -> Gelec               -0.003524084055 Eh    ::
         ::    -> Gsasa               -0.026359045229 Eh    ::
         ::    -> Ghb                 -0.005304281871 Eh    ::
         ::    -> Gshift               0.005924141264 Eh    ::
         :: repulsion energy           0.670332691944 Eh    ::
         :: add. restraining           0.000000000000 Eh    ::
         :: total charge               0.000000000000 e     ::
         :::::::::::::::::::::::::::::::::::::::::::::::::::::


Property printout bound to 'properties.out'

           -------------------------------------------------
          | TOTAL ENERGY              -68.319721824521 Eh   |
          | GRADIENT NORM               0.000518723649 Eh/α |
          | HOMO-LUMO GAP               6.346890630635 eV   |
           -------------------------------------------------

------------------------------------------------------------------------
 * finished run on 2025/09/10 at 11:36:46.533     
------------------------------------------------------------------------
 total:
 * wall-time:     0 d,  0 h,  0 min,  0.046 sec
 *  cpu-time:     0 d,  0 h,  0 min,  0.162 sec
 * ratio c/w:     3.552 speedup
 SCF:
 * wall-time:     0 d,  0 h,  0 min,  0.024 sec
 *  cpu-time:     0 d,  0 h,  0 min,  0.095 sec
 * ratio c/w:     3.979 speedup


-------------------------   --------------------
FINAL SINGLE POINT ENERGY       -68.319721824520
-------------------------   --------------------


-------------
DIPOLE MOMENT
-------------
                                X             Y             Z
Total Dipole Moment    :     -0.09100       0.95300      -1.74400
                        -----------------------------------------
Magnitude (a.u.)       :      1.98948
Magnitude (Debye)      :      5.05685


------------------
CARTESIAN GRADIENT
------------------

   1   O   :   -0.000062183   -0.000027073    0.000009366
   2   C   :    0.000142518    0.000004258   -0.000050614
   3   H   :   -0.000062008    0.000015837    0.000019626
   4   C   :    0.000015207    0.000040425   -0.000068948
   5   H   :    0.000017490   -0.000042160    0.000044250
   6   O   :   -0.000063660   -0.000023637    0.000011665
   7   C   :    0.000017722    0.000002672    0.000038940
   8   H   :   -0.000027766   -0.000021134   -0.000017016
   9   C   :   -0.000016729   -0.000060008    0.000046243
  10   O   :    0.000110468    0.000010254    0.000013175
  11   Si  :   -0.000037695    0.000073146    0.000025335
  12   C   :    0.000085906    0.000129254   -0.000076234
  13   C   :   -0.000030875   -0.000049938   -0.000003696
  14   C   :   -0.000015139   -0.000025811   -0.000016526
  15   C   :   -0.000012861    0.000001411    0.000022678
  16   C   :   -0.000187160   -0.000064577    0.000011813
  17   C   :   -0.000029950   -0.000057018    0.000030780
  18   O   :   -0.000012604    0.000098352    0.000040866
  19   C   :    0.000090170   -0.000144375   -0.000053157
  20   H   :   -0.000009386    0.000009201   -0.000004991
  21   O   :   -0.000047107    0.000037760   -0.000005421
  22   C   :    0.000015864   -0.000029308    0.000016039
  23   C   :   -0.000153866    0.000021527   -0.000038694
  24   H   :    0.000047731   -0.000015813    0.000043389
  25   O   :    0.000049334   -0.000000104    0.000029848
  26   H   :   -0.000006109    0.000034690    0.000015105
  27   H   :    0.000041750    0.000019002    0.000006792
  28   H   :    0.000034873    0.000014045   -0.000019102
  29   H   :    0.000003418    0.000008125   -0.000010295
  30   H   :   -0.000010242    0.000007379    0.000020280
  31   H   :    0.000018800   -0.000008066    0.000009884
  32   H   :    0.000019408    0.000012279    0.000020713
  33   H   :   -0.000017944    0.000002485    0.000025948
  34   H   :   -0.000013901    0.000013459   -0.000002394
  35   H   :   -0.000020093   -0.000006010   -0.000010862
  36   H   :    0.000013416   -0.000030330    0.000005364
  37   H   :   -0.000025313   -0.000021278   -0.000011129
  38   H   :    0.000007773   -0.000010514   -0.000016176
  39   H   :    0.000062522   -0.000009793    0.000012504
  40   H   :   -0.000006487    0.000046828    0.000042458
  41   H   :    0.000052005   -0.000005783   -0.000041556
  42   H   :    0.000008060   -0.000000438   -0.000030562
  43   H   :    0.000034580    0.000011655   -0.000029319
  44   H   :   -0.000005639    0.000018842   -0.000038000
  45   H   :   -0.000012845    0.000009743    0.000002612
  46   H   :   -0.000007296    0.000004120   -0.000010858
  47   H   :   -0.000005736   -0.000002709   -0.000005338
  48   H   :    0.000011579    0.000009127   -0.000004783

Difference to translation invariance:
           :    0.0000000000   -0.0000000000    0.0000000000

Difference to rotation invariance:
           :   -0.0000345438   -0.0003108953   -0.0001093263

Norm of the Cartesian gradient     ...    0.0005187236
RMS gradient                       ...    0.0000432270
MAX gradient                       ...    0.0001871601
------------------------------------------------------------------------------
                         ORCA GEOMETRY RELAXATION STEP
------------------------------------------------------------------------------

Reading the OPT-File                    .... done
Getting information on internals        .... done
Copying old internal coords+grads       .... done
Making the new internal coordinates     .... (2022 redundants) done
Validating the new internal coordinates .... (2022 redundants) done
Calculating the B-matrix                .... done
Calculating the G,G- and P matrices     .... done
Transforming gradient to internals      .... done
Projecting the internal gradient        .... done
Number of atoms                         ....  48
Number of internal coordinates          .... 234
Current Energy                          ....   -68.319721825 Eh
Current gradient norm                   ....     0.000518724 Eh/bohr
Maximum allowed component of the step   ....  0.300
Current trust radius                    ....  0.700
Updating the Hessian (BFGS)             .... done
Forming the augmented Hessian           .... done
Diagonalizing the augmented Hessian     .... done
Last element of RFO vector              ....  0.999660424
Lowest eigenvalues of augmented Hessian:
 -0.000002101  0.001352413  0.006383634  0.009981843  0.010066240
Length of the computed step             ....  0.026067185
The final length of the internal step   ....  0.026067185
Converting the step to Cartesian space:
 Initial RMS(Int)=    0.0017040652
Transforming coordinates:
 Iter   0:  RMS(Cart)=    0.0033020957 RMS(Int)=    0.0017039181
done
Storing new coordinates                 .... done
The predicted energy change is          ....    -0.000001051
Previously predicted energy change      ....    -0.000002242
Actually observed energy change         ....    -0.000003018
Ratio of predicted to observed change   ....     1.345973310
New trust radius                        ....     0.700000000

                                .--------------------.
          ----------------------|Geometry convergence|-------------------------
          Item                value                   Tolerance       Converged
          ---------------------------------------------------------------------
          Energy change      -0.0000030179            0.0000050000      YES
          RMS gradient        0.0000275630            0.0001000000      YES
          MAX gradient        0.0001367961            0.0003000000      YES
          RMS step            0.0017040652            0.0020000000      YES
          MAX step            0.0099137870            0.0040000000      NO
          -------------------------------------------------------------------------
          ........................................................
          Max(Bonds)      0.0016      Max(Angles)    0.04
          Max(Dihed)        0.57      Max(Improp)    0.00
          ---------------------------------------------------------------------

    ---------------------------------------------------------------------------
                         Redundant Internal Coordinates
                            (Angstroem and degrees)

        Definition                    Value    dE/dq     Step     New-Value
    ----------------------------------------------------------------------------
     1. B(C   1,O   0)                1.3932  0.000072 -0.0001    1.3930   
     2. B(H   2,C   1)                1.0985 -0.000003  0.0000    1.0986   
     3. B(C   3,C   1)                1.5431  0.000002 -0.0000    1.5431   
     4. B(H   4,C   3)                1.0960  0.000029 -0.0000    1.0960   
     5. B(O   5,C   3)                1.4077 -0.000016  0.0000    1.4077   
     6. B(C   6,C   3)                1.5468 -0.000018  0.0000    1.5468   
     7. B(H   7,C   6)                1.0989  0.000002 -0.0000    1.0988   
     8. B(C   8,C   6)                1.5402 -0.000018 -0.0000    1.5402   
     9. B(O   9,C   8)                1.3934  0.000013 -0.0000    1.3934   
    10. B(Si 10,O   9)                1.6470  0.000115 -0.0001    1.6469   
    11. B(C  11,Si 10)                1.9361 -0.000016  0.0001    1.9362   
    12. B(C  12,C  11)                1.5327  0.000054 -0.0000    1.5326   
    13. B(C  13,C  11)                1.5318  0.000064 -0.0000    1.5317   
    14. B(C  14,C  11)                1.5336  0.000041 -0.0000    1.5335   
    15. B(C  15,Si 10)                1.8975  0.000017 -0.0000    1.8975   
    16. B(C  16,Si 10)                1.9120  0.000059 -0.0000    1.9120   
    17. B(O  17,C   6)                1.4238  0.000008  0.0001    1.4238   
    18. B(C  18,O  17)                1.4012 -0.000093  0.0001    1.4014   
    19. B(H  19,C  18)                1.1087  0.000002 -0.0001    1.1086   
    20. B(O  20,C  18)                1.3951  0.000065 -0.0000    1.3951   
    21. B(C  21,O  20)                1.4147 -0.000005  0.0000    1.4147   
    22. B(C  22,C  18)                1.5389  0.000021  0.0000    1.5389   
    23. B(C  22,C   1)                1.5419 -0.000024  0.0001    1.5420   
    24. B(H  23,C  22)                1.0992 -0.000015  0.0000    1.0992   
    25. B(O  24,C  22)                1.4087  0.000066 -0.0002    1.4085   
    26. B(H  25,O   0)                0.9748 -0.000014 -0.0000    0.9747   
    27. B(H  25,O  20)                2.3667 -0.000009 -0.0009    2.3658   
    28. B(H  25,O   9)                1.8777  0.000005  0.0005    1.8782   
    29. B(H  26,O   5)                0.9700  0.000050 -0.0000    0.9700   
    30. B(H  26,O  24)                2.0721  0.000012 -0.0016    2.0705   
    31. B(H  27,C   8)                1.0960  0.000024 -0.0000    1.0960   
    32. B(H  28,C   8)                1.0962 -0.000010  0.0000    1.0962   
    33. B(H  29,C  12)                1.0873  0.000020 -0.0000    1.0873   
    34. B(H  30,C  12)                1.0880  0.000020 -0.0000    1.0879   
    35. B(H  31,C  12)                1.0903 -0.000012 -0.0000    1.0903   
    36. B(H  32,C  13)                1.0866  0.000024 -0.0000    1.0865   
    37. B(H  33,C  13)                1.0896 -0.000006 -0.0000    1.0896   
    38. B(H  34,C  13)                1.0872  0.000014 -0.0000    1.0872   
    39. B(H  35,C  14)                1.0883  0.000017 -0.0000    1.0883   
    40. B(H  36,C  14)                1.0872  0.000016 -0.0000    1.0872   
    41. B(H  37,C  14)                1.0902  0.000001 -0.0000    1.0901   
    42. B(H  38,C  15)                1.0850  0.000017 -0.0000    1.0850   
    43. B(H  39,C  15)                1.0841  0.000005  0.0000    1.0841   
    44. B(H  40,C  15)                1.0847  0.000030 -0.0000    1.0847   
    45. B(H  41,C  16)                1.0868  0.000019 -0.0000    1.0868   
    46. B(H  42,C  16)                1.0862  0.000032 -0.0001    1.0862   
    47. B(H  43,C  16)                1.0851  0.000016  0.0000    1.0851   
    48. B(H  44,C  21)                1.0868  0.000016 -0.0000    1.0867   
    49. B(H  45,C  21)                1.0926  0.000001  0.0000    1.0926   
    50. B(H  46,C  21)                1.0962 -0.000004 -0.0000    1.0962   
    51. B(H  47,O  24)                0.9656  0.000016  0.0000    0.9656   
    52. A(C   1,O   0,H  25)          108.34  0.000038    0.01    108.35   
    53. A(H   2,C   1,C   3)          107.02  0.000010   -0.02    107.00   
    54. A(O   0,C   1,H   2)          106.12 -0.000038    0.01    106.14   
    55. A(C   3,C   1,C  22)          109.84  0.000003   -0.01    109.83   
    56. A(O   0,C   1,C  22)          112.25  0.000005    0.01    112.25   
    57. A(O   0,C   1,C   3)          113.95  0.000004    0.01    113.95   
    58. A(H   2,C   1,C  22)          107.24  0.000015   -0.01    107.23   
    59. A(H   4,C   3,O   5)          105.70 -0.000023    0.04    105.74   
    60. A(C   1,C   3,C   6)          113.96 -0.000007    0.01    113.97   
    61. A(C   1,C   3,H   4)          108.09 -0.000003   -0.00    108.09   
    62. A(C   1,C   3,O   5)          110.45  0.000001   -0.01    110.43   
    63. A(O   5,C   3,C   6)          110.26  0.000010   -0.01    110.25   
    64. A(H   4,C   3,C   6)          107.99  0.000021   -0.02    107.98   
    65. A(C   3,O   5,H  26)          107.81  0.000026   -0.02    107.80   
    66. A(H   7,C   6,C   8)          105.63 -0.000016    0.02    105.65   
    67. A(C   3,C   6,C   8)          113.57  0.000043    0.00    113.57   
    68. A(C   3,C   6,H   7)          106.18  0.000004   -0.01    106.17   
    69. A(C   3,C   6,O  17)          114.60  0.000006   -0.00    114.60   
    70. A(C   8,C   6,O  17)          112.84 -0.000060   -0.00    112.84   
    71. A(H   7,C   6,O  17)          102.70  0.000024   -0.00    102.70   
    72. A(H  27,C   8,H  28)          108.28 -0.000005   -0.00    108.28   
    73. A(C   6,C   8,O   9)          113.11 -0.000045   -0.01    113.11   
    74. A(C   6,C   8,H  27)          108.02 -0.000043   -0.00    108.01   
    75. A(O   9,C   8,H  28)          109.97  0.000030    0.00    109.97   
    76. A(O   9,C   8,H  27)          109.91  0.000030    0.01    109.92   
    77. A(C   6,C   8,H  28)          107.40  0.000034   -0.00    107.40   
    78. A(C   8,O   9,Si 10)          129.34  0.000063   -0.04    129.30   
    79. A(C  15,Si 10,C  16)          112.19  0.000065   -0.01    112.18   
    80. A(C  11,Si 10,C  16)          109.88 -0.000014    0.01    109.88   
    81. A(O   9,Si 10,C  16)          110.88 -0.000013   -0.04    110.85   
    82. A(C  11,Si 10,C  15)          111.78 -0.000041   -0.01    111.78   
    83. A(O   9,Si 10,C  15)          100.45 -0.000008    0.00    100.45   
    84. A(O   9,Si 10,C  11)          111.39  0.000011    0.04    111.43   
    85. A(C  12,C  11,C  14)          108.47 -0.000015    0.01    108.48   
    86. A(C  13,C  11,C  14)          108.11 -0.000025    0.01    108.12   
    87. A(Si 10,C  11,C  13)          110.15  0.000007   -0.01    110.14   
    88. A(Si 10,C  11,C  14)          111.88  0.000037   -0.02    111.87   
    89. A(Si 10,C  11,C  12)          109.71 -0.000005    0.00    109.71   
    90. A(C  12,C  11,C  13)          108.43  0.000000    0.01    108.44   
    91. A(H  29,C  12,H  31)          108.28 -0.000022    0.00    108.28   
    92. A(C  11,C  12,H  31)          110.55  0.000037   -0.01    110.54   
    93. A(H  29,C  12,H  30)          107.93 -0.000005   -0.00    107.93   
    94. A(C  11,C  12,H  30)          110.92  0.000009   -0.00    110.92   
    95. A(C  11,C  12,H  29)          110.94 -0.000000    0.00    110.94   
    96. A(H  30,C  12,H  31)          108.11 -0.000021    0.01    108.12   
    97. A(H  32,C  13,H  33)          108.26 -0.000020    0.01    108.27   
    98. A(C  11,C  13,H  33)          110.42  0.000012   -0.01    110.42   
    99. A(C  11,C  13,H  32)          110.69  0.000014    0.00    110.69   
   100. A(C  11,C  13,H  34)          110.85  0.000017   -0.01    110.84   
   101. A(H  33,C  13,H  34)          108.21 -0.000025    0.01    108.22   
   102. A(H  32,C  13,H  34)          108.32  0.000001   -0.00    108.31   
   103. A(H  36,C  14,H  37)          108.08 -0.000024    0.02    108.10   
   104. A(H  35,C  14,H  37)          107.94 -0.000027    0.01    107.95   
   105. A(C  11,C  14,H  37)          110.24  0.000016   -0.00    110.23   
   106. A(H  35,C  14,H  36)          108.41 -0.000001   -0.01    108.40   
   107. A(C  11,C  14,H  36)          110.87  0.000014   -0.01    110.86   
   108. A(C  11,C  14,H  35)          111.20  0.000020   -0.01    111.20   
   109. A(H  39,C  15,H  40)          108.08  0.000017   -0.00    108.08   
   110. A(H  38,C  15,H  40)          107.09  0.000015    0.00    107.10   
   111. A(H  38,C  15,H  39)          107.92 -0.000007   -0.01    107.91   
   112. A(Si 10,C  15,H  39)          111.24  0.000137   -0.04    111.20   
   113. A(Si 10,C  15,H  38)          111.47 -0.000060    0.01    111.47   
   114. A(Si 10,C  15,H  40)          110.86 -0.000103    0.04    110.90   
   115. A(H  42,C  16,H  43)          107.36 -0.000042    0.00    107.36   
   116. A(H  41,C  16,H  43)          107.45 -0.000007   -0.00    107.45   
   117. A(Si 10,C  16,H  43)          111.87  0.000048   -0.01    111.86   
   118. A(H  41,C  16,H  42)          107.45 -0.000028    0.01    107.47   
   119. A(Si 10,C  16,H  41)          111.75  0.000030   -0.02    111.73   
   120. A(Si 10,C  16,H  42)          110.73 -0.000006    0.02    110.75   
   121. A(C   6,O  17,C  18)          118.79  0.000005   -0.01    118.78   
   122. A(O  17,C  18,H  19)          102.54 -0.000010    0.00    102.54   
   123. A(O  20,C  18,C  22)          108.04 -0.000037   -0.00    108.03   
   124. A(H  19,C  18,C  22)          109.20  0.000013    0.01    109.21   
   125. A(O  17,C  18,C  22)          112.68  0.000009    0.00    112.68   
   126. A(H  19,C  18,O  20)          109.62  0.000001    0.00    109.62   
   127. A(O  17,C  18,O  20)          114.56  0.000026   -0.00    114.56   
   128. A(C  18,O  20,C  21)          113.91  0.000064   -0.01    113.90   
   129. A(H  44,C  21,H  46)          110.13 -0.000008    0.01    110.15   
   130. A(H  45,C  21,H  46)          109.16 -0.000006   -0.01    109.14   
   131. A(O  20,C  21,H  46)          110.44  0.000009   -0.00    110.44   
   132. A(H  44,C  21,H  45)          109.99 -0.000005   -0.00    109.99   
   133. A(O  20,C  21,H  45)          111.05  0.000023    0.00    111.06   
   134. A(O  20,C  21,H  44)          106.03 -0.000012   -0.00    106.03   
   135. A(H  23,C  22,O  24)          111.55 -0.000018    0.01    111.57   
   136. A(C  18,C  22,O  24)          111.07  0.000005    0.02    111.09   
   137. A(C   1,C  22,O  24)          107.63 -0.000004    0.00    107.64   
   138. A(C  18,C  22,H  23)          107.75  0.000030   -0.02    107.73   
   139. A(C   1,C  22,H  23)          108.00 -0.000006    0.00    108.00   
   140. A(C   1,C  22,C  18)          110.81 -0.000008   -0.02    110.79   
   141. A(C  22,O  24,H  47)          110.02  0.000007    0.01    110.02   
   142. D(H   2,C   1,O   0,H  25)   -170.15 -0.000010    0.00   -170.15   
   143. D(C  22,C   1,O   0,H  25)     73.00 -0.000008   -0.00     73.00   
   144. D(C   3,C   1,O   0,H  25)    -52.65 -0.000020   -0.01    -52.66   
   145. D(H   4,C   3,C   1,C  22)   -166.12 -0.000010    0.00   -166.12   
   146. D(O   5,C   3,C   1,C  22)     78.69  0.000019   -0.03     78.66   
   147. D(O   5,C   3,C   1,H   2)    -37.42 -0.000006   -0.01    -37.42   
   148. D(H   4,C   3,C   1,H   2)     77.77 -0.000034    0.03     77.80   
   149. D(O   5,C   3,C   1,O   0)   -154.40  0.000032   -0.02   -154.42   
   150. D(H   4,C   3,C   1,O   0)    -39.21  0.000003    0.02    -39.19   
   151. D(H  26,O   5,C   3,H   4)   -166.55  0.000012    0.05   -166.49   
   152. D(H  26,O   5,C   3,C   6)     76.98 -0.000004    0.06     77.04   
   153. D(H  26,O   5,C   3,C   1)    -49.87 -0.000004    0.07    -49.80   
   154. D(H   7,C   6,C   3,O   5)     27.91  0.000009    0.01     27.93   
   155. D(H   7,C   6,C   3,H   4)    -87.12  0.000020   -0.02    -87.14   
   156. D(H   7,C   6,C   3,C   1)    152.77  0.000013   -0.01    152.77   
   157. D(C   8,C   6,C   3,H   4)     28.52  0.000026   -0.00     28.52   
   158. D(C   8,C   6,C   3,C   1)    -91.58  0.000019    0.01    -91.58   
   159. D(C   8,C   6,C   3,O   5)    143.56  0.000015    0.03    143.58   
   160. D(H  27,C   8,C   6,O  17)     43.30 -0.000006    0.04     43.34   
   161. D(H  27,C   8,C   6,H   7)    -68.15  0.000002    0.04    -68.11   
   162. D(H  27,C   8,C   6,C   3)    175.89 -0.000015    0.04    175.92   
   163. D(O   9,C   8,C   6,O  17)    -78.57  0.000015    0.03    -78.54   
   164. D(O   9,C   8,C   6,C   3)     54.01  0.000006    0.03     54.04   
   165. D(O   9,C   8,C   6,H   7)    169.98  0.000024    0.03    170.00   
   166. D(Si 10,O   9,C   8,H  27)     57.35  0.000015    0.11     57.46   
   167. D(Si 10,O   9,C   8,C   6)    178.16 -0.000049    0.11    178.27   
   168. D(Si 10,O   9,C   8,H  28)    -61.76 -0.000015    0.10    -61.66   
   169. D(C  16,Si 10,O   9,C   8)    -52.10  0.000013   -0.05    -52.15   
   170. D(C  15,Si 10,O   9,C   8)   -170.88 -0.000052   -0.02   -170.90   
   171. D(C  11,Si 10,O   9,C   8)     70.60 -0.000005   -0.04     70.56   
   172. D(C  12,C  11,Si 10,O   9)     39.51 -0.000001   -0.04     39.48   
   173. D(C  13,C  11,Si 10,C  16)    -77.92 -0.000018   -0.05    -77.97   
   174. D(C  13,C  11,Si 10,C  15)     47.31  0.000026   -0.06     47.25   
   175. D(C  13,C  11,Si 10,O   9)    158.80 -0.000000   -0.03    158.77   
   176. D(C  12,C  11,Si 10,C  16)    162.79 -0.000020   -0.05    162.74   
   177. D(C  12,C  11,Si 10,C  15)    -71.97  0.000025   -0.06    -72.04   
   178. D(H  30,C  12,C  11,C  14)     60.63  0.000026   -0.03     60.60   
   179. D(H  30,C  12,C  11,C  13)    177.81 -0.000012   -0.01    177.80   
   180. D(H  30,C  12,C  11,Si 10)    -61.85 -0.000007   -0.02    -61.87   
   181. D(H  29,C  12,C  11,C  14)   -179.42  0.000025   -0.04   -179.46   
   182. D(H  29,C  12,C  11,C  13)    -62.25 -0.000013   -0.02    -62.26   
   183. D(H  29,C  12,C  11,Si 10)     58.09 -0.000008   -0.03     58.07   
   184. D(H  33,C  13,C  11,C  14)     57.04 -0.000020    0.02     57.06   
   185. D(H  33,C  13,C  11,C  12)    -60.37  0.000012    0.00    -60.37   
   186. D(H  33,C  13,C  11,Si 10)    179.57  0.000014    0.00    179.57   
   187. D(H  32,C  13,C  11,C  12)     59.49  0.000003    0.01     59.51   
   188. D(H  32,C  13,C  11,Si 10)    -60.57  0.000005    0.01    -60.55   
   189. D(H  32,C  13,C  11,C  14)    176.90 -0.000029    0.03    176.94   
   190. D(H  36,C  14,C  11,C  13)     58.90 -0.000000    0.05     58.95   
   191. D(H  36,C  14,C  11,C  12)    176.28 -0.000022    0.07    176.35   
   192. D(H  36,C  14,C  11,Si 10)    -62.57 -0.000015    0.07    -62.50   
   193. D(H  35,C  14,C  11,C  13)    179.59  0.000021    0.03    179.62   
   194. D(H  35,C  14,C  11,C  12)    -63.03 -0.000001    0.05    -62.98   
   195. D(H  35,C  14,C  11,Si 10)     58.12  0.000006    0.05     58.17   
   196. D(H  39,C  15,Si 10,C  16)     51.86 -0.000006   -0.49     51.37   
   197. D(H  39,C  15,Si 10,C  11)    -72.09 -0.000006   -0.49    -72.57   
   198. D(H  39,C  15,Si 10,O   9)    169.68  0.000002   -0.54    169.14   
   199. D(H  38,C  15,Si 10,C  16)    172.37  0.000038   -0.52    171.84   
   200. D(H  38,C  15,Si 10,C  11)     48.42  0.000038   -0.52     47.90   
   201. D(H  38,C  15,Si 10,O   9)    -69.81  0.000047   -0.57    -70.38   
   202. D(H  41,C  16,Si 10,C  15)    172.24  0.000014   -0.27    171.97   
   203. D(H  41,C  16,Si 10,C  11)    -62.76 -0.000003   -0.27    -63.03   
   204. D(H  41,C  16,Si 10,O   9)     60.81 -0.000007   -0.24     60.57   
   205. D(H  42,C  16,Si 10,C  15)     52.48  0.000034   -0.28     52.20   
   206. D(H  42,C  16,Si 10,C  11)    177.49  0.000018   -0.29    177.20   
   207. D(H  42,C  16,Si 10,O   9)    -58.94  0.000014   -0.26    -59.20   
   208. D(C  18,O  17,C   6,C   8)     89.07  0.000014   -0.00     89.07   
   209. D(C  18,O  17,C   6,H   7)   -157.69 -0.000017    0.02   -157.67   
   210. D(C  18,O  17,C   6,C   3)    -43.01  0.000005    0.00    -43.01   
   211. D(C  22,C  18,O  17,C   6)     50.81  0.000002    0.02     50.83   
   212. D(O  20,C  18,O  17,C   6)    -73.24  0.000023    0.03    -73.21   
   213. D(H  19,C  18,O  17,C   6)    168.08  0.000015    0.03    168.11   
   214. D(C  21,O  20,C  18,C  22)    167.65  0.000011   -0.01    167.64   
   215. D(C  21,O  20,C  18,H  19)     48.75  0.000017   -0.02     48.73   
   216. D(C  21,O  20,C  18,O  17)    -65.86  0.000013   -0.02    -65.87   
   217. D(H  46,C  21,O  20,C  18)    -61.92 -0.000002    0.03    -61.89   
   218. D(H  45,C  21,O  20,C  18)     59.33  0.000011    0.01     59.34   
   219. D(H  44,C  21,O  20,C  18)    178.79  0.000011    0.01    178.80   
   220. D(H  23,C  22,C  18,O  20)    -45.63 -0.000001   -0.02    -45.65   
   221. D(H  23,C  22,C  18,H  19)     73.54 -0.000013   -0.02     73.52   
   222. D(H  23,C  22,C  18,O  17)   -173.21 -0.000013   -0.02   -173.23   
   223. D(C   1,C  22,C  18,O  20)     72.32  0.000006   -0.04     72.28   
   224. D(C   1,C  22,C  18,H  19)   -168.51 -0.000007   -0.04   -168.55   
   225. D(C   1,C  22,C  18,O  17)    -55.26 -0.000007   -0.03    -55.29   
   226. D(H  23,C  22,C   1,C   3)    170.72  0.000019   -0.01    170.71   
   227. D(H  23,C  22,C   1,H   2)    -73.32  0.000041   -0.04    -73.36   
   228. D(H  23,C  22,C   1,O   0)     42.85  0.000007   -0.02     42.83   
   229. D(C  18,C  22,C   1,C   3)     52.91 -0.000009    0.02     52.94   
   230. D(C  18,C  22,C   1,H   2)    168.88  0.000013   -0.01    168.87   
   231. D(C  18,C  22,C   1,O   0)    -74.95 -0.000021    0.01    -74.94   
   232. D(H  47,O  24,C  22,H  23)    -57.68 -0.000018    0.00    -57.68   
   233. D(H  47,O  24,C  22,C  18)     62.55  0.000011   -0.00     62.55   
   234. D(H  47,O  24,C  22,C   1)   -175.99  0.000002   -0.01   -176.00   
    ----------------------------------------------------------------------------

Geometry step timings:
Preparation and reading OPT file:      0.001 s ( 4.915 %)
Internal coordinates            :      0.000 s ( 0.177 %)
B/P matrices and projection     :      0.005 s (21.642 %)
Hessian update/contruction      :      0.010 s (44.583 %)
Making the step                 :      0.003 s (14.251 %)
Converting the step to Cartesian:      0.000 s ( 1.871 %)
Storing new data                :      0.001 s ( 4.287 %)
Checking convergence            :      0.000 s ( 0.349 %)
Final printing                  :      0.002 s ( 7.907 %)
Total time                      :      0.021 s

Time for energy+gradient        :      0.073 s
Time for complete geometry iter :      0.105 s

         *************************************************************
         *                GEOMETRY OPTIMIZATION CYCLE  13            *
         *************************************************************
---------------------------------
CARTESIAN COORDINATES (ANGSTROEM)
---------------------------------
  O    -1.356025    2.144749    0.118894
  C     0.016285    1.916893    0.045401
  H     0.366435    1.824393    1.082543
  C     0.396133    0.607629   -0.677565
  H    -0.325136   -0.164079   -0.385303
  O     1.649672    0.146589   -0.233002
  C     0.381579    0.714849   -2.220593
  H     1.099936   -0.032033   -2.586048
  C    -0.970824    0.334210   -2.851764
  O    -2.042752    1.047975   -2.319826
  Si   -3.638389    0.988884   -2.723339
  C    -4.448753   -0.677613   -2.162195
  C    -3.906957   -1.078015   -0.785554
  C    -5.968259   -0.515878   -2.056499
  C    -4.157601   -1.815005   -3.148769
  C    -4.299846    2.463356   -1.728838
  C    -3.873215    1.224526   -4.606148
  O     0.908049    1.933629   -2.735068
  C     0.555110    3.137710   -2.110981
  H     1.263641    3.860197   -2.563647
  O    -0.754886    3.553006   -2.351147
  C    -1.009491    3.895086   -3.700053
  C     0.772052    3.102496   -0.587855
  H     0.359025    4.031189   -0.169280
  O     2.137142    2.955204   -0.273620
  H    -1.727145    2.075716   -0.779771
  H     2.272109    0.889124   -0.279285
  H    -0.902986    0.511673   -3.931186
  H    -1.118118   -0.739692   -2.688450
  H    -4.101177   -0.300829   -0.050366
  H    -2.832077   -1.241705   -0.823786
  H    -4.378311   -1.999182   -0.442088
  H    -6.223349    0.245936   -1.324976
  H    -6.429740   -1.453519   -1.748219
  H    -6.393951   -0.226197   -3.014063
  H    -3.086730   -1.968824   -3.267049
  H    -4.583113   -1.598722   -4.125529
  H    -4.593079   -2.747229   -2.788624
  H    -4.292065    2.259295   -0.663241
  H    -5.317465    2.704291   -2.014806
  H    -3.687506    3.344184   -1.889293
  H    -3.369920    0.446999   -5.174774
  H    -3.466780    2.178928   -4.928239
  H    -4.920989    1.207099   -4.887874
  H    -2.058553    4.175036   -3.745805
  H    -0.819900    3.047169   -4.362565
  H    -0.379886    4.738509   -4.006452
  H     2.635633    3.714573   -0.601152

----------------------------
CARTESIAN COORDINATES (A.U.)
----------------------------
  NO LB    ZA    FRAG    MASS        X           Y           Z
   0 O   8.0000    1    15.999   -2.562516    4.052988    0.224676
   1 C   6.0000    1    12.011    0.030774    3.622402    0.085795
   2 H   1.0000    1     1.008    0.692462    3.447603    2.045711
   3 C   6.0000    1    12.011    0.748583    1.148252   -1.280413
   4 H   1.0000    1     1.008   -0.614418   -0.310065   -0.728118
   5 O   8.0000    1    15.999    3.117429    0.277013   -0.440310
   6 C   6.0000    1    12.011    0.721079    1.350869   -4.196312
   7 H   1.0000    1     1.008    2.078577   -0.060534   -4.886923
   8 C   6.0000    1    12.011   -1.834591    0.631565   -5.389053
   9 O   8.0000    1    15.999   -3.860242    1.980386   -4.383836
  10 Si 14.0000    1    28.086   -6.875559    1.868720   -5.146366
  11 C   6.0000    1    12.011   -8.406924   -1.280503   -4.085957
  12 C   6.0000    1    12.011   -7.383079   -2.037153   -1.484482
  13 C   6.0000    1    12.011  -11.278375   -0.974869   -3.886221
  14 C   6.0000    1    12.011   -7.856727   -3.429863   -5.950312
  15 C   6.0000    1    12.011   -8.125531    4.655068   -3.267030
  16 C   6.0000    1    12.011   -7.319316    2.314019   -8.704358
  17 O   8.0000    1    15.999    1.715963    3.654029   -5.168530
  18 C   6.0000    1    12.011    1.049007    5.929412   -3.989176
  19 H   1.0000    1     1.008    2.387935    7.294715   -4.844590
  20 O   8.0000    1    15.999   -1.426527    6.714208   -4.443024
  21 C   6.0000    1    12.011   -1.907661    7.360645   -6.992087
  22 C   6.0000    1    12.011    1.458967    5.862868   -1.110884
  23 H   1.0000    1     1.008    0.678460    7.617844   -0.319892
  24 O   8.0000    1    15.999    4.038613    5.584526   -0.517067
  25 H   1.0000    1     1.008   -3.263832    3.922535   -1.473553
  26 H   1.0000    1     1.008    4.293664    1.680200   -0.527772
  27 H   1.0000    1     1.008   -1.706397    0.966922   -7.428865
  28 H   1.0000    1     1.008   -2.112936   -1.397815   -5.080434
  29 H   1.0000    1     1.008   -7.750101   -0.568484   -0.095178
  30 H   1.0000    1     1.008   -5.351849   -2.346482   -1.556730
  31 H   1.0000    1     1.008   -8.273809   -3.777906   -0.835426
  32 H   1.0000    1     1.008  -11.760425    0.464752   -2.503843
  33 H   1.0000    1     1.008  -12.150448   -2.746753   -3.303655
  34 H   1.0000    1     1.008  -12.082817   -0.427450   -5.695754
  35 H   1.0000    1     1.008   -5.833074   -3.720538   -6.173828
  36 H   1.0000    1     1.008   -8.660828   -3.021147   -7.796120
  37 H   1.0000    1     1.008   -8.679662   -5.191510   -5.269735
  38 H   1.0000    1     1.008   -8.110827    4.269450   -1.253344
  39 H   1.0000    1     1.008  -10.048552    5.110369   -3.807432
  40 H   1.0000    1     1.008   -6.968377    6.319592   -3.570246
  41 H   1.0000    1     1.008   -6.368225    0.844705   -9.778906
  42 H   1.0000    1     1.008   -6.551264    4.117577   -9.313022
  43 H   1.0000    1     1.008   -9.299321    2.281086   -9.236743
  44 H   1.0000    1     1.008   -3.890102    7.889675   -7.078546
  45 H   1.0000    1     1.008   -1.549386    5.758314   -8.244052
  46 H   1.0000    1     1.008   -0.717880    8.954485   -7.571097
  47 H   1.0000    1     1.008    4.980625    7.019526   -1.136013

      -----------------------------------------------------------      
     |                   =====================                   |     
     |                           x T B                           |     
     |                   =====================                   |     
     |                         S. Grimme                         |     
     |          Mulliken Center for Theoretical Chemistry        |     
     |                    University of Bonn                     |     
      -----------------------------------------------------------      

   * xtb version 6.7.1 (edcfbbe) compiled by 'albert@albert-system' on 2024-07-22

   xtb is free software: you can redistribute it and/or modify it under
   the terms of the GNU Lesser General Public License as published by
   the Free Software Foundation, either version 3 of the License, or
   (at your option) any later version.
   
   xtb is distributed in the hope that it will be useful,
   but WITHOUT ANY WARRANTY; without even the implied warranty of
   MERCHANTABILITY or FITNESS FOR A PARTICULAR PURPOSE.  See the
   GNU Lesser General Public License for more details.
   
   Cite this work as:
   * C. Bannwarth, E. Caldeweyher, S. Ehlert, A. Hansen, P. Pracht,
     J. Seibert, S. Spicher, S. Grimme, WIREs Comput. Mol. Sci., 2020, 11,
     e01493. DOI: 10.1002/wcms.1493
   
   for GFN2-xTB:
   * C. Bannwarth, S. Ehlert and S. Grimme., J. Chem. Theory Comput., 2019,
     15, 1652-1671. DOI: 10.1021/acs.jctc.8b01176
   for GFN1-xTB:
   * S. Grimme, C. Bannwarth, P. Shushkov, J. Chem. Theory Comput., 2017,
     13, 1989-2009. DOI: 10.1021/acs.jctc.7b00118
   for GFN0-xTB:
   * P. Pracht, E. Caldeweyher, S. Ehlert, S. Grimme, ChemRxiv, 2019, preprint.
     DOI: 10.26434/chemrxiv.8326202.v1
   for GFN-FF:
   * S. Spicher and S. Grimme, Angew. Chem. Int. Ed., 2020, 59, 15665-15673.
     DOI: 10.1002/anie.202004239
   
   for ALPB and GBSA implicit solvation:
   * S. Ehlert, M. Stahn, S. Spicher, S. Grimme, J. Chem. Theory Comput.,
     2021, 17, 4250-4261. DOI: 10.1021/acs.jctc.1c00471
   
   for ddCOSMO and CPCM-X implicit solvation:
   * M. Stahn, S. Ehlert, S. Grimme, J. Phys. Chem. A,
     2023, XX, XXXX-XXXX. DOI: 10.1021/acs.jpca.3c04382
   
   for DFT-D4:
   * E. Caldeweyher, C. Bannwarth and S. Grimme, J. Chem. Phys., 2017,
     147, 034112. DOI: 10.1063/1.4993215
   * E. Caldeweyher, S. Ehlert, A. Hansen, H. Neugebauer, S. Spicher,
     C. Bannwarth and S. Grimme, J. Chem. Phys., 2019, 150, 154122.
     DOI: 10.1063/1.5090222
   * E. Caldeweyher, J.-M. Mewes, S. Ehlert and S. Grimme, Phys. Chem. Chem. Phys.
     2020, 22, 8499-8512. DOI: 10.1039/D0CP00502A
   
   for sTDA-xTB:
   * S. Grimme and C. Bannwarth, J. Chem. Phys., 2016, 145, 054103.
     DOI: 10.1063/1.4959605
   
   in the mass-spec context:
   * V. Asgeirsson, C. Bauer and S. Grimme, Chem. Sci., 2017, 8, 4879.
     DOI: 10.1039/c7sc00601b
   * J. Koopman and S. Grimme, ACS Omega 2019, 4, 12, 15120-15133.
     DOI: 10.1021/acsomega.9b02011
   
   for metadynamics refer to:
   * S. Grimme, J. Chem. Theory Comput., 2019, 155, 2847-2862
     DOI: 10.1021/acs.jctc.9b00143
   
   for SPH calculations refer to:
   * S. Spicher and S. Grimme, J. Chem. Theory Comput., 2021, 17, 1701-1714
     DOI: 10.1021/acs.jctc.0c01306
   
   for ONIOM refer to:
   * C. Plett, A. Katbashev, S. Ehlert, S. Grimme, M. Bursch,
     Phys. Chem. Chem. Phys., 2023, 25, 17860-17868. DOI: 10.1039/D3CP02178E
   
   for DIPRO refer to:
   * J. Kohn, N. Gildemeister, S. Grimme, D. Fazzi, A. Hansen,
     J. Chem. Phys., 2023, just accepted.
   
   for PTB refer to:
   * S. Grimme, M. Mueller, A. Hansen, J. Chem. Phys., 2023, 158, 124111.
     DOI: 10.1063/5.0137838
   
   with help from (in alphabetical order)
   P. Atkinson, C. Bannwarth, F. Bohle, G. Brandenburg, E. Caldeweyher
   M. Checinski, S. Dohm, S. Ehlert, S. Ehrlich, I. Gerasimov, C. Hölzer
   A. Katbashev, J. Kohn, J. Koopman, C. Lavigne, S. Lehtola, F. März, M. Müller,
   F. Musil, H. Neugebauer, J. Pisarek, C. Plett, P. Pracht, F. Pultar,
   J. Seibert, P. Shushkov, S. Spicher, M. Stahn, M. Steiner, T. Strunk,
   J. Stückrath, T. Rose, and J. Unsleber
   
 * started run on 2025/09/10 at 11:36:46.591     
   ID    Z sym.   atoms
    1    8 O      1, 6, 10, 18, 21, 25
    2    6 C      2, 4, 7, 9, 12-17, 19, 22, 23
    3    1 H      3, 5, 8, 20, 24, 26-48
    4   14 Si     11

           -------------------------------------------------
          |                Calculation Setup                |
           -------------------------------------------------

          program call               : /home/kmoult/orca_6_1/otool_xtb goat_0_XTB.xyz --grad -c 0 -u 0 -P 4 --namespace goat_0 --input goat_0_XTB.input.tmp --alpb ACETONE --acc 0.200000
          hostname                   : node1600
          calculation namespace      : goat_0
          coordinate file            : goat_0_XTB.xyz
          omp threads                :                     4


           -------------------------------------------------
          |                 G F N 2 - x T B                 |
           -------------------------------------------------

        Reference                      10.1021/acs.jctc.8b01176
      * Hamiltonian:
        H0-scaling (s, p, d)           1.850000    2.230000    2.230000
        zeta-weighting                 0.500000
      * Dispersion:
        s8                             2.700000
        a1                             0.520000
        a2                             5.000000
        s9                             5.000000
      * Repulsion:
        kExp                           1.500000    1.000000
        rExp                           1.000000
      * Coulomb:
        alpha                          2.000000
        third order                    shell-resolved
        anisotropic                    true
        a3                             3.000000
        a5                             4.000000
        cn-shift                       1.200000
        cn-exp                         4.000000
        max-rad                        5.000000

      * Solvation model:               ALPB
        Solvent                        ACETONE
        Parameter file                 internal GFN2-xTB/ALPB
        Dielectric constant                2.0700E+01
        Reference state                gsolv [1 M gas/solution]
        Free energy shift                  5.9241E-03 Eh       3.7175E+00 kcal/mol
        Temperature                        2.9815E+02 K
        Density                            7.9000E-01 kg/L
        Solvent mass                       5.8080E+01 g/mol
        Interaction kernel             P16
        Born radius scaling (c1)           1.8274E+00
        Born radii integrator          GBOBC
        Born offset                        0.0000E+00 a0       0.0000E+00 AA
        H-bond correction              true
        Ion screening                  false
        Surface tension                    1.0000E-05 Eh       1.5569E+01 dyn/cm
        Grid points                               230 per atom
q/qsh data taken from xtbrestart
CAMM data taken from xtbrestart

          ...................................................
          :                      SETUP                      :
          :.................................................:
          :  # basis functions                 114          :
          :  # atomic orbitals                 113          :
          :  # shells                           69          :
          :  # electrons                       120          :
          :  max. iterations                   250          :
          :  Hamiltonian                  GFN2-xTB          :
          :  restarted?                       true          :
          :  GBSA solvation                   true          :
          :  PC potential                    false          :
          :  electronic temp.          300.0000000     K    :
          :  accuracy                    0.2000000          :
          :  -> integral cutoff          0.3198970E+02      :
          :  -> integral neglect         0.2000000E-08      :
          :  -> SCF convergence          0.2000000E-06 Eh   :
          :  -> wf. convergence          0.2000000E-04 e    :
          :  Broyden damping             0.4000000          :
          :  net charge                          0          :
          :  unpaired electrons                  0          :
          ...................................................

 iter      E             dE          RMSdq      gap      omega  full diag
   1    -68.9914823 -0.689915E+02  0.629E-03    6.35       0.0  T
   2    -68.9914823 -0.134726E-07  0.400E-03    6.35       3.6  T
   3    -68.9914823  0.668001E-08  0.859E-04    6.35      16.8  T
   4    -68.9914823 -0.695238E-08  0.627E-04    6.35      23.0  T
   5    -68.9914823 -0.390656E-08  0.276E-04    6.35      52.4  T
   6    -68.9914823 -0.431200E-09  0.112E-04    6.35     128.3  T
   7    -68.9914823 -0.876099E-10  0.322E-05    6.35     448.2  T

   *** convergence criteria satisfied after 7 iterations ***

         #    Occupation            Energy/Eh            Energy/eV
      -------------------------------------------------------------
         1        2.0000           -0.7766870             -21.1347
       ...           ...                  ...                  ...
        54        2.0000           -0.4217831             -11.4773
        55        2.0000           -0.4207771             -11.4499
        56        2.0000           -0.4161000             -11.3227
        57        2.0000           -0.4028067             -10.9609
        58        2.0000           -0.3960895             -10.7781
        59        2.0000           -0.3944772             -10.7343
        60        2.0000           -0.3709687             -10.0946 (HOMO)
        61                         -0.1377281              -3.7478 (LUMO)
        62                         -0.1237514              -3.3674
        63                         -0.1107299              -3.0131
        64                         -0.0175706              -0.4781
        65                         -0.0097790              -0.2661
       ...                                ...                  ...
       113                          0.7769697              21.1424
      -------------------------------------------------------------
                  HL-Gap            0.2332406 Eh            6.3468 eV
             Fermi-level           -0.2543484 Eh           -6.9212 eV

 SCC (total)                   0 d,  0 h,  0 min,  0.037 sec
 SCC setup                      ...        0 min,  0.001 sec (  1.648%)
 Dispersion                     ...        0 min,  0.001 sec (  1.372%)
 classical contributions        ...        0 min,  0.000 sec (  0.106%)
 integral evaluation            ...        0 min,  0.017 sec ( 45.632%)
 iterations                     ...        0 min,  0.011 sec ( 31.029%)
 molecular gradient             ...        0 min,  0.007 sec ( 19.736%)
 printout                       ...        0 min,  0.000 sec (  0.432%)

         :::::::::::::::::::::::::::::::::::::::::::::::::::::
         ::                     SUMMARY                     ::
         :::::::::::::::::::::::::::::::::::::::::::::::::::::
         :: total energy             -68.319723283492 Eh    ::
         :: total w/o Gsasa/hb       -68.293985028297 Eh    ::
         :: gradient norm              0.000336461084 Eh/a0 ::
         :: HOMO-LUMO gap              6.346799958749 eV    ::
         ::.................................................::
         :: SCC energy               -68.990126472396 Eh    ::
         :: -> isotropic ES            0.159900517725 Eh    ::
         :: -> anisotropic ES          0.002730150608 Eh    ::
         :: -> anisotropic XC          0.004855185609 Eh    ::
         :: -> dispersion             -0.048968008323 Eh    ::
         :: -> Gsolv                  -0.029262350037 Eh    ::
         ::    -> Gelec               -0.003524094842 Eh    ::
         ::    -> Gsasa               -0.026358793448 Eh    ::
         ::    -> Ghb                 -0.005303603011 Eh    ::
         ::    -> Gshift               0.005924141264 Eh    ::
         :: repulsion energy           0.670403188905 Eh    ::
         :: add. restraining           0.000000000000 Eh    ::
         :: total charge               0.000000000000 e     ::
         :::::::::::::::::::::::::::::::::::::::::::::::::::::


Property printout bound to 'properties.out'

           -------------------------------------------------
          | TOTAL ENERGY              -68.319723283492 Eh   |
          | GRADIENT NORM               0.000336461084 Eh/α |
          | HOMO-LUMO GAP               6.346799958749 eV   |
           -------------------------------------------------

------------------------------------------------------------------------
 * finished run on 2025/09/10 at 11:36:46.651     
------------------------------------------------------------------------
 total:
 * wall-time:     0 d,  0 h,  0 min,  0.059 sec
 *  cpu-time:     0 d,  0 h,  0 min,  0.205 sec
 * ratio c/w:     3.449 speedup
 SCF:
 * wall-time:     0 d,  0 h,  0 min,  0.037 sec
 *  cpu-time:     0 d,  0 h,  0 min,  0.136 sec
 * ratio c/w:     3.656 speedup


-------------------------   --------------------
FINAL SINGLE POINT ENERGY       -68.319723283490
-------------------------   --------------------


-------------
DIPOLE MOMENT
-------------
                                X             Y             Z
Total Dipole Moment    :     -0.09200       0.95300      -1.74200
                        -----------------------------------------
Magnitude (a.u.)       :      1.98777
Magnitude (Debye)      :      5.05251


------------------
CARTESIAN GRADIENT
------------------

   1   O   :   -0.000010824   -0.000039065   -0.000038542
   2   C   :    0.000057709   -0.000008799   -0.000049813
   3   H   :   -0.000025613    0.000002674    0.000017404
   4   C   :    0.000008775   -0.000005061   -0.000009970
   5   H   :   -0.000010370   -0.000001937    0.000005257
   6   O   :   -0.000020784    0.000019148   -0.000002584
   7   C   :   -0.000016310   -0.000055256    0.000026943
   8   H   :   -0.000017664   -0.000008742    0.000005197
   9   C   :   -0.000067139   -0.000022073    0.000004196
  10   O   :    0.000075259    0.000047165   -0.000006909
  11   Si  :   -0.000025552    0.000007772    0.000039146
  12   C   :    0.000018133    0.000039633   -0.000057938
  13   C   :   -0.000016494   -0.000052373    0.000011853
  14   C   :   -0.000029243   -0.000003864    0.000011419
  15   C   :   -0.000017636   -0.000021112    0.000016638
  16   C   :   -0.000121949   -0.000052545    0.000013908
  17   C   :    0.000028393   -0.000006504    0.000009452
  18   O   :    0.000021564    0.000062547   -0.000013157
  19   C   :    0.000093411   -0.000059812   -0.000056232
  20   H   :   -0.000041310   -0.000009043    0.000011369
  21   O   :   -0.000079536    0.000014489    0.000036453
  22   C   :    0.000009938   -0.000009020    0.000014849
  23   C   :   -0.000016932    0.000037143    0.000005485
  24   H   :    0.000037813   -0.000010636    0.000023426
  25   O   :   -0.000024240   -0.000005164    0.000019736
  26   H   :   -0.000013493    0.000040540    0.000043996
  27   H   :    0.000018244    0.000023524    0.000009154
  28   H   :    0.000053481   -0.000001480   -0.000006642
  29   H   :    0.000000019    0.000010934   -0.000001343
  30   H   :   -0.000004376    0.000006465    0.000013238
  31   H   :    0.000013245    0.000005885    0.000005441
  32   H   :    0.000006865    0.000023477    0.000002116
  33   H   :   -0.000009240    0.000000668    0.000011753
  34   H   :    0.000005803    0.000011201   -0.000007009
  35   H   :   -0.000003565   -0.000000828   -0.000010936
  36   H   :    0.000009990   -0.000010806   -0.000001915
  37   H   :   -0.000003134    0.000000582   -0.000008587
  38   H   :    0.000007981    0.000008306   -0.000001337
  39   H   :    0.000054480   -0.000013442    0.000000887
  40   H   :    0.000004617    0.000027615    0.000013342
  41   H   :    0.000023725    0.000006129   -0.000018439
  42   H   :    0.000005521   -0.000009216   -0.000007598
  43   H   :    0.000014003   -0.000002771   -0.000029123
  44   H   :   -0.000005797    0.000013590   -0.000016316
  45   H   :   -0.000010316   -0.000000654    0.000006312
  46   H   :    0.000002319    0.000013714   -0.000022419
  47   H   :    0.000012176   -0.000019081   -0.000012678
  48   H   :    0.000008055    0.000006083    0.000000516

Difference to translation invariance:
           :   -0.0000000000   -0.0000000000   -0.0000000000

Difference to rotation invariance:
           :   -0.0000174844   -0.0003379392   -0.0001057120

Norm of the Cartesian gradient     ...    0.0003364611
RMS gradient                       ...    0.0000280384
MAX gradient                       ...    0.0001219495
------------------------------------------------------------------------------
                         ORCA GEOMETRY RELAXATION STEP
------------------------------------------------------------------------------

Reading the OPT-File                    .... done
Getting information on internals        .... done
Copying old internal coords+grads       .... done
Making the new internal coordinates     .... (2022 redundants) done
Validating the new internal coordinates .... (2022 redundants) done
Calculating the B-matrix                .... done
Calculating the G,G- and P matrices     .... done
Transforming gradient to internals      .... done
Projecting the internal gradient        .... done
Number of atoms                         ....  48
Number of internal coordinates          .... 234
Current Energy                          ....   -68.319723283 Eh
Current gradient norm                   ....     0.000336461 Eh/bohr
Maximum allowed component of the step   ....  0.300
Current trust radius                    ....  0.700
Updating the Hessian (BFGS)             .... done
Forming the augmented Hessian           .... done
Diagonalizing the augmented Hessian     .... done
Last element of RFO vector              ....  0.999787578
Lowest eigenvalues of augmented Hessian:
 -0.000001189  0.001109817  0.005772689  0.009763215  0.010052825
Length of the computed step             ....  0.020615020
The final length of the internal step   ....  0.020615020
Converting the step to Cartesian space:
 Initial RMS(Int)=    0.0013476460
Transforming coordinates:
 Iter   0:  RMS(Cart)=    0.0027765298 RMS(Int)=    0.0013475880
done
Storing new coordinates                 .... done
The predicted energy change is          ....    -0.000000595
Previously predicted energy change      ....    -0.000001051
Actually observed energy change         ....    -0.000001459
Ratio of predicted to observed change   ....     1.387833567
New trust radius                        ....     0.700000000

                                .--------------------.
          ----------------------|Geometry convergence|-------------------------
          Item                value                   Tolerance       Converged
          ---------------------------------------------------------------------
          Energy change      -0.0000014590            0.0000050000      YES
          RMS gradient        0.0000200543            0.0001000000      YES
          MAX gradient        0.0000719527            0.0003000000      YES
          RMS step            0.0013476460            0.0020000000      YES
          MAX step            0.0077190202            0.0040000000      NO
          -------------------------------------------------------------------------
          ........................................................
          Max(Bonds)      0.0003      Max(Angles)    0.04
          Max(Dihed)        0.44      Max(Improp)    0.00
          ---------------------------------------------------------------------

    ---------------------------------------------------------------------------
                         Redundant Internal Coordinates
                            (Angstroem and degrees)

        Definition                    Value    dE/dq     Step     New-Value
    ----------------------------------------------------------------------------
     1. B(C   1,O   0)                1.3930  0.000028 -0.0001    1.3929   
     2. B(H   2,C   1)                1.0986  0.000008  0.0000    1.0986   
     3. B(C   3,C   1)                1.5431 -0.000027  0.0000    1.5431   
     4. B(H   4,C   3)                1.0960  0.000009 -0.0000    1.0960   
     5. B(O   5,C   3)                1.4077 -0.000012  0.0000    1.4077   
     6. B(C   6,C   3)                1.5468 -0.000025  0.0001    1.5469   
     7. B(H   7,C   6)                1.0988 -0.000007 -0.0000    1.0988   
     8. B(C   8,C   6)                1.5402 -0.000022 -0.0000    1.5402   
     9. B(O   9,C   8)                1.3934 -0.000006 -0.0000    1.3934   
    10. B(Si 10,O   9)                1.6469  0.000042 -0.0001    1.6468   
    11. B(C  11,Si 10)                1.9362  0.000004  0.0000    1.9362   
    12. B(C  12,C  11)                1.5326  0.000037 -0.0001    1.5326   
    13. B(C  13,C  11)                1.5317  0.000036 -0.0001    1.5317   
    14. B(C  14,C  11)                1.5335  0.000013 -0.0000    1.5335   
    15. B(C  15,Si 10)                1.8975 -0.000005  0.0000    1.8975   
    16. B(C  16,Si 10)                1.9120  0.000034 -0.0001    1.9119   
    17. B(O  17,C   6)                1.4238  0.000040 -0.0000    1.4238   
    18. B(C  18,O  17)                1.4014 -0.000018  0.0001    1.4015   
    19. B(H  19,C  18)                1.1086 -0.000037  0.0000    1.1086   
    20. B(O  20,C  18)                1.3951  0.000062 -0.0001    1.3950   
    21. B(C  21,O  20)                1.4147  0.000008  0.0000    1.4147   
    22. B(C  22,C  18)                1.5389  0.000033 -0.0000    1.5389   
    23. B(C  22,C   1)                1.5420 -0.000002  0.0001    1.5421   
    24. B(H  23,C  22)                1.0992 -0.000015  0.0000    1.0992   
    25. B(O  24,C  22)                1.4085 -0.000012 -0.0001    1.4084   
    26. B(H  25,O   0)                0.9747 -0.000033  0.0000    0.9747   
    27. B(H  25,O  20)                2.3658 -0.000013  0.0002    2.3660   
    28. B(H  25,O   9)                1.8782  0.000012 -0.0001    1.8781   
    29. B(H  26,O   5)                0.9700  0.000026 -0.0000    0.9700   
    30. B(H  26,O  24)                2.0705 -0.000006 -0.0003    2.0702   
    31. B(H  27,C   8)                1.0960  0.000010 -0.0000    1.0960   
    32. B(H  28,C   8)                1.0962 -0.000011  0.0000    1.0962   
    33. B(H  29,C  12)                1.0873  0.000014 -0.0000    1.0873   
    34. B(H  30,C  12)                1.0879  0.000013 -0.0000    1.0879   
    35. B(H  31,C  12)                1.0903 -0.000022  0.0000    1.0903   
    36. B(H  32,C  13)                1.0865  0.000011 -0.0000    1.0865   
    37. B(H  33,C  13)                1.0896 -0.000013  0.0000    1.0896   
    38. B(H  34,C  13)                1.0872  0.000009 -0.0000    1.0872   
    39. B(H  35,C  14)                1.0883  0.000011 -0.0000    1.0883   
    40. B(H  36,C  14)                1.0872  0.000009 -0.0000    1.0871   
    41. B(H  37,C  14)                1.0901 -0.000011 -0.0000    1.0901   
    42. B(H  38,C  15)                1.0850  0.000005 -0.0000    1.0850   
    43. B(H  39,C  15)                1.0841 -0.000002  0.0000    1.0842   
    44. B(H  40,C  15)                1.0847  0.000021 -0.0000    1.0846   
    45. B(H  41,C  16)                1.0868  0.000012 -0.0000    1.0868   
    46. B(H  42,C  16)                1.0862  0.000011 -0.0000    1.0862   
    47. B(H  43,C  16)                1.0851  0.000011 -0.0000    1.0851   
    48. B(H  44,C  21)                1.0867  0.000011 -0.0000    1.0867   
    49. B(H  45,C  21)                1.0926  0.000003  0.0000    1.0926   
    50. B(H  46,C  21)                1.0962 -0.000004  0.0000    1.0962   
    51. B(H  47,O  24)                0.9656  0.000010 -0.0000    0.9656   
    52. A(C   1,O   0,H  25)          108.35  0.000072   -0.00    108.35   
    53. A(H   2,C   1,C   3)          107.00 -0.000000   -0.01    106.99   
    54. A(O   0,C   1,H   2)          106.14 -0.000019    0.02    106.16   
    55. A(C   3,C   1,C  22)          109.83  0.000017   -0.01    109.83   
    56. A(O   0,C   1,C  22)          112.25  0.000008    0.00    112.26   
    57. A(O   0,C   1,C   3)          113.95 -0.000009    0.00    113.96   
    58. A(H   2,C   1,C  22)          107.23  0.000003   -0.01    107.22   
    59. A(H   4,C   3,O   5)          105.74  0.000014    0.02    105.75   
    60. A(C   1,C   3,C   6)          113.97  0.000011    0.00    113.97   
    61. A(C   1,C   3,H   4)          108.09 -0.000010   -0.00    108.09   
    62. A(C   1,C   3,O   5)          110.43 -0.000018   -0.00    110.43   
    63. A(O   5,C   3,C   6)          110.25  0.000005   -0.01    110.24   
    64. A(H   4,C   3,C   6)          107.98 -0.000001   -0.01    107.97   
    65. A(C   3,O   5,H  26)          107.80  0.000011   -0.01    107.78   
    66. A(H   7,C   6,C   8)          105.65 -0.000001    0.01    105.66   
    67. A(C   3,C   6,C   8)          113.57  0.000037   -0.01    113.57   
    68. A(C   3,C   6,H   7)          106.17 -0.000008   -0.01    106.16   
    69. A(C   3,C   6,O  17)          114.60  0.000003    0.00    114.60   
    70. A(C   8,C   6,O  17)          112.84 -0.000049    0.00    112.84   
    71. A(H   7,C   6,O  17)          102.70  0.000020   -0.01    102.70   
    72. A(H  27,C   8,H  28)          108.28  0.000004   -0.00    108.28   
    73. A(C   6,C   8,O   9)          113.11 -0.000040   -0.00    113.11   
    74. A(C   6,C   8,H  27)          108.01 -0.000050    0.01    108.03   
    75. A(O   9,C   8,H  28)          109.97  0.000014   -0.00    109.97   
    76. A(O   9,C   8,H  27)          109.92  0.000046   -0.00    109.91   
    77. A(C   6,C   8,H  28)          107.40  0.000026   -0.01    107.39   
    78. A(C   8,O   9,Si 10)          129.30 -0.000025   -0.01    129.29   
    79. A(C  15,Si 10,C  16)          112.18  0.000066   -0.02    112.16   
    80. A(C  11,Si 10,C  16)          109.88 -0.000000    0.01    109.89   
    81. A(O   9,Si 10,C  16)          110.85 -0.000051   -0.01    110.83   
    82. A(C  11,Si 10,C  15)          111.78 -0.000054    0.01    111.79   
    83. A(O   9,Si 10,C  15)          100.45 -0.000002    0.00    100.45   
    84. A(O   9,Si 10,C  11)          111.43  0.000042    0.02    111.45   
    85. A(C  12,C  11,C  14)          108.48 -0.000010    0.01    108.49   
    86. A(C  13,C  11,C  14)          108.12 -0.000003    0.01    108.13   
    87. A(Si 10,C  11,C  13)          110.14 -0.000002   -0.01    110.13   
    88. A(Si 10,C  11,C  14)          111.87  0.000016   -0.02    111.85   
    89. A(Si 10,C  11,C  12)          109.71  0.000002   -0.00    109.71   
    90. A(C  12,C  11,C  13)          108.44 -0.000004    0.01    108.45   
    91. A(H  29,C  12,H  31)          108.28 -0.000014    0.01    108.29   
    92. A(C  11,C  12,H  31)          110.54  0.000009   -0.01    110.53   
    93. A(H  29,C  12,H  30)          107.93 -0.000006    0.00    107.93   
    94. A(C  11,C  12,H  30)          110.92  0.000007   -0.00    110.91   
    95. A(C  11,C  12,H  29)          110.94  0.000000    0.00    110.95   
    96. A(H  30,C  12,H  31)          108.12  0.000003    0.00    108.13   
    97. A(H  32,C  13,H  33)          108.27 -0.000005    0.01    108.27   
    98. A(C  11,C  13,H  33)          110.42 -0.000007   -0.00    110.41   
    99. A(C  11,C  13,H  32)          110.69  0.000012   -0.00    110.69   
   100. A(C  11,C  13,H  34)          110.84 -0.000001   -0.01    110.83   
   101. A(H  33,C  13,H  34)          108.22 -0.000005    0.00    108.22   
   102. A(H  32,C  13,H  34)          108.31  0.000005   -0.00    108.31   
   103. A(H  36,C  14,H  37)          108.10  0.000003    0.01    108.11   
   104. A(H  35,C  14,H  37)          107.95 -0.000009    0.01    107.95   
   105. A(C  11,C  14,H  37)          110.23 -0.000003   -0.00    110.23   
   106. A(H  35,C  14,H  36)          108.40 -0.000003   -0.01    108.39   
   107. A(C  11,C  14,H  36)          110.86  0.000002   -0.00    110.86   
   108. A(C  11,C  14,H  35)          111.20  0.000010   -0.01    111.19   
   109. A(H  39,C  15,H  40)          108.08  0.000003    0.00    108.09   
   110. A(H  38,C  15,H  40)          107.10  0.000006    0.00    107.10   
   111. A(H  38,C  15,H  39)          107.91  0.000015   -0.02    107.90   
   112. A(Si 10,C  15,H  39)          111.20  0.000072   -0.04    111.16   
   113. A(Si 10,C  15,H  38)          111.47 -0.000057    0.02    111.49   
   114. A(Si 10,C  15,H  40)          110.90 -0.000039    0.03    110.93   
   115. A(H  42,C  16,H  43)          107.36 -0.000026    0.01    107.37   
   116. A(H  41,C  16,H  43)          107.45  0.000003   -0.00    107.44   
   117. A(Si 10,C  16,H  43)          111.86  0.000017   -0.01    111.84   
   118. A(H  41,C  16,H  42)          107.47 -0.000017    0.01    107.48   
   119. A(Si 10,C  16,H  41)          111.73 -0.000005   -0.01    111.71   
   120. A(Si 10,C  16,H  42)          110.75  0.000025    0.01    110.76   
   121. A(C   6,O  17,C  18)          118.78 -0.000020   -0.00    118.78   
   122. A(O  17,C  18,H  19)          102.54 -0.000004   -0.00    102.54   
   123. A(O  20,C  18,C  22)          108.03 -0.000032    0.01    108.04   
   124. A(H  19,C  18,C  22)          109.21  0.000006    0.00    109.21   
   125. A(O  17,C  18,C  22)          112.68  0.000016   -0.00    112.68   
   126. A(H  19,C  18,O  20)          109.62  0.000000    0.01    109.63   
   127. A(O  17,C  18,O  20)          114.56  0.000016   -0.01    114.55   
   128. A(C  18,O  20,C  21)          113.90 -0.000007   -0.00    113.90   
   129. A(H  44,C  21,H  46)          110.15  0.000009    0.01    110.16   
   130. A(H  45,C  21,H  46)          109.14 -0.000029    0.00    109.14   
   131. A(O  20,C  21,H  46)          110.44  0.000005   -0.00    110.44   
   132. A(H  44,C  21,H  45)          109.99 -0.000005   -0.00    109.99   
   133. A(O  20,C  21,H  45)          111.06  0.000035   -0.01    111.05   
   134. A(O  20,C  21,H  44)          106.03 -0.000014    0.00    106.03   
   135. A(H  23,C  22,O  24)          111.57 -0.000028    0.02    111.58   
   136. A(C  18,C  22,O  24)          111.09  0.000034    0.01    111.10   
   137. A(C   1,C  22,O  24)          107.64 -0.000006    0.00    107.64   
   138. A(C  18,C  22,H  23)          107.73  0.000023   -0.02    107.71   
   139. A(C   1,C  22,H  23)          108.00  0.000001   -0.00    108.00   
   140. A(C   1,C  22,C  18)          110.79 -0.000027   -0.00    110.79   
   141. A(C  22,O  24,H  47)          110.02  0.000008    0.00    110.03   
   142. D(H   2,C   1,O   0,H  25)   -170.15 -0.000004    0.04   -170.11   
   143. D(C  22,C   1,O   0,H  25)     73.00 -0.000001    0.04     73.05   
   144. D(C   3,C   1,O   0,H  25)    -52.66 -0.000023    0.05    -52.61   
   145. D(H   4,C   3,C   1,C  22)   -166.12  0.000000    0.02   -166.10   
   146. D(O   5,C   3,C   1,C  22)     78.66 -0.000000   -0.00     78.65   
   147. D(O   5,C   3,C   1,H   2)    -37.42 -0.000013    0.02    -37.41   
   148. D(H   4,C   3,C   1,H   2)     77.80 -0.000012    0.04     77.84   
   149. D(O   5,C   3,C   1,O   0)   -154.42  0.000017   -0.00   -154.42   
   150. D(H   4,C   3,C   1,O   0)    -39.19  0.000018    0.02    -39.18   
   151. D(H  26,O   5,C   3,H   4)   -166.49  0.000011    0.02   -166.48   
   152. D(H  26,O   5,C   3,C   6)     77.04  0.000002    0.02     77.06   
   153. D(H  26,O   5,C   3,C   1)    -49.80 -0.000002    0.03    -49.78   
   154. D(H   7,C   6,C   3,O   5)     27.93  0.000021   -0.01     27.91   
   155. D(H   7,C   6,C   3,H   4)    -87.14  0.000002   -0.02    -87.16   
   156. D(H   7,C   6,C   3,C   1)    152.76  0.000009   -0.02    152.75   
   157. D(C   8,C   6,C   3,H   4)     28.52  0.000015   -0.02     28.50   
   158. D(C   8,C   6,C   3,C   1)    -91.58  0.000022   -0.01    -91.59   
   159. D(C   8,C   6,C   3,O   5)    143.58  0.000034   -0.01    143.58   
   160. D(H  27,C   8,C   6,O  17)     43.34  0.000009   -0.00     43.34   
   161. D(H  27,C   8,C   6,H   7)    -68.11  0.000009   -0.01    -68.12   
   162. D(H  27,C   8,C   6,C   3)    175.92  0.000001   -0.00    175.92   
   163. D(O   9,C   8,C   6,O  17)    -78.54  0.000012   -0.01    -78.55   
   164. D(O   9,C   8,C   6,C   3)     54.04  0.000003   -0.01     54.03   
   165. D(O   9,C   8,C   6,H   7)    170.00  0.000012   -0.01    169.99   
   166. D(Si 10,O   9,C   8,H  27)     57.46  0.000026    0.06     57.52   
   167. D(Si 10,O   9,C   8,C   6)    178.27 -0.000032    0.07    178.34   
   168. D(Si 10,O   9,C   8,H  28)    -61.66 -0.000015    0.06    -61.60   
   169. D(C  16,Si 10,O   9,C   8)    -52.15  0.000011    0.01    -52.14   
   170. D(C  15,Si 10,O   9,C   8)   -170.90 -0.000042    0.04   -170.86   
   171. D(C  11,Si 10,O   9,C   8)     70.56  0.000004    0.02     70.58   
   172. D(C  12,C  11,Si 10,O   9)     39.48  0.000012   -0.03     39.45   
   173. D(C  13,C  11,Si 10,C  16)    -77.97 -0.000029   -0.02    -78.00   
   174. D(C  13,C  11,Si 10,C  15)     47.25  0.000017   -0.04     47.21   
   175. D(C  13,C  11,Si 10,O   9)    158.77  0.000008   -0.03    158.74   
   176. D(C  12,C  11,Si 10,C  16)    162.74 -0.000025   -0.03    162.71   
   177. D(C  12,C  11,Si 10,C  15)    -72.03  0.000021   -0.05    -72.09   
   178. D(H  30,C  12,C  11,C  14)     60.60  0.000011   -0.04     60.56   
   179. D(H  30,C  12,C  11,C  13)    177.80  0.000000   -0.02    177.78   
   180. D(H  30,C  12,C  11,Si 10)    -61.87 -0.000003   -0.02    -61.89   
   181. D(H  29,C  12,C  11,C  14)   -179.46  0.000008   -0.04   -179.50   
   182. D(H  29,C  12,C  11,C  13)    -62.26 -0.000003   -0.02    -62.28   
   183. D(H  29,C  12,C  11,Si 10)     58.07 -0.000006   -0.02     58.05   
   184. D(H  33,C  13,C  11,C  14)     57.06 -0.000012    0.04     57.10   
   185. D(H  33,C  13,C  11,C  12)    -60.37  0.000003    0.02    -60.35   
   186. D(H  33,C  13,C  11,Si 10)    179.57  0.000005    0.02    179.59   
   187. D(H  32,C  13,C  11,C  12)     59.51  0.000001    0.03     59.53   
   188. D(H  32,C  13,C  11,Si 10)    -60.55  0.000002    0.02    -60.53   
   189. D(H  32,C  13,C  11,C  14)    176.94 -0.000014    0.04    176.98   
   190. D(H  36,C  14,C  11,C  13)     58.95  0.000004    0.03     58.98   
   191. D(H  36,C  14,C  11,C  12)    176.35 -0.000008    0.05    176.40   
   192. D(H  36,C  14,C  11,Si 10)    -62.50 -0.000002    0.04    -62.46   
   193. D(H  35,C  14,C  11,C  13)    179.62  0.000007    0.01    179.63   
   194. D(H  35,C  14,C  11,C  12)    -62.98 -0.000004    0.03    -62.95   
   195. D(H  35,C  14,C  11,Si 10)     58.17  0.000002    0.03     58.20   
   196. D(H  39,C  15,Si 10,C  16)     51.37  0.000012   -0.38     50.99   
   197. D(H  39,C  15,Si 10,C  11)    -72.57  0.000003   -0.38    -72.95   
   198. D(H  39,C  15,Si 10,O   9)    169.15 -0.000021   -0.40    168.74   
   199. D(H  38,C  15,Si 10,C  16)    171.84  0.000041   -0.42    171.43   
   200. D(H  38,C  15,Si 10,C  11)     47.90  0.000032   -0.42     47.49   
   201. D(H  38,C  15,Si 10,O   9)    -70.38  0.000008   -0.44    -70.82   
   202. D(H  41,C  16,Si 10,C  15)    171.98  0.000015   -0.24    171.74   
   203. D(H  41,C  16,Si 10,C  11)    -63.03 -0.000008   -0.23    -63.26   
   204. D(H  41,C  16,Si 10,O   9)     60.57  0.000010   -0.22     60.36   
   205. D(H  42,C  16,Si 10,C  15)     52.20  0.000022   -0.25     51.95   
   206. D(H  42,C  16,Si 10,C  11)    177.20 -0.000000   -0.25    176.95   
   207. D(H  42,C  16,Si 10,O   9)    -59.20  0.000018   -0.23    -59.43   
   208. D(C  18,O  17,C   6,C   8)     89.07  0.000016    0.00     89.07   
   209. D(C  18,O  17,C   6,H   7)   -157.67  0.000005    0.02   -157.65   
   210. D(C  18,O  17,C   6,C   3)    -43.01  0.000008    0.01    -43.00   
   211. D(C  22,C  18,O  17,C   6)     50.83  0.000010    0.01     50.84   
   212. D(O  20,C  18,O  17,C   6)    -73.21  0.000027    0.01    -73.21   
   213. D(H  19,C  18,O  17,C   6)    168.11  0.000022    0.00    168.11   
   214. D(C  21,O  20,C  18,C  22)    167.64 -0.000001   -0.00    167.64   
   215. D(C  21,O  20,C  18,H  19)     48.73  0.000011   -0.01     48.72   
   216. D(C  21,O  20,C  18,O  17)    -65.87  0.000007   -0.01    -65.88   
   217. D(H  46,C  21,O  20,C  18)    -61.89  0.000014   -0.02    -61.91   
   218. D(H  45,C  21,O  20,C  18)     59.34  0.000004   -0.03     59.31   
   219. D(H  44,C  21,O  20,C  18)    178.80  0.000009   -0.03    178.77   
   220. D(H  23,C  22,C  18,O  20)    -45.65 -0.000002   -0.01    -45.66   
   221. D(H  23,C  22,C  18,H  19)     73.52 -0.000017    0.01     73.53   
   222. D(H  23,C  22,C  18,O  17)   -173.23 -0.000010    0.00   -173.22   
   223. D(C   1,C  22,C  18,O  20)     72.28 -0.000002   -0.02     72.26   
   224. D(C   1,C  22,C  18,H  19)   -168.55 -0.000017   -0.01   -168.55   
   225. D(C   1,C  22,C  18,O  17)    -55.29 -0.000010   -0.01    -55.30   
   226. D(H  23,C  22,C   1,C   3)    170.71  0.000006   -0.02    170.69   
   227. D(H  23,C  22,C   1,H   2)    -73.36  0.000016   -0.04    -73.40   
   228. D(H  23,C  22,C   1,O   0)     42.83 -0.000001   -0.02     42.81   
   229. D(C  18,C  22,C   1,C   3)     52.94 -0.000008    0.01     52.94   
   230. D(C  18,C  22,C   1,H   2)    168.87  0.000002   -0.01    168.86   
   231. D(C  18,C  22,C   1,O   0)    -74.94 -0.000015    0.01    -74.93   
   232. D(H  47,O  24,C  22,H  23)    -57.68 -0.000017    0.00    -57.68   
   233. D(H  47,O  24,C  22,C  18)     62.55  0.000017   -0.01     62.54   
   234. D(H  47,O  24,C  22,C   1)   -176.00  0.000001   -0.00   -176.00   
    ----------------------------------------------------------------------------

Geometry step timings:
Preparation and reading OPT file:      0.001 s ( 5.086 %)
Internal coordinates            :      0.000 s ( 0.211 %)
B/P matrices and projection     :      0.005 s (22.079 %)
Hessian update/contruction      :      0.010 s (44.719 %)
Making the step                 :      0.003 s (14.650 %)
Converting the step to Cartesian:      0.000 s ( 1.920 %)
Storing new data                :      0.001 s ( 4.004 %)
Checking convergence            :      0.000 s ( 0.244 %)
Final printing                  :      0.002 s ( 7.077 %)
Total time                      :      0.021 s

Time for energy+gradient        :      0.086 s
Time for complete geometry iter :      0.118 s

         *************************************************************
         *                GEOMETRY OPTIMIZATION CYCLE  14            *
         *************************************************************
---------------------------------
CARTESIAN COORDINATES (ANGSTROEM)
---------------------------------
  O    -1.356359    2.144337    0.118649
  C     0.015800    1.916107    0.045252
  H     0.366096    1.822858    1.082284
  C     0.395465    0.607169   -0.678450
  H    -0.326240   -0.164408   -0.387035
  O     1.648835    0.145596   -0.233928
  C     0.381400    0.715271   -2.221482
  H     1.099900   -0.031432   -2.587020
  C    -0.970917    0.335118   -2.853091
  O    -2.042846    1.048642   -2.320845
  Si   -3.638477    0.988545   -2.723779
  C    -4.448498   -0.677728   -2.161330
  C    -3.905803   -1.077500   -0.784919
  C    -5.967870   -0.515775   -2.054906
  C    -4.157727   -1.815278   -3.147798
  C    -4.300160    2.463893   -1.730727
  C    -3.873614    1.223030   -4.606641
  O     0.908174    1.934210   -2.735166
  C     0.555275    3.138056   -2.110370
  H     1.263995    3.860676   -2.562534
  O    -0.754610    3.553459   -2.350528
  C    -1.008864    3.896422   -3.699303
  C     0.772078    3.101859   -0.587259
  H     0.358972    4.030471   -0.168498
  O     2.136986    2.954050   -0.272877
  H    -1.727423    2.075222   -0.780043
  H     2.271175    0.888237   -0.279353
  H    -0.903110    0.513096   -3.932399
  H    -1.118267   -0.738881   -2.690334
  H    -4.099159   -0.299842   -0.050032
  H    -2.831029   -1.241579   -0.823927
  H    -4.377286   -1.998340   -0.440693
  H    -6.222450    0.246724   -1.323959
  H    -6.429232   -1.453152   -1.745617
  H    -6.393972   -0.226822   -3.012493
  H    -3.086894   -1.969166   -3.266196
  H    -4.583210   -1.598894   -4.124529
  H    -4.593343   -2.747359   -2.787468
  H    -4.299311    2.258418   -0.665396
  H    -5.315490    2.708020   -2.022177
  H    -3.684483    3.343189   -1.886437
  H    -3.366821    0.447471   -5.174814
  H    -3.471309    2.179132   -4.928739
  H    -4.921236    1.200856   -4.888572
  H    -2.058021    4.175890   -3.745290
  H    -0.818619    3.049008   -4.362273
  H    -0.379448    4.740300   -4.004841
  H     2.635776    3.713404   -0.599966

----------------------------
CARTESIAN COORDINATES (A.U.)
----------------------------
  NO LB    ZA    FRAG    MASS        X           Y           Z
   0 O   8.0000    1    15.999   -2.563148    4.052210    0.224215
   1 C   6.0000    1    12.011    0.029858    3.620918    0.085513
   2 H   1.0000    1     1.008    0.691821    3.444702    2.045221
   3 C   6.0000    1    12.011    0.747320    1.147383   -1.282085
   4 H   1.0000    1     1.008   -0.616504   -0.310686   -0.731390
   5 O   8.0000    1    15.999    3.115847    0.275137   -0.442061
   6 C   6.0000    1    12.011    0.720742    1.351667   -4.197993
   7 H   1.0000    1     1.008    2.078510   -0.059399   -4.888759
   8 C   6.0000    1    12.011   -1.834767    0.633281   -5.391561
   9 O   8.0000    1    15.999   -3.860420    1.981647   -4.385762
  10 Si 14.0000    1    28.086   -6.875725    1.868079   -5.147196
  11 C   6.0000    1    12.011   -8.406443   -1.280720   -4.084322
  12 C   6.0000    1    12.011   -7.380897   -2.036181   -1.483282
  13 C   6.0000    1    12.011  -11.277639   -0.974674   -3.883210
  14 C   6.0000    1    12.011   -7.856966   -3.430378   -5.948477
  15 C   6.0000    1    12.011   -8.126125    4.656083   -3.270601
  16 C   6.0000    1    12.011   -7.320071    2.311191   -8.705290
  17 O   8.0000    1    15.999    1.716200    3.655128   -5.168714
  18 C   6.0000    1    12.011    1.049317    5.930067   -3.988022
  19 H   1.0000    1     1.008    2.388604    7.295620   -4.842488
  20 O   8.0000    1    15.999   -1.426006    6.715064   -4.441853
  21 C   6.0000    1    12.011   -1.906476    7.363170   -6.990669
  22 C   6.0000    1    12.011    1.459016    5.861665   -1.109758
  23 H   1.0000    1     1.008    0.678359    7.616486   -0.318416
  24 O   8.0000    1    15.999    4.038318    5.582345   -0.515663
  25 H   1.0000    1     1.008   -3.264357    3.921601   -1.474069
  26 H   1.0000    1     1.008    4.291899    1.678525   -0.527900
  27 H   1.0000    1     1.008   -1.706630    0.969612   -7.431157
  28 H   1.0000    1     1.008   -2.113219   -1.396284   -5.083995
  29 H   1.0000    1     1.008   -7.746287   -0.566620   -0.094547
  30 H   1.0000    1     1.008   -5.349870   -2.346244   -1.556996
  31 H   1.0000    1     1.008   -8.271872   -3.776315   -0.832789
  32 H   1.0000    1     1.008  -11.758726    0.466240   -2.501920
  33 H   1.0000    1     1.008  -12.149487   -2.746059   -3.298738
  34 H   1.0000    1     1.008  -12.082857   -0.428631   -5.692787
  35 H   1.0000    1     1.008   -5.833383   -3.721184   -6.172215
  36 H   1.0000    1     1.008   -8.661012   -3.021472   -7.794231
  37 H   1.0000    1     1.008   -8.680160   -5.191756   -5.267551
  38 H   1.0000    1     1.008   -8.124520    4.267792   -1.257416
  39 H   1.0000    1     1.008  -10.044820    5.117415   -3.821361
  40 H   1.0000    1     1.008   -6.962663    6.317712   -3.564849
  41 H   1.0000    1     1.008   -6.362370    0.845598   -9.778981
  42 H   1.0000    1     1.008   -6.559823    4.117963   -9.313967
  43 H   1.0000    1     1.008   -9.299787    2.269289   -9.238062
  44 H   1.0000    1     1.008   -3.889096    7.891289   -7.077573
  45 H   1.0000    1     1.008   -1.546966    5.761789   -8.243501
  46 H   1.0000    1     1.008   -0.717053    8.957868   -7.568053
  47 H   1.0000    1     1.008    4.980895    7.017316   -1.133771

      -----------------------------------------------------------      
     |                   =====================                   |     
     |                           x T B                           |     
     |                   =====================                   |     
     |                         S. Grimme                         |     
     |          Mulliken Center for Theoretical Chemistry        |     
     |                    University of Bonn                     |     
      -----------------------------------------------------------      

   * xtb version 6.7.1 (edcfbbe) compiled by 'albert@albert-system' on 2024-07-22

   xtb is free software: you can redistribute it and/or modify it under
   the terms of the GNU Lesser General Public License as published by
   the Free Software Foundation, either version 3 of the License, or
   (at your option) any later version.
   
   xtb is distributed in the hope that it will be useful,
   but WITHOUT ANY WARRANTY; without even the implied warranty of
   MERCHANTABILITY or FITNESS FOR A PARTICULAR PURPOSE.  See the
   GNU Lesser General Public License for more details.
   
   Cite this work as:
   * C. Bannwarth, E. Caldeweyher, S. Ehlert, A. Hansen, P. Pracht,
     J. Seibert, S. Spicher, S. Grimme, WIREs Comput. Mol. Sci., 2020, 11,
     e01493. DOI: 10.1002/wcms.1493
   
   for GFN2-xTB:
   * C. Bannwarth, S. Ehlert and S. Grimme., J. Chem. Theory Comput., 2019,
     15, 1652-1671. DOI: 10.1021/acs.jctc.8b01176
   for GFN1-xTB:
   * S. Grimme, C. Bannwarth, P. Shushkov, J. Chem. Theory Comput., 2017,
     13, 1989-2009. DOI: 10.1021/acs.jctc.7b00118
   for GFN0-xTB:
   * P. Pracht, E. Caldeweyher, S. Ehlert, S. Grimme, ChemRxiv, 2019, preprint.
     DOI: 10.26434/chemrxiv.8326202.v1
   for GFN-FF:
   * S. Spicher and S. Grimme, Angew. Chem. Int. Ed., 2020, 59, 15665-15673.
     DOI: 10.1002/anie.202004239
   
   for ALPB and GBSA implicit solvation:
   * S. Ehlert, M. Stahn, S. Spicher, S. Grimme, J. Chem. Theory Comput.,
     2021, 17, 4250-4261. DOI: 10.1021/acs.jctc.1c00471
   
   for ddCOSMO and CPCM-X implicit solvation:
   * M. Stahn, S. Ehlert, S. Grimme, J. Phys. Chem. A,
     2023, XX, XXXX-XXXX. DOI: 10.1021/acs.jpca.3c04382
   
   for DFT-D4:
   * E. Caldeweyher, C. Bannwarth and S. Grimme, J. Chem. Phys., 2017,
     147, 034112. DOI: 10.1063/1.4993215
   * E. Caldeweyher, S. Ehlert, A. Hansen, H. Neugebauer, S. Spicher,
     C. Bannwarth and S. Grimme, J. Chem. Phys., 2019, 150, 154122.
     DOI: 10.1063/1.5090222
   * E. Caldeweyher, J.-M. Mewes, S. Ehlert and S. Grimme, Phys. Chem. Chem. Phys.
     2020, 22, 8499-8512. DOI: 10.1039/D0CP00502A
   
   for sTDA-xTB:
   * S. Grimme and C. Bannwarth, J. Chem. Phys., 2016, 145, 054103.
     DOI: 10.1063/1.4959605
   
   in the mass-spec context:
   * V. Asgeirsson, C. Bauer and S. Grimme, Chem. Sci., 2017, 8, 4879.
     DOI: 10.1039/c7sc00601b
   * J. Koopman and S. Grimme, ACS Omega 2019, 4, 12, 15120-15133.
     DOI: 10.1021/acsomega.9b02011
   
   for metadynamics refer to:
   * S. Grimme, J. Chem. Theory Comput., 2019, 155, 2847-2862
     DOI: 10.1021/acs.jctc.9b00143
   
   for SPH calculations refer to:
   * S. Spicher and S. Grimme, J. Chem. Theory Comput., 2021, 17, 1701-1714
     DOI: 10.1021/acs.jctc.0c01306
   
   for ONIOM refer to:
   * C. Plett, A. Katbashev, S. Ehlert, S. Grimme, M. Bursch,
     Phys. Chem. Chem. Phys., 2023, 25, 17860-17868. DOI: 10.1039/D3CP02178E
   
   for DIPRO refer to:
   * J. Kohn, N. Gildemeister, S. Grimme, D. Fazzi, A. Hansen,
     J. Chem. Phys., 2023, just accepted.
   
   for PTB refer to:
   * S. Grimme, M. Mueller, A. Hansen, J. Chem. Phys., 2023, 158, 124111.
     DOI: 10.1063/5.0137838
   
   with help from (in alphabetical order)
   P. Atkinson, C. Bannwarth, F. Bohle, G. Brandenburg, E. Caldeweyher
   M. Checinski, S. Dohm, S. Ehlert, S. Ehrlich, I. Gerasimov, C. Hölzer
   A. Katbashev, J. Kohn, J. Koopman, C. Lavigne, S. Lehtola, F. März, M. Müller,
   F. Musil, H. Neugebauer, J. Pisarek, C. Plett, P. Pracht, F. Pultar,
   J. Seibert, P. Shushkov, S. Spicher, M. Stahn, M. Steiner, T. Strunk,
   J. Stückrath, T. Rose, and J. Unsleber
   
 * started run on 2025/09/10 at 11:36:46.709     
   ID    Z sym.   atoms
    1    8 O      1, 6, 10, 18, 21, 25
    2    6 C      2, 4, 7, 9, 12-17, 19, 22, 23
    3    1 H      3, 5, 8, 20, 24, 26-48
    4   14 Si     11

           -------------------------------------------------
          |                Calculation Setup                |
           -------------------------------------------------

          program call               : /home/kmoult/orca_6_1/otool_xtb goat_0_XTB.xyz --grad -c 0 -u 0 -P 4 --namespace goat_0 --input goat_0_XTB.input.tmp --alpb ACETONE --acc 0.200000
          hostname                   : node1600
          calculation namespace      : goat_0
          coordinate file            : goat_0_XTB.xyz
          omp threads                :                     4


           -------------------------------------------------
          |                 G F N 2 - x T B                 |
           -------------------------------------------------

        Reference                      10.1021/acs.jctc.8b01176
      * Hamiltonian:
        H0-scaling (s, p, d)           1.850000    2.230000    2.230000
        zeta-weighting                 0.500000
      * Dispersion:
        s8                             2.700000
        a1                             0.520000
        a2                             5.000000
        s9                             5.000000
      * Repulsion:
        kExp                           1.500000    1.000000
        rExp                           1.000000
      * Coulomb:
        alpha                          2.000000
        third order                    shell-resolved
        anisotropic                    true
        a3                             3.000000
        a5                             4.000000
        cn-shift                       1.200000
        cn-exp                         4.000000
        max-rad                        5.000000

      * Solvation model:               ALPB
        Solvent                        ACETONE
        Parameter file                 internal GFN2-xTB/ALPB
        Dielectric constant                2.0700E+01
        Reference state                gsolv [1 M gas/solution]
        Free energy shift                  5.9241E-03 Eh       3.7175E+00 kcal/mol
        Temperature                        2.9815E+02 K
        Density                            7.9000E-01 kg/L
        Solvent mass                       5.8080E+01 g/mol
        Interaction kernel             P16
        Born radius scaling (c1)           1.8274E+00
        Born radii integrator          GBOBC
        Born offset                        0.0000E+00 a0       0.0000E+00 AA
        H-bond correction              true
        Ion screening                  false
        Surface tension                    1.0000E-05 Eh       1.5569E+01 dyn/cm
        Grid points                               230 per atom
q/qsh data taken from xtbrestart
CAMM data taken from xtbrestart

          ...................................................
          :                      SETUP                      :
          :.................................................:
          :  # basis functions                 114          :
          :  # atomic orbitals                 113          :
          :  # shells                           69          :
          :  # electrons                       120          :
          :  max. iterations                   250          :
          :  Hamiltonian                  GFN2-xTB          :
          :  restarted?                       true          :
          :  GBSA solvation                   true          :
          :  PC potential                    false          :
          :  electronic temp.          300.0000000     K    :
          :  accuracy                    0.2000000          :
          :  -> integral cutoff          0.3198970E+02      :
          :  -> integral neglect         0.2000000E-08      :
          :  -> SCF convergence          0.2000000E-06 Eh   :
          :  -> wf. convergence          0.2000000E-04 e    :
          :  Broyden damping             0.4000000          :
          :  net charge                          0          :
          :  unpaired electrons                  0          :
          ...................................................

 iter      E             dE          RMSdq      gap      omega  full diag
   1    -68.9915389 -0.689915E+02  0.506E-03    6.35       0.0  T
   2    -68.9915389 -0.643480E-08  0.320E-03    6.35       4.5  T
   3    -68.9915389  0.625162E-08  0.738E-04    6.35      19.6  T
   4    -68.9915389 -0.782785E-08  0.499E-04    6.35      28.9  T
   5    -68.9915389 -0.960640E-09  0.192E-04    6.35      75.1  T
   6    -68.9915389 -0.428059E-09  0.885E-05    6.35     163.1  T

   *** convergence criteria satisfied after 6 iterations ***

         #    Occupation            Energy/Eh            Energy/eV
      -------------------------------------------------------------
         1        2.0000           -0.7767181             -21.1356
       ...           ...                  ...                  ...
        54        2.0000           -0.4217974             -11.4777
        55        2.0000           -0.4207819             -11.4501
        56        2.0000           -0.4160984             -11.3226
        57        2.0000           -0.4027904             -10.9605
        58        2.0000           -0.3960890             -10.7781
        59        2.0000           -0.3944695             -10.7341
        60        2.0000           -0.3709721             -10.0947 (HOMO)
        61                         -0.1377424              -3.7482 (LUMO)
        62                         -0.1237839              -3.3683
        63                         -0.1107550              -3.0138
        64                         -0.0174930              -0.4760
        65                         -0.0097365              -0.2649
       ...                                ...                  ...
       113                          0.7771432              21.1471
      -------------------------------------------------------------
                  HL-Gap            0.2332297 Eh            6.3465 eV
             Fermi-level           -0.2543573 Eh           -6.9214 eV

 SCC (total)                   0 d,  0 h,  0 min,  0.035 sec
 SCC setup                      ...        0 min,  0.001 sec (  1.781%)
 Dispersion                     ...        0 min,  0.000 sec (  0.873%)
 classical contributions        ...        0 min,  0.000 sec (  0.106%)
 integral evaluation            ...        0 min,  0.016 sec ( 47.522%)
 iterations                     ...        0 min,  0.010 sec ( 28.331%)
 molecular gradient             ...        0 min,  0.007 sec ( 20.906%)
 printout                       ...        0 min,  0.000 sec (  0.438%)

         :::::::::::::::::::::::::::::::::::::::::::::::::::::
         ::                     SUMMARY                     ::
         :::::::::::::::::::::::::::::::::::::::::::::::::::::
         :: total energy             -68.319724096033 Eh    ::
         :: total w/o Gsasa/hb       -68.293985915036 Eh    ::
         :: gradient norm              0.000264611533 Eh/a0 ::
         :: HOMO-LUMO gap              6.346504086620 eV    ::
         ::.................................................::
         :: SCC energy               -68.990182927222 Eh    ::
         :: -> isotropic ES            0.159893122925 Eh    ::
         :: -> anisotropic ES          0.002728037972 Eh    ::
         :: -> anisotropic XC          0.004852200118 Eh    ::
         :: -> dispersion             -0.048968054207 Eh    ::
         :: -> Gsolv                  -0.029262497924 Eh    ::
         ::    -> Gelec               -0.003524316927 Eh    ::
         ::    -> Gsasa               -0.026359167204 Eh    ::
         ::    -> Ghb                 -0.005303155057 Eh    ::
         ::    -> Gshift               0.005924141264 Eh    ::
         :: repulsion energy           0.670458831188 Eh    ::
         :: add. restraining           0.000000000000 Eh    ::
         :: total charge              -0.000000000000 e     ::
         :::::::::::::::::::::::::::::::::::::::::::::::::::::


Property printout bound to 'properties.out'

           -------------------------------------------------
          | TOTAL ENERGY              -68.319724096033 Eh   |
          | GRADIENT NORM               0.000264611533 Eh/α |
          | HOMO-LUMO GAP               6.346504086620 eV   |
           -------------------------------------------------

------------------------------------------------------------------------
 * finished run on 2025/09/10 at 11:36:46.768     
------------------------------------------------------------------------
 total:
 * wall-time:     0 d,  0 h,  0 min,  0.058 sec
 *  cpu-time:     0 d,  0 h,  0 min,  0.198 sec
 * ratio c/w:     3.414 speedup
 SCF:
 * wall-time:     0 d,  0 h,  0 min,  0.035 sec
 *  cpu-time:     0 d,  0 h,  0 min,  0.127 sec
 * ratio c/w:     3.639 speedup


-------------------------   --------------------
FINAL SINGLE POINT ENERGY       -68.319724096030
-------------------------   --------------------


-------------
DIPOLE MOMENT
-------------
                                X             Y             Z
Total Dipole Moment    :     -0.09300       0.95300      -1.74100
                        -----------------------------------------
Magnitude (a.u.)       :      1.98694
Magnitude (Debye)      :      5.05041


------------------
CARTESIAN GRADIENT
------------------

   1   O   :    0.000027617   -0.000030215   -0.000041489
   2   C   :   -0.000028135   -0.000004193   -0.000017240
   3   H   :    0.000004619   -0.000005461    0.000007072
   4   C   :    0.000006880   -0.000029893    0.000031412
   5   H   :   -0.000021881    0.000022207   -0.000019190
   6   O   :    0.000016545    0.000027532   -0.000011632
   7   C   :   -0.000028009   -0.000063185    0.000006697
   8   H   :   -0.000001213    0.000002746    0.000013792
   9   C   :   -0.000074833    0.000018259   -0.000019099
  10   O   :    0.000021551    0.000056641   -0.000029219
  11   Si  :   -0.000012376   -0.000043051    0.000030726
  12   C   :   -0.000035825   -0.000031038   -0.000018517
  13   C   :    0.000003579   -0.000023280    0.000013343
  14   C   :   -0.000024721    0.000016433    0.000019123
  15   C   :   -0.000011621   -0.000024217    0.000004475
  16   C   :   -0.000035717   -0.000022977    0.000005996
  17   C   :    0.000061159    0.000030549   -0.000008856
  18   O   :    0.000023081    0.000020001   -0.000028498
  19   C   :    0.000055443    0.000005430   -0.000024893
  20   H   :   -0.000035312   -0.000010072    0.000010842
  21   O   :   -0.000060961   -0.000010557    0.000036015
  22   C   :   -0.000001824    0.000010253    0.000014202
  23   C   :    0.000065262    0.000020302    0.000024828
  24   H   :    0.000010864    0.000000294   -0.000001351
  25   O   :   -0.000048205   -0.000006387    0.000004755
  26   H   :   -0.000007995    0.000032908    0.000035089
  27   H   :   -0.000007341    0.000019924    0.000007959
  28   H   :    0.000040446   -0.000011043    0.000003078
  29   H   :   -0.000000651    0.000003364    0.000004401
  30   H   :    0.000000096    0.000002130    0.000001098
  31   H   :    0.000001740    0.000012508    0.000000476
  32   H   :   -0.000007113    0.000015416   -0.000009717
  33   H   :    0.000001868   -0.000001765   -0.000003343
  34   H   :    0.000013728    0.000001873   -0.000007068
  35   H   :    0.000008656    0.000001762   -0.000005872
  36   H   :    0.000002338    0.000006739   -0.000005722
  37   H   :    0.000011518    0.000012798   -0.000002471
  38   H   :    0.000003129    0.000013561    0.000008330
  39   H   :    0.000034402   -0.000010684   -0.000006911
  40   H   :    0.000008659    0.000003140   -0.000003803
  41   H   :   -0.000004720    0.000009879    0.000003430
  42   H   :   -0.000003021   -0.000014079    0.000012703
  43   H   :    0.000001255   -0.000012551   -0.000016683
  44   H   :   -0.000001249    0.000002659    0.000003087
  45   H   :   -0.000000850   -0.000005799    0.000004313
  46   H   :    0.000006970    0.000010772   -0.000017402
  47   H   :    0.000019184   -0.000019857   -0.000012217
  48   H   :    0.000002984    0.000000228    0.000003954

Difference to translation invariance:
           :    0.0000000000    0.0000000000    0.0000000000

Difference to rotation invariance:
           :    0.0000003477   -0.0003567918   -0.0001060815

Norm of the Cartesian gradient     ...    0.0002646115
RMS gradient                       ...    0.0000220510
MAX gradient                       ...    0.0000748333
------------------------------------------------------------------------------
                         ORCA GEOMETRY RELAXATION STEP
------------------------------------------------------------------------------

Reading the OPT-File                    .... done
Getting information on internals        .... done
Copying old internal coords+grads       .... done
Making the new internal coordinates     .... (2022 redundants) done
Validating the new internal coordinates .... (2022 redundants) done
Calculating the B-matrix                .... done
Calculating the G,G- and P matrices     .... done
Transforming gradient to internals      .... done
Projecting the internal gradient        .... done
Number of atoms                         ....  48
Number of internal coordinates          .... 234
Current Energy                          ....   -68.319724096 Eh
Current gradient norm                   ....     0.000264612 Eh/bohr
Maximum allowed component of the step   ....  0.300
Current trust radius                    ....  0.700
Updating the Hessian (BFGS)             .... done
Forming the augmented Hessian           .... done
Diagonalizing the augmented Hessian     .... done
Last element of RFO vector              ....  0.999881487
Lowest eigenvalues of augmented Hessian:
 -0.000000692  0.000959659  0.005101204  0.008722349  0.010044799
Length of the computed step             ....  0.015396997
The final length of the internal step   ....  0.015396997
Converting the step to Cartesian space:
 Initial RMS(Int)=    0.0010065332
Transforming coordinates:
 Iter   0:  RMS(Cart)=    0.0020177430 RMS(Int)=    0.0010065351
done
Storing new coordinates                 .... done
The predicted energy change is          ....    -0.000000346
Previously predicted energy change      ....    -0.000000595
Actually observed energy change         ....    -0.000000813
Ratio of predicted to observed change   ....     1.366476649
New trust radius                        ....     0.700000000

                                .--------------------.
          ----------------------|Geometry convergence|-------------------------
          Item                value                   Tolerance       Converged
          ---------------------------------------------------------------------
          Energy change      -0.0000008125            0.0000050000      YES
          RMS gradient        0.0000161472            0.0001000000      YES
          MAX gradient        0.0000741698            0.0003000000      YES
          RMS step            0.0010065332            0.0020000000      YES
          MAX step            0.0052814006            0.0040000000      NO
          -------------------------------------------------------------------------
          ........................................................
          Max(Bonds)      0.0009      Max(Angles)    0.03
          Max(Dihed)        0.30      Max(Improp)    0.00
          ---------------------------------------------------------------------

    ---------------------------------------------------------------------------
                         Redundant Internal Coordinates
                            (Angstroem and degrees)

        Definition                    Value    dE/dq     Step     New-Value
    ----------------------------------------------------------------------------
     1. B(C   1,O   0)                1.3929 -0.000016 -0.0000    1.3929   
     2. B(H   2,C   1)                1.0986  0.000008 -0.0000    1.0986   
     3. B(C   3,C   1)                1.5431 -0.000022  0.0000    1.5432   
     4. B(H   4,C   3)                1.0960 -0.000007 -0.0000    1.0959   
     5. B(O   5,C   3)                1.4077 -0.000002  0.0000    1.4077   
     6. B(C   6,C   3)                1.5469 -0.000015  0.0000    1.5469   
     7. B(H   7,C   6)                1.0988 -0.000007  0.0000    1.0988   
     8. B(C   8,C   6)                1.5402 -0.000010 -0.0000    1.5402   
     9. B(O   9,C   8)                1.3934 -0.000019  0.0000    1.3934   
    10. B(Si 10,O   9)                1.6468 -0.000021 -0.0001    1.6468   
    11. B(C  11,Si 10)                1.9362  0.000015 -0.0000    1.9362   
    12. B(C  12,C  11)                1.5326  0.000006 -0.0000    1.5326   
    13. B(C  13,C  11)                1.5317  0.000002 -0.0000    1.5316   
    14. B(C  14,C  11)                1.5335 -0.000010  0.0000    1.5335   
    15. B(C  15,Si 10)                1.8975 -0.000016  0.0000    1.8976   
    16. B(C  16,Si 10)                1.9119  0.000000 -0.0000    1.9119   
    17. B(O  17,C   6)                1.4238  0.000037 -0.0001    1.4237   
    18. B(C  18,O  17)                1.4015  0.000020  0.0001    1.4015   
    19. B(H  19,C  18)                1.1086 -0.000033  0.0000    1.1086   
    20. B(O  20,C  18)                1.3950  0.000031 -0.0001    1.3949   
    21. B(C  21,O  20)                1.4147  0.000006  0.0000    1.4147   
    22. B(C  22,C  18)                1.5389  0.000020 -0.0000    1.5389   
    23. B(C  22,C   1)                1.5421  0.000015  0.0000    1.5421   
    24. B(H  23,C  22)                1.0992 -0.000005  0.0000    1.0993   
    25. B(O  24,C  22)                1.4084 -0.000044 -0.0000    1.4084   
    26. B(H  25,O   0)                0.9747 -0.000022  0.0000    0.9748   
    27. B(H  25,O  20)                2.3660 -0.000013  0.0009    2.3669   
    28. B(H  25,O   9)                1.8781  0.000018 -0.0005    1.8777   
    29. B(H  26,O   5)                0.9700 -0.000001 -0.0000    0.9700   
    30. B(H  26,O  24)                2.0702 -0.000016  0.0006    2.0707   
    31. B(H  27,C   8)                1.0960 -0.000002 -0.0000    1.0960   
    32. B(H  28,C   8)                1.0962 -0.000003  0.0000    1.0962   
    33. B(H  29,C  12)                1.0873  0.000002 -0.0000    1.0873   
    34. B(H  30,C  12)                1.0879  0.000001 -0.0000    1.0879   
    35. B(H  31,C  12)                1.0903 -0.000013  0.0000    1.0903   
    36. B(H  32,C  13)                1.0865 -0.000003 -0.0000    1.0865   
    37. B(H  33,C  13)                1.0896 -0.000009  0.0000    1.0896   
    38. B(H  34,C  13)                1.0872  0.000001 -0.0000    1.0872   
    39. B(H  35,C  14)                1.0883  0.000002 -0.0000    1.0883   
    40. B(H  36,C  14)                1.0871 -0.000000 -0.0000    1.0871   
    41. B(H  37,C  14)                1.0901 -0.000010  0.0000    1.0901   
    42. B(H  38,C  15)                1.0850 -0.000003 -0.0000    1.0850   
    43. B(H  39,C  15)                1.0842 -0.000007  0.0000    1.0842   
    44. B(H  40,C  15)                1.0846  0.000004 -0.0000    1.0846   
    45. B(H  41,C  16)                1.0868  0.000001 -0.0000    1.0868   
    46. B(H  42,C  16)                1.0862 -0.000006 -0.0000    1.0861   
    47. B(H  43,C  16)                1.0851  0.000001 -0.0000    1.0851   
    48. B(H  44,C  21)                1.0867  0.000000 -0.0000    1.0867   
    49. B(H  45,C  21)                1.0926  0.000003 -0.0000    1.0926   
    50. B(H  46,C  21)                1.0962 -0.000001 -0.0000    1.0962   
    51. B(H  47,O  24)                0.9656  0.000001 -0.0000    0.9656   
    52. A(C   1,O   0,H  25)          108.35  0.000051   -0.01    108.34   
    53. A(H   2,C   1,C   3)          106.99 -0.000005   -0.00    106.99   
    54. A(O   0,C   1,H   2)          106.16  0.000001    0.01    106.17   
    55. A(C   3,C   1,C  22)          109.83  0.000012   -0.00    109.83   
    56. A(O   0,C   1,C  22)          112.26  0.000007   -0.00    112.25   
    57. A(O   0,C   1,C   3)          113.96 -0.000012   -0.00    113.96   
    58. A(H   2,C   1,C  22)          107.22 -0.000004   -0.01    107.22   
    59. A(H   4,C   3,O   5)          105.75  0.000027   -0.00    105.75   
    60. A(C   1,C   3,C   6)          113.97  0.000012    0.00    113.97   
    61. A(C   1,C   3,H   4)          108.09 -0.000008   -0.00    108.09   
    62. A(C   1,C   3,O   5)          110.43 -0.000017    0.01    110.44   
    63. A(O   5,C   3,C   6)          110.24  0.000002   -0.00    110.24   
    64. A(H   4,C   3,C   6)          107.97 -0.000016   -0.00    107.96   
    65. A(C   3,O   5,H  26)          107.78 -0.000008   -0.00    107.78   
    66. A(H   7,C   6,C   8)          105.66  0.000006    0.01    105.67   
    67. A(C   3,C   6,C   8)          113.57  0.000014   -0.01    113.56   
    68. A(C   3,C   6,H   7)          106.16 -0.000009   -0.00    106.16   
    69. A(C   3,C   6,O  17)          114.60 -0.000003    0.01    114.61   
    70. A(C   8,C   6,O  17)          112.84 -0.000013    0.00    112.85   
    71. A(H   7,C   6,O  17)          102.70  0.000005   -0.00    102.70   
    72. A(H  27,C   8,H  28)          108.28  0.000005   -0.00    108.28   
    73. A(C   6,C   8,O   9)          113.11 -0.000008   -0.00    113.10   
    74. A(C   6,C   8,H  27)          108.03 -0.000033    0.02    108.04   
    75. A(O   9,C   8,H  28)          109.97 -0.000002    0.00    109.98   
    76. A(O   9,C   8,H  27)          109.91  0.000033   -0.01    109.90   
    77. A(C   6,C   8,H  28)          107.39  0.000004   -0.00    107.39   
    78. A(C   8,O   9,Si 10)          129.29 -0.000074    0.01    129.30   
    79. A(C  15,Si 10,C  16)          112.16  0.000055   -0.03    112.13   
    80. A(C  11,Si 10,C  16)          109.89  0.000004    0.00    109.89   
    81. A(O   9,Si 10,C  16)          110.83 -0.000063    0.01    110.84   
    82. A(C  11,Si 10,C  15)          111.79 -0.000047    0.02    111.81   
    83. A(O   9,Si 10,C  15)          100.45 -0.000005    0.00    100.46   
    84. A(O   9,Si 10,C  11)          111.45  0.000056   -0.00    111.44   
    85. A(C  12,C  11,C  14)          108.49 -0.000001    0.00    108.49   
    86. A(C  13,C  11,C  14)          108.13  0.000009    0.00    108.14   
    87. A(Si 10,C  11,C  13)          110.13 -0.000006   -0.00    110.13   
    88. A(Si 10,C  11,C  14)          111.85 -0.000003   -0.01    111.84   
    89. A(Si 10,C  11,C  12)          109.71  0.000004   -0.00    109.71   
    90. A(C  12,C  11,C  13)          108.45 -0.000003    0.01    108.45   
    91. A(H  29,C  12,H  31)          108.29 -0.000002    0.00    108.29   
    92. A(C  11,C  12,H  31)          110.53 -0.000013   -0.00    110.53   
    93. A(H  29,C  12,H  30)          107.93 -0.000003    0.00    107.93   
    94. A(C  11,C  12,H  30)          110.91  0.000003   -0.00    110.91   
    95. A(C  11,C  12,H  29)          110.95 -0.000001    0.00    110.95   
    96. A(H  30,C  12,H  31)          108.13  0.000017   -0.00    108.13   
    97. A(H  32,C  13,H  33)          108.27  0.000008    0.00    108.28   
    98. A(C  11,C  13,H  33)          110.41 -0.000016    0.00    110.42   
    99. A(C  11,C  13,H  32)          110.69  0.000004   -0.00    110.69   
   100. A(C  11,C  13,H  34)          110.83 -0.000011   -0.00    110.83   
   101. A(H  33,C  13,H  34)          108.22  0.000010    0.00    108.22   
   102. A(H  32,C  13,H  34)          108.31  0.000006   -0.00    108.31   
   103. A(H  36,C  14,H  37)          108.11  0.000017    0.00    108.11   
   104. A(H  35,C  14,H  37)          107.95  0.000007    0.00    107.96   
   105. A(C  11,C  14,H  37)          110.23 -0.000013    0.00    110.23   
   106. A(H  35,C  14,H  36)          108.39 -0.000002   -0.00    108.39   
   107. A(C  11,C  14,H  36)          110.86 -0.000006   -0.00    110.86   
   108. A(C  11,C  14,H  35)          111.19 -0.000001   -0.00    111.19   
   109. A(H  39,C  15,H  40)          108.09 -0.000007    0.00    108.09   
   110. A(H  38,C  15,H  40)          107.10 -0.000002    0.00    107.10   
   111. A(H  38,C  15,H  39)          107.90  0.000022   -0.02    107.88   
   112. A(Si 10,C  15,H  39)          111.16  0.000010   -0.03    111.13   
   113. A(Si 10,C  15,H  38)          111.49 -0.000040    0.02    111.51   
   114. A(Si 10,C  15,H  40)          110.93  0.000017    0.02    110.95   
   115. A(H  42,C  16,H  43)          107.37 -0.000003    0.01    107.37   
   116. A(H  41,C  16,H  43)          107.44  0.000006   -0.00    107.44   
   117. A(Si 10,C  16,H  43)          111.84 -0.000008   -0.00    111.84   
   118. A(H  41,C  16,H  42)          107.48 -0.000000    0.01    107.49   
   119. A(Si 10,C  16,H  41)          111.71 -0.000029   -0.00    111.71   
   120. A(Si 10,C  16,H  42)          110.76  0.000034   -0.00    110.76   
   121. A(C   6,O  17,C  18)          118.78 -0.000019    0.00    118.78   
   122. A(O  17,C  18,H  19)          102.54  0.000001   -0.01    102.53   
   123. A(O  20,C  18,C  22)          108.04 -0.000013    0.01    108.05   
   124. A(H  19,C  18,C  22)          109.21  0.000001   -0.00    109.20   
   125. A(O  17,C  18,C  22)          112.68  0.000013   -0.00    112.67   
   126. A(H  19,C  18,O  20)          109.63 -0.000003    0.01    109.64   
   127. A(O  17,C  18,O  20)          114.55  0.000002   -0.00    114.54   
   128. A(C  18,O  20,C  21)          113.90 -0.000042    0.00    113.90   
   129. A(H  44,C  21,H  46)          110.16  0.000015   -0.00    110.15   
   130. A(H  45,C  21,H  46)          109.14 -0.000028    0.01    109.15   
   131. A(O  20,C  21,H  46)          110.44  0.000001   -0.00    110.44   
   132. A(H  44,C  21,H  45)          109.99 -0.000003   -0.00    109.99   
   133. A(O  20,C  21,H  45)          111.05  0.000023   -0.01    111.04   
   134. A(O  20,C  21,H  44)          106.03 -0.000006    0.00    106.03   
   135. A(H  23,C  22,O  24)          111.58 -0.000019    0.01    111.59   
   136. A(C  18,C  22,O  24)          111.10  0.000032   -0.00    111.09   
   137. A(C   1,C  22,O  24)          107.64 -0.000002    0.00    107.64   
   138. A(C  18,C  22,H  23)          107.71  0.000005   -0.01    107.70   
   139. A(C   1,C  22,H  23)          108.00  0.000006   -0.00    108.00   
   140. A(C   1,C  22,C  18)          110.79 -0.000023    0.01    110.80   
   141. A(C  22,O  24,H  47)          110.03  0.000006   -0.00    110.03   
   142. D(H   2,C   1,O   0,H  25)   -170.11 -0.000001    0.06   -170.05   
   143. D(C  22,C   1,O   0,H  25)     73.05 -0.000001    0.06     73.10   
   144. D(C   3,C   1,O   0,H  25)    -52.61 -0.000013    0.06    -52.55   
   145. D(H   4,C   3,C   1,C  22)   -166.10  0.000005    0.02   -166.08   
   146. D(O   5,C   3,C   1,C  22)     78.65 -0.000014    0.02     78.67   
   147. D(O   5,C   3,C   1,H   2)    -37.41 -0.000012    0.03    -37.38   
   148. D(H   4,C   3,C   1,H   2)     77.84  0.000006    0.03     77.86   
   149. D(O   5,C   3,C   1,O   0)   -154.42 -0.000003    0.01   -154.41   
   150. D(H   4,C   3,C   1,O   0)    -39.18  0.000015    0.01    -39.16   
   151. D(H  26,O   5,C   3,H   4)   -166.48  0.000005   -0.01   -166.49   
   152. D(H  26,O   5,C   3,C   6)     77.06  0.000007   -0.01     77.05   
   153. D(H  26,O   5,C   3,C   1)    -49.78  0.000002   -0.01    -49.79   
   154. D(H   7,C   6,C   3,O   5)     27.91  0.000015   -0.02     27.89   
   155. D(H   7,C   6,C   3,H   4)    -87.16 -0.000010   -0.01    -87.18   
   156. D(H   7,C   6,C   3,C   1)    152.75  0.000003   -0.01    152.73   
   157. D(C   8,C   6,C   3,H   4)     28.50 -0.000001   -0.01     28.49   
   158. D(C   8,C   6,C   3,C   1)    -91.59  0.000013   -0.01    -91.60   
   159. D(C   8,C   6,C   3,O   5)    143.58  0.000024   -0.02    143.56   
   160. D(H  27,C   8,C   6,O  17)     43.34  0.000014   -0.02     43.32   
   161. D(H  27,C   8,C   6,H   7)    -68.12  0.000010   -0.02    -68.14   
   162. D(H  27,C   8,C   6,C   3)    175.92  0.000010   -0.02    175.90   
   163. D(O   9,C   8,C   6,O  17)    -78.55  0.000000   -0.02    -78.56   
   164. D(O   9,C   8,C   6,C   3)     54.03 -0.000003   -0.01     54.02   
   165. D(O   9,C   8,C   6,H   7)    169.99 -0.000003   -0.02    169.98   
   166. D(Si 10,O   9,C   8,H  27)     57.52  0.000021    0.01     57.53   
   167. D(Si 10,O   9,C   8,C   6)    178.34 -0.000003    0.02    178.36   
   168. D(Si 10,O   9,C   8,H  28)    -61.60 -0.000005    0.02    -61.58   
   169. D(C  16,Si 10,O   9,C   8)    -52.14  0.000009    0.04    -52.10   
   170. D(C  15,Si 10,O   9,C   8)   -170.86 -0.000025    0.06   -170.80   
   171. D(C  11,Si 10,O   9,C   8)     70.58  0.000008    0.04     70.63   
   172. D(C  12,C  11,Si 10,O   9)     39.45  0.000015   -0.02     39.42   
   173. D(C  13,C  11,Si 10,C  16)    -78.00 -0.000029   -0.00    -78.00   
   174. D(C  13,C  11,Si 10,C  15)     47.21  0.000011   -0.03     47.19   
   175. D(C  13,C  11,Si 10,O   9)    158.74  0.000010   -0.02    158.73   
   176. D(C  12,C  11,Si 10,C  16)    162.71 -0.000024   -0.01    162.70   
   177. D(C  12,C  11,Si 10,C  15)    -72.09  0.000016   -0.03    -72.12   
   178. D(H  30,C  12,C  11,C  14)     60.56 -0.000001   -0.03     60.53   
   179. D(H  30,C  12,C  11,C  13)    177.78  0.000007   -0.02    177.76   
   180. D(H  30,C  12,C  11,Si 10)    -61.89  0.000001   -0.02    -61.91   
   181. D(H  29,C  12,C  11,C  14)   -179.50 -0.000004   -0.03   -179.53   
   182. D(H  29,C  12,C  11,C  13)    -62.28  0.000005   -0.02    -62.30   
   183. D(H  29,C  12,C  11,Si 10)     58.05 -0.000002   -0.02     58.03   
   184. D(H  33,C  13,C  11,C  14)     57.10 -0.000002    0.03     57.13   
   185. D(H  33,C  13,C  11,C  12)    -60.35 -0.000004    0.02    -60.33   
   186. D(H  33,C  13,C  11,Si 10)    179.59 -0.000003    0.02    179.61   
   187. D(H  32,C  13,C  11,C  12)     59.53 -0.000002    0.03     59.56   
   188. D(H  32,C  13,C  11,Si 10)    -60.53 -0.000001    0.03    -60.50   
   189. D(H  32,C  13,C  11,C  14)    176.98  0.000000    0.04    177.02   
   190. D(H  36,C  14,C  11,C  13)     58.98  0.000004    0.01     58.99   
   191. D(H  36,C  14,C  11,C  12)    176.40  0.000004    0.02    176.42   
   192. D(H  36,C  14,C  11,Si 10)    -62.46  0.000007    0.02    -62.44   
   193. D(H  35,C  14,C  11,C  13)    179.63 -0.000005    0.01    179.64   
   194. D(H  35,C  14,C  11,C  12)    -62.95 -0.000004    0.02    -62.93   
   195. D(H  35,C  14,C  11,Si 10)     58.20 -0.000002    0.01     58.21   
   196. D(H  39,C  15,Si 10,C  16)     50.99  0.000025   -0.27     50.72   
   197. D(H  39,C  15,Si 10,C  11)    -72.95  0.000014   -0.27    -73.22   
   198. D(H  39,C  15,Si 10,O   9)    168.74 -0.000028   -0.27    168.47   
   199. D(H  38,C  15,Si 10,C  16)    171.43  0.000032   -0.30    171.12   
   200. D(H  38,C  15,Si 10,C  11)     47.49  0.000022   -0.30     47.19   
   201. D(H  38,C  15,Si 10,O   9)    -70.82 -0.000020   -0.30    -71.12   
   202. D(H  41,C  16,Si 10,C  15)    171.74  0.000011   -0.19    171.55   
   203. D(H  41,C  16,Si 10,C  11)    -63.26 -0.000007   -0.19    -63.45   
   204. D(H  41,C  16,Si 10,O   9)     60.36  0.000023   -0.18     60.17   
   205. D(H  42,C  16,Si 10,C  15)     51.95  0.000008   -0.20     51.76   
   206. D(H  42,C  16,Si 10,C  11)    176.95 -0.000011   -0.19    176.76   
   207. D(H  42,C  16,Si 10,O   9)    -59.43  0.000019   -0.19    -59.62   
   208. D(C  18,O  17,C   6,C   8)     89.07  0.000009   -0.00     89.07   
   209. D(C  18,O  17,C   6,H   7)   -157.65  0.000014    0.00   -157.65   
   210. D(C  18,O  17,C   6,C   3)    -43.00  0.000005    0.00    -43.00   
   211. D(C  22,C  18,O  17,C   6)     50.84  0.000007   -0.00     50.84   
   212. D(O  20,C  18,O  17,C   6)    -73.21  0.000013   -0.01    -73.21   
   213. D(H  19,C  18,O  17,C   6)    168.11  0.000015   -0.01    168.10   
   214. D(C  21,O  20,C  18,C  22)    167.64 -0.000007    0.01    167.65   
   215. D(C  21,O  20,C  18,H  19)     48.72  0.000001    0.00     48.72   
   216. D(C  21,O  20,C  18,O  17)    -65.88  0.000000    0.01    -65.88   
   217. D(H  46,C  21,O  20,C  18)    -61.91  0.000020   -0.05    -61.96   
   218. D(H  45,C  21,O  20,C  18)     59.31  0.000000   -0.04     59.27   
   219. D(H  44,C  21,O  20,C  18)    178.77  0.000005   -0.05    178.72   
   220. D(H  23,C  22,C  18,O  20)    -45.66  0.000000    0.01    -45.65   
   221. D(H  23,C  22,C  18,H  19)     73.53 -0.000011    0.02     73.55   
   222. D(H  23,C  22,C  18,O  17)   -173.22 -0.000001    0.01   -173.22   
   223. D(C   1,C  22,C  18,O  20)     72.26 -0.000003   -0.00     72.26   
   224. D(C   1,C  22,C  18,H  19)   -168.55 -0.000014    0.01   -168.54   
   225. D(C   1,C  22,C  18,O  17)    -55.30 -0.000004    0.00    -55.30   
   226. D(H  23,C  22,C   1,C   3)    170.69 -0.000005   -0.02    170.67   
   227. D(H  23,C  22,C   1,H   2)    -73.40 -0.000007   -0.02    -73.42   
   228. D(H  23,C  22,C   1,O   0)     42.81 -0.000005   -0.01     42.80   
   229. D(C  18,C  22,C   1,C   3)     52.94 -0.000002   -0.01     52.94   
   230. D(C  18,C  22,C   1,H   2)    168.86 -0.000003   -0.01    168.85   
   231. D(C  18,C  22,C   1,O   0)    -74.93 -0.000001   -0.00    -74.94   
   232. D(H  47,O  24,C  22,H  23)    -57.68 -0.000006   -0.00    -57.68   
   233. D(H  47,O  24,C  22,C  18)     62.54  0.000009   -0.01     62.53   
   234. D(H  47,O  24,C  22,C   1)   -176.00 -0.000000   -0.00   -176.01   
    ----------------------------------------------------------------------------

Geometry step timings:
Preparation and reading OPT file:      0.001 s ( 4.937 %)
Internal coordinates            :      0.000 s ( 0.165 %)
B/P matrices and projection     :      0.005 s (21.494 %)
Hessian update/contruction      :      0.010 s (43.560 %)
Making the step                 :      0.003 s (14.275 %)
Converting the step to Cartesian:      0.000 s ( 1.986 %)
Storing new data                :      0.001 s ( 4.241 %)
Checking convergence            :      0.000 s ( 0.485 %)
Final printing                  :      0.002 s ( 8.839 %)
Total time                      :      0.022 s

Time for energy+gradient        :      0.086 s
Time for complete geometry iter :      0.121 s

         *************************************************************
         *                GEOMETRY OPTIMIZATION CYCLE  15            *
         *************************************************************
---------------------------------
CARTESIAN COORDINATES (ANGSTROEM)
---------------------------------
  O    -1.356853    2.143769    0.118455
  C     0.015273    1.915473    0.045209
  H     0.365612    1.821840    1.082183
  C     0.394975    0.606779   -0.678984
  H    -0.326979   -0.164788   -0.388189
  O     1.648098    0.144664   -0.234305
  C     0.381433    0.715574   -2.222022
  H     1.100117   -0.030928   -2.587637
  C    -0.970745    0.335581   -2.854008
  O    -2.042823    1.048668   -2.321408
  Si   -3.638462    0.988379   -2.724054
  C    -4.448230   -0.677712   -2.160724
  C    -3.904837   -1.077097   -0.784521
  C    -5.967515   -0.515696   -2.053735
  C    -4.157789   -1.815387   -3.147145
  C    -4.299982    2.464497   -1.731997
  C    -3.874253    1.222233   -4.606877
  O     0.908294    1.934648   -2.735089
  C     0.555257    3.138321   -2.109923
  H     1.264315    3.861001   -2.561577
  O    -0.754449    3.553805   -2.350436
  C    -1.008305    3.897180   -3.699194
  C     0.771665    3.101436   -0.586806
  H     0.358283    4.029905   -0.167937
  O     2.136512    2.953548   -0.272228
  H    -1.727761    2.074048   -0.780288
  H     2.270614    0.887160   -0.279350
  H    -0.903169    0.514207   -3.933206
  H    -1.117936   -0.738551   -2.691885
  H    -4.097511   -0.299120   -0.049813
  H    -2.830151   -1.241529   -0.824153
  H    -4.376375   -1.997721   -0.439712
  H    -6.221743    0.247367   -1.323264
  H    -6.428776   -1.452847   -1.743563
  H    -6.394030   -0.227407   -3.011330
  H    -3.086994   -1.969297   -3.265774
  H    -4.583473   -1.599062   -4.123791
  H    -4.593379   -2.747416   -2.786622
  H    -4.304044    2.258159   -0.666848
  H    -5.313662    2.711071   -2.027208
  H    -3.681760    3.342530   -1.884493
  H    -3.364923    0.448359   -5.175055
  H    -3.475108    2.179704   -4.928794
  H    -4.921793    1.196563   -4.888787
  H    -2.057643    4.175859   -3.745598
  H    -0.817104    3.050115   -4.362329
  H    -0.379405    4.741701   -4.004016
  H     2.635345    3.712992   -0.599023

----------------------------
CARTESIAN COORDINATES (A.U.)
----------------------------
  NO LB    ZA    FRAG    MASS        X           Y           Z
   0 O   8.0000    1    15.999   -2.564081    4.051137    0.223848
   1 C   6.0000    1    12.011    0.028862    3.619720    0.085433
   2 H   1.0000    1     1.008    0.690906    3.442778    2.045030
   3 C   6.0000    1    12.011    0.746395    1.146646   -1.283094
   4 H   1.0000    1     1.008   -0.617901   -0.311404   -0.733571
   5 O   8.0000    1    15.999    3.114454    0.273376   -0.442771
   6 C   6.0000    1    12.011    0.720803    1.352240   -4.199013
   7 H   1.0000    1     1.008    2.078919   -0.058445   -4.889924
   8 C   6.0000    1    12.011   -1.834443    0.634155   -5.393294
   9 O   8.0000    1    15.999   -3.860376    1.981695   -4.386825
  10 Si 14.0000    1    28.086   -6.875696    1.867765   -5.147716
  11 C   6.0000    1    12.011   -8.405937   -1.280690   -4.083177
  12 C   6.0000    1    12.011   -7.379072   -2.035418   -1.482530
  13 C   6.0000    1    12.011  -11.276970   -0.974524   -3.880997
  14 C   6.0000    1    12.011   -7.857083   -3.430585   -5.947243
  15 C   6.0000    1    12.011   -8.125787    4.657224   -3.273001
  16 C   6.0000    1    12.011   -7.321278    2.309686   -8.705735
  17 O   8.0000    1    15.999    1.716427    3.655954   -5.168569
  18 C   6.0000    1    12.011    1.049283    5.930567   -3.987177
  19 H   1.0000    1     1.008    2.389208    7.296234   -4.840679
  20 O   8.0000    1    15.999   -1.425701    6.715719   -4.441681
  21 C   6.0000    1    12.011   -1.905421    7.364603   -6.990463
  22 C   6.0000    1    12.011    1.458235    5.860864   -1.108902
  23 H   1.0000    1     1.008    0.677057    7.615417   -0.317355
  24 O   8.0000    1    15.999    4.037423    5.581398   -0.514436
  25 H   1.0000    1     1.008   -3.264995    3.919383   -1.474530
  26 H   1.0000    1     1.008    4.290838    1.676490   -0.527895
  27 H   1.0000    1     1.008   -1.706742    0.971711   -7.432683
  28 H   1.0000    1     1.008   -2.112592   -1.395659   -5.086926
  29 H   1.0000    1     1.008   -7.743173   -0.565256   -0.094132
  30 H   1.0000    1     1.008   -5.348211   -2.346149   -1.557423
  31 H   1.0000    1     1.008   -8.270149   -3.775145   -0.830935
  32 H   1.0000    1     1.008  -11.757391    0.467455   -2.500607
  33 H   1.0000    1     1.008  -12.148627   -2.745483   -3.294857
  34 H   1.0000    1     1.008  -12.082965   -0.429737   -5.690590
  35 H   1.0000    1     1.008   -5.833574   -3.721433   -6.171419
  36 H   1.0000    1     1.008   -8.661508   -3.021788   -7.792836
  37 H   1.0000    1     1.008   -8.680228   -5.191864   -5.265951
  38 H   1.0000    1     1.008   -8.133465    4.267302   -1.260160
  39 H   1.0000    1     1.008  -10.041366    5.123182   -3.830867
  40 H   1.0000    1     1.008   -6.957518    6.316467   -3.561175
  41 H   1.0000    1     1.008   -6.358782    0.847275   -9.779437
  42 H   1.0000    1     1.008   -6.567003    4.119044   -9.314071
  43 H   1.0000    1     1.008   -9.300840    2.261176   -9.238468
  44 H   1.0000    1     1.008   -3.888381    7.891230   -7.078155
  45 H   1.0000    1     1.008   -1.544103    5.763882   -8.243606
  46 H   1.0000    1     1.008   -0.716972    8.960516   -7.566494
  47 H   1.0000    1     1.008    4.980080    7.016537   -1.131990

      -----------------------------------------------------------      
     |                   =====================                   |     
     |                           x T B                           |     
     |                   =====================                   |     
     |                         S. Grimme                         |     
     |          Mulliken Center for Theoretical Chemistry        |     
     |                    University of Bonn                     |     
      -----------------------------------------------------------      

   * xtb version 6.7.1 (edcfbbe) compiled by 'albert@albert-system' on 2024-07-22

   xtb is free software: you can redistribute it and/or modify it under
   the terms of the GNU Lesser General Public License as published by
   the Free Software Foundation, either version 3 of the License, or
   (at your option) any later version.
   
   xtb is distributed in the hope that it will be useful,
   but WITHOUT ANY WARRANTY; without even the implied warranty of
   MERCHANTABILITY or FITNESS FOR A PARTICULAR PURPOSE.  See the
   GNU Lesser General Public License for more details.
   
   Cite this work as:
   * C. Bannwarth, E. Caldeweyher, S. Ehlert, A. Hansen, P. Pracht,
     J. Seibert, S. Spicher, S. Grimme, WIREs Comput. Mol. Sci., 2020, 11,
     e01493. DOI: 10.1002/wcms.1493
   
   for GFN2-xTB:
   * C. Bannwarth, S. Ehlert and S. Grimme., J. Chem. Theory Comput., 2019,
     15, 1652-1671. DOI: 10.1021/acs.jctc.8b01176
   for GFN1-xTB:
   * S. Grimme, C. Bannwarth, P. Shushkov, J. Chem. Theory Comput., 2017,
     13, 1989-2009. DOI: 10.1021/acs.jctc.7b00118
   for GFN0-xTB:
   * P. Pracht, E. Caldeweyher, S. Ehlert, S. Grimme, ChemRxiv, 2019, preprint.
     DOI: 10.26434/chemrxiv.8326202.v1
   for GFN-FF:
   * S. Spicher and S. Grimme, Angew. Chem. Int. Ed., 2020, 59, 15665-15673.
     DOI: 10.1002/anie.202004239
   
   for ALPB and GBSA implicit solvation:
   * S. Ehlert, M. Stahn, S. Spicher, S. Grimme, J. Chem. Theory Comput.,
     2021, 17, 4250-4261. DOI: 10.1021/acs.jctc.1c00471
   
   for ddCOSMO and CPCM-X implicit solvation:
   * M. Stahn, S. Ehlert, S. Grimme, J. Phys. Chem. A,
     2023, XX, XXXX-XXXX. DOI: 10.1021/acs.jpca.3c04382
   
   for DFT-D4:
   * E. Caldeweyher, C. Bannwarth and S. Grimme, J. Chem. Phys., 2017,
     147, 034112. DOI: 10.1063/1.4993215
   * E. Caldeweyher, S. Ehlert, A. Hansen, H. Neugebauer, S. Spicher,
     C. Bannwarth and S. Grimme, J. Chem. Phys., 2019, 150, 154122.
     DOI: 10.1063/1.5090222
   * E. Caldeweyher, J.-M. Mewes, S. Ehlert and S. Grimme, Phys. Chem. Chem. Phys.
     2020, 22, 8499-8512. DOI: 10.1039/D0CP00502A
   
   for sTDA-xTB:
   * S. Grimme and C. Bannwarth, J. Chem. Phys., 2016, 145, 054103.
     DOI: 10.1063/1.4959605
   
   in the mass-spec context:
   * V. Asgeirsson, C. Bauer and S. Grimme, Chem. Sci., 2017, 8, 4879.
     DOI: 10.1039/c7sc00601b
   * J. Koopman and S. Grimme, ACS Omega 2019, 4, 12, 15120-15133.
     DOI: 10.1021/acsomega.9b02011
   
   for metadynamics refer to:
   * S. Grimme, J. Chem. Theory Comput., 2019, 155, 2847-2862
     DOI: 10.1021/acs.jctc.9b00143
   
   for SPH calculations refer to:
   * S. Spicher and S. Grimme, J. Chem. Theory Comput., 2021, 17, 1701-1714
     DOI: 10.1021/acs.jctc.0c01306
   
   for ONIOM refer to:
   * C. Plett, A. Katbashev, S. Ehlert, S. Grimme, M. Bursch,
     Phys. Chem. Chem. Phys., 2023, 25, 17860-17868. DOI: 10.1039/D3CP02178E
   
   for DIPRO refer to:
   * J. Kohn, N. Gildemeister, S. Grimme, D. Fazzi, A. Hansen,
     J. Chem. Phys., 2023, just accepted.
   
   for PTB refer to:
   * S. Grimme, M. Mueller, A. Hansen, J. Chem. Phys., 2023, 158, 124111.
     DOI: 10.1063/5.0137838
   
   with help from (in alphabetical order)
   P. Atkinson, C. Bannwarth, F. Bohle, G. Brandenburg, E. Caldeweyher
   M. Checinski, S. Dohm, S. Ehlert, S. Ehrlich, I. Gerasimov, C. Hölzer
   A. Katbashev, J. Kohn, J. Koopman, C. Lavigne, S. Lehtola, F. März, M. Müller,
   F. Musil, H. Neugebauer, J. Pisarek, C. Plett, P. Pracht, F. Pultar,
   J. Seibert, P. Shushkov, S. Spicher, M. Stahn, M. Steiner, T. Strunk,
   J. Stückrath, T. Rose, and J. Unsleber
   
 * started run on 2025/09/10 at 11:36:46.830     
   ID    Z sym.   atoms
    1    8 O      1, 6, 10, 18, 21, 25
    2    6 C      2, 4, 7, 9, 12-17, 19, 22, 23
    3    1 H      3, 5, 8, 20, 24, 26-48
    4   14 Si     11

           -------------------------------------------------
          |                Calculation Setup                |
           -------------------------------------------------

          program call               : /home/kmoult/orca_6_1/otool_xtb goat_0_XTB.xyz --grad -c 0 -u 0 -P 4 --namespace goat_0 --input goat_0_XTB.input.tmp --alpb ACETONE --acc 0.200000
          hostname                   : node1600
          calculation namespace      : goat_0
          coordinate file            : goat_0_XTB.xyz
          omp threads                :                     4


           -------------------------------------------------
          |                 G F N 2 - x T B                 |
           -------------------------------------------------

        Reference                      10.1021/acs.jctc.8b01176
      * Hamiltonian:
        H0-scaling (s, p, d)           1.850000    2.230000    2.230000
        zeta-weighting                 0.500000
      * Dispersion:
        s8                             2.700000
        a1                             0.520000
        a2                             5.000000
        s9                             5.000000
      * Repulsion:
        kExp                           1.500000    1.000000
        rExp                           1.000000
      * Coulomb:
        alpha                          2.000000
        third order                    shell-resolved
        anisotropic                    true
        a3                             3.000000
        a5                             4.000000
        cn-shift                       1.200000
        cn-exp                         4.000000
        max-rad                        5.000000

      * Solvation model:               ALPB
        Solvent                        ACETONE
        Parameter file                 internal GFN2-xTB/ALPB
        Dielectric constant                2.0700E+01
        Reference state                gsolv [1 M gas/solution]
        Free energy shift                  5.9241E-03 Eh       3.7175E+00 kcal/mol
        Temperature                        2.9815E+02 K
        Density                            7.9000E-01 kg/L
        Solvent mass                       5.8080E+01 g/mol
        Interaction kernel             P16
        Born radius scaling (c1)           1.8274E+00
        Born radii integrator          GBOBC
        Born offset                        0.0000E+00 a0       0.0000E+00 AA
        H-bond correction              true
        Ion screening                  false
        Surface tension                    1.0000E-05 Eh       1.5569E+01 dyn/cm
        Grid points                               230 per atom
q/qsh data taken from xtbrestart
CAMM data taken from xtbrestart

          ...................................................
          :                      SETUP                      :
          :.................................................:
          :  # basis functions                 114          :
          :  # atomic orbitals                 113          :
          :  # shells                           69          :
          :  # electrons                       120          :
          :  max. iterations                   250          :
          :  Hamiltonian                  GFN2-xTB          :
          :  restarted?                       true          :
          :  GBSA solvation                   true          :
          :  PC potential                    false          :
          :  electronic temp.          300.0000000     K    :
          :  accuracy                    0.2000000          :
          :  -> integral cutoff          0.3198970E+02      :
          :  -> integral neglect         0.2000000E-08      :
          :  -> SCF convergence          0.2000000E-06 Eh   :
          :  -> wf. convergence          0.2000000E-04 e    :
          :  Broyden damping             0.4000000          :
          :  net charge                          0          :
          :  unpaired electrons                  0          :
          ...................................................

 iter      E             dE          RMSdq      gap      omega  full diag
   1    -68.9915561 -0.689916E+02  0.366E-03    6.35       0.0  T
   2    -68.9915561 -0.236972E-08  0.228E-03    6.35       6.3  T
   3    -68.9915561  0.173588E-08  0.433E-04    6.35      33.4  T
   4    -68.9915561 -0.265774E-08  0.283E-04    6.35      50.9  T
   5    -68.9915561 -0.129816E-09  0.126E-04    6.35     115.0  T
   6    -68.9915561 -0.178019E-09  0.397E-05    6.35     363.8  T

   *** convergence criteria satisfied after 6 iterations ***

         #    Occupation            Energy/Eh            Energy/eV
      -------------------------------------------------------------
         1        2.0000           -0.7767386             -21.1361
       ...           ...                  ...                  ...
        54        2.0000           -0.4218018             -11.4778
        55        2.0000           -0.4207824             -11.4501
        56        2.0000           -0.4161005             -11.3227
        57        2.0000           -0.4027826             -10.9603
        58        2.0000           -0.3960930             -10.7782
        59        2.0000           -0.3944687             -10.7340
        60        2.0000           -0.3709739             -10.0947 (HOMO)
        61                         -0.1377594              -3.7486 (LUMO)
        62                         -0.1238109              -3.3691
        63                         -0.1107829              -3.0146
        64                         -0.0174483              -0.4748
        65                         -0.0096885              -0.2636
       ...                                ...                  ...
       113                          0.7772262              21.1494
      -------------------------------------------------------------
                  HL-Gap            0.2332145 Eh            6.3461 eV
             Fermi-level           -0.2543667 Eh           -6.9217 eV

 SCC (total)                   0 d,  0 h,  0 min,  0.035 sec
 SCC setup                      ...        0 min,  0.001 sec (  1.729%)
 Dispersion                     ...        0 min,  0.000 sec (  0.869%)
 classical contributions        ...        0 min,  0.000 sec (  0.108%)
 integral evaluation            ...        0 min,  0.017 sec ( 47.732%)
 iterations                     ...        0 min,  0.010 sec ( 28.298%)
 molecular gradient             ...        0 min,  0.007 sec ( 20.805%)
 printout                       ...        0 min,  0.000 sec (  0.416%)

         :::::::::::::::::::::::::::::::::::::::::::::::::::::
         ::                     SUMMARY                     ::
         :::::::::::::::::::::::::::::::::::::::::::::::::::::
         :: total energy             -68.319724594794 Eh    ::
         :: total w/o Gsasa/hb       -68.293986409842 Eh    ::
         :: gradient norm              0.000249230787 Eh/a0 ::
         :: HOMO-LUMO gap              6.346089545124 eV    ::
         ::.................................................::
         :: SCC energy               -68.990199934578 Eh    ::
         :: -> isotropic ES            0.159894797499 Eh    ::
         :: -> anisotropic ES          0.002725475665 Eh    ::
         :: -> anisotropic XC          0.004852240166 Eh    ::
         :: -> dispersion             -0.048968154493 Eh    ::
         :: -> Gsolv                  -0.029263019927 Eh    ::
         ::    -> Gelec               -0.003524834975 Eh    ::
         ::    -> Gsasa               -0.026359347372 Eh    ::
         ::    -> Ghb                 -0.005302978843 Eh    ::
         ::    -> Gshift               0.005924141264 Eh    ::
         :: repulsion energy           0.670475339784 Eh    ::
         :: add. restraining           0.000000000000 Eh    ::
         :: total charge              -0.000000000000 e     ::
         :::::::::::::::::::::::::::::::::::::::::::::::::::::


Property printout bound to 'properties.out'

           -------------------------------------------------
          | TOTAL ENERGY              -68.319724594794 Eh   |
          | GRADIENT NORM               0.000249230787 Eh/α |
          | HOMO-LUMO GAP               6.346089545124 eV   |
           -------------------------------------------------

------------------------------------------------------------------------
 * finished run on 2025/09/10 at 11:36:46.888     
------------------------------------------------------------------------
 total:
 * wall-time:     0 d,  0 h,  0 min,  0.057 sec
 *  cpu-time:     0 d,  0 h,  0 min,  0.196 sec
 * ratio c/w:     3.422 speedup
 SCF:
 * wall-time:     0 d,  0 h,  0 min,  0.035 sec
 *  cpu-time:     0 d,  0 h,  0 min,  0.128 sec
 * ratio c/w:     3.638 speedup


-------------------------   --------------------
FINAL SINGLE POINT ENERGY       -68.319724594790
-------------------------   --------------------


-------------
DIPOLE MOMENT
-------------
                                X             Y             Z
Total Dipole Moment    :     -0.09200       0.95300      -1.74100
                        -----------------------------------------
Magnitude (a.u.)       :      1.98690
Magnitude (Debye)      :      5.05029


------------------
CARTESIAN GRADIENT
------------------

   1   O   :    0.000037437   -0.000013369   -0.000020899
   2   C   :   -0.000070658    0.000006091    0.000014727
   3   H   :    0.000017625   -0.000007362   -0.000002805
   4   C   :    0.000007020   -0.000028479    0.000042314
   5   H   :   -0.000019059    0.000024514   -0.000022781
   6   O   :    0.000029753    0.000010528   -0.000012228
   7   C   :   -0.000021832   -0.000038946   -0.000009091
   8   H   :    0.000009942    0.000008086    0.000012358
   9   C   :   -0.000049239    0.000028807   -0.000020209
  10   O   :   -0.000014006    0.000056495   -0.000039301
  11   Si  :   -0.000005552   -0.000067024    0.000016609
  12   C   :   -0.000054638   -0.000051089    0.000012880
  13   C   :    0.000015194    0.000006092    0.000007034
  14   C   :   -0.000011990    0.000022165    0.000011830
  15   C   :   -0.000003079   -0.000015597   -0.000005204
  16   C   :    0.000030842    0.000004883   -0.000001035
  17   C   :    0.000062433    0.000042863   -0.000018151
  18   O   :    0.000009821   -0.000009969   -0.000020334
  19   C   :    0.000008993    0.000035499    0.000009764
  20   H   :   -0.000012178   -0.000003654    0.000003274
  21   O   :   -0.000021149   -0.000025194    0.000013649
  22   C   :   -0.000009526    0.000019050    0.000011532
  23   C   :    0.000079763   -0.000005264    0.000024672
  24   H   :   -0.000011822    0.000008007   -0.000016919
  25   O   :   -0.000036814   -0.000005725   -0.000006064
  26   H   :    0.000001822    0.000020201    0.000011493
  27   H   :   -0.000020367    0.000015835    0.000004996
  28   H   :    0.000014167   -0.000010749    0.000007070
  29   H   :    0.000001484   -0.000004755    0.000003792
  30   H   :    0.000001115   -0.000001010   -0.000006692
  31   H   :   -0.000005677    0.000010158   -0.000002421
  32   H   :   -0.000012907    0.000002453   -0.000011984
  33   H   :    0.000007660   -0.000002060   -0.000010259
  34   H   :    0.000010959   -0.000004961   -0.000004859
  35   H   :    0.000011178    0.000001884   -0.000001436
  36   H   :   -0.000002259    0.000013309   -0.000004999
  37   H   :    0.000013539    0.000012757    0.000001593
  38   H   :   -0.000001442    0.000009424    0.000009237
  39   H   :    0.000011972   -0.000005141   -0.000007681
  40   H   :    0.000004816   -0.000014064   -0.000009358
  41   H   :   -0.000021272    0.000008895    0.000014260
  42   H   :   -0.000008702   -0.000014916    0.000020256
  43   H   :   -0.000001845   -0.000013917   -0.000002442
  44   H   :    0.000001754   -0.000005592    0.000011000
  45   H   :    0.000006044   -0.000005504    0.000000495
  46   H   :    0.000006090    0.000001829   -0.000005455
  47   H   :    0.000014874   -0.000011432   -0.000006670
  48   H   :   -0.000000282   -0.000004052    0.000004440

Difference to translation invariance:
           :   -0.0000000000   -0.0000000000   -0.0000000000

Difference to rotation invariance:
           :    0.0000125824   -0.0003673848   -0.0001077827

Norm of the Cartesian gradient     ...    0.0002492308
RMS gradient                       ...    0.0000207692
MAX gradient                       ...    0.0000797628
------------------------------------------------------------------------------
                         ORCA GEOMETRY RELAXATION STEP
------------------------------------------------------------------------------

Reading the OPT-File                    .... done
Getting information on internals        .... done
Copying old internal coords+grads       .... done
Making the new internal coordinates     .... (2022 redundants) done
Validating the new internal coordinates .... (2022 redundants) done
Calculating the B-matrix                .... done
Calculating the G,G- and P matrices     .... done
Transforming gradient to internals      .... done
Projecting the internal gradient        .... done
Number of atoms                         ....  48
Number of internal coordinates          .... 234
Current Energy                          ....   -68.319724595 Eh
Current gradient norm                   ....     0.000249231 Eh/bohr
Maximum allowed component of the step   ....  0.300
Current trust radius                    ....  0.700
Updating the Hessian (BFGS)             .... done
Forming the augmented Hessian           .... done
Diagonalizing the augmented Hessian     .... done
Last element of RFO vector              ....  0.999884396
Lowest eigenvalues of augmented Hessian:
 -0.000000568  0.000816376  0.004359616  0.007735039  0.010046372
Length of the computed step             ....  0.015206851
The final length of the internal step   ....  0.015206851
Converting the step to Cartesian space:
 Initial RMS(Int)=    0.0009941030
Transforming coordinates:
 Iter   0:  RMS(Cart)=    0.0018426129 RMS(Int)=    0.0009941365
done
Storing new coordinates                 .... done
The predicted energy change is          ....    -0.000000284
Previously predicted energy change      ....    -0.000000346
Actually observed energy change         ....    -0.000000499
Ratio of predicted to observed change   ....     1.440916458
New trust radius                        ....     0.700000000

                                .--------------------.
          ----------------------|Geometry convergence|-------------------------
          Item                value                   Tolerance       Converged
          ---------------------------------------------------------------------
          Energy change      -0.0000004988            0.0000050000      YES
          RMS gradient        0.0000140743            0.0001000000      YES
          MAX gradient        0.0000789542            0.0003000000      YES
          RMS step            0.0009941030            0.0020000000      YES
          MAX step            0.0050084132            0.0040000000      NO
          -------------------------------------------------------------------------
          ........................................................
          Max(Bonds)      0.0014      Max(Angles)    0.03
          Max(Dihed)        0.29      Max(Improp)    0.00
          ---------------------------------------------------------------------

    ---------------------------------------------------------------------------
                         Redundant Internal Coordinates
                            (Angstroem and degrees)

        Definition                    Value    dE/dq     Step     New-Value
    ----------------------------------------------------------------------------
     1. B(C   1,O   0)                1.3929 -0.000035  0.0000    1.3929   
     2. B(H   2,C   1)                1.0986  0.000003 -0.0000    1.0985   
     3. B(C   3,C   1)                1.5431 -0.000003  0.0000    1.5432   
     4. B(H   4,C   3)                1.0959 -0.000012  0.0000    1.0960   
     5. B(O   5,C   3)                1.4077  0.000005  0.0000    1.4077   
     6. B(C   6,C   3)                1.5469  0.000000  0.0000    1.5470   
     7. B(H   7,C   6)                1.0988 -0.000003  0.0000    1.0988   
     8. B(C   8,C   6)                1.5402  0.000000  0.0000    1.5402   
     9. B(O   9,C   8)                1.3934 -0.000018  0.0000    1.3934   
    10. B(Si 10,O   9)                1.6468 -0.000047 -0.0000    1.6468   
    11. B(C  11,Si 10)                1.9362  0.000015 -0.0000    1.9362   
    12. B(C  12,C  11)                1.5326 -0.000014 -0.0000    1.5325   
    13. B(C  13,C  11)                1.5316 -0.000017 -0.0000    1.5316   
    14. B(C  14,C  11)                1.5335 -0.000015  0.0000    1.5335   
    15. B(C  15,Si 10)                1.8976 -0.000014  0.0000    1.8976   
    16. B(C  16,Si 10)                1.9119 -0.000019 -0.0000    1.9119   
    17. B(O  17,C   6)                1.4237  0.000015 -0.0001    1.4236   
    18. B(C  18,O  17)                1.4015  0.000026  0.0000    1.4016   
    19. B(H  19,C  18)                1.1086 -0.000011  0.0001    1.1087   
    20. B(O  20,C  18)                1.3949  0.000000 -0.0001    1.3948   
    21. B(C  21,O  20)                1.4147 -0.000001  0.0000    1.4148   
    22. B(C  22,C  18)                1.5389  0.000002 -0.0000    1.5388   
    23. B(C  22,C   1)                1.5421  0.000018 -0.0000    1.5421   
    24. B(H  23,C  22)                1.0993  0.000004  0.0000    1.0993   
    25. B(O  24,C  22)                1.4084 -0.000038  0.0000    1.4085   
    26. B(H  25,O   0)                0.9748 -0.000004  0.0000    0.9748   
    27. B(H  25,O  20)                2.3669 -0.000011  0.0014    2.3683   
    28. B(H  25,O   9)                1.8777  0.000015 -0.0007    1.8770   
    29. B(H  26,O   5)                0.9700 -0.000013 -0.0000    0.9700   
    30. B(H  26,O  24)                2.0707 -0.000018  0.0010    2.0718   
    31. B(H  27,C   8)                1.0960 -0.000007 -0.0000    1.0960   
    32. B(H  28,C   8)                1.0962  0.000005 -0.0000    1.0962   
    33. B(H  29,C  12)                1.0873 -0.000006 -0.0000    1.0873   
    34. B(H  30,C  12)                1.0879 -0.000006 -0.0000    1.0879   
    35. B(H  31,C  12)                1.0903 -0.000000  0.0000    1.0903   
    36. B(H  32,C  13)                1.0865 -0.000009  0.0000    1.0865   
    37. B(H  33,C  13)                1.0896 -0.000001  0.0000    1.0896   
    38. B(H  34,C  13)                1.0872 -0.000004 -0.0000    1.0872   
    39. B(H  35,C  14)                1.0883 -0.000004 -0.0000    1.0883   
    40. B(H  36,C  14)                1.0871 -0.000005 -0.0000    1.0871   
    41. B(H  37,C  14)                1.0901 -0.000004  0.0000    1.0901   
    42. B(H  38,C  15)                1.0850 -0.000005 -0.0000    1.0850   
    43. B(H  39,C  15)                1.0842 -0.000006  0.0000    1.0842   
    44. B(H  40,C  15)                1.0846 -0.000007 -0.0000    1.0846   
    45. B(H  41,C  16)                1.0868 -0.000005 -0.0000    1.0868   
    46. B(H  42,C  16)                1.0861 -0.000013  0.0000    1.0861   
    47. B(H  43,C  16)                1.0851 -0.000003 -0.0000    1.0851   
    48. B(H  44,C  21)                1.0867 -0.000006  0.0000    1.0867   
    49. B(H  45,C  21)                1.0926  0.000002 -0.0000    1.0926   
    50. B(H  46,C  21)                1.0962  0.000001 -0.0000    1.0962   
    51. B(H  47,O  24)                0.9656 -0.000004 -0.0000    0.9656   
    52. A(C   1,O   0,H  25)          108.34  0.000013   -0.01    108.33   
    53. A(H   2,C   1,C   3)          106.99 -0.000005    0.00    107.00   
    54. A(O   0,C   1,H   2)          106.17  0.000011    0.00    106.17   
    55. A(C   3,C   1,C  22)          109.83  0.000000    0.00    109.83   
    56. A(O   0,C   1,C  22)          112.25  0.000003   -0.00    112.25   
    57. A(O   0,C   1,C   3)          113.96 -0.000005   -0.00    113.95   
    58. A(H   2,C   1,C  22)          107.22 -0.000004   -0.00    107.21   
    59. A(H   4,C   3,O   5)          105.75  0.000021   -0.01    105.74   
    60. A(C   1,C   3,C   6)          113.97  0.000006   -0.00    113.97   
    61. A(C   1,C   3,H   4)          108.09 -0.000003   -0.00    108.09   
    62. A(C   1,C   3,O   5)          110.44 -0.000005    0.01    110.45   
    63. A(O   5,C   3,C   6)          110.24 -0.000002    0.00    110.24   
    64. A(H   4,C   3,C   6)          107.96 -0.000016    0.00    107.97   
    65. A(C   3,O   5,H  26)          107.78 -0.000021    0.00    107.78   
    66. A(H   7,C   6,C   8)          105.67  0.000008    0.00    105.67   
    67. A(C   3,C   6,C   8)          113.56 -0.000006   -0.01    113.55   
    68. A(C   3,C   6,H   7)          106.16 -0.000005    0.00    106.17   
    69. A(C   3,C   6,O  17)          114.61 -0.000004    0.01    114.62   
    70. A(C   8,C   6,O  17)          112.85  0.000013    0.00    112.85   
    71. A(H   7,C   6,O  17)          102.70 -0.000006   -0.00    102.69   
    72. A(H  27,C   8,H  28)          108.28  0.000001    0.00    108.28   
    73. A(C   6,C   8,O   9)          113.10  0.000013   -0.00    113.10   
    74. A(C   6,C   8,H  27)          108.04 -0.000006    0.01    108.06   
    75. A(O   9,C   8,H  28)          109.98 -0.000005    0.00    109.98   
    76. A(O   9,C   8,H  27)          109.90  0.000009   -0.02    109.89   
    77. A(C   6,C   8,H  28)          107.39 -0.000013    0.00    107.40   
    78. A(C   8,O   9,Si 10)          129.30 -0.000079    0.02    129.31   
    79. A(C  15,Si 10,C  16)          112.13  0.000039   -0.03    112.10   
    80. A(C  11,Si 10,C  16)          109.89  0.000003   -0.00    109.89   
    81. A(O   9,Si 10,C  16)          110.84 -0.000054    0.03    110.87   
    82. A(C  11,Si 10,C  15)          111.81 -0.000031    0.02    111.82   
    83. A(O   9,Si 10,C  15)          100.46 -0.000008    0.01    100.46   
    84. A(O   9,Si 10,C  11)          111.44  0.000051   -0.02    111.42   
    85. A(C  12,C  11,C  14)          108.49  0.000004   -0.00    108.49   
    86. A(C  13,C  11,C  14)          108.14  0.000011   -0.00    108.14   
    87. A(Si 10,C  11,C  13)          110.13 -0.000006    0.00    110.13   
    88. A(Si 10,C  11,C  14)          111.84 -0.000011   -0.00    111.84   
    89. A(Si 10,C  11,C  12)          109.71  0.000003    0.00    109.71   
    90. A(C  12,C  11,C  13)          108.45 -0.000000    0.00    108.46   
    91. A(H  29,C  12,H  31)          108.29  0.000006    0.00    108.29   
    92. A(C  11,C  12,H  31)          110.53 -0.000020    0.00    110.53   
    93. A(H  29,C  12,H  30)          107.93  0.000000    0.00    107.93   
    94. A(C  11,C  12,H  30)          110.91 -0.000001   -0.00    110.91   
    95. A(C  11,C  12,H  29)          110.95 -0.000001    0.00    110.95   
    96. A(H  30,C  12,H  31)          108.13  0.000017   -0.01    108.12   
    97. A(H  32,C  13,H  33)          108.28  0.000012   -0.00    108.28   
    98. A(C  11,C  13,H  33)          110.42 -0.000014    0.00    110.42   
    99. A(C  11,C  13,H  32)          110.69 -0.000004   -0.00    110.69   
   100. A(C  11,C  13,H  34)          110.83 -0.000011    0.00    110.84   
   101. A(H  33,C  13,H  34)          108.22  0.000012   -0.00    108.22   
   102. A(H  32,C  13,H  34)          108.31  0.000005   -0.00    108.31   
   103. A(H  36,C  14,H  37)          108.11  0.000016   -0.00    108.10   
   104. A(H  35,C  14,H  37)          107.96  0.000012   -0.00    107.95   
   105. A(C  11,C  14,H  37)          110.23 -0.000012    0.00    110.24   
   106. A(H  35,C  14,H  36)          108.39 -0.000001    0.00    108.39   
   107. A(C  11,C  14,H  36)          110.86 -0.000007    0.00    110.86   
   108. A(C  11,C  14,H  35)          111.19 -0.000007   -0.00    111.19   
   109. A(H  39,C  15,H  40)          108.09 -0.000012    0.01    108.10   
   110. A(H  38,C  15,H  40)          107.10 -0.000006    0.00    107.11   
   111. A(H  38,C  15,H  39)          107.88  0.000017   -0.01    107.87   
   112. A(Si 10,C  15,H  39)          111.13 -0.000029   -0.01    111.12   
   113. A(Si 10,C  15,H  38)          111.51 -0.000016    0.02    111.53   
   114. A(Si 10,C  15,H  40)          110.95  0.000046    0.00    110.95   
   115. A(H  42,C  16,H  43)          107.37  0.000013    0.00    107.38   
   116. A(H  41,C  16,H  43)          107.44  0.000004   -0.00    107.44   
   117. A(Si 10,C  16,H  43)          111.84 -0.000017    0.00    111.84   
   118. A(H  41,C  16,H  42)          107.49  0.000011    0.00    107.49   
   119. A(Si 10,C  16,H  41)          111.71 -0.000034    0.01    111.72   
   120. A(Si 10,C  16,H  42)          110.76  0.000024   -0.01    110.75   
   121. A(C   6,O  17,C  18)          118.78 -0.000007    0.00    118.78   
   122. A(O  17,C  18,H  19)          102.53  0.000003   -0.01    102.53   
   123. A(O  20,C  18,C  22)          108.05  0.000002    0.01    108.06   
   124. A(H  19,C  18,C  22)          109.20 -0.000001   -0.00    109.20   
   125. A(O  17,C  18,C  22)          112.67  0.000006   -0.00    112.67   
   126. A(H  19,C  18,O  20)          109.64 -0.000003    0.01    109.65   
   127. A(O  17,C  18,O  20)          114.54 -0.000007   -0.00    114.54   
   128. A(C  18,O  20,C  21)          113.90 -0.000033    0.01    113.91   
   129. A(H  44,C  21,H  46)          110.15  0.000011   -0.01    110.15   
   130. A(H  45,C  21,H  46)          109.15 -0.000014    0.01    109.17   
   131. A(O  20,C  21,H  46)          110.44 -0.000000   -0.00    110.43   
   132. A(H  44,C  21,H  45)          109.99 -0.000000   -0.00    109.99   
   133. A(O  20,C  21,H  45)          111.04  0.000002   -0.01    111.04   
   134. A(O  20,C  21,H  44)          106.03  0.000002   -0.00    106.03   
   135. A(H  23,C  22,O  24)          111.59 -0.000004    0.00    111.60   
   136. A(C  18,C  22,O  24)          111.09  0.000013   -0.01    111.08   
   137. A(C   1,C  22,O  24)          107.64  0.000004   -0.00    107.64   
   138. A(C  18,C  22,H  23)          107.70 -0.000010   -0.00    107.70   
   139. A(C   1,C  22,H  23)          108.00  0.000005   -0.00    107.99   
   140. A(C   1,C  22,C  18)          110.80 -0.000008    0.01    110.81   
   141. A(C  22,O  24,H  47)          110.03  0.000005   -0.00    110.02   
   142. D(H   2,C   1,O   0,H  25)   -170.05  0.000000    0.06   -169.99   
   143. D(C  22,C   1,O   0,H  25)     73.10 -0.000003    0.06     73.16   
   144. D(C   3,C   1,O   0,H  25)    -52.55 -0.000002    0.06    -52.49   
   145. D(H   4,C   3,C   1,C  22)   -166.08  0.000006    0.01   -166.07   
   146. D(O   5,C   3,C   1,C  22)     78.67 -0.000015    0.03     78.70   
   147. D(O   5,C   3,C   1,H   2)    -37.38 -0.000007    0.03    -37.35   
   148. D(H   4,C   3,C   1,H   2)     77.86  0.000014    0.01     77.88   
   149. D(O   5,C   3,C   1,O   0)   -154.41 -0.000014    0.02   -154.39   
   150. D(H   4,C   3,C   1,O   0)    -39.16  0.000006    0.01    -39.15   
   151. D(H  26,O   5,C   3,H   4)   -166.49 -0.000001   -0.03   -166.52   
   152. D(H  26,O   5,C   3,C   6)     77.05  0.000008   -0.03     77.02   
   153. D(H  26,O   5,C   3,C   1)    -49.79  0.000005   -0.03    -49.82   
   154. D(H   7,C   6,C   3,O   5)     27.89  0.000002   -0.02     27.88   
   155. D(H   7,C   6,C   3,H   4)    -87.18 -0.000013   -0.00    -87.18   
   156. D(H   7,C   6,C   3,C   1)    152.73 -0.000001   -0.00    152.73   
   157. D(C   8,C   6,C   3,H   4)     28.49 -0.000009   -0.01     28.48   
   158. D(C   8,C   6,C   3,C   1)    -91.60  0.000002   -0.01    -91.61   
   159. D(C   8,C   6,C   3,O   5)    143.56  0.000006   -0.02    143.54   
   160. D(H  27,C   8,C   6,O  17)     43.32  0.000009   -0.02     43.30   
   161. D(H  27,C   8,C   6,H   7)    -68.14  0.000006   -0.02    -68.16   
   162. D(H  27,C   8,C   6,C   3)    175.90  0.000010   -0.02    175.89   
   163. D(O   9,C   8,C   6,O  17)    -78.56 -0.000006   -0.01    -78.57   
   164. D(O   9,C   8,C   6,C   3)     54.02 -0.000006   -0.01     54.02   
   165. D(O   9,C   8,C   6,H   7)    169.98 -0.000010   -0.01    169.97   
   166. D(Si 10,O   9,C   8,H  27)     57.53  0.000010   -0.02     57.51   
   167. D(Si 10,O   9,C   8,C   6)    178.36  0.000017   -0.02    178.35   
   168. D(Si 10,O   9,C   8,H  28)    -61.58  0.000006   -0.01    -61.59   
   169. D(C  16,Si 10,O   9,C   8)    -52.10  0.000006    0.05    -52.05   
   170. D(C  15,Si 10,O   9,C   8)   -170.80 -0.000011    0.06   -170.73   
   171. D(C  11,Si 10,O   9,C   8)     70.63  0.000008    0.05     70.68   
   172. D(C  12,C  11,Si 10,O   9)     39.42  0.000011   -0.01     39.41   
   173. D(C  13,C  11,Si 10,C  16)    -78.00 -0.000022    0.01    -77.99   
   174. D(C  13,C  11,Si 10,C  15)     47.19  0.000007   -0.01     47.17   
   175. D(C  13,C  11,Si 10,O   9)    158.73  0.000009   -0.01    158.72   
   176. D(C  12,C  11,Si 10,C  16)    162.70 -0.000020    0.00    162.70   
   177. D(C  12,C  11,Si 10,C  15)    -72.12  0.000009   -0.02    -72.14   
   178. D(H  30,C  12,C  11,C  14)     60.53 -0.000007   -0.02     60.51   
   179. D(H  30,C  12,C  11,C  13)    177.76  0.000007   -0.02    177.74   
   180. D(H  30,C  12,C  11,Si 10)    -61.91  0.000002   -0.02    -61.93   
   181. D(H  29,C  12,C  11,C  14)   -179.53 -0.000008   -0.02   -179.55   
   182. D(H  29,C  12,C  11,C  13)    -62.30  0.000007   -0.02    -62.32   
   183. D(H  29,C  12,C  11,Si 10)     58.03  0.000001   -0.02     58.01   
   184. D(H  33,C  13,C  11,C  14)     57.13  0.000004    0.03     57.16   
   185. D(H  33,C  13,C  11,C  12)    -60.33 -0.000006    0.03    -60.30   
   186. D(H  33,C  13,C  11,Si 10)    179.61 -0.000006    0.03    179.63   
   187. D(H  32,C  13,C  11,C  12)     59.56 -0.000003    0.03     59.59   
   188. D(H  32,C  13,C  11,Si 10)    -60.50 -0.000002    0.03    -60.48   
   189. D(H  32,C  13,C  11,C  14)    177.02  0.000008    0.03    177.05   
   190. D(H  36,C  14,C  11,C  13)     58.99  0.000001    0.00     58.99   
   191. D(H  36,C  14,C  11,C  12)    176.42  0.000009    0.01    176.43   
   192. D(H  36,C  14,C  11,Si 10)    -62.44  0.000008    0.01    -62.44   
   193. D(H  35,C  14,C  11,C  13)    179.64 -0.000009    0.01    179.64   
   194. D(H  35,C  14,C  11,C  12)    -62.93 -0.000002    0.01    -62.92   
   195. D(H  35,C  14,C  11,Si 10)     58.21 -0.000003    0.01     58.22   
   196. D(H  39,C  15,Si 10,C  16)     50.72  0.000029   -0.27     50.45   
   197. D(H  39,C  15,Si 10,C  11)    -73.22  0.000020   -0.26    -73.48   
   198. D(H  39,C  15,Si 10,O   9)    168.47 -0.000022   -0.25    168.22   
   199. D(H  38,C  15,Si 10,C  16)    171.12  0.000020   -0.29    170.84   
   200. D(H  38,C  15,Si 10,C  11)     47.19  0.000011   -0.28     46.91   
   201. D(H  38,C  15,Si 10,O   9)    -71.12 -0.000031   -0.26    -71.39   
   202. D(H  41,C  16,Si 10,C  15)    171.55  0.000006   -0.19    171.35   
   203. D(H  41,C  16,Si 10,C  11)    -63.45 -0.000005   -0.19    -63.64   
   204. D(H  41,C  16,Si 10,O   9)     60.17  0.000026   -0.20     59.97   
   205. D(H  42,C  16,Si 10,C  15)     51.76 -0.000002   -0.19     51.56   
   206. D(H  42,C  16,Si 10,C  11)    176.76 -0.000012   -0.19    176.56   
   207. D(H  42,C  16,Si 10,O   9)    -59.62  0.000018   -0.20    -59.82   
   208. D(C  18,O  17,C   6,C   8)     89.07  0.000001   -0.01     89.06   
   209. D(C  18,O  17,C   6,H   7)   -157.65  0.000012   -0.01   -157.65   
   210. D(C  18,O  17,C   6,C   3)    -43.00  0.000001   -0.00    -43.00   
   211. D(C  22,C  18,O  17,C   6)     50.84  0.000001   -0.01     50.83   
   212. D(O  20,C  18,O  17,C   6)    -73.21 -0.000002   -0.01    -73.23   
   213. D(H  19,C  18,O  17,C   6)    168.10  0.000004   -0.02    168.08   
   214. D(C  21,O  20,C  18,C  22)    167.65 -0.000007    0.01    167.66   
   215. D(C  21,O  20,C  18,H  19)     48.72 -0.000005    0.01     48.74   
   216. D(C  21,O  20,C  18,O  17)    -65.88 -0.000003    0.01    -65.86   
   217. D(H  46,C  21,O  20,C  18)    -61.96  0.000016   -0.06    -62.03   
   218. D(H  45,C  21,O  20,C  18)     59.27 -0.000000   -0.05     59.22   
   219. D(H  44,C  21,O  20,C  18)    178.72  0.000002   -0.06    178.66   
   220. D(H  23,C  22,C  18,O  20)    -45.65  0.000001    0.01    -45.64   
   221. D(H  23,C  22,C  18,H  19)     73.55 -0.000002    0.02     73.57   
   222. D(H  23,C  22,C  18,O  17)   -173.22  0.000004    0.01   -173.20   
   223. D(C   1,C  22,C  18,O  20)     72.26 -0.000003    0.02     72.28   
   224. D(C   1,C  22,C  18,H  19)   -168.54 -0.000006    0.03   -168.52   
   225. D(C   1,C  22,C  18,O  17)    -55.30 -0.000000    0.01    -55.29   
   226. D(H  23,C  22,C   1,C   3)    170.67 -0.000010   -0.01    170.66   
   227. D(H  23,C  22,C   1,H   2)    -73.42 -0.000018   -0.01    -73.43   
   228. D(H  23,C  22,C   1,O   0)     42.80 -0.000006   -0.01     42.79   
   229. D(C  18,C  22,C   1,C   3)     52.94  0.000004   -0.02     52.92   
   230. D(C  18,C  22,C   1,H   2)    168.85 -0.000005   -0.01    168.84   
   231. D(C  18,C  22,C   1,O   0)    -74.93  0.000008   -0.01    -74.94   
   232. D(H  47,O  24,C  22,H  23)    -57.68  0.000005   -0.00    -57.68   
   233. D(H  47,O  24,C  22,C  18)     62.53 -0.000002   -0.01     62.52   
   234. D(H  47,O  24,C  22,C   1)   -176.01 -0.000002    0.00   -176.01   
    ----------------------------------------------------------------------------

Geometry step timings:
Preparation and reading OPT file:      0.001 s ( 4.781 %)
Internal coordinates            :      0.000 s ( 0.169 %)
B/P matrices and projection     :      0.005 s (21.848 %)
Hessian update/contruction      :      0.010 s (44.404 %)
Making the step                 :      0.003 s (14.209 %)
Converting the step to Cartesian:      0.000 s ( 1.968 %)
Storing new data                :      0.001 s ( 4.342 %)
Checking convergence            :      0.000 s ( 0.224 %)
Final printing                  :      0.002 s ( 8.045 %)
Total time                      :      0.022 s

Time for energy+gradient        :      0.086 s
Time for complete geometry iter :      0.121 s

         *************************************************************
         *                GEOMETRY OPTIMIZATION CYCLE  16            *
         *************************************************************
---------------------------------
CARTESIAN COORDINATES (ANGSTROEM)
---------------------------------
  O    -1.357338    2.142788    0.118447
  C     0.014872    1.914836    0.045238
  H     0.365247    1.821109    1.082177
  C     0.394860    0.606383   -0.679280
  H    -0.327061   -0.165359   -0.388837
  O     1.647817    0.143980   -0.234418
  C     0.381676    0.715694   -2.222307
  H     1.100561   -0.030571   -2.588043
  C    -0.970358    0.335588   -2.854532
  O    -2.042616    1.048292   -2.321661
  Si   -3.638283    0.988434   -2.724245
  C    -4.447929   -0.677479   -2.160345
  C    -3.904057   -1.076670   -0.784295
  C    -5.967167   -0.515437   -2.052937
  C    -4.157809   -1.815296   -3.146719
  C    -4.299442    2.465211   -1.732867
  C    -3.874935    1.221974   -4.606991
  O     0.908360    1.934939   -2.734940
  C     0.554956    3.138451   -2.109625
  H     1.264273    3.861234   -2.560832
  O    -0.754614    3.553863   -2.350592
  C    -1.008183    3.897274   -3.699404
  C     0.770917    3.101155   -0.586484
  H     0.357100    4.029386   -0.167491
  O     2.135811    2.953647   -0.271734
  H    -1.728155    2.072165   -0.780297
  H     2.270569    0.886264   -0.279488
  H    -0.903068    0.514764   -3.933653
  H    -1.117333   -0.738648   -2.692904
  H    -4.096138   -0.298455   -0.049690
  H    -2.829451   -1.241497   -0.824394
  H    -4.375673   -1.997100   -0.439016
  H    -6.221159    0.248103   -1.322873
  H    -6.428380   -1.452372   -1.742002
  H    -6.394050   -0.227739   -3.010544
  H    -3.087059   -1.969342   -3.265534
  H    -4.583705   -1.599085   -4.123296
  H    -4.593413   -2.747273   -2.786035
  H    -4.308055    2.257968   -0.667923
  H    -5.311504    2.714467   -2.031458
  H    -3.678530    3.341850   -1.882323
  H    -3.363176    0.449933   -5.175477
  H    -3.478857    2.180843   -4.928559
  H    -4.922399    1.193037   -4.888848
  H    -2.057778    4.174908   -3.746243
  H    -0.815852    3.050473   -4.362534
  H    -0.380072    4.742571   -4.003695
  H     2.634409    3.713318   -0.598346

----------------------------
CARTESIAN COORDINATES (A.U.)
----------------------------
  NO LB    ZA    FRAG    MASS        X           Y           Z
   0 O   8.0000    1    15.999   -2.564997    4.049282    0.223833
   1 C   6.0000    1    12.011    0.028104    3.618516    0.085487
   2 H   1.0000    1     1.008    0.690217    3.441397    2.045018
   3 C   6.0000    1    12.011    0.746178    1.145898   -1.283654
   4 H   1.0000    1     1.008   -0.618056   -0.312484   -0.734796
   5 O   8.0000    1    15.999    3.113923    0.272083   -0.442985
   6 C   6.0000    1    12.011    0.721263    1.352465   -4.199552
   7 H   1.0000    1     1.008    2.079759   -0.057770   -4.890692
   8 C   6.0000    1    12.011   -1.833711    0.634169   -5.394284
   9 O   8.0000    1    15.999   -3.859984    1.980985   -4.387303
  10 Si 14.0000    1    28.086   -6.875358    1.867869   -5.148077
  11 C   6.0000    1    12.011   -8.405368   -1.280250   -4.082461
  12 C   6.0000    1    12.011   -7.377599   -2.034611   -1.482102
  13 C   6.0000    1    12.011  -11.276311   -0.974035   -3.879489
  14 C   6.0000    1    12.011   -7.857121   -3.430413   -5.946436
  15 C   6.0000    1    12.011   -8.124767    4.658574   -3.274644
  16 C   6.0000    1    12.011   -7.322566    2.309196   -8.705952
  17 O   8.0000    1    15.999    1.716552    3.656505   -5.168288
  18 C   6.0000    1    12.011    1.048715    5.930813   -3.986614
  19 H   1.0000    1     1.008    2.389129    7.296676   -4.839270
  20 O   8.0000    1    15.999   -1.426014    6.715828   -4.441976
  21 C   6.0000    1    12.011   -1.905189    7.364780   -6.990861
  22 C   6.0000    1    12.011    1.456823    5.860333   -1.108295
  23 H   1.0000    1     1.008    0.674821    7.614435   -0.316511
  24 O   8.0000    1    15.999    4.036098    5.581584   -0.513503
  25 H   1.0000    1     1.008   -3.265740    3.915824   -1.474547
  26 H   1.0000    1     1.008    4.290754    1.674797   -0.528156
  27 H   1.0000    1     1.008   -1.706552    0.972763   -7.433527
  28 H   1.0000    1     1.008   -2.111453   -1.395842   -5.088851
  29 H   1.0000    1     1.008   -7.740580   -0.563998   -0.093901
  30 H   1.0000    1     1.008   -5.346888   -2.346089   -1.557879
  31 H   1.0000    1     1.008   -8.268823   -3.773972   -0.829620
  32 H   1.0000    1     1.008  -11.756287    0.468847   -2.499868
  33 H   1.0000    1     1.008  -12.147877   -2.744585   -3.291907
  34 H   1.0000    1     1.008  -12.083004   -0.430365   -5.689104
  35 H   1.0000    1     1.008   -5.833697   -3.721516   -6.170966
  36 H   1.0000    1     1.008   -8.661946   -3.021834   -7.791899
  37 H   1.0000    1     1.008   -8.680292   -5.191593   -5.264843
  38 H   1.0000    1     1.008   -8.141044    4.266941   -1.262191
  39 H   1.0000    1     1.008  -10.037288    5.129599   -3.838899
  40 H   1.0000    1     1.008   -6.951414    6.315182   -3.557075
  41 H   1.0000    1     1.008   -6.355482    0.850249   -9.780234
  42 H   1.0000    1     1.008   -6.574087    4.121195   -9.313626
  43 H   1.0000    1     1.008   -9.301986    2.254513   -9.238583
  44 H   1.0000    1     1.008   -3.888637    7.889433   -7.079374
  45 H   1.0000    1     1.008   -1.541738    5.764559   -8.243995
  46 H   1.0000    1     1.008   -0.718232    8.962161   -7.565887
  47 H   1.0000    1     1.008    4.978311    7.017154   -1.130709

      -----------------------------------------------------------      
     |                   =====================                   |     
     |                           x T B                           |     
     |                   =====================                   |     
     |                         S. Grimme                         |     
     |          Mulliken Center for Theoretical Chemistry        |     
     |                    University of Bonn                     |     
      -----------------------------------------------------------      

   * xtb version 6.7.1 (edcfbbe) compiled by 'albert@albert-system' on 2024-07-22

   xtb is free software: you can redistribute it and/or modify it under
   the terms of the GNU Lesser General Public License as published by
   the Free Software Foundation, either version 3 of the License, or
   (at your option) any later version.
   
   xtb is distributed in the hope that it will be useful,
   but WITHOUT ANY WARRANTY; without even the implied warranty of
   MERCHANTABILITY or FITNESS FOR A PARTICULAR PURPOSE.  See the
   GNU Lesser General Public License for more details.
   
   Cite this work as:
   * C. Bannwarth, E. Caldeweyher, S. Ehlert, A. Hansen, P. Pracht,
     J. Seibert, S. Spicher, S. Grimme, WIREs Comput. Mol. Sci., 2020, 11,
     e01493. DOI: 10.1002/wcms.1493
   
   for GFN2-xTB:
   * C. Bannwarth, S. Ehlert and S. Grimme., J. Chem. Theory Comput., 2019,
     15, 1652-1671. DOI: 10.1021/acs.jctc.8b01176
   for GFN1-xTB:
   * S. Grimme, C. Bannwarth, P. Shushkov, J. Chem. Theory Comput., 2017,
     13, 1989-2009. DOI: 10.1021/acs.jctc.7b00118
   for GFN0-xTB:
   * P. Pracht, E. Caldeweyher, S. Ehlert, S. Grimme, ChemRxiv, 2019, preprint.
     DOI: 10.26434/chemrxiv.8326202.v1
   for GFN-FF:
   * S. Spicher and S. Grimme, Angew. Chem. Int. Ed., 2020, 59, 15665-15673.
     DOI: 10.1002/anie.202004239
   
   for ALPB and GBSA implicit solvation:
   * S. Ehlert, M. Stahn, S. Spicher, S. Grimme, J. Chem. Theory Comput.,
     2021, 17, 4250-4261. DOI: 10.1021/acs.jctc.1c00471
   
   for ddCOSMO and CPCM-X implicit solvation:
   * M. Stahn, S. Ehlert, S. Grimme, J. Phys. Chem. A,
     2023, XX, XXXX-XXXX. DOI: 10.1021/acs.jpca.3c04382
   
   for DFT-D4:
   * E. Caldeweyher, C. Bannwarth and S. Grimme, J. Chem. Phys., 2017,
     147, 034112. DOI: 10.1063/1.4993215
   * E. Caldeweyher, S. Ehlert, A. Hansen, H. Neugebauer, S. Spicher,
     C. Bannwarth and S. Grimme, J. Chem. Phys., 2019, 150, 154122.
     DOI: 10.1063/1.5090222
   * E. Caldeweyher, J.-M. Mewes, S. Ehlert and S. Grimme, Phys. Chem. Chem. Phys.
     2020, 22, 8499-8512. DOI: 10.1039/D0CP00502A
   
   for sTDA-xTB:
   * S. Grimme and C. Bannwarth, J. Chem. Phys., 2016, 145, 054103.
     DOI: 10.1063/1.4959605
   
   in the mass-spec context:
   * V. Asgeirsson, C. Bauer and S. Grimme, Chem. Sci., 2017, 8, 4879.
     DOI: 10.1039/c7sc00601b
   * J. Koopman and S. Grimme, ACS Omega 2019, 4, 12, 15120-15133.
     DOI: 10.1021/acsomega.9b02011
   
   for metadynamics refer to:
   * S. Grimme, J. Chem. Theory Comput., 2019, 155, 2847-2862
     DOI: 10.1021/acs.jctc.9b00143
   
   for SPH calculations refer to:
   * S. Spicher and S. Grimme, J. Chem. Theory Comput., 2021, 17, 1701-1714
     DOI: 10.1021/acs.jctc.0c01306
   
   for ONIOM refer to:
   * C. Plett, A. Katbashev, S. Ehlert, S. Grimme, M. Bursch,
     Phys. Chem. Chem. Phys., 2023, 25, 17860-17868. DOI: 10.1039/D3CP02178E
   
   for DIPRO refer to:
   * J. Kohn, N. Gildemeister, S. Grimme, D. Fazzi, A. Hansen,
     J. Chem. Phys., 2023, just accepted.
   
   for PTB refer to:
   * S. Grimme, M. Mueller, A. Hansen, J. Chem. Phys., 2023, 158, 124111.
     DOI: 10.1063/5.0137838
   
   with help from (in alphabetical order)
   P. Atkinson, C. Bannwarth, F. Bohle, G. Brandenburg, E. Caldeweyher
   M. Checinski, S. Dohm, S. Ehlert, S. Ehrlich, I. Gerasimov, C. Hölzer
   A. Katbashev, J. Kohn, J. Koopman, C. Lavigne, S. Lehtola, F. März, M. Müller,
   F. Musil, H. Neugebauer, J. Pisarek, C. Plett, P. Pracht, F. Pultar,
   J. Seibert, P. Shushkov, S. Spicher, M. Stahn, M. Steiner, T. Strunk,
   J. Stückrath, T. Rose, and J. Unsleber
   
 * started run on 2025/09/10 at 11:36:46.951     
   ID    Z sym.   atoms
    1    8 O      1, 6, 10, 18, 21, 25
    2    6 C      2, 4, 7, 9, 12-17, 19, 22, 23
    3    1 H      3, 5, 8, 20, 24, 26-48
    4   14 Si     11

           -------------------------------------------------
          |                Calculation Setup                |
           -------------------------------------------------

          program call               : /home/kmoult/orca_6_1/otool_xtb goat_0_XTB.xyz --grad -c 0 -u 0 -P 4 --namespace goat_0 --input goat_0_XTB.input.tmp --alpb ACETONE --acc 0.200000
          hostname                   : node1600
          calculation namespace      : goat_0
          coordinate file            : goat_0_XTB.xyz
          omp threads                :                     4


           -------------------------------------------------
          |                 G F N 2 - x T B                 |
           -------------------------------------------------

        Reference                      10.1021/acs.jctc.8b01176
      * Hamiltonian:
        H0-scaling (s, p, d)           1.850000    2.230000    2.230000
        zeta-weighting                 0.500000
      * Dispersion:
        s8                             2.700000
        a1                             0.520000
        a2                             5.000000
        s9                             5.000000
      * Repulsion:
        kExp                           1.500000    1.000000
        rExp                           1.000000
      * Coulomb:
        alpha                          2.000000
        third order                    shell-resolved
        anisotropic                    true
        a3                             3.000000
        a5                             4.000000
        cn-shift                       1.200000
        cn-exp                         4.000000
        max-rad                        5.000000

      * Solvation model:               ALPB
        Solvent                        ACETONE
        Parameter file                 internal GFN2-xTB/ALPB
        Dielectric constant                2.0700E+01
        Reference state                gsolv [1 M gas/solution]
        Free energy shift                  5.9241E-03 Eh       3.7175E+00 kcal/mol
        Temperature                        2.9815E+02 K
        Density                            7.9000E-01 kg/L
        Solvent mass                       5.8080E+01 g/mol
        Interaction kernel             P16
        Born radius scaling (c1)           1.8274E+00
        Born radii integrator          GBOBC
        Born offset                        0.0000E+00 a0       0.0000E+00 AA
        H-bond correction              true
        Ion screening                  false
        Surface tension                    1.0000E-05 Eh       1.5569E+01 dyn/cm
        Grid points                               230 per atom
q/qsh data taken from xtbrestart
CAMM data taken from xtbrestart

          ...................................................
          :                      SETUP                      :
          :.................................................:
          :  # basis functions                 114          :
          :  # atomic orbitals                 113          :
          :  # shells                           69          :
          :  # electrons                       120          :
          :  max. iterations                   250          :
          :  Hamiltonian                  GFN2-xTB          :
          :  restarted?                       true          :
          :  GBSA solvation                   true          :
          :  PC potential                    false          :
          :  electronic temp.          300.0000000     K    :
          :  accuracy                    0.2000000          :
          :  -> integral cutoff          0.3198970E+02      :
          :  -> integral neglect         0.2000000E-08      :
          :  -> SCF convergence          0.2000000E-06 Eh   :
          :  -> wf. convergence          0.2000000E-04 e    :
          :  Broyden damping             0.4000000          :
          :  net charge                          0          :
          :  unpaired electrons                  0          :
          ...................................................

 iter      E             dE          RMSdq      gap      omega  full diag
   1    -68.9915445 -0.689915E+02  0.348E-03    6.35       0.0  T
   2    -68.9915445 -0.264525E-08  0.217E-03    6.35       6.6  T
   3    -68.9915445 -0.124913E-10  0.347E-04    6.35      41.5  T
   4    -68.9915445 -0.342297E-09  0.212E-04    6.35      68.1  T
   5    -68.9915445 -0.440579E-09  0.131E-04    6.35     110.3  T
   6    -68.9915445 -0.118916E-09  0.453E-05    6.35     318.6  T

   *** convergence criteria satisfied after 6 iterations ***

         #    Occupation            Energy/Eh            Energy/eV
      -------------------------------------------------------------
         1        2.0000           -0.7767501             -21.1364
       ...           ...                  ...                  ...
        54        2.0000           -0.4217975             -11.4777
        55        2.0000           -0.4207788             -11.4500
        56        2.0000           -0.4161036             -11.3228
        57        2.0000           -0.4027795             -10.9602
        58        2.0000           -0.3961000             -10.7784
        59        2.0000           -0.3944734             -10.7342
        60        2.0000           -0.3709744             -10.0947 (HOMO)
        61                         -0.1377830              -3.7493 (LUMO)
        62                         -0.1238367              -3.3698
        63                         -0.1108230              -3.0156
        64                         -0.0174296              -0.4743
        65                         -0.0096446              -0.2624
       ...                                ...                  ...
       113                          0.7772006              21.1487
      -------------------------------------------------------------
                  HL-Gap            0.2331913 Eh            6.3455 eV
             Fermi-level           -0.2543787 Eh           -6.9220 eV

 SCC (total)                   0 d,  0 h,  0 min,  0.020 sec
 SCC setup                      ...        0 min,  0.001 sec (  2.754%)
 Dispersion                     ...        0 min,  0.000 sec (  1.394%)
 classical contributions        ...        0 min,  0.000 sec (  0.177%)
 integral evaluation            ...        0 min,  0.004 sec ( 21.100%)
 iterations                     ...        0 min,  0.008 sec ( 40.228%)
 molecular gradient             ...        0 min,  0.007 sec ( 33.590%)
 printout                       ...        0 min,  0.000 sec (  0.696%)

         :::::::::::::::::::::::::::::::::::::::::::::::::::::
         ::                     SUMMARY                     ::
         :::::::::::::::::::::::::::::::::::::::::::::::::::::
         :: total energy             -68.319724987442 Eh    ::
         :: total w/o Gsasa/hb       -68.293986885132 Eh    ::
         :: gradient norm              0.000219216471 Eh/a0 ::
         :: HOMO-LUMO gap              6.345459374090 eV    ::
         ::.................................................::
         :: SCC energy               -68.990188069562 Eh    ::
         :: -> isotropic ES            0.159903238585 Eh    ::
         :: -> anisotropic ES          0.002722770020 Eh    ::
         :: -> anisotropic XC          0.004854782737 Eh    ::
         :: -> dispersion             -0.048969248177 Eh    ::
         :: -> Gsolv                  -0.029263863472 Eh    ::
         ::    -> Gelec               -0.003525761162 Eh    ::
         ::    -> Gsasa               -0.026359246815 Eh    ::
         ::    -> Ghb                 -0.005302996759 Eh    ::
         ::    -> Gshift               0.005924141264 Eh    ::
         :: repulsion energy           0.670463082120 Eh    ::
         :: add. restraining           0.000000000000 Eh    ::
         :: total charge              -0.000000000000 e     ::
         :::::::::::::::::::::::::::::::::::::::::::::::::::::


Property printout bound to 'properties.out'

           -------------------------------------------------
          | TOTAL ENERGY              -68.319724987442 Eh   |
          | GRADIENT NORM               0.000219216471 Eh/α |
          | HOMO-LUMO GAP               6.345459374090 eV   |
           -------------------------------------------------

------------------------------------------------------------------------
 * finished run on 2025/09/10 at 11:36:46.994     
------------------------------------------------------------------------
 total:
 * wall-time:     0 d,  0 h,  0 min,  0.042 sec
 *  cpu-time:     0 d,  0 h,  0 min,  0.146 sec
 * ratio c/w:     3.496 speedup
 SCF:
 * wall-time:     0 d,  0 h,  0 min,  0.021 sec
 *  cpu-time:     0 d,  0 h,  0 min,  0.082 sec
 * ratio c/w:     3.979 speedup


-------------------------   --------------------
FINAL SINGLE POINT ENERGY       -68.319724987440
-------------------------   --------------------


-------------
DIPOLE MOMENT
-------------
                                X             Y             Z
Total Dipole Moment    :     -0.09200       0.95200      -1.74200
                        -----------------------------------------
Magnitude (a.u.)       :      1.98729
Magnitude (Debye)      :      5.05130


------------------
CARTESIAN GRADIENT
------------------

   1   O   :    0.000023888    0.000003553    0.000006424
   2   C   :   -0.000067772    0.000012826    0.000031485
   3   H   :    0.000016626   -0.000005238   -0.000008491
   4   C   :    0.000004450   -0.000010933    0.000030085
   5   H   :   -0.000008668    0.000012661   -0.000012395
   6   O   :    0.000022995   -0.000013811   -0.000005782
   7   C   :   -0.000005902   -0.000002132   -0.000015462
   8   H   :    0.000013662    0.000007920    0.000007047
   9   C   :   -0.000006969    0.000009323   -0.000007771
  10   O   :   -0.000025877    0.000052926   -0.000035726
  11   Si  :   -0.000004181   -0.000065627    0.000004033
  12   C   :   -0.000045727   -0.000033365    0.000027771
  13   C   :    0.000016197    0.000023888   -0.000001038
  14   C   :    0.000002239    0.000014831   -0.000001374
  15   C   :    0.000004842   -0.000002357   -0.000010390
  16   C   :    0.000068980    0.000023379   -0.000004536
  17   C   :    0.000039584    0.000034577   -0.000020056
  18   O   :   -0.000004024   -0.000026528   -0.000005528
  19   C   :   -0.000031493    0.000040943    0.000031689
  20   H   :    0.000011477    0.000002402   -0.000003612
  21   O   :    0.000019852   -0.000027510   -0.000010302
  22   C   :   -0.000009092    0.000016935    0.000004793
  23   C   :    0.000049817   -0.000024788    0.000014363
  24   H   :   -0.000022512    0.000010434   -0.000020510
  25   O   :   -0.000010379   -0.000004067   -0.000009427
  26   H   :    0.000010442    0.000006570   -0.000012454
  27   H   :   -0.000020455    0.000011315    0.000001661
  28   H   :   -0.000013203   -0.000003430    0.000005813
  29   H   :    0.000003704   -0.000008186   -0.000001577
  30   H   :   -0.000000109   -0.000002178   -0.000008970
  31   H   :   -0.000007965    0.000002320   -0.000003245
  32   H   :   -0.000010292   -0.000007662   -0.000007548
  33   H   :    0.000007517   -0.000000679   -0.000009684
  34   H   :    0.000002798   -0.000006454   -0.000001861
  35   H   :    0.000006649    0.000000606    0.000001088
  36   H   :   -0.000003744    0.000010512   -0.000001302
  37   H   :    0.000007062    0.000005079    0.000003430
  38   H   :   -0.000003928    0.000001657    0.000003996
  39   H   :   -0.000008429    0.000001393   -0.000004257
  40   H   :   -0.000003030   -0.000022776   -0.000008861
  41   H   :   -0.000026043    0.000006299    0.000015911
  42   H   :   -0.000009488   -0.000011887    0.000016904
  43   H   :    0.000000766   -0.000009346    0.000009780
  44   H   :    0.000003252   -0.000008927    0.000008928
  45   H   :    0.000008364   -0.000001733   -0.000003239
  46   H   :    0.000001893   -0.000007079    0.000006680
  47   H   :    0.000003839   -0.000000005    0.000000950
  48   H   :   -0.000001609   -0.000005653    0.000002569

Difference to translation invariance:
           :   -0.0000000000   -0.0000000000   -0.0000000000

Difference to rotation invariance:
           :    0.0000184976   -0.0003730676   -0.0001090906

Norm of the Cartesian gradient     ...    0.0002192165
RMS gradient                       ...    0.0000182680
MAX gradient                       ...    0.0000689798
------------------------------------------------------------------------------
                         ORCA GEOMETRY RELAXATION STEP
------------------------------------------------------------------------------

Reading the OPT-File                    .... done
Getting information on internals        .... done
Copying old internal coords+grads       .... done
Making the new internal coordinates     .... (2022 redundants) done
Validating the new internal coordinates .... (2022 redundants) done
Calculating the B-matrix                .... done
Calculating the G,G- and P matrices     .... done
Transforming gradient to internals      .... done
Projecting the internal gradient        .... done
Number of atoms                         ....  48
Number of internal coordinates          .... 234
Current Energy                          ....   -68.319724987 Eh
Current gradient norm                   ....     0.000219216 Eh/bohr
Maximum allowed component of the step   ....  0.300
Current trust radius                    ....  0.700
Updating the Hessian (BFGS)             .... done
Forming the augmented Hessian           .... done
Diagonalizing the augmented Hessian     .... done
Last element of RFO vector              ....  0.999931927
Lowest eigenvalues of augmented Hessian:
 -0.000000332  0.000708273  0.003965917  0.007259296  0.010046720
Length of the computed step             ....  0.011668749
The final length of the internal step   ....  0.011668749
Converting the step to Cartesian space:
 Initial RMS(Int)=    0.0007628100
Transforming coordinates:
 Iter   0:  RMS(Cart)=    0.0014599022 RMS(Int)=    0.0007628491
done
Storing new coordinates                 .... done
The predicted energy change is          ....    -0.000000166
Previously predicted energy change      ....    -0.000000284
Actually observed energy change         ....    -0.000000393
Ratio of predicted to observed change   ....     1.381629890
New trust radius                        ....     0.700000000

                                .--------------------.
          ----------------------|Geometry convergence|-------------------------
          Item                value                   Tolerance       Converged
          ---------------------------------------------------------------------
          Energy change      -0.0000003926            0.0000050000      YES
          RMS gradient        0.0000117560            0.0001000000      YES
          MAX gradient        0.0000556198            0.0003000000      YES
          RMS step            0.0007628100            0.0020000000      YES
          MAX step            0.0037338553            0.0040000000      YES
          -------------------------------------------------------------------------
          ........................................................
          Max(Bonds)      0.0012      Max(Angles)    0.03
          Max(Dihed)        0.21      Max(Improp)    0.00
          ---------------------------------------------------------------------

                    ***********************HURRAY********************
                    ***        THE OPTIMIZATION HAS CONVERGED     ***
                    *************************************************


    ---------------------------------------------------------------------------
                         Redundant Internal Coordinates

                          --- Optimized Parameters ---  
                            (Angstroem and degrees)

        Definition                    OldVal   dE/dq     Step     FinalVal
    ----------------------------------------------------------------------------
     1. B(C   1,O   0)                1.3929 -0.000031  0.0000    1.3930   
     2. B(H   2,C   1)                1.0985 -0.000003 -0.0000    1.0985   
     3. B(C   3,C   1)                1.5432  0.000015 -0.0000    1.5432   
     4. B(H   4,C   3)                1.0960 -0.000007  0.0000    1.0960   
     5. B(O   5,C   3)                1.4077  0.000007  0.0000    1.4077   
     6. B(C   6,C   3)                1.5470  0.000013 -0.0000    1.5469   
     7. B(H   7,C   6)                1.0988  0.000001  0.0000    1.0989   
     8. B(C   8,C   6)                1.5402  0.000007  0.0000    1.5402   
     9. B(O   9,C   8)                1.3934 -0.000006  0.0000    1.3935   
    10. B(Si 10,O   9)                1.6468 -0.000041  0.0000    1.6468   
    11. B(C  11,Si 10)                1.9362  0.000008 -0.0000    1.9361   
    12. B(C  12,C  11)                1.5325 -0.000020  0.0000    1.5325   
    13. B(C  13,C  11)                1.5316 -0.000020  0.0000    1.5316   
    14. B(C  14,C  11)                1.5335 -0.000009  0.0000    1.5335   
    15. B(C  15,Si 10)                1.8976 -0.000004  0.0000    1.8976   
    16. B(C  16,Si 10)                1.9119 -0.000022  0.0000    1.9119   
    17. B(O  17,C   6)                1.4236 -0.000008 -0.0000    1.4236   
    18. B(C  18,O  17)                1.4016  0.000018 -0.0000    1.4015   
    19. B(H  19,C  18)                1.1087  0.000011  0.0000    1.1087   
    20. B(O  20,C  18)                1.3948 -0.000023 -0.0000    1.3948   
    21. B(C  21,O  20)                1.4148 -0.000006  0.0000    1.4148   
    22. B(C  22,C  18)                1.5388 -0.000010 -0.0000    1.5388   
    23. B(C  22,C   1)                1.5421  0.000013 -0.0000    1.5421   
    24. B(H  23,C  22)                1.0993  0.000009 -0.0000    1.0993   
    25. B(O  24,C  22)                1.4085 -0.000014  0.0000    1.4085   
    26. B(H  25,O   0)                0.9748  0.000010  0.0000    0.9748   
    27. B(H  25,O  20)                2.3683 -0.000007  0.0012    2.3696   
    28. B(H  25,O   9)                1.8770  0.000007 -0.0006    1.8764   
    29. B(H  26,O   5)                0.9700 -0.000013 -0.0000    0.9700   
    30. B(H  26,O  24)                2.0718 -0.000013  0.0009    2.0726   
    31. B(H  27,C   8)                1.0960 -0.000006  0.0000    1.0960   
    32. B(H  28,C   8)                1.0962  0.000007 -0.0000    1.0962   
    33. B(H  29,C  12)                1.0873 -0.000008  0.0000    1.0873   
    34. B(H  30,C  12)                1.0879 -0.000007  0.0000    1.0879   
    35. B(H  31,C  12)                1.0903  0.000009 -0.0000    1.0903   
    36. B(H  32,C  13)                1.0865 -0.000008  0.0000    1.0865   
    37. B(H  33,C  13)                1.0896  0.000005  0.0000    1.0896   
    38. B(H  34,C  13)                1.0872 -0.000005  0.0000    1.0872   
    39. B(H  35,C  14)                1.0883 -0.000005  0.0000    1.0883   
    40. B(H  36,C  14)                1.0871 -0.000005  0.0000    1.0871   
    41. B(H  37,C  14)                1.0901  0.000002  0.0000    1.0902   
    42. B(H  38,C  15)                1.0850 -0.000003 -0.0000    1.0850   
    43. B(H  39,C  15)                1.0842 -0.000000  0.0000    1.0842   
    44. B(H  40,C  15)                1.0846 -0.000013  0.0000    1.0846   
    45. B(H  41,C  16)                1.0868 -0.000006  0.0000    1.0868   
    46. B(H  42,C  16)                1.0861 -0.000011  0.0000    1.0862   
    47. B(H  43,C  16)                1.0851 -0.000004 -0.0000    1.0851   
    48. B(H  44,C  21)                1.0867 -0.000007  0.0000    1.0867   
    49. B(H  45,C  21)                1.0926  0.000001 -0.0000    1.0926   
    50. B(H  46,C  21)                1.0962  0.000002 -0.0000    1.0962   
    51. B(H  47,O  24)                0.9656 -0.000005  0.0000    0.9656   
    52. A(C   1,O   0,H  25)          108.33 -0.000021   -0.00    108.32   
    53. A(H   2,C   1,C   3)          107.00 -0.000003    0.00    107.00   
    54. A(O   0,C   1,H   2)          106.17  0.000012   -0.00    106.17   
    55. A(C   3,C   1,C  22)          109.83 -0.000010    0.01    109.84   
    56. A(O   0,C   1,C  22)          112.25 -0.000002   -0.00    112.25   
    57. A(O   0,C   1,C   3)          113.95  0.000005   -0.00    113.95   
    58. A(H   2,C   1,C  22)          107.21 -0.000001   -0.00    107.21   
    59. A(H   4,C   3,O   5)          105.74  0.000005   -0.01    105.72   
    60. A(C   1,C   3,C   6)          113.97 -0.000001   -0.00    113.97   
    61. A(C   1,C   3,H   4)          108.09  0.000002    0.00    108.09   
    62. A(C   1,C   3,O   5)          110.45  0.000007    0.00    110.45   
    63. A(O   5,C   3,C   6)          110.24 -0.000005    0.00    110.25   
    64. A(H   4,C   3,C   6)          107.97 -0.000008    0.01    107.97   
    65. A(C   3,O   5,H  26)          107.78 -0.000024    0.01    107.79   
    66. A(H   7,C   6,C   8)          105.67  0.000005   -0.00    105.66   
    67. A(C   3,C   6,C   8)          113.55 -0.000019   -0.00    113.54   
    68. A(C   3,C   6,H   7)          106.17  0.000001    0.00    106.17   
    69. A(C   3,C   6,O  17)          114.62 -0.000002    0.00    114.62   
    70. A(C   8,C   6,O  17)          112.85  0.000025   -0.00    112.85   
    71. A(H   7,C   6,O  17)          102.69 -0.000010    0.00    102.70   
    72. A(H  27,C   8,H  28)          108.28 -0.000004    0.00    108.28   
    73. A(C   6,C   8,O   9)          113.10  0.000018   -0.00    113.09   
    74. A(C   6,C   8,H  27)          108.06  0.000019    0.00    108.06   
    75. A(O   9,C   8,H  28)          109.98 -0.000001    0.00    109.98   
    76. A(O   9,C   8,H  27)          109.89 -0.000014   -0.01    109.88   
    77. A(C   6,C   8,H  28)          107.40 -0.000020    0.01    107.41   
    78. A(C   8,O   9,Si 10)          129.31 -0.000056    0.02    129.33   
    79. A(C  15,Si 10,C  16)          112.10  0.000018   -0.02    112.09   
    80. A(C  11,Si 10,C  16)          109.89  0.000001   -0.01    109.88   
    81. A(O   9,Si 10,C  16)          110.87 -0.000032    0.03    110.90   
    82. A(C  11,Si 10,C  15)          111.82 -0.000014    0.01    111.83   
    83. A(O   9,Si 10,C  15)          100.46 -0.000007    0.01    100.47   
    84. A(O   9,Si 10,C  11)          111.42  0.000033   -0.02    111.40   
    85. A(C  12,C  11,C  14)          108.49  0.000005   -0.00    108.49   
    86. A(C  13,C  11,C  14)          108.13  0.000005   -0.00    108.13   
    87. A(Si 10,C  11,C  13)          110.13 -0.000002    0.00    110.13   
    88. A(Si 10,C  11,C  14)          111.84 -0.000009    0.00    111.84   
    89. A(Si 10,C  11,C  12)          109.71 -0.000000    0.00    109.71   
    90. A(C  12,C  11,C  13)          108.46  0.000003   -0.00    108.46   
    91. A(H  29,C  12,H  31)          108.29  0.000009   -0.00    108.29   
    92. A(C  11,C  12,H  31)          110.53 -0.000014    0.00    110.54   
    93. A(H  29,C  12,H  30)          107.93  0.000003   -0.00    107.93   
    94. A(C  11,C  12,H  30)          110.91 -0.000002   -0.00    110.91   
    95. A(C  11,C  12,H  29)          110.95 -0.000001    0.00    110.95   
    96. A(H  30,C  12,H  31)          108.12  0.000007   -0.00    108.12   
    97. A(H  32,C  13,H  33)          108.28  0.000008   -0.00    108.27   
    98. A(C  11,C  13,H  33)          110.42 -0.000005    0.00    110.42   
    99. A(C  11,C  13,H  32)          110.69 -0.000007    0.00    110.69   
   100. A(C  11,C  13,H  34)          110.84 -0.000005    0.00    110.84   
   101. A(H  33,C  13,H  34)          108.22  0.000007   -0.00    108.22   
   102. A(H  32,C  13,H  34)          108.31  0.000003   -0.00    108.30   
   103. A(H  36,C  14,H  37)          108.10  0.000006   -0.00    108.10   
   104. A(H  35,C  14,H  37)          107.95  0.000009   -0.00    107.95   
   105. A(C  11,C  14,H  37)          110.24 -0.000004    0.00    110.24   
   106. A(H  35,C  14,H  36)          108.39  0.000001    0.00    108.40   
   107. A(C  11,C  14,H  36)          110.86 -0.000004    0.00    110.86   
   108. A(C  11,C  14,H  35)          111.19 -0.000008    0.00    111.19   
   109. A(H  39,C  15,H  40)          108.10 -0.000012    0.00    108.10   
   110. A(H  38,C  15,H  40)          107.11 -0.000005    0.00    107.11   
   111. A(H  38,C  15,H  39)          107.87  0.000006   -0.01    107.86   
   112. A(Si 10,C  15,H  39)          111.12 -0.000048    0.00    111.12   
   113. A(Si 10,C  15,H  38)          111.53  0.000007    0.01    111.54   
   114. A(Si 10,C  15,H  40)          110.95  0.000051   -0.01    110.94   
   115. A(H  42,C  16,H  43)          107.38  0.000019   -0.00    107.37   
   116. A(H  41,C  16,H  43)          107.44  0.000001   -0.00    107.44   
   117. A(Si 10,C  16,H  43)          111.84 -0.000012    0.00    111.84   
   118. A(H  41,C  16,H  42)          107.49  0.000016   -0.00    107.49   
   119. A(Si 10,C  16,H  41)          111.72 -0.000024    0.01    111.73   
   120. A(Si 10,C  16,H  42)          110.75  0.000002   -0.01    110.74   
   121. A(C   6,O  17,C  18)          118.78  0.000004    0.00    118.78   
   122. A(O  17,C  18,H  19)          102.53  0.000001   -0.00    102.53   
   123. A(O  20,C  18,C  22)          108.06  0.000012    0.00    108.06   
   124. A(H  19,C  18,C  22)          109.20 -0.000001   -0.00    109.20   
   125. A(O  17,C  18,C  22)          112.67 -0.000003   -0.00    112.67   
   126. A(H  19,C  18,O  20)          109.65 -0.000001    0.00    109.65   
   127. A(O  17,C  18,O  20)          114.54 -0.000008    0.00    114.55   
   128. A(C  18,O  20,C  21)          113.91 -0.000003    0.00    113.91   
   129. A(H  44,C  21,H  46)          110.15  0.000001   -0.00    110.14   
   130. A(H  45,C  21,H  46)          109.17  0.000005    0.01    109.17   
   131. A(O  20,C  21,H  46)          110.43 -0.000000   -0.00    110.43   
   132. A(H  44,C  21,H  45)          109.99  0.000001   -0.00    109.99   
   133. A(O  20,C  21,H  45)          111.04 -0.000015   -0.00    111.04   
   134. A(O  20,C  21,H  44)          106.03  0.000007   -0.00    106.03   
   135. A(H  23,C  22,O  24)          111.60  0.000009   -0.00    111.59   
   136. A(C  18,C  22,O  24)          111.08 -0.000008   -0.01    111.08   
   137. A(C   1,C  22,O  24)          107.64  0.000007   -0.00    107.63   
   138. A(C  18,C  22,H  23)          107.70 -0.000016    0.01    107.70   
   139. A(C   1,C  22,H  23)          107.99  0.000002   -0.00    107.99   
   140. A(C   1,C  22,C  18)          110.81  0.000007    0.01    110.82   
   141. A(C  22,O  24,H  47)          110.02  0.000002   -0.00    110.02   
   142. D(H   2,C   1,O   0,H  25)   -169.99 -0.000001    0.04   -169.96   
   143. D(C  22,C   1,O   0,H  25)     73.16 -0.000006    0.04     73.20   
   144. D(C   3,C   1,O   0,H  25)    -52.49  0.000005    0.04    -52.45   
   145. D(H   4,C   3,C   1,C  22)   -166.07  0.000004    0.00   -166.07   
   146. D(O   5,C   3,C   1,C  22)     78.70 -0.000007    0.02     78.72   
   147. D(O   5,C   3,C   1,H   2)    -37.35  0.000001    0.01    -37.34   
   148. D(H   4,C   3,C   1,H   2)     77.88  0.000012   -0.00     77.88   
   149. D(O   5,C   3,C   1,O   0)   -154.39 -0.000014    0.02   -154.37   
   150. D(H   4,C   3,C   1,O   0)    -39.15 -0.000003    0.00    -39.15   
   151. D(H  26,O   5,C   3,H   4)   -166.52 -0.000004   -0.03   -166.55   
   152. D(H  26,O   5,C   3,C   6)     77.02  0.000005   -0.03     76.99   
   153. D(H  26,O   5,C   3,C   1)    -49.82  0.000005   -0.04    -49.86   
   154. D(H   7,C   6,C   3,O   5)     27.88 -0.000009   -0.00     27.88   
   155. D(H   7,C   6,C   3,H   4)    -87.18 -0.000008    0.01    -87.17   
   156. D(H   7,C   6,C   3,C   1)    152.73 -0.000005    0.01    152.74   
   157. D(C   8,C   6,C   3,H   4)     28.48 -0.000011    0.01     28.49   
   158. D(C   8,C   6,C   3,C   1)    -91.61 -0.000007    0.00    -91.60   
   159. D(C   8,C   6,C   3,O   5)    143.54 -0.000012   -0.00    143.54   
   160. D(H  27,C   8,C   6,O  17)     43.30  0.000001    0.00     43.30   
   161. D(H  27,C   8,C   6,H   7)    -68.16 -0.000001    0.00    -68.16   
   162. D(H  27,C   8,C   6,C   3)    175.89  0.000004    0.00    175.89   
   163. D(O   9,C   8,C   6,O  17)    -78.57 -0.000007    0.01    -78.56   
   164. D(O   9,C   8,C   6,C   3)     54.02 -0.000004    0.01     54.03   
   165. D(O   9,C   8,C   6,H   7)    169.97 -0.000009    0.01    169.98   
   166. D(Si 10,O   9,C   8,H  27)     57.51  0.000001   -0.04     57.47   
   167. D(Si 10,O   9,C   8,C   6)    178.35  0.000028   -0.05    178.30   
   168. D(Si 10,O   9,C   8,H  28)    -61.59  0.000014   -0.04    -61.63   
   169. D(C  16,Si 10,O   9,C   8)    -52.05  0.000002    0.04    -52.02   
   170. D(C  15,Si 10,O   9,C   8)   -170.73 -0.000002    0.04   -170.70   
   171. D(C  11,Si 10,O   9,C   8)     70.68  0.000005    0.03     70.71   
   172. D(C  12,C  11,Si 10,O   9)     39.41  0.000004    0.00     39.42   
   173. D(C  13,C  11,Si 10,C  16)    -77.99 -0.000011    0.02    -77.97   
   174. D(C  13,C  11,Si 10,C  15)     47.17  0.000003    0.00     47.17   
   175. D(C  13,C  11,Si 10,O   9)    158.72  0.000006    0.01    158.72   
   176. D(C  12,C  11,Si 10,C  16)    162.70 -0.000013    0.02    162.72   
   177. D(C  12,C  11,Si 10,C  15)    -72.14  0.000002    0.00    -72.13   
   178. D(H  30,C  12,C  11,C  14)     60.51 -0.000007   -0.01     60.50   
   179. D(H  30,C  12,C  11,C  13)    177.74  0.000003   -0.02    177.72   
   180. D(H  30,C  12,C  11,Si 10)    -61.93  0.000001   -0.01    -61.94   
   181. D(H  29,C  12,C  11,C  14)   -179.55 -0.000006   -0.01   -179.56   
   182. D(H  29,C  12,C  11,C  13)    -62.32  0.000004   -0.01    -62.33   
   183. D(H  29,C  12,C  11,Si 10)     58.01  0.000003   -0.01     58.00   
   184. D(H  33,C  13,C  11,C  14)     57.16  0.000006    0.01     57.17   
   185. D(H  33,C  13,C  11,C  12)    -60.30 -0.000004    0.02    -60.28   
   186. D(H  33,C  13,C  11,Si 10)    179.63 -0.000004    0.02    179.65   
   187. D(H  32,C  13,C  11,C  12)     59.59 -0.000002    0.02     59.61   
   188. D(H  32,C  13,C  11,Si 10)    -60.48 -0.000002    0.01    -60.46   
   189. D(H  32,C  13,C  11,C  14)    177.05  0.000008    0.01    177.06   
   190. D(H  36,C  14,C  11,C  13)     58.99 -0.000002    0.01     59.00   
   191. D(H  36,C  14,C  11,C  12)    176.43  0.000007    0.00    176.43   
   192. D(H  36,C  14,C  11,Si 10)    -62.44  0.000004    0.00    -62.43   
   193. D(H  35,C  14,C  11,C  13)    179.64 -0.000008    0.01    179.66   
   194. D(H  35,C  14,C  11,C  12)    -62.92  0.000001    0.01    -62.91   
   195. D(H  35,C  14,C  11,Si 10)     58.22 -0.000002    0.01     58.23   
   196. D(H  39,C  15,Si 10,C  16)     50.45  0.000025   -0.21     50.23   
   197. D(H  39,C  15,Si 10,C  11)    -73.48  0.000020   -0.20    -73.68   
   198. D(H  39,C  15,Si 10,O   9)    168.22 -0.000009   -0.18    168.04   
   199. D(H  38,C  15,Si 10,C  16)    170.84  0.000005   -0.21    170.62   
   200. D(H  38,C  15,Si 10,C  11)     46.91  0.000000   -0.20     46.71   
   201. D(H  38,C  15,Si 10,O   9)    -71.39 -0.000028   -0.18    -71.57   
   202. D(H  41,C  16,Si 10,C  15)    171.36  0.000002   -0.15    171.20   
   203. D(H  41,C  16,Si 10,C  11)    -63.64 -0.000002   -0.15    -63.80   
   204. D(H  41,C  16,Si 10,O   9)     59.97  0.000019   -0.17     59.80   
   205. D(H  42,C  16,Si 10,C  15)     51.56 -0.000004   -0.15     51.42   
   206. D(H  42,C  16,Si 10,C  11)    176.56 -0.000009   -0.15    176.42   
   207. D(H  42,C  16,Si 10,O   9)    -59.82  0.000013   -0.16    -59.98   
   208. D(C  18,O  17,C   6,C   8)     89.06 -0.000006   -0.01     89.05   
   209. D(C  18,O  17,C   6,H   7)   -157.65  0.000006   -0.01   -157.67   
   210. D(C  18,O  17,C   6,C   3)    -43.00 -0.000001   -0.01    -43.01   
   211. D(C  22,C  18,O  17,C   6)     50.83 -0.000004   -0.00     50.83   
   212. D(O  20,C  18,O  17,C   6)    -73.23 -0.000011   -0.01    -73.24   
   213. D(H  19,C  18,O  17,C   6)    168.08 -0.000006   -0.01    168.07   
   214. D(C  21,O  20,C  18,C  22)    167.66 -0.000003    0.01    167.67   
   215. D(C  21,O  20,C  18,H  19)     48.74 -0.000007    0.01     48.75   
   216. D(C  21,O  20,C  18,O  17)    -65.86 -0.000003    0.01    -65.85   
   217. D(H  46,C  21,O  20,C  18)    -62.03  0.000005   -0.04    -62.07   
   218. D(H  45,C  21,O  20,C  18)     59.22  0.000001   -0.04     59.18   
   219. D(H  44,C  21,O  20,C  18)    178.66 -0.000001   -0.04    178.63   
   220. D(H  23,C  22,C  18,O  20)    -45.64  0.000000    0.01    -45.62   
   221. D(H  23,C  22,C  18,H  19)     73.57  0.000005    0.02     73.58   
   222. D(H  23,C  22,C  18,O  17)   -173.20  0.000004    0.01   -173.20   
   223. D(C   1,C  22,C  18,O  20)     72.28 -0.000002    0.02     72.30   
   224. D(C   1,C  22,C  18,H  19)   -168.52  0.000002    0.02   -168.49   
   225. D(C   1,C  22,C  18,O  17)    -55.29  0.000001    0.02    -55.27   
   226. D(H  23,C  22,C   1,C   3)    170.66 -0.000008   -0.00    170.65   
   227. D(H  23,C  22,C   1,H   2)    -73.43 -0.000018    0.01    -73.43   
   228. D(H  23,C  22,C   1,O   0)     42.79 -0.000005   -0.00     42.79   
   229. D(C  18,C  22,C   1,C   3)     52.92  0.000006   -0.02     52.91   
   230. D(C  18,C  22,C   1,H   2)    168.84 -0.000003   -0.01    168.83   
   231. D(C  18,C  22,C   1,O   0)    -74.94  0.000009   -0.01    -74.96   
   232. D(H  47,O  24,C  22,H  23)    -57.68  0.000010   -0.00    -57.69   
   233. D(H  47,O  24,C  22,C  18)     62.52 -0.000010   -0.00     62.51   
   234. D(H  47,O  24,C  22,C   1)   -176.01 -0.000002    0.00   -176.00   
    ----------------------------------------------------------------------------

Geometry step timings:
Preparation and reading OPT file:      0.001 s ( 5.140 %)
Internal coordinates            :      0.000 s ( 0.175 %)
B/P matrices and projection     :      0.005 s (21.540 %)
Hessian update/contruction      :      0.010 s (44.947 %)
Making the step                 :      0.003 s (14.027 %)
Converting the step to Cartesian:      0.000 s ( 1.885 %)
Storing new data                :      0.001 s ( 4.253 %)
Checking convergence            :      0.000 s ( 0.170 %)
Final printing                  :      0.002 s ( 7.849 %)
Total time                      :      0.022 s
                 *******************************************************
                 *** FINAL ENERGY EVALUATION AT THE STATIONARY POINT ***
                 ***               (AFTER   16 CYCLES)               ***
                 *******************************************************
---------------------------------
CARTESIAN COORDINATES (ANGSTROEM)
---------------------------------
  O    -1.357419    2.141627    0.118760
  C     0.014944    1.914371    0.045312
  H     0.365463    1.820833    1.082216
  C     0.395363    0.606115   -0.679305
  H    -0.326194   -0.165956   -0.388777
  O     1.648430    0.143964   -0.234489
  C     0.382037    0.715574   -2.222303
  H     1.101064   -0.030472   -2.588217
  C    -0.969949    0.335118   -2.854431
  O    -2.042304    1.047700   -2.321508
  Si   -3.637989    0.988638   -2.724278
  C    -4.447791   -0.677123   -2.160316
  C    -3.903977   -1.076349   -0.784242
  C    -5.967030   -0.514987   -2.052925
  C    -4.157806   -1.815059   -3.146609
  C    -4.298759    2.465757   -1.733104
  C    -3.875206    1.222221   -4.606969
  O     0.908278    1.935007   -2.734872
  C     0.554427    3.138400   -2.109592
  H     1.263672    3.861361   -2.560667
  O    -0.755182    3.553521   -2.350733
  C    -1.008796    3.896666   -3.699615
  C     0.770248    3.101117   -0.586439
  H     0.355985    4.029078   -0.167311
  O     2.135272    2.954349   -0.271691
  H    -1.728379    2.070235   -0.779877
  H     2.271229    0.886182   -0.279950
  H    -0.902856    0.514391   -3.933555
  H    -1.116762   -0.739131   -2.692830
  H    -4.095792   -0.298018   -0.049681
  H    -2.829415   -1.241501   -0.824378
  H    -4.375767   -1.996630   -0.438804
  H    -6.221002    0.248793   -1.323085
  H    -6.428339   -1.451773   -1.741679
  H    -6.393964   -0.227553   -3.010593
  H    -3.087081   -1.969375   -3.265316
  H    -4.583617   -1.598886   -4.123236
  H    -4.593612   -2.746952   -2.785930
  H    -4.310738    2.257598   -0.668372
  H    -5.309498    2.717474   -2.034142
  H    -3.675498    3.341156   -1.880109
  H    -3.361616    0.451666   -5.175830
  H    -3.481361    2.182160   -4.928149
  H    -4.922587    1.190974   -4.888884
  H    -2.058622    4.173430   -3.746623
  H    -0.815676    3.049992   -4.362660
  H    -0.381404    4.742538   -4.003782
  H     2.633406    3.714337   -0.598276

----------------------------
CARTESIAN COORDINATES (A.U.)
----------------------------
  NO LB    ZA    FRAG    MASS        X           Y           Z
   0 O   8.0000    1    15.999   -2.565151    4.047089    0.224423
   1 C   6.0000    1    12.011    0.028239    3.617638    0.085628
   2 H   1.0000    1     1.008    0.690625    3.440875    2.045091
   3 C   6.0000    1    12.011    0.747129    1.145391   -1.283700
   4 H   1.0000    1     1.008   -0.616417   -0.313610   -0.734682
   5 O   8.0000    1    15.999    3.115081    0.272053   -0.443120
   6 C   6.0000    1    12.011    0.721945    1.352239   -4.199545
   7 H   1.0000    1     1.008    2.080710   -0.057584   -4.891021
   8 C   6.0000    1    12.011   -1.832938    0.633282   -5.394093
   9 O   8.0000    1    15.999   -3.859396    1.979866   -4.387015
  10 Si 14.0000    1    28.086   -6.874803    1.868256   -5.148139
  11 C   6.0000    1    12.011   -8.405108   -1.279577   -4.082406
  12 C   6.0000    1    12.011   -7.377447   -2.034004   -1.482002
  13 C   6.0000    1    12.011  -11.276053   -0.973185   -3.879466
  14 C   6.0000    1    12.011   -7.857115   -3.429965   -5.946230
  15 C   6.0000    1    12.011   -8.123476    4.659606   -3.275092
  16 C   6.0000    1    12.011   -7.323078    2.309662   -8.705909
  17 O   8.0000    1    15.999    1.716396    3.656634   -5.168160
  18 C   6.0000    1    12.011    1.047714    5.930716   -3.986551
  19 H   1.0000    1     1.008    2.387994    7.296914   -4.838960
  20 O   8.0000    1    15.999   -1.427088    6.715182   -4.442242
  21 C   6.0000    1    12.011   -1.906349    7.363631   -6.991258
  22 C   6.0000    1    12.011    1.455559    5.860262   -1.108208
  23 H   1.0000    1     1.008    0.672715    7.613855   -0.316173
  24 O   8.0000    1    15.999    4.035080    5.582911   -0.513422
  25 H   1.0000    1     1.008   -3.266163    3.912177   -1.473755
  26 H   1.0000    1     1.008    4.292001    1.674641   -0.529028
  27 H   1.0000    1     1.008   -1.706151    0.972058   -7.433342
  28 H   1.0000    1     1.008   -2.110373   -1.396754   -5.088712
  29 H   1.0000    1     1.008   -7.739924   -0.563173   -0.093884
  30 H   1.0000    1     1.008   -5.346820   -2.346096   -1.557849
  31 H   1.0000    1     1.008   -8.269000   -3.773083   -0.829220
  32 H   1.0000    1     1.008  -11.755990    0.470150   -2.500269
  33 H   1.0000    1     1.008  -12.147800   -2.743453   -3.291297
  34 H   1.0000    1     1.008  -12.082841   -0.430014   -5.689196
  35 H   1.0000    1     1.008   -5.833738   -3.721579   -6.170554
  36 H   1.0000    1     1.008   -8.661781   -3.021458   -7.791787
  37 H   1.0000    1     1.008   -8.680669   -5.190986   -5.264646
  38 H   1.0000    1     1.008   -8.146115    4.266241   -1.263040
  39 H   1.0000    1     1.008  -10.033497    5.135282   -3.843972
  40 H   1.0000    1     1.008   -6.945685    6.313869   -3.552892
  41 H   1.0000    1     1.008   -6.352533    0.853525   -9.780900
  42 H   1.0000    1     1.008   -6.578819    4.123685   -9.312853
  43 H   1.0000    1     1.008   -9.302341    2.250615   -9.238652
  44 H   1.0000    1     1.008   -3.890232    7.886640   -7.080092
  45 H   1.0000    1     1.008   -1.541405    5.763649   -8.244233
  46 H   1.0000    1     1.008   -0.720748    8.962098   -7.566052
  47 H   1.0000    1     1.008    4.976417    7.019080   -1.130578

      -----------------------------------------------------------      
     |                   =====================                   |     
     |                           x T B                           |     
     |                   =====================                   |     
     |                         S. Grimme                         |     
     |          Mulliken Center for Theoretical Chemistry        |     
     |                    University of Bonn                     |     
      -----------------------------------------------------------      

   * xtb version 6.7.1 (edcfbbe) compiled by 'albert@albert-system' on 2024-07-22

   xtb is free software: you can redistribute it and/or modify it under
   the terms of the GNU Lesser General Public License as published by
   the Free Software Foundation, either version 3 of the License, or
   (at your option) any later version.
   
   xtb is distributed in the hope that it will be useful,
   but WITHOUT ANY WARRANTY; without even the implied warranty of
   MERCHANTABILITY or FITNESS FOR A PARTICULAR PURPOSE.  See the
   GNU Lesser General Public License for more details.
   
   Cite this work as:
   * C. Bannwarth, E. Caldeweyher, S. Ehlert, A. Hansen, P. Pracht,
     J. Seibert, S. Spicher, S. Grimme, WIREs Comput. Mol. Sci., 2020, 11,
     e01493. DOI: 10.1002/wcms.1493
   
   for GFN2-xTB:
   * C. Bannwarth, S. Ehlert and S. Grimme., J. Chem. Theory Comput., 2019,
     15, 1652-1671. DOI: 10.1021/acs.jctc.8b01176
   for GFN1-xTB:
   * S. Grimme, C. Bannwarth, P. Shushkov, J. Chem. Theory Comput., 2017,
     13, 1989-2009. DOI: 10.1021/acs.jctc.7b00118
   for GFN0-xTB:
   * P. Pracht, E. Caldeweyher, S. Ehlert, S. Grimme, ChemRxiv, 2019, preprint.
     DOI: 10.26434/chemrxiv.8326202.v1
   for GFN-FF:
   * S. Spicher and S. Grimme, Angew. Chem. Int. Ed., 2020, 59, 15665-15673.
     DOI: 10.1002/anie.202004239
   
   for ALPB and GBSA implicit solvation:
   * S. Ehlert, M. Stahn, S. Spicher, S. Grimme, J. Chem. Theory Comput.,
     2021, 17, 4250-4261. DOI: 10.1021/acs.jctc.1c00471
   
   for ddCOSMO and CPCM-X implicit solvation:
   * M. Stahn, S. Ehlert, S. Grimme, J. Phys. Chem. A,
     2023, XX, XXXX-XXXX. DOI: 10.1021/acs.jpca.3c04382
   
   for DFT-D4:
   * E. Caldeweyher, C. Bannwarth and S. Grimme, J. Chem. Phys., 2017,
     147, 034112. DOI: 10.1063/1.4993215
   * E. Caldeweyher, S. Ehlert, A. Hansen, H. Neugebauer, S. Spicher,
     C. Bannwarth and S. Grimme, J. Chem. Phys., 2019, 150, 154122.
     DOI: 10.1063/1.5090222
   * E. Caldeweyher, J.-M. Mewes, S. Ehlert and S. Grimme, Phys. Chem. Chem. Phys.
     2020, 22, 8499-8512. DOI: 10.1039/D0CP00502A
   
   for sTDA-xTB:
   * S. Grimme and C. Bannwarth, J. Chem. Phys., 2016, 145, 054103.
     DOI: 10.1063/1.4959605
   
   in the mass-spec context:
   * V. Asgeirsson, C. Bauer and S. Grimme, Chem. Sci., 2017, 8, 4879.
     DOI: 10.1039/c7sc00601b
   * J. Koopman and S. Grimme, ACS Omega 2019, 4, 12, 15120-15133.
     DOI: 10.1021/acsomega.9b02011
   
   for metadynamics refer to:
   * S. Grimme, J. Chem. Theory Comput., 2019, 155, 2847-2862
     DOI: 10.1021/acs.jctc.9b00143
   
   for SPH calculations refer to:
   * S. Spicher and S. Grimme, J. Chem. Theory Comput., 2021, 17, 1701-1714
     DOI: 10.1021/acs.jctc.0c01306
   
   for ONIOM refer to:
   * C. Plett, A. Katbashev, S. Ehlert, S. Grimme, M. Bursch,
     Phys. Chem. Chem. Phys., 2023, 25, 17860-17868. DOI: 10.1039/D3CP02178E
   
   for DIPRO refer to:
   * J. Kohn, N. Gildemeister, S. Grimme, D. Fazzi, A. Hansen,
     J. Chem. Phys., 2023, just accepted.
   
   for PTB refer to:
   * S. Grimme, M. Mueller, A. Hansen, J. Chem. Phys., 2023, 158, 124111.
     DOI: 10.1063/5.0137838
   
   with help from (in alphabetical order)
   P. Atkinson, C. Bannwarth, F. Bohle, G. Brandenburg, E. Caldeweyher
   M. Checinski, S. Dohm, S. Ehlert, S. Ehrlich, I. Gerasimov, C. Hölzer
   A. Katbashev, J. Kohn, J. Koopman, C. Lavigne, S. Lehtola, F. März, M. Müller,
   F. Musil, H. Neugebauer, J. Pisarek, C. Plett, P. Pracht, F. Pultar,
   J. Seibert, P. Shushkov, S. Spicher, M. Stahn, M. Steiner, T. Strunk,
   J. Stückrath, T. Rose, and J. Unsleber
   
 * started run on 2025/09/10 at 11:36:47.061     
   ID    Z sym.   atoms
    1    8 O      1, 6, 10, 18, 21, 25
    2    6 C      2, 4, 7, 9, 12-17, 19, 22, 23
    3    1 H      3, 5, 8, 20, 24, 26-48
    4   14 Si     11

           -------------------------------------------------
          |                Calculation Setup                |
           -------------------------------------------------

          program call               : /home/kmoult/orca_6_1/otool_xtb goat_0_XTB.xyz --grad -c 0 -u 0 -P 4 --namespace goat_0 --input goat_0_XTB.input.tmp --alpb ACETONE --acc 0.200000
          hostname                   : node1600
          calculation namespace      : goat_0
          coordinate file            : goat_0_XTB.xyz
          omp threads                :                     4


           -------------------------------------------------
          |                 G F N 2 - x T B                 |
           -------------------------------------------------

        Reference                      10.1021/acs.jctc.8b01176
      * Hamiltonian:
        H0-scaling (s, p, d)           1.850000    2.230000    2.230000
        zeta-weighting                 0.500000
      * Dispersion:
        s8                             2.700000
        a1                             0.520000
        a2                             5.000000
        s9                             5.000000
      * Repulsion:
        kExp                           1.500000    1.000000
        rExp                           1.000000
      * Coulomb:
        alpha                          2.000000
        third order                    shell-resolved
        anisotropic                    true
        a3                             3.000000
        a5                             4.000000
        cn-shift                       1.200000
        cn-exp                         4.000000
        max-rad                        5.000000

      * Solvation model:               ALPB
        Solvent                        ACETONE
        Parameter file                 internal GFN2-xTB/ALPB
        Dielectric constant                2.0700E+01
        Reference state                gsolv [1 M gas/solution]
        Free energy shift                  5.9241E-03 Eh       3.7175E+00 kcal/mol
        Temperature                        2.9815E+02 K
        Density                            7.9000E-01 kg/L
        Solvent mass                       5.8080E+01 g/mol
        Interaction kernel             P16
        Born radius scaling (c1)           1.8274E+00
        Born radii integrator          GBOBC
        Born offset                        0.0000E+00 a0       0.0000E+00 AA
        H-bond correction              true
        Ion screening                  false
        Surface tension                    1.0000E-05 Eh       1.5569E+01 dyn/cm
        Grid points                               230 per atom
q/qsh data taken from xtbrestart
CAMM data taken from xtbrestart

          ...................................................
          :                      SETUP                      :
          :.................................................:
          :  # basis functions                 114          :
          :  # atomic orbitals                 113          :
          :  # shells                           69          :
          :  # electrons                       120          :
          :  max. iterations                   250          :
          :  Hamiltonian                  GFN2-xTB          :
          :  restarted?                       true          :
          :  GBSA solvation                   true          :
          :  PC potential                    false          :
          :  electronic temp.          300.0000000     K    :
          :  accuracy                    0.2000000          :
          :  -> integral cutoff          0.3198970E+02      :
          :  -> integral neglect         0.2000000E-08      :
          :  -> SCF convergence          0.2000000E-06 Eh   :
          :  -> wf. convergence          0.2000000E-04 e    :
          :  Broyden damping             0.4000000          :
          :  net charge                          0          :
          :  unpaired electrons                  0          :
          ...................................................

 iter      E             dE          RMSdq      gap      omega  full diag
   1    -68.9915229 -0.689915E+02  0.289E-03    6.35       0.0  T
   2    -68.9915229 -0.218384E-08  0.183E-03    6.34       7.9  T
   3    -68.9915229 -0.454264E-09  0.359E-04    6.34      40.2  T
   4    -68.9915229 -0.110973E-09  0.195E-04    6.34      73.9  T
   5    -68.9915229 -0.836877E-10  0.101E-04    6.34     142.7  T

   *** convergence criteria satisfied after 5 iterations ***

         #    Occupation            Energy/Eh            Energy/eV
      -------------------------------------------------------------
         1        2.0000           -0.7767513             -21.1365
       ...           ...                  ...                  ...
        54        2.0000           -0.4217894             -11.4775
        55        2.0000           -0.4207735             -11.4498
        56        2.0000           -0.4161056             -11.3228
        57        2.0000           -0.4027797             -10.9602
        58        2.0000           -0.3961063             -10.7786
        59        2.0000           -0.3944799             -10.7343
        60        2.0000           -0.3709738             -10.0947 (HOMO)
        61                         -0.1378044              -3.7498 (LUMO)
        62                         -0.1238514              -3.3702
        63                         -0.1108600              -3.0167
        64                         -0.0174316              -0.4743
        65                         -0.0096255              -0.2619
       ...                                ...                  ...
       113                          0.7771067              21.1462
      -------------------------------------------------------------
                  HL-Gap            0.2331694 Eh            6.3449 eV
             Fermi-level           -0.2543891 Eh           -6.9223 eV

 SCC (total)                   0 d,  0 h,  0 min,  0.019 sec
 SCC setup                      ...        0 min,  0.001 sec (  2.940%)
 Dispersion                     ...        0 min,  0.000 sec (  2.454%)
 classical contributions        ...        0 min,  0.000 sec (  0.192%)
 integral evaluation            ...        0 min,  0.004 sec ( 22.796%)
 iterations                     ...        0 min,  0.007 sec ( 35.607%)
 molecular gradient             ...        0 min,  0.007 sec ( 35.231%)
 printout                       ...        0 min,  0.000 sec (  0.722%)

         :::::::::::::::::::::::::::::::::::::::::::::::::::::
         ::                     SUMMARY                     ::
         :::::::::::::::::::::::::::::::::::::::::::::::::::::
         :: total energy             -68.319725214200 Eh    ::
         :: total w/o Gsasa/hb       -68.293987188159 Eh    ::
         :: gradient norm              0.000165649790 Eh/a0 ::
         :: HOMO-LUMO gap              6.344862135261 eV    ::
         ::.................................................::
         :: SCC energy               -68.990166222707 Eh    ::
         :: -> isotropic ES            0.159915916121 Eh    ::
         :: -> anisotropic ES          0.002720922853 Eh    ::
         :: -> anisotropic XC          0.004858139851 Eh    ::
         :: -> dispersion             -0.048971138248 Eh    ::
         :: -> Gsolv                  -0.029264728617 Eh    ::
         ::    -> Gelec               -0.003526702575 Eh    ::
         ::    -> Gsasa               -0.026359002773 Eh    ::
         ::    -> Ghb                 -0.005303164532 Eh    ::
         ::    -> Gshift               0.005924141264 Eh    ::
         :: repulsion energy           0.670441008506 Eh    ::
         :: add. restraining           0.000000000000 Eh    ::
         :: total charge              -0.000000000000 e     ::
         :::::::::::::::::::::::::::::::::::::::::::::::::::::


Property printout bound to 'properties.out'

           -------------------------------------------------
          | TOTAL ENERGY              -68.319725214200 Eh   |
          | GRADIENT NORM               0.000165649790 Eh/α |
          | HOMO-LUMO GAP               6.344862135261 eV   |
           -------------------------------------------------

------------------------------------------------------------------------
 * finished run on 2025/09/10 at 11:36:47.102     
------------------------------------------------------------------------
 total:
 * wall-time:     0 d,  0 h,  0 min,  0.041 sec
 *  cpu-time:     0 d,  0 h,  0 min,  0.142 sec
 * ratio c/w:     3.479 speedup
 SCF:
 * wall-time:     0 d,  0 h,  0 min,  0.020 sec
 *  cpu-time:     0 d,  0 h,  0 min,  0.078 sec
 * ratio c/w:     3.977 speedup


-------------------------   --------------------
FINAL SINGLE POINT ENERGY       -68.319725214200
-------------------------   --------------------


-------------
DIPOLE MOMENT
-------------
                                X             Y             Z
Total Dipole Moment    :     -0.09300       0.95200      -1.74200
                        -----------------------------------------
Magnitude (a.u.)       :      1.98734
Magnitude (Debye)      :      5.05141

                                *** OPTIMIZATION RUN DONE ***

		     ------------------------------
			                   _   
			                  | |  
			  __ _  ___   __ _| |_ 
			 / _` |/ _ \ / _` | __|
			| (_| | (_) | (_| | |_ 
			 \__, |\___/ \__,_|\__|
			 __/ |                
			|___/                 

		      A Global Optimizer Algorithm
		     ------------------------------

Global parameters
-----------------
  GOAT version                               ... default
  Minimum global steps                       ... 3
  Number of base workers                     ... 4
  Split workers by                           ... 2
  Final number of workers                    ... 8
  Number of available CPUs                   ... 4
  Parameter list (worker : temperature)      ...  0 : 2903.97,  1 : 1451.98, 
                                                  2 :  725.99,  3 :  363.00, 
                                                  4 : 2903.97,  5 : 1451.98, 
                                                  6 :  725.99,  7 :  363.00 
  GradComp (mean : sigma)                    ... 1.00 : 0.50
  Number of fragments                        ... 1
  Number of atoms                            ... 48
  Flexibility parameter                      ... 0.80
  Optimizations per global step              ... 1064
  Optimizations per worker                   ... 133

Filtering criteria
------------------
  RMSD                                       ... 0.125 Angs (atom. pos.)
  EnDiff                                     ... 0.100 kcal/mol
  RotConst                                   ... 1.00-2.50 %
  Maximum Conf. Energy                       ... 6.000 kcal/mol

Thermodynamics
--------------
  Ensemble temperature                       ... 298.15 K
  Degeneracy of conformers                   ... 1
  *No rotamers will be included in Gconf

------------------------------------------------------------------------------
   Iter  MinTemp     MaxEn       GradComp    NOpt   NProcs    Output
------------------------------------------------------------------------------
List of participating nodes    ...  goat_0.goat.0.hostnames

   3      363.00    144.00    1.00 : 0.50     133        1    goat_0.goat.0.3.out
   0     2903.97    144.00    1.00 : 0.50     133        1    goat_0.goat.0.0.out
   2      725.99    144.00    1.00 : 0.50     133        1    goat_0.goat.0.2.out
   1     1451.98    144.00    1.00 : 0.50     133        1    goat_0.goat.0.1.out
   4     2903.97    144.00    1.00 : 0.50     133        1    goat_0.goat.0.4.out
   5     1451.98    144.00    1.00 : 0.50     133        1    goat_0.goat.0.5.out
   6      725.99    144.00    1.00 : 0.50     133        1    goat_0.goat.0.6.out
   7      363.00    144.00    1.00 : 0.50     133        1    goat_0.goat.0.7.out

			     GOAT Global Iter 1
		Iter    Min En       Sconf       Gconf   
		        Hartree      cal/(molK)  kcal/mol
		=========================================

		   1    -68.325374   8.656       -1.578

List of participating nodes    ...  goat_0.goat.1.hostnames

   3      363.00    144.00    1.00 : 0.50     133        1    goat_0.goat.1.3.out
   0     2903.97    144.00    1.00 : 0.50     133        1    goat_0.goat.1.0.out
   1     1451.98    144.00    1.00 : 0.50     133        1    goat_0.goat.1.1.out
   2      725.99    144.00    1.00 : 0.50     133        1    goat_0.goat.1.2.out
   4     2903.97    144.00    1.00 : 0.50     133        1    goat_0.goat.1.4.out
   5     1451.98    144.00    1.00 : 0.50     133        1    goat_0.goat.1.5.out
   6      725.99    144.00    1.00 : 0.50     133        1    goat_0.goat.1.6.out
   7      363.00    144.00    1.00 : 0.50     133        1    goat_0.goat.1.7.out

			     GOAT Global Iter 2
		Iter    Min En       Sconf       Gconf   
		        Hartree      cal/(molK)  kcal/mol
		=========================================

		   1    -68.325374   8.656       -1.578
		   2    -68.325395   9.699       -1.781

List of participating nodes    ...  goat_0.goat.2.hostnames

   0     2903.97    144.00    1.00 : 0.50     133        1    goat_0.goat.2.0.out
   1     1451.98    144.00    1.00 : 0.50     133        1    goat_0.goat.2.1.out
   2      725.99    144.00    1.00 : 0.50     133        1    goat_0.goat.2.2.out
   3      363.00    144.00    1.00 : 0.50     133        1    goat_0.goat.2.3.out
   4     2903.97    144.00    1.00 : 0.50     133        1    goat_0.goat.2.4.out
   5     1451.98    144.00    1.00 : 0.50     133        1    goat_0.goat.2.5.out
   6      725.99    144.00    1.00 : 0.50     133        1    goat_0.goat.2.6.out
   7      363.00    144.00    1.00 : 0.50     133        1    goat_0.goat.2.7.out

			     GOAT Global Iter 3
		Iter    Min En       Sconf       Gconf   
		        Hartree      cal/(molK)  kcal/mol
		=========================================

		   1    -68.325374   8.656       -1.578
		   2    -68.325395   9.699       -1.781
		   3    -68.325407   10.066       -1.868

List of participating nodes    ...  goat_0.goat.3.hostnames

   0     2903.97    144.00    1.00 : 0.50     133        1    goat_0.goat.3.0.out
   3      363.00    144.00    1.00 : 0.50     133        1    goat_0.goat.3.3.out
   1     1451.98    144.00    1.00 : 0.50     133        1    goat_0.goat.3.1.out
   2      725.99    144.00    1.00 : 0.50     133        1    goat_0.goat.3.2.out
   4     2903.97    144.00    1.00 : 0.50     133        1    goat_0.goat.3.4.out
   5     1451.98    144.00    1.00 : 0.50     133        1    goat_0.goat.3.5.out
   6      725.99    144.00    1.00 : 0.50     133        1    goat_0.goat.3.6.out
   7      363.00    144.00    1.00 : 0.50     133        1    goat_0.goat.3.7.out

			     GOAT Global Iter 4
		Iter    Min En       Sconf       Gconf   
		        Hartree      cal/(molK)  kcal/mol
		=========================================

		   1    -68.325374   8.656       -1.578
		   2    -68.325395   9.699       -1.781
		   3    -68.325407   10.066       -1.868
		   4    -68.325438   10.353       -1.897

List of participating nodes    ...  goat_0.goat.4.hostnames

   1     1451.98    144.00    1.00 : 0.50     133        1    goat_0.goat.4.1.out
   0     2903.97    144.00    1.00 : 0.50     133        1    goat_0.goat.4.0.out
   2      725.99    144.00    1.00 : 0.50     133        1    goat_0.goat.4.2.out
   3      363.00    144.00    1.00 : 0.50     133        1    goat_0.goat.4.3.out
   4     2903.97    144.00    1.00 : 0.50     133        1    goat_0.goat.4.4.out
   5     1451.98    144.00    1.00 : 0.50     133        1    goat_0.goat.4.5.out
   6      725.99    144.00    1.00 : 0.50     133        1    goat_0.goat.4.6.out
   7      363.00    144.00    1.00 : 0.50     133        1    goat_0.goat.4.7.out

			     GOAT Global Iter 5
		Iter    Min En       Sconf       Gconf   
		        Hartree      cal/(molK)  kcal/mol
		=========================================

		   1    -68.325374   8.656       -1.578
		   2    -68.325395   9.699       -1.781
		   3    -68.325407   10.066       -1.868
		   4    -68.325438   10.353       -1.897
		   5    -68.325438   10.516       -1.915

		Global minimum found!
		Writing structure to goat_0.globalminimum.xyz

		# Final ensemble info #
		Conformer     Energy     Degen.   % total   % cumul.  
		              (kcal/mol)
		------------------------------------------------------
		        0     0.000	     1       3.95       3.95
		        1     0.164	     1       3.00       6.94
		        2     0.169	     1       2.97       9.91
		        3     0.256	     1       2.56      12.47
		        4     0.432	     1       1.90      14.38
		        5     0.460	     1       1.82      16.19
		        6     0.521	     1       1.64      17.83
		        7     0.530	     1       1.61      19.45
		        8     0.605	     1       1.42      20.87
		        9     0.662	     1       1.29      22.16
		       10     0.679	     1       1.26      23.42
		       11     0.698	     1       1.21      24.63
		       12     0.724	     1       1.16      25.80
		       13     0.728	     1       1.16      26.95
		       14     0.739	     1       1.13      28.09
		       15     0.739	     1       1.13      29.22
		       16     0.741	     1       1.13      30.35
		       17     0.751	     1       1.11      31.46
		       18     0.760	     1       1.09      32.56
		       19     0.762	     1       1.09      33.65
		       20     0.764	     1       1.09      34.73
		       21     0.781	     1       1.06      35.79
		       22     0.787	     1       1.05      36.84
		       23     0.791	     1       1.04      37.88
		       24     0.801	     1       1.02      38.90
		       25     0.806	     1       1.01      39.91
		       26     0.807	     1       1.01      40.92
		       27     0.808	     1       1.01      41.93
		       28     0.822	     1       0.99      42.92
		       29     0.833	     1       0.97      43.89
		       30     0.856	     1       0.93      44.82
		       31     0.883	     1       0.89      45.71
		       32     0.890	     1       0.88      46.58
		       33     0.900	     1       0.86      47.45
		       34     0.955	     1       0.79      48.24
		       35     0.981	     1       0.75      48.99
		       36     0.997	     1       0.73      49.73
		       37     1.032	     1       0.69      50.42
		       38     1.037	     1       0.69      51.10
		       39     1.047	     1       0.67      51.78
		       40     1.049	     1       0.67      52.45
		       41     1.058	     1       0.66      53.11
		       42     1.074	     1       0.64      53.76
		       43     1.080	     1       0.64      54.40
		       44     1.080	     1       0.64      55.03
		       45     1.082	     1       0.64      55.67
		       46     1.082	     1       0.64      56.31
		       47     1.086	     1       0.63      56.94
		       48     1.096	     1       0.62      57.56
		       49     1.127	     1       0.59      58.15
		       50     1.170	     1       0.55      58.70
		       51     1.174	     1       0.54      59.24
		       52     1.181	     1       0.54      59.78
		       53     1.212	     1       0.51      60.29
		       54     1.223	     1       0.50      60.79
		       55     1.231	     1       0.49      61.28
		       56     1.243	     1       0.48      61.77
		       57     1.262	     1       0.47      62.24
		       58     1.272	     1       0.46      62.70
		       59     1.286	     1       0.45      63.15
		       60     1.289	     1       0.45      63.60
		       61     1.291	     1       0.45      64.04
		       62     1.296	     1       0.44      64.49
		       63     1.311	     1       0.43      64.92
		       64     1.312	     1       0.43      65.35
		       65     1.362	     1       0.40      65.75
		       66     1.367	     1       0.39      66.14
		       67     1.380	     1       0.38      66.52
		       68     1.383	     1       0.38      66.91
		       69     1.387	     1       0.38      67.29
		       70     1.434	     1       0.35      67.64
		       71     1.434	     1       0.35      67.99
		       72     1.451	     1       0.34      68.33
		       73     1.453	     1       0.34      68.67
		       74     1.453	     1       0.34      69.01
		       75     1.460	     1       0.34      69.34
		       76     1.461	     1       0.34      69.68
		       77     1.466	     1       0.33      70.01
		       78     1.529	     1       0.30      70.31
		       79     1.535	     1       0.30      70.61
		       80     1.567	     1       0.28      70.89
		       81     1.567	     1       0.28      71.17
		       82     1.569	     1       0.28      71.45
		       83     1.569	     1       0.28      71.73
		       84     1.573	     1       0.28      72.00
		       85     1.574	     1       0.28      72.28
		       86     1.575	     1       0.28      72.56
		       87     1.577	     1       0.28      72.83
		       88     1.584	     1       0.27      73.11
		       89     1.605	     1       0.26      73.37
		       90     1.605	     1       0.26      73.63
		       91     1.608	     1       0.26      73.89
		       92     1.617	     1       0.26      74.15
		       93     1.656	     1       0.24      74.39
		       94     1.676	     1       0.23      74.63
		       95     1.689	     1       0.23      74.86
		       96     1.692	     1       0.23      75.08
		       97     1.694	     1       0.23      75.31
		       98     1.701	     1       0.22      75.53
		       99     1.730	     1       0.21      75.74
		      100     1.732	     1       0.21      75.96
		      101     1.740	     1       0.21      76.17
		      102     1.762	     1       0.20      76.37
		      103     1.763	     1       0.20      76.57
		      104     1.779	     1       0.20      76.77
		      105     1.788	     1       0.19      76.96
		      106     1.791	     1       0.19      77.15
		      107     1.810	     1       0.19      77.34
		      108     1.814	     1       0.18      77.52
		      109     1.819	     1       0.18      77.71
		      110     1.828	     1       0.18      77.89
		      111     1.829	     1       0.18      78.07
		      112     1.830	     1       0.18      78.25
		      113     1.834	     1       0.18      78.42
		      114     1.843	     1       0.18      78.60
		      115     1.844	     1       0.18      78.78
		      116     1.846	     1       0.18      78.95
		      117     1.850	     1       0.17      79.12
		      118     1.852	     1       0.17      79.30
		      119     1.862	     1       0.17      79.47
		      120     1.863	     1       0.17      79.64
		      121     1.865	     1       0.17      79.81
		      122     1.866	     1       0.17      79.98
		      123     1.869	     1       0.17      80.15
		      124     1.879	     1       0.17      80.31
		      125     1.910	     1       0.16      80.47
		      126     1.932	     1       0.15      80.62
		      127     1.938	     1       0.15      80.77
		      128     1.951	     1       0.15      80.92
		      129     1.953	     1       0.15      81.06
		      130     1.958	     1       0.14      81.21
		      131     1.967	     1       0.14      81.35
		      132     1.967	     1       0.14      81.49
		      133     1.977	     1       0.14      81.63
		      134     1.989	     1       0.14      81.77
		      135     1.996	     1       0.14      81.91
		      136     1.997	     1       0.14      82.04
		      137     2.001	     1       0.13      82.18
		      138     2.002	     1       0.13      82.31
		      139     2.007	     1       0.13      82.45
		      140     2.007	     1       0.13      82.58
		      141     2.010	     1       0.13      82.71
		      142     2.010	     1       0.13      82.84
		      143     2.014	     1       0.13      82.98
		      144     2.022	     1       0.13      83.11
		      145     2.024	     1       0.13      83.24
		      146     2.033	     1       0.13      83.36
		      147     2.035	     1       0.13      83.49
		      148     2.051	     1       0.12      83.62
		      149     2.061	     1       0.12      83.74
		      150     2.068	     1       0.12      83.86
		      151     2.071	     1       0.12      83.98
		      152     2.079	     1       0.12      84.10
		      153     2.085	     1       0.12      84.21
		      154     2.093	     1       0.12      84.33
		      155     2.113	     1       0.11      84.44
		      156     2.119	     1       0.11      84.55
		      157     2.122	     1       0.11      84.66
		      158     2.126	     1       0.11      84.77
		      159     2.126	     1       0.11      84.88
		      160     2.136	     1       0.11      84.99
		      161     2.141	     1       0.11      85.09
		      162     2.142	     1       0.11      85.20
		      163     2.146	     1       0.11      85.30
		      164     2.150	     1       0.10      85.41
		      165     2.158	     1       0.10      85.51
		      166     2.159	     1       0.10      85.62
		      167     2.160	     1       0.10      85.72
		      168     2.166	     1       0.10      85.82
		      169     2.167	     1       0.10      85.92
		      170     2.169	     1       0.10      86.02
		      171     2.174	     1       0.10      86.12
		      172     2.181	     1       0.10      86.22
		      173     2.184	     1       0.10      86.32
		      174     2.184	     1       0.10      86.42
		      175     2.186	     1       0.10      86.52
		      176     2.188	     1       0.10      86.62
		      177     2.197	     1       0.10      86.72
		      178     2.212	     1       0.09      86.81
		      179     2.213	     1       0.09      86.90
		      180     2.222	     1       0.09      87.00
		      181     2.222	     1       0.09      87.09
		      182     2.230	     1       0.09      87.18
		      183     2.233	     1       0.09      87.27
		      184     2.247	     1       0.09      87.36
		      185     2.255	     1       0.09      87.45
		      186     2.256	     1       0.09      87.54
		      187     2.259	     1       0.09      87.62
		      188     2.272	     1       0.09      87.71
		      189     2.275	     1       0.08      87.79
		      190     2.285	     1       0.08      87.88
		      191     2.287	     1       0.08      87.96
		      192     2.292	     1       0.08      88.04
		      193     2.298	     1       0.08      88.13
		      194     2.304	     1       0.08      88.21
		      195     2.306	     1       0.08      88.29
		      196     2.308	     1       0.08      88.37
		      197     2.319	     1       0.08      88.45
		      198     2.322	     1       0.08      88.52
		      199     2.324	     1       0.08      88.60
		      200     2.324	     1       0.08      88.68
		      201     2.327	     1       0.08      88.76
		      202     2.332	     1       0.08      88.84
		      203     2.337	     1       0.08      88.91
		      204     2.338	     1       0.08      88.99
		      205     2.344	     1       0.08      89.06
		      206     2.349	     1       0.07      89.14
		      207     2.353	     1       0.07      89.21
		      208     2.374	     1       0.07      89.28
		      209     2.374	     1       0.07      89.36
		      210     2.377	     1       0.07      89.43
		      211     2.380	     1       0.07      89.50
		      212     2.383	     1       0.07      89.57
		      213     2.397	     1       0.07      89.64
		      214     2.401	     1       0.07      89.71
		      215     2.403	     1       0.07      89.78
		      216     2.420	     1       0.07      89.84
		      217     2.424	     1       0.07      89.91
		      218     2.430	     1       0.07      89.97
		      219     2.431	     1       0.07      90.04
		      220     2.432	     1       0.07      90.10
		      221     2.432	     1       0.07      90.17
		      222     2.433	     1       0.07      90.23
		      223     2.435	     1       0.06      90.30
		      224     2.436	     1       0.06      90.36
		      225     2.439	     1       0.06      90.43
		      226     2.450	     1       0.06      90.49
		      227     2.453	     1       0.06      90.55
		      228     2.457	     1       0.06      90.62
		      229     2.463	     1       0.06      90.68
		      230     2.466	     1       0.06      90.74
		      231     2.470	     1       0.06      90.80
		      232     2.472	     1       0.06      90.86
		      233     2.482	     1       0.06      90.92
		      234     2.483	     1       0.06      90.98
		      235     2.494	     1       0.06      91.04
		      236     2.494	     1       0.06      91.10
		      237     2.495	     1       0.06      91.16
		      238     2.503	     1       0.06      91.21
		      239     2.515	     1       0.06      91.27
		      240     2.516	     1       0.06      91.33
		      241     2.521	     1       0.06      91.38
		      242     2.529	     1       0.06      91.44
		      243     2.531	     1       0.06      91.49
		      244     2.532	     1       0.05      91.55
		      245     2.534	     1       0.05      91.60
		      246     2.536	     1       0.05      91.66
		      247     2.539	     1       0.05      91.71
		      248     2.543	     1       0.05      91.77
		      249     2.549	     1       0.05      91.82
		      250     2.551	     1       0.05      91.87
		      251     2.554	     1       0.05      91.93
		      252     2.558	     1       0.05      91.98
		      253     2.569	     1       0.05      92.03
		      254     2.569	     1       0.05      92.08
		      255     2.569	     1       0.05      92.13
		      256     2.581	     1       0.05      92.19
		      257     2.588	     1       0.05      92.24
		      258     2.591	     1       0.05      92.29
		      259     2.592	     1       0.05      92.33
		      260     2.592	     1       0.05      92.38
		      261     2.593	     1       0.05      92.43
		      262     2.593	     1       0.05      92.48
		      263     2.596	     1       0.05      92.53
		      264     2.597	     1       0.05      92.58
		      265     2.605	     1       0.05      92.63
		      266     2.606	     1       0.05      92.68
		      267     2.611	     1       0.05      92.73
		      268     2.616	     1       0.05      92.78
		      269     2.622	     1       0.05      92.82
		      270     2.623	     1       0.05      92.87
		      271     2.628	     1       0.05      92.92
		      272     2.629	     1       0.05      92.96
		      273     2.636	     1       0.05      93.01
		      274     2.637	     1       0.05      93.06
		      275     2.637	     1       0.05      93.10
		      276     2.638	     1       0.05      93.15
		      277     2.639	     1       0.05      93.19
		      278     2.646	     1       0.05      93.24
		      279     2.649	     1       0.05      93.28
		      280     2.649	     1       0.05      93.33
		      281     2.651	     1       0.04      93.37
		      282     2.653	     1       0.04      93.42
		      283     2.654	     1       0.04      93.46
		      284     2.656	     1       0.04      93.51
		      285     2.662	     1       0.04      93.55
		      286     2.666	     1       0.04      93.60
		      287     2.668	     1       0.04      93.64
		      288     2.678	     1       0.04      93.68
		      289     2.680	     1       0.04      93.73
		      290     2.683	     1       0.04      93.77
		      291     2.687	     1       0.04      93.81
		      292     2.693	     1       0.04      93.85
		      293     2.696	     1       0.04      93.89
		      294     2.701	     1       0.04      93.94
		      295     2.716	     1       0.04      93.98
		      296     2.725	     1       0.04      94.02
		      297     2.727	     1       0.04      94.06
		      298     2.728	     1       0.04      94.10
		      299     2.728	     1       0.04      94.13
		      300     2.730	     1       0.04      94.17
		      301     2.737	     1       0.04      94.21
		      302     2.745	     1       0.04      94.25
		      303     2.762	     1       0.04      94.29
		      304     2.767	     1       0.04      94.33
		      305     2.780	     1       0.04      94.36
		      306     2.783	     1       0.04      94.40
		      307     2.783	     1       0.04      94.43
		      308     2.789	     1       0.04      94.47
		      309     2.801	     1       0.03      94.50
		      310     2.802	     1       0.03      94.54
		      311     2.807	     1       0.03      94.57
		      312     2.812	     1       0.03      94.61
		      313     2.813	     1       0.03      94.64
		      314     2.814	     1       0.03      94.68
		      315     2.815	     1       0.03      94.71
		      316     2.821	     1       0.03      94.74
		      317     2.821	     1       0.03      94.78
		      318     2.823	     1       0.03      94.81
		      319     2.824	     1       0.03      94.85
		      320     2.828	     1       0.03      94.88
		      321     2.830	     1       0.03      94.91
		      322     2.832	     1       0.03      94.95
		      323     2.832	     1       0.03      94.98
		      324     2.838	     1       0.03      95.01
		      325     2.845	     1       0.03      95.04
		      326     2.851	     1       0.03      95.08
		      327     2.878	     1       0.03      95.11
		      328     2.881	     1       0.03      95.14
		      329     2.889	     1       0.03      95.17
		      330     2.898	     1       0.03      95.20
		      331     2.902	     1       0.03      95.23
		      332     2.905	     1       0.03      95.26
		      333     2.905	     1       0.03      95.29
		      334     2.912	     1       0.03      95.31
		      335     2.912	     1       0.03      95.34
		      336     2.914	     1       0.03      95.37
		      337     2.916	     1       0.03      95.40
		      338     2.918	     1       0.03      95.43
		      339     2.919	     1       0.03      95.46
		      340     2.919	     1       0.03      95.49
		      341     2.921	     1       0.03      95.52
		      342     2.927	     1       0.03      95.54
		      343     2.939	     1       0.03      95.57
		      344     2.945	     1       0.03      95.60
		      345     2.950	     1       0.03      95.63
		      346     2.960	     1       0.03      95.65
		      347     2.966	     1       0.03      95.68
		      348     2.971	     1       0.03      95.71
		      349     2.971	     1       0.03      95.73
		      350     2.973	     1       0.03      95.76
		      351     2.977	     1       0.03      95.78
		      352     2.977	     1       0.03      95.81
		      353     2.984	     1       0.03      95.83
		      354     2.986	     1       0.03      95.86
		      355     2.998	     1       0.03      95.89
		      356     3.008	     1       0.02      95.91
		      357     3.009	     1       0.02      95.93
		      358     3.016	     1       0.02      95.96
		      359     3.020	     1       0.02      95.98
		      360     3.022	     1       0.02      96.01
		      361     3.022	     1       0.02      96.03
		      362     3.026	     1       0.02      96.06
		      363     3.027	     1       0.02      96.08
		      364     3.042	     1       0.02      96.10
		      365     3.058	     1       0.02      96.13
		      366     3.065	     1       0.02      96.15
		      367     3.066	     1       0.02      96.17
		      368     3.070	     1       0.02      96.19
		      369     3.074	     1       0.02      96.21
		      370     3.077	     1       0.02      96.24
		      371     3.079	     1       0.02      96.26
		      372     3.083	     1       0.02      96.28
		      373     3.084	     1       0.02      96.30
		      374     3.087	     1       0.02      96.32
		      375     3.087	     1       0.02      96.34
		      376     3.092	     1       0.02      96.37
		      377     3.093	     1       0.02      96.39
		      378     3.093	     1       0.02      96.41
		      379     3.094	     1       0.02      96.43
		      380     3.095	     1       0.02      96.45
		      381     3.100	     1       0.02      96.47
		      382     3.111	     1       0.02      96.49
		      383     3.112	     1       0.02      96.51
		      384     3.115	     1       0.02      96.53
		      385     3.122	     1       0.02      96.55
		      386     3.122	     1       0.02      96.57
		      387     3.123	     1       0.02      96.59
		      388     3.131	     1       0.02      96.61
		      389     3.131	     1       0.02      96.63
		      390     3.140	     1       0.02      96.65
		      391     3.145	     1       0.02      96.67
		      392     3.145	     1       0.02      96.69
		      393     3.146	     1       0.02      96.71
		      394     3.151	     1       0.02      96.73
		      395     3.157	     1       0.02      96.75
		      396     3.158	     1       0.02      96.77
		      397     3.158	     1       0.02      96.79
		      398     3.160	     1       0.02      96.81
		      399     3.179	     1       0.02      96.83
		      400     3.185	     1       0.02      96.85
		      401     3.190	     1       0.02      96.86
		      402     3.208	     1       0.02      96.88
		      403     3.228	     1       0.02      96.90
		      404     3.231	     1       0.02      96.92
		      405     3.236	     1       0.02      96.93
		      406     3.238	     1       0.02      96.95
		      407     3.239	     1       0.02      96.97
		      408     3.243	     1       0.02      96.98
		      409     3.244	     1       0.02      97.00
		      410     3.249	     1       0.02      97.02
		      411     3.251	     1       0.02      97.03
		      412     3.252	     1       0.02      97.05
		      413     3.254	     1       0.02      97.06
		      414     3.254	     1       0.02      97.08
		      415     3.256	     1       0.02      97.10
		      416     3.260	     1       0.02      97.11
		      417     3.265	     1       0.02      97.13
		      418     3.266	     1       0.02      97.14
		      419     3.272	     1       0.02      97.16
		      420     3.279	     1       0.02      97.18
		      421     3.284	     1       0.02      97.19
		      422     3.285	     1       0.02      97.21
		      423     3.285	     1       0.02      97.22
		      424     3.290	     1       0.02      97.24
		      425     3.294	     1       0.02      97.25
		      426     3.294	     1       0.02      97.27
		      427     3.295	     1       0.02      97.28
		      428     3.302	     1       0.02      97.30
		      429     3.302	     1       0.01      97.31
		      430     3.307	     1       0.01      97.33
		      431     3.307	     1       0.01      97.34
		      432     3.326	     1       0.01      97.36
		      433     3.332	     1       0.01      97.37
		      434     3.336	     1       0.01      97.39
		      435     3.345	     1       0.01      97.40
		      436     3.345	     1       0.01      97.41
		      437     3.346	     1       0.01      97.43
		      438     3.351	     1       0.01      97.44
		      439     3.354	     1       0.01      97.45
		      440     3.355	     1       0.01      97.47
		      441     3.360	     1       0.01      97.48
		      442     3.363	     1       0.01      97.50
		      443     3.364	     1       0.01      97.51
		      444     3.375	     1       0.01      97.52
		      445     3.375	     1       0.01      97.54
		      446     3.382	     1       0.01      97.55
		      447     3.382	     1       0.01      97.56
		      448     3.389	     1       0.01      97.58
		      449     3.390	     1       0.01      97.59
		      450     3.391	     1       0.01      97.60
		      451     3.391	     1       0.01      97.61
		      452     3.393	     1       0.01      97.63
		      453     3.400	     1       0.01      97.64
		      454     3.405	     1       0.01      97.65
		      455     3.405	     1       0.01      97.66
		      456     3.407	     1       0.01      97.68
		      457     3.408	     1       0.01      97.69
		      458     3.409	     1       0.01      97.70
		      459     3.409	     1       0.01      97.71
		      460     3.413	     1       0.01      97.73
		      461     3.415	     1       0.01      97.74
		      462     3.419	     1       0.01      97.75
		      463     3.420	     1       0.01      97.76
		      464     3.421	     1       0.01      97.78
		      465     3.422	     1       0.01      97.79
		      466     3.426	     1       0.01      97.80
		      467     3.426	     1       0.01      97.81
		      468     3.427	     1       0.01      97.83
		      469     3.429	     1       0.01      97.84
		      470     3.436	     1       0.01      97.85
		      471     3.438	     1       0.01      97.86
		      472     3.440	     1       0.01      97.87
		      473     3.441	     1       0.01      97.88
		      474     3.446	     1       0.01      97.90
		      475     3.451	     1       0.01      97.91
		      476     3.455	     1       0.01      97.92
		      477     3.455	     1       0.01      97.93
		      478     3.457	     1       0.01      97.94
		      479     3.470	     1       0.01      97.95
		      480     3.473	     1       0.01      97.97
		      481     3.475	     1       0.01      97.98
		      482     3.475	     1       0.01      97.99
		      483     3.477	     1       0.01      98.00
		      484     3.482	     1       0.01      98.01
		      485     3.483	     1       0.01      98.02
		      486     3.488	     1       0.01      98.03
		      487     3.492	     1       0.01      98.04
		      488     3.496	     1       0.01      98.05
		      489     3.497	     1       0.01      98.06
		      490     3.497	     1       0.01      98.08
		      491     3.498	     1       0.01      98.09
		      492     3.503	     1       0.01      98.10
		      493     3.507	     1       0.01      98.11
		      494     3.508	     1       0.01      98.12
		      495     3.511	     1       0.01      98.13
		      496     3.513	     1       0.01      98.14
		      497     3.521	     1       0.01      98.15
		      498     3.526	     1       0.01      98.16
		      499     3.533	     1       0.01      98.17
		      500     3.536	     1       0.01      98.18
		      501     3.537	     1       0.01      98.19
		      502     3.539	     1       0.01      98.20
		      503     3.548	     1       0.01      98.21
		      504     3.549	     1       0.01      98.22
		      505     3.554	     1       0.01      98.23
		      506     3.556	     1       0.01      98.24
		      507     3.556	     1       0.01      98.25
		      508     3.562	     1       0.01      98.26
		      509     3.564	     1       0.01      98.27
		      510     3.567	     1       0.01      98.28
		      511     3.571	     1       0.01      98.29
		      512     3.573	     1       0.01      98.30
		      513     3.576	     1       0.01      98.31
		      514     3.579	     1       0.01      98.32
		      515     3.579	     1       0.01      98.33
		      516     3.579	     1       0.01      98.33
		      517     3.585	     1       0.01      98.34
		      518     3.587	     1       0.01      98.35
		      519     3.591	     1       0.01      98.36
		      520     3.593	     1       0.01      98.37
		      521     3.595	     1       0.01      98.38
		      522     3.595	     1       0.01      98.39
		      523     3.604	     1       0.01      98.40
		      524     3.604	     1       0.01      98.41
		      525     3.607	     1       0.01      98.42
		      526     3.612	     1       0.01      98.43
		      527     3.614	     1       0.01      98.43
		      528     3.614	     1       0.01      98.44
		      529     3.624	     1       0.01      98.45
		      530     3.626	     1       0.01      98.46
		      531     3.630	     1       0.01      98.47
		      532     3.631	     1       0.01      98.48
		      533     3.636	     1       0.01      98.49
		      534     3.637	     1       0.01      98.50
		      535     3.637	     1       0.01      98.50
		      536     3.644	     1       0.01      98.51
		      537     3.645	     1       0.01      98.52
		      538     3.645	     1       0.01      98.53
		      539     3.646	     1       0.01      98.54
		      540     3.650	     1       0.01      98.55
		      541     3.659	     1       0.01      98.55
		      542     3.660	     1       0.01      98.56
		      543     3.660	     1       0.01      98.57
		      544     3.663	     1       0.01      98.58
		      545     3.665	     1       0.01      98.59
		      546     3.665	     1       0.01      98.59
		      547     3.671	     1       0.01      98.60
		      548     3.672	     1       0.01      98.61
		      549     3.677	     1       0.01      98.62
		      550     3.685	     1       0.01      98.63
		      551     3.693	     1       0.01      98.63
		      552     3.695	     1       0.01      98.64
		      553     3.695	     1       0.01      98.65
		      554     3.700	     1       0.01      98.66
		      555     3.703	     1       0.01      98.67
		      556     3.706	     1       0.01      98.67
		      557     3.715	     1       0.01      98.68
		      558     3.719	     1       0.01      98.69
		      559     3.733	     1       0.01      98.70
		      560     3.734	     1       0.01      98.70
		      561     3.734	     1       0.01      98.71
		      562     3.737	     1       0.01      98.72
		      563     3.757	     1       0.01      98.72
		      564     3.757	     1       0.01      98.73
		      565     3.759	     1       0.01      98.74
		      566     3.765	     1       0.01      98.74
		      567     3.768	     1       0.01      98.75
		      568     3.770	     1       0.01      98.76
		      569     3.771	     1       0.01      98.76
		      570     3.775	     1       0.01      98.77
		      571     3.775	     1       0.01      98.78
		      572     3.777	     1       0.01      98.79
		      573     3.791	     1       0.01      98.79
		      574     3.795	     1       0.01      98.80
		      575     3.797	     1       0.01      98.80
		      576     3.797	     1       0.01      98.81
		      577     3.801	     1       0.01      98.82
		      578     3.802	     1       0.01      98.82
		      579     3.804	     1       0.01      98.83
		      580     3.805	     1       0.01      98.84
		      581     3.812	     1       0.01      98.84
		      582     3.813	     1       0.01      98.85
		      583     3.815	     1       0.01      98.86
		      584     3.818	     1       0.01      98.86
		      585     3.818	     1       0.01      98.87
		      586     3.827	     1       0.01      98.87
		      587     3.828	     1       0.01      98.88
		      588     3.830	     1       0.01      98.89
		      589     3.836	     1       0.01      98.89
		      590     3.838	     1       0.01      98.90
		      591     3.838	     1       0.01      98.91
		      592     3.841	     1       0.01      98.91
		      593     3.841	     1       0.01      98.92
		      594     3.844	     1       0.01      98.92
		      595     3.849	     1       0.01      98.93
		      596     3.850	     1       0.01      98.94
		      597     3.852	     1       0.01      98.94
		      598     3.853	     1       0.01      98.95
		      599     3.856	     1       0.01      98.95
		      600     3.858	     1       0.01      98.96
		      601     3.869	     1       0.01      98.96
		      602     3.870	     1       0.01      98.97
		      603     3.878	     1       0.01      98.98
		      604     3.881	     1       0.01      98.98
		      605     3.882	     1       0.01      98.99
		      606     3.886	     1       0.01      98.99
		      607     3.886	     1       0.01      99.00
		      608     3.887	     1       0.01      99.00
		      609     3.892	     1       0.01      99.01
		      610     3.895	     1       0.01      99.02
		      611     3.900	     1       0.01      99.02
		      612     3.901	     1       0.01      99.03
		      613     3.902	     1       0.01      99.03
		      614     3.902	     1       0.01      99.04
		      615     3.903	     1       0.01      99.04
		      616     3.903	     1       0.01      99.05
		      617     3.905	     1       0.01      99.05
		      618     3.909	     1       0.01      99.06
		      619     3.910	     1       0.01      99.06
		      620     3.920	     1       0.01      99.07
		      621     3.921	     1       0.01      99.07
		      622     3.933	     1       0.01      99.08
		      623     3.938	     1       0.01      99.08
		      624     3.940	     1       0.01      99.09
		      625     3.941	     1       0.01      99.10
		      626     3.941	     1       0.01      99.10
		      627     3.947	     1       0.01      99.11
		      628     3.950	     1       0.01      99.11
		      629     3.953	     1       0.00      99.12
		      630     3.954	     1       0.00      99.12
		      631     3.955	     1       0.00      99.13
		      632     3.956	     1       0.00      99.13
		      633     3.958	     1       0.00      99.14
		      634     3.960	     1       0.00      99.14
		      635     3.960	     1       0.00      99.15
		      636     3.968	     1       0.00      99.15
		      637     3.968	     1       0.00      99.15
		      638     3.977	     1       0.00      99.16
		      639     3.982	     1       0.00      99.16
		      640     3.985	     1       0.00      99.17
		      641     3.992	     1       0.00      99.17
		      642     3.994	     1       0.00      99.18
		      643     3.998	     1       0.00      99.18
		      644     3.999	     1       0.00      99.19
		      645     4.001	     1       0.00      99.19
		      646     4.006	     1       0.00      99.20
		      647     4.013	     1       0.00      99.20
		      648     4.017	     1       0.00      99.21
		      649     4.017	     1       0.00      99.21
		      650     4.022	     1       0.00      99.21
		      651     4.023	     1       0.00      99.22
		      652     4.025	     1       0.00      99.22
		      653     4.029	     1       0.00      99.23
		      654     4.034	     1       0.00      99.23
		      655     4.045	     1       0.00      99.24
		      656     4.048	     1       0.00      99.24
		      657     4.051	     1       0.00      99.25
		      658     4.054	     1       0.00      99.25
		      659     4.055	     1       0.00      99.25
		      660     4.057	     1       0.00      99.26
		      661     4.057	     1       0.00      99.26
		      662     4.066	     1       0.00      99.27
		      663     4.067	     1       0.00      99.27
		      664     4.068	     1       0.00      99.27
		      665     4.073	     1       0.00      99.28
		      666     4.074	     1       0.00      99.28
		      667     4.080	     1       0.00      99.29
		      668     4.081	     1       0.00      99.29
		      669     4.083	     1       0.00      99.29
		      670     4.086	     1       0.00      99.30
		      671     4.087	     1       0.00      99.30
		      672     4.091	     1       0.00      99.31
		      673     4.091	     1       0.00      99.31
		      674     4.093	     1       0.00      99.31
		      675     4.098	     1       0.00      99.32
		      676     4.098	     1       0.00      99.32
		      677     4.100	     1       0.00      99.33
		      678     4.103	     1       0.00      99.33
		      679     4.103	     1       0.00      99.33
		      680     4.105	     1       0.00      99.34
		      681     4.109	     1       0.00      99.34
		      682     4.110	     1       0.00      99.35
		      683     4.111	     1       0.00      99.35
		      684     4.112	     1       0.00      99.35
		      685     4.116	     1       0.00      99.36
		      686     4.118	     1       0.00      99.36
		      687     4.121	     1       0.00      99.36
		      688     4.122	     1       0.00      99.37
		      689     4.124	     1       0.00      99.37
		      690     4.131	     1       0.00      99.38
		      691     4.134	     1       0.00      99.38
		      692     4.137	     1       0.00      99.38
		      693     4.138	     1       0.00      99.39
		      694     4.143	     1       0.00      99.39
		      695     4.146	     1       0.00      99.39
		      696     4.149	     1       0.00      99.40
		      697     4.152	     1       0.00      99.40
		      698     4.156	     1       0.00      99.40
		      699     4.159	     1       0.00      99.41
		      700     4.159	     1       0.00      99.41
		      701     4.160	     1       0.00      99.42
		      702     4.165	     1       0.00      99.42
		      703     4.165	     1       0.00      99.42
		      704     4.166	     1       0.00      99.43
		      705     4.167	     1       0.00      99.43
		      706     4.167	     1       0.00      99.43
		      707     4.168	     1       0.00      99.44
		      708     4.175	     1       0.00      99.44
		      709     4.180	     1       0.00      99.44
		      710     4.182	     1       0.00      99.45
		      711     4.187	     1       0.00      99.45
		      712     4.188	     1       0.00      99.45
		      713     4.189	     1       0.00      99.46
		      714     4.190	     1       0.00      99.46
		      715     4.196	     1       0.00      99.46
		      716     4.196	     1       0.00      99.47
		      717     4.210	     1       0.00      99.47
		      718     4.214	     1       0.00      99.47
		      719     4.216	     1       0.00      99.48
		      720     4.216	     1       0.00      99.48
		      721     4.216	     1       0.00      99.48
		      722     4.218	     1       0.00      99.49
		      723     4.221	     1       0.00      99.49
		      724     4.223	     1       0.00      99.49
		      725     4.226	     1       0.00      99.50
		      726     4.228	     1       0.00      99.50
		      727     4.228	     1       0.00      99.50
		      728     4.234	     1       0.00      99.50
		      729     4.237	     1       0.00      99.51
		      730     4.239	     1       0.00      99.51
		      731     4.242	     1       0.00      99.51
		      732     4.247	     1       0.00      99.52
		      733     4.255	     1       0.00      99.52
		      734     4.256	     1       0.00      99.52
		      735     4.257	     1       0.00      99.53
		      736     4.258	     1       0.00      99.53
		      737     4.264	     1       0.00      99.53
		      738     4.268	     1       0.00      99.53
		      739     4.268	     1       0.00      99.54
		      740     4.275	     1       0.00      99.54
		      741     4.275	     1       0.00      99.54
		      742     4.280	     1       0.00      99.55
		      743     4.281	     1       0.00      99.55
		      744     4.287	     1       0.00      99.55
		      745     4.290	     1       0.00      99.55
		      746     4.291	     1       0.00      99.56
		      747     4.291	     1       0.00      99.56
		      748     4.303	     1       0.00      99.56
		      749     4.304	     1       0.00      99.57
		      750     4.307	     1       0.00      99.57
		      751     4.308	     1       0.00      99.57
		      752     4.308	     1       0.00      99.57
		      753     4.308	     1       0.00      99.58
		      754     4.312	     1       0.00      99.58
		      755     4.313	     1       0.00      99.58
		      756     4.317	     1       0.00      99.59
		      757     4.320	     1       0.00      99.59
		      758     4.323	     1       0.00      99.59
		      759     4.331	     1       0.00      99.59
		      760     4.347	     1       0.00      99.60
		      761     4.348	     1       0.00      99.60
		      762     4.349	     1       0.00      99.60
		      763     4.350	     1       0.00      99.60
		      764     4.358	     1       0.00      99.61
		      765     4.375	     1       0.00      99.61
		      766     4.375	     1       0.00      99.61
		      767     4.378	     1       0.00      99.61
		      768     4.381	     1       0.00      99.62
		      769     4.381	     1       0.00      99.62
		      770     4.381	     1       0.00      99.62
		      771     4.382	     1       0.00      99.62
		      772     4.387	     1       0.00      99.63
		      773     4.388	     1       0.00      99.63
		      774     4.392	     1       0.00      99.63
		      775     4.395	     1       0.00      99.63
		      776     4.396	     1       0.00      99.64
		      777     4.400	     1       0.00      99.64
		      778     4.400	     1       0.00      99.64
		      779     4.402	     1       0.00      99.64
		      780     4.405	     1       0.00      99.64
		      781     4.405	     1       0.00      99.65
		      782     4.410	     1       0.00      99.65
		      783     4.414	     1       0.00      99.65
		      784     4.417	     1       0.00      99.65
		      785     4.417	     1       0.00      99.66
		      786     4.418	     1       0.00      99.66
		      787     4.418	     1       0.00      99.66
		      788     4.423	     1       0.00      99.66
		      789     4.428	     1       0.00      99.66
		      790     4.432	     1       0.00      99.67
		      791     4.434	     1       0.00      99.67
		      792     4.436	     1       0.00      99.67
		      793     4.438	     1       0.00      99.67
		      794     4.441	     1       0.00      99.68
		      795     4.443	     1       0.00      99.68
		      796     4.458	     1       0.00      99.68
		      797     4.464	     1       0.00      99.68
		      798     4.464	     1       0.00      99.68
		      799     4.466	     1       0.00      99.69
		      800     4.466	     1       0.00      99.69
		      801     4.471	     1       0.00      99.69
		      802     4.471	     1       0.00      99.69
		      803     4.471	     1       0.00      99.70
		      804     4.472	     1       0.00      99.70
		      805     4.474	     1       0.00      99.70
		      806     4.476	     1       0.00      99.70
		      807     4.478	     1       0.00      99.70
		      808     4.482	     1       0.00      99.71
		      809     4.484	     1       0.00      99.71
		      810     4.485	     1       0.00      99.71
		      811     4.488	     1       0.00      99.71
		      812     4.490	     1       0.00      99.71
		      813     4.491	     1       0.00      99.72
		      814     4.492	     1       0.00      99.72
		      815     4.493	     1       0.00      99.72
		      816     4.493	     1       0.00      99.72
		      817     4.494	     1       0.00      99.72
		      818     4.497	     1       0.00      99.73
		      819     4.502	     1       0.00      99.73
		      820     4.508	     1       0.00      99.73
		      821     4.513	     1       0.00      99.73
		      822     4.515	     1       0.00      99.73
		      823     4.516	     1       0.00      99.74
		      824     4.525	     1       0.00      99.74
		      825     4.526	     1       0.00      99.74
		      826     4.526	     1       0.00      99.74
		      827     4.528	     1       0.00      99.74
		      828     4.535	     1       0.00      99.74
		      829     4.538	     1       0.00      99.75
		      830     4.549	     1       0.00      99.75
		      831     4.550	     1       0.00      99.75
		      832     4.552	     1       0.00      99.75
		      833     4.554	     1       0.00      99.75
		      834     4.555	     1       0.00      99.76
		      835     4.556	     1       0.00      99.76
		      836     4.558	     1       0.00      99.76
		      837     4.561	     1       0.00      99.76
		      838     4.564	     1       0.00      99.76
		      839     4.567	     1       0.00      99.76
		      840     4.567	     1       0.00      99.77
		      841     4.568	     1       0.00      99.77
		      842     4.572	     1       0.00      99.77
		      843     4.580	     1       0.00      99.77
		      844     4.580	     1       0.00      99.77
		      845     4.582	     1       0.00      99.78
		      846     4.593	     1       0.00      99.78
		      847     4.596	     1       0.00      99.78
		      848     4.599	     1       0.00      99.78
		      849     4.600	     1       0.00      99.78
		      850     4.606	     1       0.00      99.78
		      851     4.608	     1       0.00      99.79
		      852     4.608	     1       0.00      99.79
		      853     4.614	     1       0.00      99.79
		      854     4.615	     1       0.00      99.79
		      855     4.617	     1       0.00      99.79
		      856     4.620	     1       0.00      99.79
		      857     4.624	     1       0.00      99.80
		      858     4.625	     1       0.00      99.80
		      859     4.628	     1       0.00      99.80
		      860     4.628	     1       0.00      99.80
		      861     4.635	     1       0.00      99.80
		      862     4.639	     1       0.00      99.80
		      863     4.639	     1       0.00      99.80
		      864     4.644	     1       0.00      99.81
		      865     4.644	     1       0.00      99.81
		      866     4.651	     1       0.00      99.81
		      867     4.651	     1       0.00      99.81
		      868     4.658	     1       0.00      99.81
		      869     4.663	     1       0.00      99.81
		      870     4.674	     1       0.00      99.82
		      871     4.675	     1       0.00      99.82
		      872     4.679	     1       0.00      99.82
		      873     4.680	     1       0.00      99.82
		      874     4.683	     1       0.00      99.82
		      875     4.686	     1       0.00      99.82
		      876     4.697	     1       0.00      99.82
		      877     4.698	     1       0.00      99.83
		      878     4.707	     1       0.00      99.83
		      879     4.711	     1       0.00      99.83
		      880     4.716	     1       0.00      99.83
		      881     4.719	     1       0.00      99.83
		      882     4.720	     1       0.00      99.83
		      883     4.727	     1       0.00      99.83
		      884     4.732	     1       0.00      99.84
		      885     4.734	     1       0.00      99.84
		      886     4.737	     1       0.00      99.84
		      887     4.738	     1       0.00      99.84
		      888     4.741	     1       0.00      99.84
		      889     4.742	     1       0.00      99.84
		      890     4.744	     1       0.00      99.84
		      891     4.746	     1       0.00      99.84
		      892     4.747	     1       0.00      99.85
		      893     4.757	     1       0.00      99.85
		      894     4.760	     1       0.00      99.85
		      895     4.763	     1       0.00      99.85
		      896     4.767	     1       0.00      99.85
		      897     4.771	     1       0.00      99.85
		      898     4.778	     1       0.00      99.85
		      899     4.791	     1       0.00      99.85
		      900     4.793	     1       0.00      99.86
		      901     4.800	     1       0.00      99.86
		      902     4.803	     1       0.00      99.86
		      903     4.808	     1       0.00      99.86
		      904     4.812	     1       0.00      99.86
		      905     4.813	     1       0.00      99.86
		      906     4.814	     1       0.00      99.86
		      907     4.815	     1       0.00      99.86
		      908     4.816	     1       0.00      99.87
		      909     4.817	     1       0.00      99.87
		      910     4.817	     1       0.00      99.87
		      911     4.824	     1       0.00      99.87
		      912     4.826	     1       0.00      99.87
		      913     4.828	     1       0.00      99.87
		      914     4.832	     1       0.00      99.87
		      915     4.834	     1       0.00      99.87
		      916     4.835	     1       0.00      99.87
		      917     4.837	     1       0.00      99.88
		      918     4.851	     1       0.00      99.88
		      919     4.859	     1       0.00      99.88
		      920     4.861	     1       0.00      99.88
		      921     4.861	     1       0.00      99.88
		      922     4.863	     1       0.00      99.88
		      923     4.864	     1       0.00      99.88
		      924     4.868	     1       0.00      99.88
		      925     4.882	     1       0.00      99.88
		      926     4.893	     1       0.00      99.88
		      927     4.897	     1       0.00      99.89
		      928     4.903	     1       0.00      99.89
		      929     4.905	     1       0.00      99.89
		      930     4.908	     1       0.00      99.89
		      931     4.909	     1       0.00      99.89
		      932     4.912	     1       0.00      99.89
		      933     4.915	     1       0.00      99.89
		      934     4.918	     1       0.00      99.89
		      935     4.918	     1       0.00      99.89
		      936     4.920	     1       0.00      99.89
		      937     4.930	     1       0.00      99.90
		      938     4.936	     1       0.00      99.90
		      939     4.939	     1       0.00      99.90
		      940     4.940	     1       0.00      99.90
		      941     4.949	     1       0.00      99.90
		      942     4.953	     1       0.00      99.90
		      943     4.954	     1       0.00      99.90
		      944     4.956	     1       0.00      99.90
		      945     4.958	     1       0.00      99.90
		      946     4.966	     1       0.00      99.90
		      947     4.967	     1       0.00      99.91
		      948     4.971	     1       0.00      99.91
		      949     4.977	     1       0.00      99.91
		      950     4.978	     1       0.00      99.91
		      951     4.978	     1       0.00      99.91
		      952     4.985	     1       0.00      99.91
		      953     4.988	     1       0.00      99.91
		      954     4.991	     1       0.00      99.91
		      955     4.992	     1       0.00      99.91
		      956     4.993	     1       0.00      99.91
		      957     4.994	     1       0.00      99.91
		      958     5.002	     1       0.00      99.91
		      959     5.003	     1       0.00      99.92
		      960     5.003	     1       0.00      99.92
		      961     5.013	     1       0.00      99.92
		      962     5.015	     1       0.00      99.92
		      963     5.020	     1       0.00      99.92
		      964     5.020	     1       0.00      99.92
		      965     5.028	     1       0.00      99.92
		      966     5.030	     1       0.00      99.92
		      967     5.031	     1       0.00      99.92
		      968     5.031	     1       0.00      99.92
		      969     5.031	     1       0.00      99.92
		      970     5.032	     1       0.00      99.92
		      971     5.033	     1       0.00      99.93
		      972     5.035	     1       0.00      99.93
		      973     5.037	     1       0.00      99.93
		      974     5.046	     1       0.00      99.93
		      975     5.051	     1       0.00      99.93
		      976     5.051	     1       0.00      99.93
		      977     5.056	     1       0.00      99.93
		      978     5.065	     1       0.00      99.93
		      979     5.067	     1       0.00      99.93
		      980     5.080	     1       0.00      99.93
		      981     5.088	     1       0.00      99.93
		      982     5.088	     1       0.00      99.93
		      983     5.101	     1       0.00      99.93
		      984     5.104	     1       0.00      99.94
		      985     5.108	     1       0.00      99.94
		      986     5.112	     1       0.00      99.94
		      987     5.113	     1       0.00      99.94
		      988     5.114	     1       0.00      99.94
		      989     5.118	     1       0.00      99.94
		      990     5.120	     1       0.00      99.94
		      991     5.120	     1       0.00      99.94
		      992     5.121	     1       0.00      99.94
		      993     5.129	     1       0.00      99.94
		      994     5.130	     1       0.00      99.94
		      995     5.137	     1       0.00      99.94
		      996     5.139	     1       0.00      99.94
		      997     5.145	     1       0.00      99.94
		      998     5.149	     1       0.00      99.94
		      999     5.150	     1       0.00      99.95
		     1000     5.157	     1       0.00      99.95
		     1001     5.164	     1       0.00      99.95
		     1002     5.170	     1       0.00      99.95
		     1003     5.173	     1       0.00      99.95
		     1004     5.178	     1       0.00      99.95
		     1005     5.182	     1       0.00      99.95
		     1006     5.185	     1       0.00      99.95
		     1007     5.185	     1       0.00      99.95
		     1008     5.192	     1       0.00      99.95
		     1009     5.199	     1       0.00      99.95
		     1010     5.201	     1       0.00      99.95
		     1011     5.204	     1       0.00      99.95
		     1012     5.205	     1       0.00      99.95
		     1013     5.213	     1       0.00      99.95
		     1014     5.215	     1       0.00      99.95
		     1015     5.224	     1       0.00      99.96
		     1016     5.226	     1       0.00      99.96
		     1017     5.227	     1       0.00      99.96
		     1018     5.232	     1       0.00      99.96
		     1019     5.240	     1       0.00      99.96
		     1020     5.240	     1       0.00      99.96
		     1021     5.243	     1       0.00      99.96
		     1022     5.253	     1       0.00      99.96
		     1023     5.255	     1       0.00      99.96
		     1024     5.264	     1       0.00      99.96
		     1025     5.272	     1       0.00      99.96
		     1026     5.283	     1       0.00      99.96
		     1027     5.299	     1       0.00      99.96
		     1028     5.299	     1       0.00      99.96
		     1029     5.307	     1       0.00      99.96
		     1030     5.309	     1       0.00      99.96
		     1031     5.316	     1       0.00      99.96
		     1032     5.317	     1       0.00      99.96
		     1033     5.321	     1       0.00      99.97
		     1034     5.324	     1       0.00      99.97
		     1035     5.328	     1       0.00      99.97
		     1036     5.340	     1       0.00      99.97
		     1037     5.350	     1       0.00      99.97
		     1038     5.356	     1       0.00      99.97
		     1039     5.365	     1       0.00      99.97
		     1040     5.369	     1       0.00      99.97
		     1041     5.378	     1       0.00      99.97
		     1042     5.380	     1       0.00      99.97
		     1043     5.383	     1       0.00      99.97
		     1044     5.384	     1       0.00      99.97
		     1045     5.386	     1       0.00      99.97
		     1046     5.389	     1       0.00      99.97
		     1047     5.400	     1       0.00      99.97
		     1048     5.401	     1       0.00      99.97
		     1049     5.406	     1       0.00      99.97
		     1050     5.407	     1       0.00      99.97
		     1051     5.419	     1       0.00      99.97
		     1052     5.422	     1       0.00      99.97
		     1053     5.424	     1       0.00      99.97
		     1054     5.429	     1       0.00      99.97
		     1055     5.433	     1       0.00      99.98
		     1056     5.438	     1       0.00      99.98
		     1057     5.439	     1       0.00      99.98
		     1058     5.440	     1       0.00      99.98
		     1059     5.442	     1       0.00      99.98
		     1060     5.450	     1       0.00      99.98
		     1061     5.454	     1       0.00      99.98
		     1062     5.461	     1       0.00      99.98
		     1063     5.464	     1       0.00      99.98
		     1064     5.466	     1       0.00      99.98
		     1065     5.472	     1       0.00      99.98
		     1066     5.479	     1       0.00      99.98
		     1067     5.486	     1       0.00      99.98
		     1068     5.494	     1       0.00      99.98
		     1069     5.495	     1       0.00      99.98
		     1070     5.495	     1       0.00      99.98
		     1071     5.515	     1       0.00      99.98
		     1072     5.523	     1       0.00      99.98
		     1073     5.524	     1       0.00      99.98
		     1074     5.524	     1       0.00      99.98
		     1075     5.534	     1       0.00      99.98
		     1076     5.549	     1       0.00      99.98
		     1077     5.550	     1       0.00      99.98
		     1078     5.554	     1       0.00      99.98
		     1079     5.575	     1       0.00      99.98
		     1080     5.576	     1       0.00      99.98
		     1081     5.579	     1       0.00      99.98
		     1082     5.584	     1       0.00      99.99
		     1083     5.589	     1       0.00      99.99
		     1084     5.601	     1       0.00      99.99
		     1085     5.606	     1       0.00      99.99
		     1086     5.613	     1       0.00      99.99
		     1087     5.613	     1       0.00      99.99
		     1088     5.627	     1       0.00      99.99
		     1089     5.633	     1       0.00      99.99
		     1090     5.645	     1       0.00      99.99
		     1091     5.648	     1       0.00      99.99
		     1092     5.657	     1       0.00      99.99
		     1093     5.662	     1       0.00      99.99
		     1094     5.674	     1       0.00      99.99
		     1095     5.675	     1       0.00      99.99
		     1096     5.678	     1       0.00      99.99
		     1097     5.683	     1       0.00      99.99
		     1098     5.686	     1       0.00      99.99
		     1099     5.694	     1       0.00      99.99
		     1100     5.702	     1       0.00      99.99
		     1101     5.707	     1       0.00      99.99
		     1102     5.709	     1       0.00      99.99
		     1103     5.709	     1       0.00      99.99
		     1104     5.710	     1       0.00      99.99
		     1105     5.710	     1       0.00      99.99
		     1106     5.714	     1       0.00      99.99
		     1107     5.719	     1       0.00      99.99
		     1108     5.721	     1       0.00      99.99
		     1109     5.726	     1       0.00      99.99
		     1110     5.732	     1       0.00      99.99
		     1111     5.733	     1       0.00      99.99
		     1112     5.747	     1       0.00      99.99
		     1113     5.752	     1       0.00      99.99
		     1114     5.752	     1       0.00      99.99
		     1115     5.753	     1       0.00      99.99
		     1116     5.759	     1       0.00      99.99
		     1117     5.771	     1       0.00      99.99
		     1118     5.777	     1       0.00      99.99
		     1119     5.805	     1       0.00      99.99
		     1120     5.808	     1       0.00     100.00
		     1121     5.812	     1       0.00     100.00
		     1122     5.819	     1       0.00     100.00
		     1123     5.848	     1       0.00     100.00
		     1124     5.849	     1       0.00     100.00
		     1125     5.865	     1       0.00     100.00
		     1126     5.870	     1       0.00     100.00
		     1127     5.872	     1       0.00     100.00
		     1128     5.876	     1       0.00     100.00
		     1129     5.890	     1       0.00     100.00
		     1130     5.895	     1       0.00     100.00
		     1131     5.896	     1       0.00     100.00
		     1132     5.899	     1       0.00     100.00
		     1133     5.906	     1       0.00     100.00
		     1134     5.924	     1       0.00     100.00
		     1135     5.930	     1       0.00     100.00
		     1136     5.937	     1       0.00     100.00
		     1137     5.938	     1       0.00     100.00
		     1138     5.945	     1       0.00     100.00
		     1139     5.948	     1       0.00     100.00
		     1140     5.965	     1       0.00     100.00
		     1141     5.968	     1       0.00     100.00
		     1142     5.969	     1       0.00     100.00
		     1143     5.972	     1       0.00     100.00
		     1144     5.972	     1       0.00     100.00
		     1145     5.973	     1       0.00     100.00
		     1146     5.978	     1       0.00     100.00
		     1147     5.991	     1       0.00     100.00

		Conformers below 3 kcal/mol: 356
		Lowest energy conformer    : -68.325438 Eh
		Sconf at 298.15 K          :  10.52 cal/(molK)
		Gconf at 298.15 K          : -1.91 kcal/mol

		Writing final ensemble to goat_0.finalensemble.xyz

--------------------------------
SUGGESTED CITATIONS FOR THIS RUN
--------------------------------

Below you find a list of papers that are relevant to this ORCA run
We neither can nor want to force you to cite these papers, but we appreciate if you do
You receive ORCA, which is the product of decades of hard work by many enthusiastic individuals, for free
The only thing we kindly ask in return is that you cite our papers,
We deeply appreciate it, if you show your appreciation for ORCA by not just citing the generic ORCA reference.

Please note that relegating all ORCA citations to the supporting information does *not* help us.
SI sections are not indexed - citations you put there will not count into any citation statistics
But we need these citations in order to attract the funding resources that allow us to do what we are doing

Therefore, if you are a happy ORCA user, please consider citing a few of the papers listed below in the main body of your paper

In addition to the list printed below, the program has created the file goat_0.bibtex that contains the list in bibtex format
You can import this file easily into all common literature databanks and citation aid programs


List of essential papers. We consider these as the minimum necessary citations

  1. Bannwarth, C.; Ehlert, S.; Grimme, S.
     GFN2-xTB—An Accurate and Broadly Parametrized Self-Consistent Tight-Binding Quantum Chemical Method with Multipole Electrostatics and Density-Dependent Dispersion Contributions
     J. Chem. Theory Comput. 2019 15(3), 1652-1671
     doi.org/10.1021/acs.jctc.8b01176
  2. Neese, F.
     Software update: the ORCA program system, version 6.0
     WIRES Comput. Molec. Sci. 2025 15(1), e70019
     doi.org/10.1002/wcms.7019
  3. de Souza, B.
     GOAT: A Global Optimization Algorithm for Molecules and Atomic Clusters
     Angewandte Chemie 2025 64(18), e202500393
     doi.org/10.1002/anie.202500393

List of papers to cite with high priority. The work reported in these papers was absolutely
necessary for this run to complete.
Our perspective: the developers of density functionals and basis sets usually get cited in chemistry papers
Good! But without the algorithms to do something with them, the functionals or basis sets would not do anything.
Hence, in our opinion, the algorithm design and method developments papers are equally worthy of getting cited

  1. Bannwarth, C.; Caldeweyher, E.; Ehlert, S.; Hansen, A.; Pracht, P.; Seibert, J.; Spicher, S.; Grimme, S.
     Extended tight-binding quantum chemistry methods
     WIRES Comput. Molec. Sci. 2020 11(2), e1493
     doi.org/10.1002/wcms.1493

List of suggested additional citations. These are papers that are important in the 'surrounding' of 
of this run, or papers that preceded the highly important papers. If you like your results we are grateful for a citation.

  1. Neese, F.
     The ORCA program system
     WIRES Comput. Molec. Sci. 2012 2(1), 73-78
     doi.org/10.1002/wcms.81
  2. Neese, F.
     Software update: the ORCA program system, version 4.0
     WIRES Comput. Molec. Sci. 2018 8(1), 1-6
     doi.org/10.1002/wcms.1327
  3. Neese, F.; Wennmohs, F.; Becker, U.; Riplinger, C.
     The ORCA quantum chemistry program package
     J. Chem. Phys. 2020 152(22), 224108
     doi.org/10.1063/5.0004608
  4. Neese, F.
     Software update: The ORCA program system—Version 5.0
     WIRES Comput. Molec. Sci. 2022 12(1), e1606
     doi.org/10.1002/wcms.1606

List of optional additional citations

  1. Neese, F.
     Approximate second-order SCF convergence for spin unrestricted wavefunctions
     Chem. Phys. Lett. 2000 325(1-3), 93-98
     doi.org/10.1016/s0009-2614(00)00662-x

Timings for individual modules:

Sum of individual times          ...    12359.230 sec (= 205.987 min)
Geometry relaxation              ...        0.406 sec (=   0.007 min)   0.0 %
GOAT                             ...    12357.478 sec (= 205.958 min) 100.0 %
XTB module                       ...        1.346 sec (=   0.022 min)   0.0 %
                             ****ORCA TERMINATED NORMALLY****
TOTAL RUN TIME: 0 days 3 hours 26 minutes 0 seconds 411 msec
