69
Coordinates from ORCA-job goat_0_64 E -1780.868538109107
  O          -1.24590320719110      2.50398105852953     -0.02883692869158
  C          -1.86407425252776      2.17130712708272     -1.26557496479230
  H          -1.65910979014682      1.11411663224222     -1.45124528149060
  C          -3.38769745425628      2.34110842363371     -1.20964440707475
  H          -3.75547207546601      1.90163372239627     -0.27810766822907
  O          -3.91726004575930      1.65985784155087     -2.34970065908841
  Si         -5.11610679243598      0.49409670146593     -2.20811763037387
  C          -6.66934486623655      1.29766130674613     -1.54636396810602
  C          -5.33761325097889     -0.16224719267466     -3.95997386056552
  C          -5.61722015226008      1.00091249082341     -4.92261273186335
  C          -4.06513895438096     -0.89595901554053     -4.40765240798670
  C          -6.52328534109378     -1.13844458427898     -3.98274184234568
  C          -4.53602174494514     -0.83244700904859     -1.02332175615392
  C          -3.84782047937687      3.79608952801058     -1.26174932630445
  H          -4.88715527442080      3.77974370712048     -1.59714967497549
  C          -3.85153105881645      4.49938369619578      0.09633397992113
  O          -4.81921757397917      3.84278847389091      0.90002322112781
  Si         -4.77520060702350      3.89749246386959      2.56941976441637
  C          -5.13403190343274      5.64393182723269      3.13997730597887
  C          -6.10721611812045      2.68160035089484      3.12096927883633
  C          -7.45684096458626      3.06122373484403      2.49533598684635
  C          -5.72344253660301      1.26239434194418      2.67750336087742
  C          -6.22983277641112      2.72092396325847      4.65128118367403
  C          -3.07905173442168      3.38327384981599      3.17437670753560
  O          -3.16627552871627      4.55737770817633     -2.26917276887616
  C          -1.76350031628485      4.44402045154623     -2.33361295128143
  H          -1.48556498891203      4.98564572461295     -3.24354752766283
  O          -1.11866429333481      5.01330140565005     -1.21601043398474
  C          -1.22937949620589      6.43496840488659     -1.14888277077274
  C          -1.29240421086944      2.99060727461065     -2.42678143462761
  H          -0.20154448469507      2.98571669409744     -2.37061360270872
  O          -1.65643380255325      2.44270240278607     -3.68404674989498
  H          -1.05078837320379      3.45214999906115     -0.03758564007792
  H          -6.45800229152126      1.81049132800322     -0.60365580038908
  H          -7.44044379968716      0.54619372768956     -1.35324176108724
  H          -7.07168454374285      2.03170635673807     -2.24958035257742
  H          -5.76546053761395      0.61735046456160     -5.93935688547127
  H          -4.78359800039693      1.70820449889752     -4.94926327669684
  H          -6.51950543466962      1.55221913796441     -4.64113289558702
  H          -3.85534717296892     -1.76204875057389     -3.77340889879060
  H          -3.19060192453838     -0.23892236707066     -4.38306894078467
  H          -4.18287495566532     -1.25715220349853     -5.43648922244761
  H          -6.65474439489677     -1.54467696433329     -4.99274256322959
  H          -7.45761987446971     -0.64508816508476     -3.69881526182061
  H          -6.36636786039537     -1.98253891997839     -3.30385124691815
  H          -5.25809099140269     -1.65389165103985     -0.99048825549117
  H          -4.43921962837538     -0.43571583339354     -0.00862371659957
  H          -3.56791285833085     -1.23958934568358     -1.32629073948684
  H          -2.86989247075970      4.48099812571411      0.57222851164218
  H          -4.13513458277131      5.54545547926732     -0.06114581449297
  H          -4.40416029617324      6.33738264802855      2.71020664642006
  H          -5.06617843621897      5.72055334201714      4.22903657327718
  H          -6.13234892447592      5.96899799677546      2.83465716119916
  H          -7.41512803807460      3.03094570394846      1.40334411871019
  H          -7.77349676641904      4.06499065255939      2.79453378816977
  H          -8.23213625748095      2.35707180254984      2.82166663658319
  H          -6.50756165734211      0.55224869667503      2.96766972194502
  H          -4.78940491824653      0.93425779097219      3.14292511936714
  H          -5.60004419823086      1.19932507282044      1.59281999510134
  H          -6.52482780685481      3.71250249279777      5.00763936791633
  H          -5.28887999459263      2.45162730484896      5.14083049247880
  H          -6.99304061993676      2.00737726655725      4.98480557254434
  H          -2.32152224305322      4.12441239696879      2.90375299624592
  H          -2.77966604917916      2.42035717704334      2.75282086955709
  H          -3.08104867559652      3.29446326721179      4.26490817454097
  H          -0.67206081807907      6.75413325037947     -0.26911899249046
  H          -2.27207880440564      6.74583214027552     -1.05426059222423
  H          -0.79316222900288      6.88679659542121     -2.04582767310811
  H          -2.57176754478463      2.12842601853693     -3.60169669729026
