69
Coordinates from ORCA-job goat_0_12 E -1780.870483428278
  O          -1.11913529319713      1.92003061759628     -2.29377820427878
  C          -2.00176313779319      3.03168911504966     -2.20336023650029
  H          -2.16023723232473      3.46638997140072     -3.20024858116933
  C          -3.33920773945373      2.54383076030485     -1.66917168442244
  H          -3.16661652593426      2.02607894484674     -0.72217755399321
  O          -3.97929123488316      1.69505840025423     -2.59817755565368
  Si         -3.88765420997571      0.02378468112714     -2.61762094119219
  C          -3.21846527551426     -0.60697081671218     -0.98823798249390
  C          -5.65027548759349     -0.60116770341634     -2.90848682997059
  C          -6.30554381795767      0.19599554798822     -4.04533295443454
  C          -5.60538276638203     -2.08698390888077     -3.29561241580308
  C          -6.48704592763986     -0.44239776066691     -1.63163361875101
  C          -2.78460623798457     -0.50435965285181     -4.03345683242978
  C          -4.25785875821495      3.73814154367390     -1.40318010410486
  H          -4.47180100910219      4.24167572217896     -2.35788261505244
  C          -5.58599929087604      3.32835210223684     -0.79414846094594
  O          -5.46455961486767      2.40010125060711      0.26248132080397
  Si         -5.08856228931077      2.57245234369165      1.87622361018763
  C          -3.24492313199535      2.74533436180749      2.15359641464739
  C          -6.03399297892746      4.00200002477220      2.68726783691071
  C          -7.51559277073009      3.94741292442582      2.28693394005581
  C          -5.92717935787427      3.83531972159392      4.21314230152621
  C          -5.44890445790509      5.36943850454473      2.30674740500347
  C          -5.64265021328249      0.93248050604514      2.59173282649534
  O          -3.62406052588895      4.65319660904804     -0.51443562397279
  C          -2.44212027800704      5.20568610566163     -1.06469726897283
  H          -2.68324156573049      5.71096730788326     -2.01499125386504
  O          -1.90682655695043      6.10866840879900     -0.15534624770193
  C          -2.64227389461677      7.32975396982647     -0.06756433146382
  C          -1.42046196893937      4.10171497934482     -1.29317166068902
  H          -1.17805471161534      3.65656058944334     -0.32054862024286
  O          -0.24820384426578      4.59889412559361     -1.92505851966227
  H          -0.26885334120896      2.25624909649974     -2.60205568542028
  H          -2.16980557828903     -0.32768246189781     -0.86057311055680
  H          -3.28599977368830     -1.69903507712815     -0.96358237918172
  H          -3.78780218697563     -0.21429152101008     -0.14159932951154
  H          -6.39554050111840      1.25508261633543     -3.78922697821994
  H          -7.31315434736966     -0.19025741506513     -4.24356892752078
  H          -5.73324150515797      0.12084104308540     -4.97551531994764
  H          -5.10807474065781     -2.69150668813394     -2.52989515775993
  H          -5.08013022223918     -2.24286291082473     -4.24198977164748
  H          -6.62477201127135     -2.47488475409626     -3.41269796722626
  H          -6.50518981910346      0.59296012063238     -1.28318326711897
  H          -6.09551325100599     -1.05922958898245     -0.81723846355863
  H          -7.52160385960851     -0.75623131897408     -1.81903727657174
  H          -2.65493602104653     -1.59050933810177     -4.04152630668556
  H          -1.80271191392964     -0.03792203653291     -3.92873277797839
  H          -3.20844255667755     -0.20696214103458     -4.99723310449810
  H          -6.11015532924795      4.23366823383297     -0.47434070556390
  H          -6.18269652520115      2.85227674038218     -1.57568347668458
  H          -2.84845985774300      3.66531580412004      1.72346562493512
  H          -2.71729255955457      1.89905193705904      1.70240265702337
  H          -3.03076439760787      2.73824065437430      3.22716206676509
  H          -7.65352149973603      4.09787929461611      1.21287754750086
  H          -8.07451453287987      4.73467707594528      2.80791861236753
  H          -7.96995337595023      2.98804757011488      2.55249513914180
  H          -6.44185068414354      4.66472725409672      4.71339312107774
  H          -4.88607384610614      3.84078232960555      4.55089085870593
  H          -6.38860010745062      2.90414356691959      4.55315953965578
  H          -4.39745728896137      5.45126779112152      2.59707606825543
  H          -6.00084043792072      6.16528083522151      2.82268946950124
  H          -5.50873761959488      5.56083575727356      1.23373003791968
  H          -5.19111643212760      0.11401845841774      2.02246439757832
  H          -6.72921274514883      0.81899452028753      2.54414969363541
  H          -5.33170755816471      0.82945482378034      3.63488588082826
  H          -2.73104604180803      7.79323251802681     -1.05605955485861
  H          -2.08113039571179      7.98807465621064      0.59488762064297
  H          -3.63877006444921      7.15741935906180      0.34647455484214
  H           0.19700511459063      5.18533386754292     -1.30222897772971
