69
Coordinates from ORCA-job goat_0_9 E -1780.872739651607
  O          -1.26647828821613      0.50223913034204     -1.69558946060659
  C          -1.49498512130035      1.90227133818483     -1.79615345334803
  H          -1.29396204850717      2.24168822345420     -2.82184862174628
  C          -2.95631895840227      2.17625358810301     -1.47719078984343
  H          -3.18706869248981      1.75380172544815     -0.49483653088098
  O          -3.80042740213105      1.63804063862963     -2.47209055122512
  Si         -4.52592728123685      0.13064815211115     -2.44455334565291
  C          -4.45051996668780     -0.59848602457173     -0.72339749161700
  C          -6.32054866212897      0.40518834281032     -2.98033770696240
  C          -6.36406570971482      1.32198952541482     -4.21099086623384
  C          -6.96007862497711     -0.94561305203448     -3.33415477938931
  C          -7.11792249064878      1.05104658492183     -1.83865256122409
  C          -3.65490132484372     -0.97939151617789     -3.67280670546460
  C          -3.19615752859559      3.68679614662124     -1.41702221710716
  H          -2.99754830342162      4.11761819881425     -2.40957510163290
  C          -4.62150799812864      4.03196365365420     -1.03737893700144
  O          -5.00698901347281      3.35426868853137      0.14545772475258
  Si         -5.67433865638515      4.14607390985341      1.45365990732417
  C          -7.27852940206777      4.95582035741194      0.92624023276806
  C          -5.95512769805301      2.79117955151982      2.73603306850101
  C          -4.63334396712615      2.06126247368705      3.01522201970553
  C          -6.47444988642180      3.42049725860547      4.03684776102103
  C          -6.98753369554534      1.78236927421398      2.21342730944591
  C          -4.49445256119399      5.45762781709229      2.08122555154536
  O          -2.32265052457703      4.27486301519140     -0.45600934223074
  C          -0.96232776202508      4.13893358529059     -0.82717458787496
  H          -0.80890667847356      4.58993317093879     -1.82187824110610
  O          -0.17340740836574      4.77473079640826      0.12227978798305
  C          -0.23769747125833      6.19966470624465      0.05136095549118
  C          -0.58474305855904      2.66477741275662     -0.84607491349050
  H          -0.71054352981102      2.27047802109850      0.16991922245335
  O           0.74926315520041      2.47412865480096     -1.29850270994779
  H          -0.33391248200008      0.35033038021870     -1.89056324874555
  H          -4.85406454810980      0.08882078861046      0.02473481800930
  H          -3.42249903047751     -0.84519674425629     -0.44776970529022
  H          -5.04340679357812     -1.51790368452332     -0.69076608935481
  H          -5.96095361207172      2.31248302616183     -3.98384672429127
  H          -7.40013173307899      1.44823998785543     -4.54928700563765
  H          -5.79109269679146      0.90746406356565     -5.04665219087530
  H          -6.91512378357979     -1.64804908384236     -2.49529478181641
  H          -6.46924934816229     -1.41330686689323     -4.19218245031800
  H          -8.01722442539041     -0.80464590902702     -3.59101706890130
  H          -6.66122547349215      1.98324310253565     -1.49642417622586
  H          -7.19307751460446      0.38176040626901     -0.97703439601509
  H          -8.13816994346344      1.27748570232732     -2.17302255708121
  H          -3.76094752803031     -0.59871631451572     -4.69297860232717
  H          -4.06741319662100     -1.99208559830779     -3.64502953050504
  H          -2.59080686945096     -1.03104514839906     -3.43194847670018
  H          -4.69112229679376      5.11994214090507     -0.92467467711519
  H          -5.27995107651759      3.73423178595639     -1.85774900574494
  H          -7.08575393001543      5.73789807534547      0.18521029826443
  H          -7.78154668622210      5.42090414146233      1.77917997916796
  H          -7.96099343212406      4.22654137180719      0.48129820021134
  H          -4.79013622673754      1.27392374837380      3.76295230208659
  H          -3.86964800423137      2.74113040993529      3.40486109675589
  H          -4.23811049653552      1.59142159516297      2.11026597778973
  H          -5.75117075707163      4.12131734083006      4.46422367760041
  H          -6.66137034482221      2.63897578222975      4.78337602292599
  H          -7.41442794019244      3.95874817111495      3.87938715042469
  H          -7.13842356303435      0.98367586815558      2.95018796753782
  H          -6.65748078342327      1.31875549378750      1.28020419056477
  H          -7.95761646060082      2.25432640246099      2.03176178423196
  H          -4.27016956444478      6.18486853323395      1.29545883695623
  H          -3.55080223873827      5.01785760970985      2.41381405832726
  H          -4.93928825264124      5.99936743376515      2.92118652017327
  H           0.48646545941600      6.58361304005191      0.76909663950257
  H          -1.23657234551582      6.55928105124766      0.31122890435499
  H           0.02489541365893      6.54372030877725     -0.95489932955174
  H           1.34155899505612      2.85356820853683     -0.63878300479329
