69
Coordinates from ORCA-job goat_0_42 E -1780.869496488071
  O      -1.581613      0.632343     -1.625711
  C      -1.900679      2.003800     -1.764853
  H      -1.752834      2.231593     -2.824931
  C      -3.360047      2.272889     -1.414171
  H      -3.543597      1.921672     -0.389635
  O      -4.193049      1.632073     -2.343795
  Si     -5.234108      0.354470     -2.098421
  C      -6.872702      0.977957     -1.457739
  C      -5.395856     -0.403357     -3.813224
  C      -4.068014     -1.058725     -4.205326
  C      -6.513980     -1.449721     -3.836197
  C      -5.718943      0.702994     -4.823354
  C      -4.537402     -0.845247     -0.849482
  C      -3.670760      3.766770     -1.456367
  H      -3.580371      4.108077     -2.498014
  C      -5.069153      4.065922     -0.963020
  O      -5.333579      3.466960      0.283408
  Si     -4.899670      3.972097      1.809036
  C      -4.821898      5.834961      1.868507
  C      -6.263520      3.264021      2.901491
  C      -6.222053      1.733119      2.829340
  C      -6.069680      3.708264      4.354985
  C      -7.629053      3.743348      2.400903
  C      -3.242757      3.276241      2.318915
  O      -2.771115      4.488758     -0.626740
  C      -1.427603      4.341826     -1.023737
  H      -1.308448      4.715336     -2.056662
  O      -0.624493      5.061598     -0.151504
  C      -0.792434      6.468787     -0.247564
  C      -0.984253      2.889558     -0.938461
  H      -1.061092      2.597899      0.120450
  O       0.338087      2.750339     -1.407407
  H      -1.530906      0.421860     -0.685648
  H      -7.511579      0.144064     -1.156325
  H      -7.413992      1.565158     -2.202609
  H      -6.708467      1.609660     -0.581217
  H      -3.833151     -1.910276     -3.563129
  H      -3.239809     -0.350194     -4.140218
  H      -4.119118     -1.425850     -5.236149
  H      -7.484907     -1.009669     -3.595625
  H      -6.325572     -2.264164     -3.131565
  H      -6.591050     -1.892631     -4.835123
  H      -5.794519      0.279498     -5.830527
  H      -4.938027      1.464417     -4.835998
  H      -6.670743      1.191844     -4.600597
  H      -4.503022     -0.398261      0.147648
  H      -3.533159     -1.168440     -1.123557
  H      -5.178594     -1.727815     -0.780129
  H      -5.199699      5.151295     -0.917955
  H      -5.784702      3.668129     -1.682581
  H      -4.065742      6.189537      1.164914
  H      -4.526457      6.170584      2.865253
  H      -5.774451      6.306443      1.620008
  H      -6.336589      1.380691      1.801432
  H      -7.039791      1.304921      3.419186
  H      -5.285932      1.333969      3.227022
  H      -5.112062      3.370716      4.759512
  H      -6.859498      3.284600      4.985058
  H      -6.116865      4.795740      4.455242
  H      -7.723574      4.830406      2.461194
  H      -8.428682      3.309150      3.011011
  H      -7.796842      3.442595      1.365057
  H      -3.066224      3.431288      3.386015
  H      -2.443512      3.774883      1.770786
  H      -3.180274      2.202658      2.125379
  H      -1.807949      6.761247      0.023007
  H      -0.574310      6.814990     -1.262566
  H      -0.087963      6.917683      0.447533
  H       0.889241      3.358262     -0.900502
69
Coordinates from ORCA-job goat_0_42 E -1780.870864218754
  O      -1.516541      0.725237     -1.850289
  C      -1.872649      2.097892     -1.909177
  H      -1.780151      2.379219     -2.963653
  C      -3.320823      2.323661     -1.476621
  H      -3.447145      1.931027     -0.461044
  O      -4.190317      1.691920     -2.385702
  Si     -5.233049      0.425044     -2.089568
  C      -6.888880      1.077313     -1.519470
  C      -5.368346     -0.444022     -3.756623
  C      -4.022364     -1.094013     -4.106938
  C      -6.458130     -1.521606     -3.700068
  C      -5.731324      0.581030     -4.841746
  C      -4.555482     -0.696852     -0.757808
  C      -3.653699      3.817595     -1.447886
  H      -3.604048      4.202235     -2.477561
  C      -5.044149      4.089977     -0.902947
  O      -5.309248      3.431218      0.317321
  Si     -4.894737      3.866400      1.870913
  C      -4.696902      5.720145      1.988427
  C      -6.347358      3.232285      2.896776
  C      -6.426442      1.702922      2.772913
  C      -6.159829      3.613450      4.370995
  C      -7.655571      3.845485      2.379277
  C      -3.314410      3.037362      2.430116
  O      -2.727163      4.520215     -0.627738
  C      -1.401073      4.414795     -1.098281
  H      -1.343498      4.823026     -2.122631
  O      -0.562009      5.125093     -0.246990
  C      -0.734940      6.538255     -0.315890
  C      -0.931087      2.964513     -1.087521
  H      -0.951880      2.625765     -0.041189
  O       0.374798      2.863424     -1.623593
  H      -1.440923      0.467469     -0.923050
  H      -7.535575      0.254817     -1.198557
  H      -7.409996      1.630673     -2.305947
  H      -6.746871      1.746851     -0.666876
  H      -3.760073     -1.885081     -3.398128
  H      -3.211231     -0.360115     -4.107657
  H      -4.070086     -1.546268     -5.105266
  H      -7.440819     -1.091166     -3.485555
  H      -6.244844     -2.276937     -2.936752
  H      -6.526097     -2.038856     -4.665162
  H      -5.812435      0.082696     -5.815796
  H      -4.968590      1.358881     -4.923687
  H      -6.691331      1.065671     -4.637776
  H      -4.530439     -0.184791      0.209301
  H      -3.547308     -1.039691     -0.995957
  H      -5.202910     -1.572318     -0.643337
  H      -5.172162      5.173333     -0.801994
  H      -5.773627      3.733485     -1.633406
  H      -3.888030      6.044985      1.328156
  H      -4.427610      6.008289      3.009057
  H      -5.606905      6.258961      1.711388
  H      -6.542393      1.392373      1.730184
  H      -7.290806      1.322627      3.331677
  H      -5.532799      1.217176      3.175703
  H      -5.243265      3.185734      4.788313
  H      -7.000409      3.236836      4.967016
  H      -6.119480      4.698740      4.506051
  H      -7.654909      4.936330      2.469504
  H      -8.506042      3.466423      2.959683
  H      -7.825350      3.590510      1.329937
  H      -3.183779      3.143802      3.511750
  H      -2.455844      3.495367      1.938519
  H      -3.316598      1.968660      2.197527
  H      -1.735904      6.828240      0.012493
  H      -0.569947      6.896850     -1.338361
  H       0.007645      6.979667      0.348013
  H       0.941028      3.455377     -1.112853
69
Coordinates from ORCA-job goat_0_42 E -1780.871757910342
  O      -1.532848      0.780620     -1.944947
  C      -1.883439      2.159217     -1.959232
  H      -1.790120      2.476100     -3.003878
  C      -3.329556      2.381406     -1.514245
  H      -3.449945      1.967512     -0.507645
  O      -4.209995      1.760115     -2.425533
  Si     -5.268425      0.513444     -2.092157
  C      -6.949019      1.195724     -1.632132
  C      -5.353929     -0.477972     -3.696842
  C      -3.992369     -1.132766     -3.978565
  C      -6.425475     -1.570249     -3.565453
  C      -5.725332      0.450399     -4.865379
  C      -4.639443     -0.515244     -0.661848
  C      -3.647937      3.879695     -1.452857
  H      -3.585411      4.297056     -2.469129
  C      -5.040444      4.158071     -0.916255
  O      -5.322854      3.457432      0.275488
  Si     -4.893626      3.830808      1.840821
  C      -4.684388      5.679931      2.031244
  C      -6.340963      3.168505      2.861931
  C      -6.453680      1.647952      2.660902
  C      -6.115702      3.470793      4.350939
  C      -7.647135      3.837496      2.406632
  C      -3.310790      2.963199      2.338038
  O      -2.717492      4.542527     -0.600674
  C      -1.392447      4.446177     -1.080468
  H      -1.338594      4.879205     -2.093896
  O      -0.546087      5.134267     -0.215580
  C      -0.689949      6.554531     -0.282765
  C      -0.933559      2.990859     -1.108521
  H      -0.954286      2.617360     -0.074578
  O       0.374542      2.892870     -1.651450
  H      -1.493087      0.486477     -1.025963
  H      -7.616296      0.384571     -1.321996
  H      -7.422916      1.725754     -2.464325
  H      -6.848065      1.887701     -0.791623
  H      -3.719883     -1.846400     -3.194032
  H      -3.193881     -0.387623     -4.048433
  H      -4.026797     -1.681754     -4.928718
  H      -7.418690     -1.141905     -3.396793
  H      -6.208079     -2.254898     -2.738326
  H      -6.471905     -2.166863     -4.485780
  H      -5.795977     -0.128216     -5.795871
  H      -4.973521      1.231575     -5.010651
  H      -6.692622      0.937792     -4.703402
  H      -4.640986      0.066688      0.266042
  H      -3.624542     -0.878519     -0.839516
  H      -5.296565     -1.378307     -0.510246
  H      -5.147686      5.239483     -0.773008
  H      -5.769681      3.842012     -1.667070
  H      -3.875910      6.030420      1.382564
  H      -4.415176      5.924683      3.064050
  H      -5.594505      6.230924      1.776132
  H      -6.602050      1.393415      1.606081
  H      -7.310135      1.254548      3.224455
  H      -5.557290      1.126526      3.011542
  H      -5.199859      3.003804      4.726972
  H      -6.952967      3.083018      4.945787
  H      -6.047100      4.547479      4.538327
  H      -7.615108      4.923351      2.546429
  H      -8.492651      3.452392      2.991790
  H      -7.850849      3.637276      1.350486
  H      -3.163289      3.029110      3.421072
  H      -2.452452      3.427615      1.845941
  H      -3.331057      1.903852      2.064576
  H      -1.683720      6.865250      0.051863
  H      -0.522136      6.908640     -1.306907
  H       0.066501      6.979616      0.378295
  H       0.946468      3.459084     -1.117752
69
Coordinates from ORCA-job goat_0_42 E -1780.872131856606
  O      -1.513637      0.827701     -2.000280
  C      -1.873070      2.203898     -1.993077
  H      -1.783527      2.538115     -3.032059
  C      -3.318247      2.410470     -1.538347
  H      -3.431151      1.980841     -0.538221
  O      -4.202403      1.797207     -2.454033
  Si     -5.274340      0.565631     -2.097406
  C      -6.964642      1.267774     -1.701391
  C      -5.350177     -0.496219     -3.659450
  C      -3.994025     -1.171346     -3.908889
  C      -6.426971     -1.577812     -3.479253
  C      -5.713309      0.376670     -4.870586
  C      -4.674936     -0.409779     -0.615422
  C      -3.639680      3.904786     -1.451467
  H      -3.570070      4.347282     -2.456287
  C      -5.035196      4.171464     -0.920217
  O      -5.322397      3.442591      0.253305
  Si     -4.888282      3.789895      1.823539
  C      -4.657531      5.634946      2.041584
  C      -6.341649      3.135373      2.844137
  C      -6.487568      1.622601      2.617223
  C      -6.098962      3.405061      4.336786
  C      -7.636744      3.838491      2.411601
  C      -3.314353      2.889632      2.294923
  O      -2.713478      4.544246     -0.576740
  C      -1.390979      4.473131     -1.068643
  H      -1.349598      4.928057     -2.072445
  O      -0.549247      5.152372     -0.193847
  C      -0.694848      6.573157     -0.255814
  C      -0.922585      3.023178     -1.129622
  H      -0.929486      2.625106     -0.105365
  O       0.381528      2.946802     -1.688328
  H      -1.503296      0.515374     -1.086792
  H      -7.649668      0.461431     -1.420389
  H      -7.399414      1.802109     -2.551035
  H      -6.889455      1.954412     -0.854925
  H      -3.721414     -1.838535     -3.085306
  H      -3.193440     -0.436353     -4.025293
  H      -4.036627     -1.774433     -4.824818
  H      -7.418605     -1.138519     -3.334104
  H      -6.214429     -2.221514     -2.619545
  H      -6.472919     -2.217365     -4.369393
  H      -5.784387     -0.244742     -5.772151
  H      -4.957991      1.146985     -5.051747
  H      -6.678048      0.875168     -4.734008
  H      -4.686949      0.208765      0.287087
  H      -3.660304     -0.788744     -0.759370
  H      -5.340593     -1.261011     -0.443120
  H      -5.141235      5.248795     -0.751348
  H      -5.758905      3.872840     -1.682373
  H      -3.839646      5.987980      1.407441
  H      -4.399851      5.860596      3.080993
  H      -5.559794      6.196679      1.784078
  H      -6.655738      1.390174      1.561335
  H      -7.341902      1.236012      3.187360
  H      -5.595700      1.078839      2.943587
  H      -5.192069      2.910325      4.697419
  H      -6.940701      3.026756      4.930260
  H      -6.003144      4.475890      4.542576
  H      -7.579787      4.920139      2.569108
  H      -8.484698      3.461344      2.997231
  H      -7.853507      3.661904      1.353993
  H      -3.155679      2.945102      3.376327
  H      -2.452831      3.339690      1.796172
  H      -3.359208      1.833543      2.013209
  H      -1.686202      6.880096      0.087961
  H      -0.535351      6.928320     -1.279878
  H       0.065966      6.995701      0.400258
  H       0.953921      3.500536     -1.142752
69
Coordinates from ORCA-job goat_0_42 E -1780.872260901493
  O      -1.510977      0.860522     -2.049178
  C      -1.879001      2.233578     -2.026091
  H      -1.800251      2.577775     -3.062239
  C      -3.320504      2.425650     -1.555900
  H      -3.420671      1.982101     -0.560664
  O      -4.206760      1.817773     -2.474342
  Si     -5.274021      0.581361     -2.110752
  C      -6.979042      1.271515     -1.756344
  C      -5.330094     -0.514644     -3.650905
  C      -3.971263     -1.188636     -3.879834
  C      -6.402137     -1.598460     -3.454344
  C      -5.688139      0.329772     -4.881838
  C      -4.682403     -0.362757     -0.604342
  C      -3.648269      3.915581     -1.443863
  H      -3.581604      4.376905     -2.440192
  C      -5.041936      4.171510     -0.904175
  O      -5.325596      3.422945      0.258719
  Si     -4.882606      3.757591      1.830105
  C      -4.605121      5.595944      2.053611
  C      -6.350088      3.144995      2.857540
  C      -6.554532      1.641674      2.620891
  C      -6.085494      3.391945      4.349896
  C      -7.621363      3.897714      2.441351
  C      -3.332995      2.810171      2.290489
  O      -2.718749      4.539955     -0.561817
  C      -1.401241      4.491688     -1.071290
  H      -1.377859      4.964465     -2.067241
  O      -0.558105      5.164011     -0.194115
  C      -0.710953      6.584186     -0.240771
  C      -0.923127      3.048305     -1.163452
  H      -0.909932      2.632794     -0.146414
  O       0.372147      2.991791     -1.743774
  H      -1.519436      0.534616     -1.140577
  H      -7.668121      0.456011     -1.516406
  H      -7.386521      1.820332     -2.609540
  H      -6.935363      1.939604     -0.893867
  H      -3.694815     -1.829850     -3.037545
  H      -3.175194     -0.453026     -4.017134
  H      -4.011069     -1.817598     -4.777797
  H      -7.397599     -1.163449     -3.328033
  H      -6.192436     -2.220986     -2.579044
  H      -6.435547     -2.257677     -4.329957
  H      -5.745037     -0.309803     -5.771087
  H      -4.937255      1.101996     -5.071513
  H      -6.657981      0.822562     -4.765343
  H      -4.711071      0.269971      0.286846
  H      -3.663413     -0.737060     -0.728784
  H      -5.342199     -1.216914     -0.427154
  H      -5.148256      5.245466     -0.717518
  H      -5.766723      3.884496     -1.668627
  H      -3.770901      5.930734      1.432415
  H      -4.358701      5.812286      3.097244
  H      -5.490416      6.178431      1.784868
  H      -6.747746      1.424513      1.566847
  H      -7.412662      1.281982      3.201911
  H      -5.678185      1.063286      2.928403
  H      -5.196236      2.858814      4.698699
  H      -6.936698      3.041493      4.946190
  H      -5.946480      4.455995      4.564375
  H      -7.524941      4.974488      2.609829
  H      -8.478222      3.544567      3.028116
  H      -7.850556      3.740974      1.383513
  H      -3.161598      2.867042      3.369531
  H      -2.463002      3.227796      1.779937
  H      -3.417507      1.754823      2.015868
  H      -1.698466      6.881450      0.120895
  H      -0.568780      6.948436     -1.263528
  H       0.057131      7.003896      0.407517
  H       0.949531      3.536192     -1.194314
69
Coordinates from ORCA-job goat_0_42 E -1780.872291666943
  O      -1.499935      0.869551     -2.063614
  C      -1.865359      2.242669     -2.043965
  H      -1.791141      2.582168     -3.081831
  C      -3.303600      2.438733     -1.567157
  H      -3.399542      1.995818     -0.571055
  O      -4.195864      1.835482     -2.482375
  Si     -5.287621      0.623678     -2.102173
  C      -6.987503      1.350177     -1.799869
  C      -5.341321     -0.515401     -3.611010
  C      -3.993472     -1.221236     -3.801332
  C      -6.436654     -1.573370     -3.403794
  C      -5.661951      0.302170     -4.869334
  C      -4.733611     -0.288244     -0.561841
  C      -3.628667      3.927518     -1.449916
  H      -3.561760      4.393113     -2.444225
  C      -5.021641      4.180765     -0.907392
  O      -5.309221      3.417514      0.246003
  Si     -4.887143      3.750416      1.824496
  C      -4.661090      5.592515      2.071329
  C      -6.343887      3.093883      2.839430
  C      -6.524122      1.592361      2.576290
  C      -6.084444      3.317331      4.335865
  C      -7.626809      3.832017      2.434786
  C      -3.317986      2.834806      2.281445
  O      -2.694008      4.544712     -0.568463
  C      -1.379135      4.500375     -1.087472
  H      -1.364495      4.977629     -2.081547
  O      -0.531566      5.169456     -0.213352
  C      -0.682627      6.589370     -0.254341
  C      -0.901892      3.058451     -1.190267
  H      -0.877965      2.640406     -0.174346
  O       0.386750      3.003592     -1.783416
  H      -1.525972      0.542385     -1.155860
  H      -7.699855      0.548753     -1.583047
  H      -7.355470      1.906512     -2.665713
  H      -6.957434      2.018514     -0.936767
  H      -3.738438     -1.841425     -2.936939
  H      -3.182350     -0.504632     -3.950458
  H      -4.034660     -1.875801     -4.680527
  H      -7.426593     -1.118958     -3.310359
  H      -6.254508     -2.174773     -2.507969
  H      -6.463837     -2.256217     -4.261179
  H      -5.710523     -0.358435     -5.743491
  H      -4.895158      1.057293     -5.062736
  H      -6.626291      0.812068     -4.786147
  H      -4.770005      0.366039      0.312909
  H      -3.718619     -0.680737     -0.658796
  H      -5.407602     -1.129362     -0.375776
  H      -5.127844      5.252622     -0.710039
  H      -5.745058      3.902568     -1.675967
  H      -3.822689      5.956563      1.473849
  H      -4.446468      5.803411      3.122922
  H      -5.556233      6.152710      1.788439
  H      -6.718144      1.391183      1.519255
  H      -7.373937      1.208359      3.153686
  H      -5.637836      1.022469      2.870704
  H      -5.188380      2.790032      4.675712
  H      -6.931359      2.943588      4.923866
  H      -5.961233      4.378859      4.570866
  H      -7.551853      4.906179      2.628264
  H      -8.479420      3.449543      3.008921
  H      -7.848333      3.695284      1.372639
  H      -3.144640      2.893887      3.360000
  H      -2.458080      3.269975      1.769409
  H      -3.384136      1.778454      2.006118
  H      -1.665933      6.886002      0.118651
  H      -0.551051      6.956275     -1.277373
  H       0.092474      7.006370      0.386951
  H       0.971590      3.541625     -1.235613
69
Coordinates from ORCA-job goat_0_42 E -1780.872359050324
  O      -1.498680      0.850958     -2.034329
  C      -1.867132      2.223304     -2.024547
  H      -1.789768      2.556259     -3.064533
  C      -3.308090      2.418187     -1.555623
  H      -3.407774      1.978518     -0.558107
  O      -4.193353      1.811027     -2.474097
  Si     -5.277528      0.588016     -2.109644
  C      -6.974178      1.306125     -1.774497
  C      -5.339155     -0.512677     -3.645680
  C      -3.989034     -1.208185     -3.860327
  C      -6.429989     -1.579232     -3.463447
  C      -5.667952      0.338189     -4.880334
  C      -4.705624     -0.359506     -0.598668
  C      -3.639627      3.906620     -1.445228
  H      -3.575348      4.365398     -2.442986
  C      -5.033410      4.156023     -0.902674
  O      -5.312234      3.404953      0.260934
  Si     -4.886753      3.763923      1.833163
  C      -4.656991      5.609037      2.046419
  C      -6.341579      3.128871      2.863454
  C      -6.527602      1.623304      2.626792
  C      -6.076665      3.376470      4.355073
  C      -7.623995      3.863721      2.450164
  C      -3.317935      2.855261      2.302592
  O      -2.708260      4.535446     -0.568469
  C      -1.390996      4.489565     -1.081437
  H      -1.373021      4.960552     -2.078664
  O      -0.547500      5.165227     -0.208557
  C      -0.705013      6.584088     -0.250158
  C      -0.909618      3.047963     -1.173150
  H      -0.890723      2.637860     -0.153519
  O       0.381852      2.991454     -1.758708
  H      -1.527626      0.527993     -1.125065
  H      -7.684698      0.500744     -1.566208
  H      -7.350978      1.879762     -2.625440
  H      -6.935723      1.959390     -0.899968
  H      -3.728908     -1.853192     -3.015677
  H      -3.180840     -0.484133     -3.989893
  H      -4.029913     -1.836214     -4.758886
  H      -7.421631     -1.131482     -3.355978
  H      -6.243311     -2.204281     -2.584663
  H      -6.456491     -2.239124     -4.338995
  H      -5.716187     -0.297998     -5.772744
  H      -4.904870      1.101687     -5.054609
  H      -6.634517      0.841286     -4.780564
  H      -4.737132      0.271349      0.293253
  H      -3.690040     -0.744834     -0.715801
  H      -5.374301     -1.208502     -0.427549
  H      -5.147163      5.229412     -0.717729
  H      -5.757054      3.863561     -1.666156
  H      -3.816248      5.960271      1.443917
  H      -4.443480      5.838686      3.094454
  H      -5.550423      6.166297      1.752155
  H      -6.727779      1.404828      1.574295
  H      -7.376418      1.252015      3.214309
  H      -5.642335      1.054795      2.927267
  H      -5.181491      2.851377      4.700888
  H      -6.923224      3.015293      4.951757
  H      -5.949306      4.441328      4.572593
  H      -7.547756      4.940477      2.628968
  H      -8.476834      3.490418      3.030360
  H      -7.846999      3.712257      1.390182
  H      -3.136636      2.937743      3.378453
  H      -2.460120      3.277090      1.775491
  H      -3.388620      1.793113      2.051798
  H      -1.690732      6.876864      0.119994
  H      -0.572453      6.952342     -1.272905
  H       0.066465      7.005248      0.393226
  H       0.964281      3.533025     -1.211780
69
Coordinates from ORCA-job goat_0_42 E -1780.872372324567
  O      -1.502306      0.864382     -2.038307
  C      -1.874428      2.236079     -2.029502
  H      -1.799427      2.568120     -3.070123
  C      -3.315527      2.427701     -1.559181
  H      -3.412448      1.987853     -0.561250
  O      -4.200496      1.816709     -2.475224
  Si     -5.283141      0.593203     -2.107862
  C      -6.984099      1.309721     -1.793009
  C      -5.326456     -0.520049     -3.635286
  C      -3.969098     -1.207638     -3.833091
  C      -6.411195     -1.592864     -3.455066
  C      -5.651230      0.320110     -4.879071
  C      -4.718599     -0.339130     -0.585402
  C      -3.650743      3.916047     -1.447867
  H      -3.591957      4.375133     -2.445886
  C      -5.042627      4.161285     -0.899208
  O      -5.317848      3.398680      0.257648
  Si     -4.878761      3.739637      1.830395
  C      -4.607837      5.577945      2.051848
  C      -6.342838      3.131732      2.863429
  C      -6.567731      1.633079      2.614327
  C      -6.063264      3.358980      4.355851
  C      -7.609168      3.902283      2.464198
  C      -3.328647      2.793559      2.286836
  O      -2.719060      4.548572     -0.574102
  C      -1.402614      4.504965     -1.089217
  H      -1.387382      4.975644     -2.086705
  O      -0.558862      5.182731     -0.218249
  C      -0.722446      6.601075     -0.255727
  C      -0.917689      3.064037     -1.180538
  H      -0.897019      2.655274     -0.160284
  O       0.373069      3.009517     -1.767903
  H      -1.535080      0.539964     -1.129609
  H      -7.696221      0.504745     -1.587727
  H      -7.352300      1.877980     -2.651626
  H      -6.956290      1.969286     -0.922798
  H      -3.712318     -1.846143     -2.982359
  H      -3.164609     -0.478595     -3.959212
  H      -3.996774     -1.841009     -4.728536
  H      -7.407212     -1.151514     -3.360554
  H      -6.228437     -2.210100     -2.569776
  H      -6.424548     -2.259640     -4.325950
  H      -5.687220     -0.322437     -5.767706
  H      -4.892318      1.088269     -5.052121
  H      -6.622325      0.816768     -4.790806
  H      -4.760990      0.297723      0.302290
  H      -3.700009     -0.719716     -0.692003
  H      -5.384027     -1.190818     -0.413691
  H      -5.154528      5.233026     -0.703527
  H      -5.769254      3.877928     -1.663495
  H      -3.756692      5.913410      1.454283
  H      -4.393702      5.798221      3.101891
  H      -5.487559      6.156287      1.756572
  H      -6.780876      1.429374      1.561145
  H      -7.421588      1.277450      3.204573
  H      -5.694962      1.039641      2.903270
  H      -5.180529      2.806979      4.691764
  H      -6.915981      3.014880      4.954130
  H      -5.906454      4.418055      4.582586
  H      -7.506712      4.974731      2.655734
  H      -8.468700      3.542425      3.043338
  H      -7.840109      3.768780      1.403291
  H      -3.134008      2.871804      3.360776
  H      -2.465967      3.193935      1.750542
  H      -3.428313      1.733242      2.037333
  H      -1.707964      6.889516      0.118916
  H      -0.595357      6.972913     -1.278101
  H       0.049936      7.024044      0.385744
  H       0.956712      3.549833     -1.221094
69
Coordinates from ORCA-job goat_0_42 E -1780.872400655693
  O      -1.506904      0.860587     -2.048506
  C      -1.876258      2.233163     -2.036399
  H      -1.803509      2.566777     -3.076714
  C      -3.315645      2.426641     -1.561742
  H      -3.410334      1.984900     -0.564540
  O      -4.203865      1.817952     -2.476138
  Si     -5.287382      0.595096     -2.108878
  C      -6.988905      1.312819     -1.800694
  C      -5.326121     -0.520556     -3.634661
  C      -3.966649     -1.205480     -3.828257
  C      -6.408990     -1.595396     -3.456142
  C      -5.649746      0.317725     -4.880267
  C      -4.725273     -0.335075     -0.584626
  C      -3.647342      3.915816     -1.446649
  H      -3.589474      4.376211     -2.444105
  C      -5.038001      4.163945     -0.895065
  O      -5.314116      3.400647      0.261309
  Si     -4.881904      3.748055      1.834992
  C      -4.628657      5.589021      2.054432
  C      -6.342333      3.129427      2.866691
  C      -6.560311      1.630435      2.612954
  C      -6.063032      3.352978      4.359805
  C      -7.612656      3.895231      2.470555
  C      -3.324548      2.815792      2.294459
  O      -2.712247      4.544726     -0.573910
  C      -1.397275      4.499394     -1.092626
  H      -1.383806      4.972698     -2.088908
  O      -0.549642      5.173158     -0.222315
  C      -0.711996      6.591763     -0.253873
  C      -0.915281      3.057510     -1.188760
  H      -0.892149      2.646554     -0.169533
  O       0.373219      3.001703     -1.780878
  H      -1.544829      0.532663     -1.141261
  H      -7.704292      0.508669     -1.603358
  H      -7.350007      1.884925     -2.659900
  H      -6.965934      1.969686     -0.928555
  H      -3.711257     -1.843429     -2.976680
  H      -3.163213     -0.474896     -3.951822
  H      -3.990218     -1.839019     -4.723730
  H      -7.406235     -1.155958     -3.364755
  H      -6.227385     -2.211324     -2.569677
  H      -6.418729     -2.263164     -4.326364
  H      -5.682037     -0.325691     -5.768425
  H      -4.892260      1.087620     -5.052164
  H      -6.622188      0.812173     -4.794697
  H      -4.771250      0.301532      0.303037
  H      -3.705668     -0.713850     -0.688752
  H      -5.389468     -1.188150     -0.414781
  H      -5.147238      5.235670     -0.697823
  H      -5.766393      3.883508     -1.658736
  H      -3.774638      5.931101      1.464932
  H      -4.427521      5.813328      3.106252
  H      -5.510631      6.158773      1.749183
  H      -6.774704      1.429171      1.559637
  H      -7.411264      1.268707      3.203747
  H      -5.684184      1.040114      2.898089
  H      -5.178255      2.802858      4.693471
  H      -6.914345      3.003954      4.957278
  H      -5.909805      4.411801      4.590163
  H      -7.516394      4.967135      2.668161
  H      -8.470706      3.527364      3.046900
  H      -7.842247      3.766148      1.408742
  H      -3.126625      2.902380      3.367123
  H      -2.466294      3.218431      1.752681
  H      -3.418033      1.753223      2.052051
  H      -1.695498      6.880168      0.126113
  H      -0.589044      6.967430     -1.275404
  H       0.063704      7.011647      0.385680
  H       0.961056      3.536693     -1.233406
69
Coordinates from ORCA-job goat_0_42 E -1780.872406260005
  O      -1.501030      0.863684     -2.059757
  C      -1.872285      2.235753     -2.043538
  H      -1.802213      2.571954     -3.083164
  C      -3.310776      2.426189     -1.565140
  H      -3.402723      1.982571     -0.568569
  O      -4.201047      1.818318     -2.477614
  Si     -5.288301      0.599749     -2.107593
  C      -6.987447      1.325519     -1.806143
  C      -5.327525     -0.521549     -3.629302
  C      -3.968912     -1.209659     -3.817378
  C      -6.412950     -1.593513     -3.449474
  C      -5.646732      0.312952     -4.878612
  C      -4.730601     -0.326717     -0.579800
  C      -3.643948      3.914560     -1.447151
  H      -3.587184      4.376598     -2.443901
  C      -5.035247      4.159933     -0.895016
  O      -5.310831      3.394129      0.259915
  Si     -4.883419      3.746102      1.834271
  C      -4.638331      5.588551      2.050354
  C      -6.342625      3.124388      2.865815
  C      -6.562108      1.626438      2.607568
  C      -6.060889      3.342423      4.359283
  C      -7.613071      3.892370      2.474359
  C      -3.322969      2.820319      2.295738
  O      -2.708809      4.542468     -0.573746
  C      -1.394525      4.500234     -1.094431
  H      -1.383095      4.976671     -2.089228
  O      -0.546252      5.172490     -0.223328
  C      -0.712508      6.590738     -0.248471
  C      -0.910610      3.059120     -1.195673
  H      -0.884487      2.645424     -0.177753
  O       0.376374      3.006927     -1.791392
  H      -1.543517      0.531816     -1.154214
  H      -7.708791      0.525764     -1.612936
  H      -7.340339      1.899573     -2.667497
  H      -6.965802      1.982948     -0.934375
  H      -3.718102     -1.846724     -2.963790
  H      -3.163437     -0.481231     -3.939046
  H      -3.990957     -1.844850     -4.711751
  H      -7.409311     -1.151397     -3.360930
  H      -6.234366     -2.207067     -2.560783
  H      -6.423078     -2.263934     -4.317612
  H      -5.678424     -0.333559     -5.764478
  H      -4.887527      1.080865     -5.051653
  H      -6.618378      0.809524     -4.796562
  H      -4.775702      0.312251      0.306029
  H      -3.711881     -0.708491     -0.681955
  H      -5.397115     -1.177659     -0.408434
  H      -5.145501      5.231114     -0.695547
  H      -5.763426      3.880390     -1.659281
  H      -3.779372      5.932442      1.469360
  H      -4.449904      5.816623      3.103732
  H      -5.519125      6.154048      1.733987
  H      -6.780440      1.428979      1.554469
  H      -7.411046      1.263093      3.200208
  H      -5.685238      1.034641      2.887261
  H      -5.176836      2.789192      4.689694
  H      -6.912137      2.993317      4.956755
  H      -5.904942      4.400080      4.593129
  H      -7.516670      4.963093      2.678007
  H      -8.470895      3.521203      3.048878
  H      -7.843349      3.769123      1.411990
  H      -3.119330      2.915963      3.366496
  H      -2.468145      3.219792      1.746129
  H      -3.416057      1.755739      2.062110
  H      -1.695318      6.875246      0.136091
  H      -0.594174      6.970994     -1.268844
  H       0.064394      7.010041      0.389984
  H       0.966155      3.537538     -1.241792
69
Coordinates from ORCA-job goat_0_42 E -1780.872410228995
  O      -1.502970      0.864505     -2.062344
  C      -1.873875      2.236667     -2.044807
  H      -1.804424      2.573641     -3.084192
  C      -3.311923      2.427195     -1.565137
  H      -3.403142      1.983480     -0.568490
  O      -4.203006      1.819193     -2.476626
  Si     -5.290027      0.600637     -2.106912
  C      -6.989674      1.326631     -1.809264
  C      -5.326001     -0.522340     -3.627521
  C      -3.966451     -1.209682     -3.811591
  C      -6.411221     -1.594609     -3.448543
  C      -5.643104      0.310237     -4.878591
  C      -4.733722     -0.324224     -0.577735
  C      -3.644342      3.915748     -1.447340
  H      -3.588084      4.377472     -2.444268
  C      -5.035251      4.161874     -0.894653
  O      -5.311022      3.394652      0.259306
  Si     -4.883680      3.746092      1.833952
  C      -4.639473      5.588737      2.049974
  C      -6.342247      3.123354      2.865713
  C      -6.565039      1.626848      2.602289
  C      -6.057123      3.335175      4.359433
  C      -7.611859      3.895343      2.479596
  C      -3.322580      2.820732      2.293943
  O      -2.708668      4.543574     -0.574532
  C      -1.394700      4.500563     -1.095554
  H      -1.382958      4.976915     -2.090367
  O      -0.545654      5.172444     -0.224612
  C      -0.712663      6.590624     -0.248697
  C      -0.911564      3.059124     -1.196754
  H      -0.885392      2.645318     -0.178940
  O       0.375239      3.006478     -1.792928
  H      -1.547378      0.531471     -1.157337
  H      -7.712397      0.527968     -1.616880
  H      -7.339855      1.899683     -2.672435
  H      -6.970019      1.985350     -0.938461
  H      -3.718756     -1.847170     -2.957405
  H      -3.160720     -0.481058     -3.929789
  H      -3.985286     -1.844619     -4.706214
  H      -7.407693     -1.152437     -3.361236
  H      -6.233687     -2.207375     -2.559120
  H      -6.420516     -2.265682     -4.316133
  H      -5.673204     -0.337731     -5.763393
  H      -4.883908      1.078136     -5.051555
  H      -6.615001      0.806678     -4.798682
  H      -4.779582      0.315352      0.307566
  H      -3.714658     -0.705417     -0.678857
  H      -5.399916     -1.175372     -0.406342
  H      -5.143964      5.232929     -0.693708
  H      -5.763949      3.884355     -1.659069
  H      -3.777612      5.932457      1.473255
  H      -4.456619      5.817581      3.104165
  H      -5.518594      6.154079      1.728743
  H      -6.786299      1.433782      1.549002
  H      -7.413051      1.262784      3.195750
  H      -5.688422      1.032505      2.877339
  H      -5.174046      2.778167      4.686053
  H      -6.908249      2.986546      4.957299
  H      -5.897458      4.391513      4.596756
  H      -7.513042      4.964896      2.688028
  H      -8.469472      3.523056      3.053668
  H      -7.844104      3.777376      1.417045
  H      -3.114100      2.920274      3.363380
  H      -2.469905      3.217414      1.739031
  H      -3.417253      1.755396      2.064410
  H      -1.695104      6.874564      0.137108
  H      -0.595672      6.971521     -1.268978
  H       0.064816      7.009871      0.389066
  H       0.966114      3.534371     -1.241912
69
Coordinates from ORCA-job goat_0_42 E -1780.872416895245
  O      -1.503297      0.865242     -2.063077
  C      -1.874399      2.237288     -2.044811
  H      -1.805432      2.574737     -3.084055
  C      -3.312235      2.427557     -1.564378
  H      -3.402929      1.984100     -0.567544
  O      -4.203629      1.819171     -2.475253
  Si     -5.289620      0.599880     -2.106262
  C      -6.989457      1.325345     -1.808371
  C      -5.325228     -0.522652     -3.627316
  C      -3.966090     -1.211184     -3.809941
  C      -6.411646     -1.593821     -3.449012
  C      -5.640458      0.309931     -4.878723
  C      -4.732464     -0.325621     -0.577657
  C      -3.644759      3.916034     -1.447222
  H      -3.588799      4.377280     -2.444392
  C      -5.035547      4.162330     -0.894498
  O      -5.311325      3.394710      0.259217
  Si     -4.884075      3.746022      1.833976
  C      -4.639553      5.588857      2.049065
  C      -6.342743      3.123421      2.865646
  C      -6.568597      1.628086      2.598535
  C      -6.055229      3.330778      4.359520
  C      -7.611217      3.898898      2.483057
  C      -3.322960      2.820615      2.293960
  O      -2.708980      4.544399     -0.574981
  C      -1.395154      4.501133     -1.096039
  H      -1.383057      4.976991     -2.091065
  O      -0.546064      5.173474     -0.225272
  C      -0.713875      6.591569     -0.249726
  C      -0.912043      3.059693     -1.196676
  H      -0.885681      2.646048     -0.178833
  O       0.374795      3.007135     -1.792921
  H      -1.547802      0.531917     -1.158176
  H      -7.712515      0.527416     -1.614445
  H      -7.339709      1.896927     -2.672509
  H      -6.969552      1.985435     -0.938597
  H      -3.721397     -1.850498     -2.956246
  H      -3.159086     -0.483490     -3.924879
  H      -3.983932     -1.844790     -4.705509
  H      -7.407521     -1.150348     -3.361523
  H      -6.235014     -2.206854     -2.559604
  H      -6.421832     -2.264780     -4.316635
  H      -5.670993     -0.338460     -5.763166
  H      -4.880231      1.076795     -5.051632
  H      -6.611759      0.807659     -4.799407
  H      -4.776922      0.313864      0.307775
  H      -3.713504     -0.706805     -0.679971
  H      -5.398564     -1.176673     -0.405724
  H      -5.143654      5.233382     -0.693273
  H      -5.764327      3.885259     -1.658934
  H      -3.775042      5.931385      1.475607
  H      -4.461137      5.818996      3.103723
  H      -5.516845      6.154454      1.723363
  H      -6.791695      1.438214      1.545060
  H      -7.416248      1.263937      3.192409
  H      -5.692476      1.031588      2.870501
  H      -5.173222      2.770638      4.683602
  H      -6.906545      2.983135      4.957640
  H      -5.892262      4.386117      4.599111
  H      -7.509857      4.967634      2.694362
  H      -8.468919      3.526683      3.057017
  H      -7.844909      3.784467      1.420430
  H      -3.110945      2.924203      3.362274
  H      -2.471783      3.214328      1.734674
  H      -3.419053      1.754511      2.068629
  H      -1.696311      6.875044      0.136374
  H      -0.597489      6.972107     -1.270194
  H       0.063647      7.011393      0.387576
  H       0.965993      3.533376     -1.240692
69
Coordinates from ORCA-job goat_0_42 E -1780.872410243584
  O      -1.503808      0.866006     -2.063883
  C      -1.874947      2.237989     -2.045243
  H      -1.806512      2.575634     -3.084464
  C      -3.312559      2.428182     -1.564104
  H      -3.402713      1.984946     -0.567120
  O      -4.204278      1.819608     -2.474545
  Si     -5.289130      0.599427     -2.105880
  C      -6.989440      1.323818     -1.807803
  C      -5.324442     -0.523103     -3.627001
  C      -3.965806     -1.212906     -3.808607
  C      -6.411905     -1.593283     -3.448988
  C      -5.638189      0.309420     -4.878755
  C      -4.731058     -0.326093     -0.577452
  C      -3.645236      3.916574     -1.447077
  H      -3.589438      4.377740     -2.444299
  C      -5.035896      4.162865     -0.894153
  O      -5.311640      3.395047      0.259447
  Si     -4.884334      3.745771      1.834320
  C      -4.638837      5.588546      2.049348
  C      -6.343431      3.123589      2.865597
  C      -6.572174      1.629275      2.595290
  C      -6.054335      3.327144      4.359673
  C      -7.610711      3.902232      2.485585
  C      -3.323608      2.819710      2.294412
  O      -2.709210      4.545067     -0.575179
  C      -1.395522      4.501850     -1.096584
  H      -1.383572      4.977662     -2.091641
  O      -0.546360      5.174324     -0.225984
  C      -0.714221      6.592426     -0.250671
  C      -0.912301      3.060503     -1.197479
  H      -0.885267      2.646743     -0.179692
  O       0.374311      3.008193     -1.794320
  H      -1.547506      0.532709     -1.158919
  H      -7.712081      0.525942     -1.612194
  H      -7.340438      1.893889     -2.672651
  H      -6.969292      1.985114     -0.938931
  H      -3.722911     -1.853110     -2.955056
  H      -3.157829     -0.486022     -3.921986
  H      -3.983334     -1.845946     -4.704574
  H      -7.407473     -1.148975     -3.362511
  H      -6.236426     -2.205899     -2.559048
  H      -6.421900     -2.264822     -4.316169
  H      -5.669026     -0.339297     -5.762961
  H      -4.877033      1.075374     -5.051596
  H      -6.608995      0.808250     -4.800155
  H      -4.774734      0.313611      0.307884
  H      -3.712122     -0.707156     -0.680497
  H      -5.396902     -1.177195     -0.404845
  H      -5.143830      5.233904     -0.692812
  H      -5.764749      3.885856     -1.658547
  H      -3.772512      5.929983      1.477928
  H      -4.463087      5.819264      3.104321
  H      -5.514771      6.154677      1.720931
  H      -6.796548      1.442223      1.541582
  H      -7.419863      1.265263      3.189192
  H      -5.696805      1.030649      2.865030
  H      -5.173352      2.764341      4.681890
  H      -6.906009      2.980244      4.957716
  H      -5.888755      4.381622      4.601311
  H      -7.507186      4.970307      2.699201
  H      -8.468752      3.530313      3.059225
  H      -7.845239      3.790721      1.422822
  H      -3.109593      2.925932      3.362054
  H      -2.473128      3.211260      1.732527
  H      -3.420965      1.753132      2.071929
  H      -1.696590      6.875826      0.135672
  H      -0.598127      6.972716     -1.271261
  H       0.063452      7.012395      0.386348
  H       0.965822      3.533608     -1.241644
