69
Coordinates from ORCA-job goat_0_93 E -1780.865551522917
  O      -1.619312      2.935030      0.371110
  C      -1.786054      2.587214     -0.994620
  H      -1.246193      1.652696     -1.163322
  C      -3.263130      2.345730     -1.338529
  H      -3.700269      1.703654     -0.568114
  O      -3.319382      1.725271     -2.619863
  Si     -3.650368      0.126206     -2.966403
  C      -2.930216     -0.975150     -1.639415
  C      -5.517387     -0.117396     -3.092444
  C      -6.090461      0.906007     -4.080391
  C      -5.826446     -1.534931     -3.593863
  C      -6.157305      0.088995     -1.713016
  C      -2.798655     -0.143160     -4.600464
  C      -4.073314      3.634576     -1.413394
  H      -4.972231      3.401447     -1.986721
  C      -4.564244      4.151626     -0.062098
  O      -5.590103      3.285919      0.378887
  Si     -5.722269      2.598850      1.890173
  C      -4.231985      1.531912      2.260338
  C      -5.909512      3.930960      3.223799
  C      -4.600248      4.705827      3.426256
  C      -7.022780      4.902388      2.815385
  C      -6.287971      3.255852      4.550012
  C      -7.266706      1.568229      1.735742
  O      -3.415707      4.646639     -2.183105
  C      -2.068320      4.908857     -1.896922
  H      -1.743100      5.591587     -2.687964
  O      -1.897870      5.515938     -0.630796
  C      -2.365739      6.855895     -0.583954
  C      -1.198816      3.652502     -1.921693
  H      -0.204083      3.924799     -1.563238
  O      -1.054151      3.192922     -3.246857
  H      -1.609660      3.900852      0.434297
  H      -3.237651     -0.679027     -0.634380
  H      -1.839301     -0.963165     -1.677238
  H      -3.256840     -2.006665     -1.790231
  H      -5.689813      0.762855     -5.086878
  H      -5.863256      1.929627     -3.775269
  H      -7.179005      0.807493     -4.142543
  H      -5.389537     -1.724475     -4.577476
  H      -6.908515     -1.673607     -3.686579
  H      -5.458456     -2.303355     -2.909441
  H      -5.788410     -0.638493     -0.984021
  H      -7.243506     -0.035718     -1.777801
  H      -5.969975      1.091241     -1.316124
  H      -2.910425     -1.170209     -4.951793
  H      -1.730644      0.061700     -4.496571
  H      -3.189904      0.522637     -5.372281
  H      -3.754175      4.219052      0.665178
  H      -4.974027      5.155601     -0.218968
  H      -3.295444      2.014187      1.972171
  H      -4.298650      0.583325      1.721297
  H      -4.174382      1.298530      3.326208
  H      -4.314147      5.269248      2.535448
  H      -3.770314      4.043967      3.686968
  H      -4.714307      5.427476      4.242181
  H      -7.146418      5.683578      3.572884
  H      -7.983005      4.391642      2.710242
  H      -6.801997      5.390230      1.863092
  H      -7.227220      2.703932      4.474366
  H      -6.413658      4.010421      5.333326
  H      -5.516051      2.561174      4.890025
  H      -7.114659      0.797057      0.977877
  H      -8.116749      2.175541      1.419902
  H      -7.527274      1.072202      2.671755
  H      -1.773166      7.485406     -1.254160
  H      -2.248241      7.206219      0.438541
  H      -3.416521      6.913718     -0.871012
  H      -1.865533      2.714522     -3.473548
69
Coordinates from ORCA-job goat_0_93 E -1780.866525637585
  O      -1.495605      2.894853      0.271490
  C      -1.727170      2.591914     -1.098067
  H      -1.197586      1.661267     -1.319542
  C      -3.219805      2.360684     -1.385573
  H      -3.627715      1.706588     -0.611340
  O      -3.314547      1.752315     -2.670027
  Si     -3.631693      0.143655     -2.991942
  C      -2.827244     -0.927200     -1.687243
  C      -5.499531     -0.131175     -3.023753
  C      -6.140297      0.839901     -4.025351
  C      -5.805450     -1.573198     -3.450068
  C      -6.082654      0.124797     -1.627094
  C      -2.855364     -0.132809     -4.663997
  C      -4.040710      3.648268     -1.415203
  H      -4.949046      3.426956     -1.979651
  C      -4.514273      4.131705     -0.041173
  O      -5.582536      3.296824      0.370860
  Si     -5.770117      2.599835      1.873584
  C      -4.318118      1.487488      2.265231
  C      -5.956152      3.926439      3.213909
  C      -4.629533      4.656509      3.467016
  C      -7.021344      4.942192      2.780177
  C      -6.403578      3.253385      4.520570
  C      -7.339457      1.610136      1.680501
  O      -3.402767      4.686184     -2.172550
  C      -2.046042      4.943102     -1.914304
  H      -1.745842      5.661129     -2.684317
  O      -1.835658      5.491854     -0.628695
  C      -2.318450      6.825244     -0.489778
  C      -1.179028      3.686558     -2.017652
  H      -0.167462      3.947704     -1.697771
  O      -1.100875      3.257579     -3.363987
  H      -1.502159      3.857201      0.373858
  H      -3.104881     -0.629330     -0.672488
  H      -1.737370     -0.881712     -1.768726
  H      -3.128913     -1.970638     -1.819275
  H      -5.778214      0.666008     -5.043248
  H      -5.928659      1.881509     -3.768259
  H      -7.229441      0.710468     -4.035895
  H      -5.413290     -1.794331     -4.447322
  H      -6.890097     -1.734483     -3.480157
  H      -5.384608     -2.304153     -2.752974
  H      -5.664889     -0.559670     -0.882509
  H      -7.169714     -0.023990     -1.638260
  H      -5.898396      1.147676     -1.286894
  H      -2.969448     -1.168277     -4.996128
  H      -1.784986      0.089640     -4.614158
  H      -3.297857      0.517657     -5.423523
  H      -3.705021      4.142487      0.687847
  H      -4.880814      5.156442     -0.157412
  H      -3.362781      1.960491      2.026887
  H      -4.384227      0.558222      1.690037
  H      -4.308806      1.218799      3.325820
  H      -4.299198      5.224150      2.593200
  H      -3.829252      3.962747      3.741514
  H      -4.746586      5.369415      4.292792
  H      -7.146781      5.715435      3.548164
  H      -7.994851      4.465272      2.629901
  H      -6.745741      5.440346      1.845773
  H      -7.362579      2.739715      4.407678
  H      -6.523812      4.007001      5.308585
  H      -5.669809      2.523365      4.875543
  H      -7.195617      0.842820      0.914523
  H      -8.170714      2.246007      1.363670
  H      -7.624816      1.108630      2.608719
  H      -1.766100      7.497904     -1.154841
  H      -2.153656      7.122271      0.545380
  H      -3.385017      6.883854     -0.719852
  H      -1.920410      2.775979     -3.558272
69
Coordinates from ORCA-job goat_0_93 E -1780.867058366441
  O      -1.526015      2.845105      0.262871
  C      -1.754305      2.572275     -1.115324
  H      -1.241813      1.635126     -1.348819
  C      -3.248530      2.373617     -1.415481
  H      -3.673172      1.719103     -0.650866
  O      -3.340726      1.778586     -2.708053
  Si     -3.634406      0.159501     -3.014763
  C      -2.783777     -0.879807     -1.711805
  C      -5.498717     -0.147358     -3.010336
  C      -6.179616      0.782204     -4.026421
  C      -5.781464     -1.606592     -3.391798
  C      -6.069395      0.133873     -1.613118
  C      -2.884755     -0.126097     -4.699599
  C      -4.045716      3.676243     -1.429317
  H      -4.958903      3.482831     -1.996620
  C      -4.499585      4.142639     -0.041617
  O      -5.587927      3.324861      0.359914
  Si     -5.773860      2.615460      1.858975
  C      -4.307521      1.513189      2.230995
  C      -5.970516      3.933657      3.206463
  C      -4.645460      4.661648      3.473798
  C      -7.029761      4.956871      2.770920
  C      -6.431805      3.253675      4.505460
  C      -7.336969      1.610115      1.671273
  O      -3.386969      4.716663     -2.170016
  C      -2.025581      4.946537     -1.895614
  H      -1.706990      5.676061     -2.647444
  O      -1.811489      5.461264     -0.598870
  C      -2.264431      6.805567     -0.426557
  C      -1.181732      3.673755     -2.014221
  H      -0.165674      3.911472     -1.689873
  O      -1.109590      3.257013     -3.369338
  H      -1.559919      3.804219      0.391322
  H      -3.069216     -0.587594     -0.696811
  H      -1.695903     -0.790876     -1.799078
  H      -3.045378     -1.934957     -1.841748
  H      -5.825864      0.593784     -5.045456
  H      -5.996456      1.836128     -3.794329
  H      -7.265429      0.619680     -4.017176
  H      -5.401586     -1.844477     -4.390792
  H      -6.863945     -1.790479     -3.395469
  H      -5.329329     -2.307236     -2.682267
  H      -5.618088     -0.510731     -0.852244
  H      -7.152015     -0.050473     -1.604778
  H      -5.913897      1.172378     -1.310865
  H      -2.994120     -1.168573     -5.014800
  H      -1.815520      0.109761     -4.671952
  H      -3.353425      0.509496     -5.457146
  H      -3.686031      4.110244      0.683217
  H      -4.838990      5.178714     -0.124740
  H      -3.358745      2.018590      2.031449
  H      -4.344356      0.610858      1.610562
  H      -4.315051      1.198535      3.279468
  H      -4.309933      5.234107      2.604605
  H      -3.847713      3.964331      3.748858
  H      -4.769421      5.369494      4.304230
  H      -7.165329      5.718265      3.550376
  H      -8.001865      4.482701      2.598243
  H      -6.736725      5.471291      1.849836
  H      -7.395732      2.750354      4.381176
  H      -6.548438      4.003800      5.298736
  H      -5.706298      2.512192      4.856604
  H      -7.197997      0.855394      0.891321
  H      -8.181423      2.244341      1.383700
  H      -7.598247      1.090977      2.598240
  H      -1.702089      7.479232     -1.082931
  H      -2.080780      7.072980      0.614476
  H      -3.332426      6.894546     -0.642340
  H      -1.930310      2.775557     -3.562332
69
Coordinates from ORCA-job goat_0_93 E -1780.867304707507
  O      -1.518729      2.839049      0.259175
  C      -1.757724      2.581329     -1.119926
  H      -1.247909      1.646356     -1.361672
  C      -3.253560      2.386407     -1.421083
  H      -3.681794      1.731992     -0.657983
  O      -3.349807      1.797559     -2.718344
  Si     -3.627648      0.169953     -3.010992
  C      -2.747111     -0.849690     -1.710838
  C      -5.488708     -0.156900     -2.984721
  C      -6.192872      0.758654     -3.997248
  C      -5.755457     -1.622546     -3.356386
  C      -6.052074      0.121329     -1.583736
  C      -2.896375     -0.122860     -4.703582
  C      -4.050004      3.688187     -1.432912
  H      -4.959299      3.498373     -2.007359
  C      -4.511207      4.141477     -0.043960
  O      -5.609445      3.325832      0.336096
  Si     -5.802470      2.610508      1.832827
  C      -4.353433      1.476831      2.180408
  C      -5.961178      3.927597      3.185689
  C      -4.615980      4.619875      3.447522
  C      -6.994431      4.980494      2.757855
  C      -6.433968      3.255416      4.484550
  C      -7.388395      1.636288      1.660855
  O      -3.388795      4.734240     -2.164390
  C      -2.027558      4.961189     -1.882043
  H      -1.707656      5.698547     -2.625193
  O      -1.816708      5.462016     -0.581127
  C      -2.257388      6.809847     -0.400090
  C      -1.185217      3.688942     -2.010121
  H      -0.167906      3.923170     -1.688888
  O      -1.118717      3.280299     -3.368918
  H      -1.572608      3.795634      0.399141
  H      -3.040223     -0.566414     -0.696019
  H      -1.663117     -0.729347     -1.799561
  H      -2.978473     -1.910850     -1.843305
  H      -5.845930      0.573489     -5.018611
  H      -6.025300      1.815545     -3.767398
  H      -7.275057      0.578108     -3.975811
  H      -5.381902     -1.859503     -4.357602
  H      -6.834767     -1.819912     -3.347849
  H      -5.286683     -2.312234     -2.647616
  H      -5.577530     -0.504363     -0.821270
  H      -7.128813     -0.090927     -1.564803
  H      -5.921040      1.166140     -1.291994
  H      -3.006232     -1.168189     -5.006740
  H      -1.828560      0.117510     -4.691014
  H      -3.379493      0.503923     -5.458521
  H      -3.705771      4.088758      0.688918
  H      -4.841983      5.181297     -0.111565
  H      -3.398013      1.980292      2.011976
  H      -4.392989      0.601843      1.523203
  H      -4.379124      1.122912      3.215581
  H      -4.268416      5.178375      2.574115
  H      -3.837211      3.902086      3.722917
  H      -4.719030      5.334248      4.274424
  H      -7.110970      5.737051      3.544415
  H      -7.977481      4.532880      2.579816
  H      -6.686022      5.495873      1.843034
  H      -7.414817      2.786286      4.364493
  H      -6.517810      4.004236      5.282247
  H      -5.731148      2.487285      4.823714
  H      -7.282415      0.892547      0.866518
  H      -8.227577      2.291071      1.408160
  H      -7.634085      1.107415      2.586042
  H      -1.694420      7.479025     -1.059202
  H      -2.060952      7.069226      0.639856
  H      -3.325790      6.908398     -0.605594
  H      -1.933890      2.786135     -3.553603
69
Coordinates from ORCA-job goat_0_93 E -1780.867427693526
  O      -1.502686      2.816532      0.252515
  C      -1.750796      2.570387     -1.126332
  H      -1.241240      1.638132     -1.375417
  C      -3.247484      2.376343     -1.426100
  H      -3.676849      1.719399     -0.665844
  O      -3.350115      1.797811     -2.729555
  Si     -3.633705      0.168126     -3.022101
  C      -2.753513     -0.859491     -1.727281
  C      -5.495851     -0.149818     -2.996115
  C      -6.195411      0.778336     -3.999311
  C      -5.766523     -1.611865     -3.382968
  C      -6.060491      0.114878     -1.593182
  C      -2.908778     -0.126782     -4.717129
  C      -4.043286      3.677782     -1.430066
  H      -4.953644      3.490018     -2.002921
  C      -4.499218      4.124250     -0.038195
  O      -5.595577      3.305487      0.341664
  Si     -5.782290      2.610003      1.850115
  C      -4.312429      1.509185      2.215968
  C      -5.973464      3.944402      3.181662
  C      -4.640583      4.657757      3.452626
  C      -7.014638      4.977517      2.726897
  C      -6.453171      3.283547      4.483463
  C      -7.348680      1.601835      1.694450
  O      -3.384900      4.726044     -2.158966
  C      -2.024854      4.952818     -1.872514
  H      -1.706504      5.697039     -2.609227
  O      -1.820639      5.443312     -0.567287
  C      -2.260342      6.789781     -0.381080
  C      -1.181751      3.683386     -2.010513
  H      -0.163444      3.915924     -1.692309
  O      -1.120651      3.286256     -3.372557
  H      -1.570088      3.770878      0.400910
  H      -3.053986     -0.588268     -0.711912
  H      -1.670774     -0.731845     -1.809843
  H      -2.977590     -1.919992     -1.871786
  H      -5.849253      0.603346     -5.022048
  H      -6.023696      1.831164     -3.756898
  H      -7.277573      0.601929     -3.979018
  H      -5.393241     -1.840146     -4.385690
  H      -6.845702     -1.805347     -3.377038
  H      -5.300977     -2.309608     -2.680675
  H      -5.585778     -0.515853     -0.835286
  H      -7.135845     -0.101065     -1.577867
  H      -5.932528      1.157806     -1.292267
  H      -3.032293     -1.169893     -5.019833
  H      -1.838971      0.100934     -4.707301
  H      -3.387738      0.506251     -5.468532
  H      -3.691728      4.064905      0.691798
  H      -4.830479      5.164786     -0.097490
  H      -3.367806      2.040932      2.079134
  H      -4.313725      0.645628      1.543903
  H      -4.353984      1.139195      3.244529
  H      -4.287879      5.207455      2.576651
  H      -3.857124      3.954720      3.749997
  H      -4.764901      5.382494      4.266541
  H      -7.153980      5.739251      3.503793
  H      -7.987776      4.514679      2.537836
  H      -6.698825      5.487493      1.812374
  H      -7.429954      2.808300      4.359691
  H      -6.547264      4.039785      5.271875
  H      -5.749446      2.522925      4.836054
  H      -7.239037      0.860592      0.899289
  H      -8.205137      2.238183      1.456406
  H      -7.566944      1.069393      2.623783
  H      -1.702920      7.458285     -1.044556
  H      -2.055067      7.047206      0.656872
  H      -3.329936      6.886735     -0.578253
  H      -1.931705      2.784046     -3.553574
69
Coordinates from ORCA-job goat_0_93 E -1780.867470388808
  O      -1.507726      2.820011      0.256986
  C      -1.751732      2.573575     -1.122076
  H      -1.238111      1.642752     -1.370178
  C      -3.246314      2.374695     -1.425544
  H      -3.675900      1.715100     -0.667578
  O      -3.344068      1.798112     -2.730353
  Si     -3.628214      0.167085     -3.022380
  C      -2.742860     -0.864776     -1.734895
  C      -5.489987     -0.149619     -2.989317
  C      -6.191425      0.785380     -3.984555
  C      -5.762469     -1.609447     -3.384413
  C      -6.049205      0.106225     -1.582564
  C      -2.911247     -0.124812     -4.720973
  C      -4.046210      3.674187     -1.429769
  H      -4.954706      3.482951     -2.004315
  C      -4.507714      4.117019     -0.039272
  O      -5.600824      3.291311      0.334338
  Si     -5.788141      2.604533      1.847069
  C      -4.326023      1.494017      2.213314
  C      -5.966565      3.946551      3.172487
  C      -4.626703      4.646914      3.443968
  C      -6.995985      4.988191      2.711540
  C      -6.454851      3.295009      4.475900
  C      -7.361170      1.606420      1.702164
  O      -3.389910      4.724376     -2.156462
  C      -2.031422      4.955086     -1.866745
  H      -1.713751      5.700378     -2.602787
  O      -1.833602      5.446659     -0.560385
  C      -2.273442      6.792876     -0.377870
  C      -1.184695      3.688430     -2.004970
  H      -0.167300      3.922683     -1.684586
  O      -1.120882      3.295910     -3.367590
  H      -1.581424      3.773766      0.405993
  H      -3.042081     -0.601023     -0.717216
  H      -1.660590     -0.734613     -1.819213
  H      -2.965363     -1.924845     -1.885352
  H      -5.849560      0.616042     -5.009654
  H      -6.016100      1.836143     -3.736699
  H      -7.273927      0.611450     -3.961348
  H      -5.394090     -1.832097     -4.390056
  H      -6.841673     -1.802721     -3.375089
  H      -5.294485     -2.312044     -2.688523
  H      -5.573489     -0.531320     -0.831047
  H      -7.124905     -0.107847     -1.564830
  H      -5.917462      1.146483     -1.273631
  H      -3.040595     -1.166794     -5.025071
  H      -1.840520      0.098419     -4.715993
  H      -3.391019      0.511868     -5.468733
  H      -3.702240      4.059941      0.693342
  H      -4.843627      5.156208     -0.098450
  H      -3.377607      2.022082      2.089782
  H      -4.326459      0.637183      1.532745
  H      -4.377136      1.114630      3.237988
  H      -4.263278      5.186042      2.565494
  H      -3.852601      3.937687      3.750703
  H      -4.746439      5.379380      4.251580
  H      -7.130294      5.753813      3.485430
  H      -7.973105      4.534481      2.520967
  H      -6.672897      5.491280      1.795760
  H      -7.438292      2.833270      4.353605
  H      -6.537983      4.053736      5.263114
  H      -5.761735      2.525420      4.830098
  H      -7.267048      0.870801      0.899614
  H      -8.217955      2.248493      1.481553
  H      -7.567775      1.068499      2.631042
  H      -1.717919      7.459530     -1.044977
  H      -2.066756      7.054759      0.658755
  H      -3.343475      6.887912     -0.574033
  H      -1.930101      2.791813     -3.551876
69
Coordinates from ORCA-job goat_0_93 E -1780.867497561514
  O      -1.508218      2.816055      0.254854
  C      -1.751088      2.571153     -1.124521
  H      -1.235458      1.641398     -1.374603
  C      -3.244992      2.370243     -1.427881
  H      -3.672794      1.707114     -0.671924
  O      -3.340457      1.796300     -2.733703
  Si     -3.627140      0.165233     -3.027289
  C      -2.742102     -0.871510     -1.744495
  C      -5.489097     -0.149426     -2.993101
  C      -6.189046      0.790799     -3.984580
  C      -5.763590     -1.606973     -3.394715
  C      -6.047833      0.100523     -1.585305
  C      -2.911812     -0.122961     -4.726786
  C      -4.047739      3.668943     -1.428644
  H      -4.956450      3.476081     -2.002456
  C      -4.510647      4.108113     -0.037433
  O      -5.598852      3.275429      0.335419
  Si     -5.783727      2.602236      1.854844
  C      -4.321160      1.496000      2.229926
  C      -5.964819      3.954512      3.169616
  C      -4.625385      4.653237      3.447310
  C      -6.988645      4.995595      2.695622
  C      -6.463149      3.311349      4.473589
  C      -7.353645      1.599381      1.719591
  O      -3.393382      4.720993     -2.153533
  C      -2.035394      4.953936     -1.863148
  H      -1.718433      5.701349     -2.597376
  O      -1.840191      5.443379     -0.554979
  C      -2.282537      6.788035     -0.369867
  C      -1.186188      3.689160     -2.005187
  H      -0.169208      3.923665     -1.682998
  O      -1.121194      3.302171     -3.368630
  H      -1.581619      3.769540      0.405956
  H      -3.041623     -0.614255     -0.725088
  H      -1.659511     -0.741638     -1.827928
  H      -2.965677     -1.930706     -1.901151
  H      -5.847547      0.624974     -5.010543
  H      -6.011092      1.840297     -3.733175
  H      -7.272154      0.619262     -3.962666
  H      -5.397816     -1.825810     -4.402203
  H      -6.843194     -1.799519     -3.384351
  H      -5.295242     -2.313760     -2.703096
  H      -5.574308     -0.543079     -0.837467
  H      -7.124344     -0.110507     -1.568508
  H      -5.912837      1.138256     -1.270056
  H      -3.045596     -1.163746     -5.033863
  H      -1.839998      0.095802     -4.722668
  H      -3.389268      0.517817     -5.472728
  H      -3.704373      4.054858      0.694418
  H      -4.851448      5.145727     -0.096371
  H      -3.372453      2.026005      2.116550
  H      -4.313838      0.640607      1.547295
  H      -4.379557      1.114036      3.253430
  H      -4.251534      5.185366      2.568701
  H      -3.856152      3.944231      3.766764
  H      -4.750257      5.391941      4.248693
  H      -7.127700      5.765871      3.464211
  H      -7.965379      4.542726      2.500002
  H      -6.658361      5.492673      1.778986
  H      -7.448639      2.854312      4.348756
  H      -6.546181      4.073793      5.257515
  H      -5.775905      2.539750      4.835256
  H      -7.267006      0.869734      0.910480
  H      -8.216659      2.238461      1.514314
  H      -7.545118      1.054388      2.647865
  H      -1.731390      7.457522     -1.038144
  H      -2.073759      7.050609      0.666389
  H      -3.353653      6.880530     -0.562799
  H      -1.929600      2.798031     -3.556433
69
Coordinates from ORCA-job goat_0_93 E -1780.867512716542
  O      -1.509998      2.812402      0.253017
  C      -1.751139      2.569576     -1.127153
  H      -1.234748      1.640717     -1.379026
  C      -3.244788      2.368292     -1.431311
  H      -3.671631      1.702971     -0.676724
  O      -3.338912      1.796278     -2.737826
  Si     -3.626770      0.165543     -3.032406
  C      -2.739160     -0.872419     -1.753093
  C      -5.488623     -0.150101     -2.993942
  C      -6.190749      0.788163     -3.986014
  C      -5.763566     -1.608098     -3.392784
  C      -6.045082      0.102161     -1.585770
  C      -2.914340     -0.120174     -4.733364
  C      -4.048542      3.666579     -1.429248
  H      -4.957476      3.474071     -2.002979
  C      -4.511770      4.102342     -0.036892
  O      -5.597565      3.265844      0.335056
  Si     -5.781522      2.601023      1.858394
  C      -4.319308      1.496757      2.239101
  C      -5.963610      3.959309      3.166988
  C      -4.623929      4.654552      3.451044
  C      -6.981634      5.002242      2.684492
  C      -6.471510      3.320963      4.469781
  C      -7.349682      1.595286      1.728687
  O      -3.394667      4.720525     -2.151617
  C      -2.036911      4.954177     -1.860190
  H      -1.719766      5.703520     -2.592315
  O      -1.842280      5.440530     -0.550705
  C      -2.287727      6.783497     -0.360950
  C      -1.186385      3.690286     -2.004908
  H      -0.170015      3.924613     -1.680494
  O      -1.119633      3.306397     -3.368925
  H      -1.581777      3.765687      0.406113
  H      -3.037276     -0.618858     -0.732282
  H      -1.656609     -0.742174     -1.837606
  H      -2.963034     -1.931244     -1.912832
  H      -5.850382      0.620741     -5.012226
  H      -6.013107      1.838412     -3.737172
  H      -7.273816      0.615937     -3.962971
  H      -5.400917     -1.828328     -4.401201
  H      -6.843143     -1.801376     -3.378923
  H      -5.292853     -2.313952     -2.701702
  H      -5.570936     -0.541190     -0.838033
  H      -7.121877     -0.107808     -1.566889
  H      -5.908677      1.140040     -1.271892
  H      -3.049656     -1.160418     -5.042181
  H      -1.842162      0.097290     -4.731131
  H      -3.392095      0.522215     -5.477867
  H      -3.704662      4.050301      0.694113
  H      -4.854638      5.139331     -0.094463
  H      -3.369855      2.026607      2.130865
  H      -4.308388      0.641407      1.556258
  H      -4.382208      1.114266      3.262285
  H      -4.241382      5.182495      2.573576
  H      -3.859489      3.944017      3.778742
  H      -4.751999      5.396457      4.249130
  H      -7.124060      5.774330      3.450744
  H      -7.958338      4.551547      2.483057
  H      -6.644303      5.496974      1.769091
  H      -7.458554      2.868196      4.341095
  H      -6.554989      4.085259      5.252039
  H      -5.789573      2.546986      4.836683
  H      -7.268754      0.872124      0.913055
  H      -8.217245      2.232529      1.536719
  H      -7.530112      1.042482      2.654729
  H      -1.740016      7.457084     -1.028083
  H      -2.077872      7.043962      0.675734
  H      -3.359585      6.874194     -0.551273
  H      -1.927384      2.802261     -3.559266
69
Coordinates from ORCA-job goat_0_93 E -1780.867515043315
  O      -1.512289      2.807642      0.252196
  C      -1.752656      2.567311     -1.128674
  H      -1.236336      1.639052     -1.382349
  C      -3.246415      2.366591     -1.433345
  H      -3.672698      1.699954     -0.679612
  O      -3.340129      1.796582     -2.740714
  Si     -3.626662      0.166392     -3.037940
  C      -2.735738     -0.871985     -1.761556
  C      -5.487922     -0.153757     -2.997262
  C      -6.193794      0.783164     -3.988113
  C      -5.760224     -1.611998     -3.396385
  C      -6.043181      0.096570     -1.588297
  C      -2.915480     -0.114966     -4.740099
  C      -4.049967      3.664879     -1.428887
  H      -4.959154      3.473850     -2.002772
  C      -4.512638      4.098542     -0.035487
  O      -5.597495      3.260754      0.336562
  Si     -5.781005      2.602316      1.862762
  C      -4.319291      1.499076      2.247628
  C      -5.962526      3.965380      3.166523
  C      -4.621964      4.656882      3.454425
  C      -6.975599      5.010435      2.678016
  C      -6.477749      3.331226      4.468586
  C      -7.348524      1.594938      1.737860
  O      -3.395967      4.720255     -2.149201
  C      -2.038196      4.953531     -1.857432
  H      -1.720934      5.704172     -2.588163
  O      -1.842447      5.437333     -0.547322
  C      -2.290142      6.779001     -0.353341
  C      -1.187469      3.689828     -2.004045
  H      -0.171448      3.923759     -1.678338
  O      -1.119778      3.307523     -3.368540
  H      -1.581492      3.760871      0.406728
  H      -3.033250     -0.622048     -0.739684
  H      -1.653466     -0.739806     -1.846525
  H      -2.958006     -1.930749     -1.924224
  H      -5.854110      0.616872     -5.014777
  H      -6.018808      1.833965     -3.739399
  H      -7.276358      0.607966     -3.964095
  H      -5.398473     -1.830896     -4.405482
  H      -6.839346     -1.807752     -3.381121
  H      -5.287051     -2.317233     -2.706369
  H      -5.566507     -0.546087     -0.841532
  H      -7.119481     -0.115881     -1.568185
  H      -5.909084      1.134587     -1.274229
  H      -3.049775     -1.154628     -5.051494
  H      -1.843502      0.103578     -4.738408
  H      -3.394351      0.528442     -5.483031
  H      -3.704718      4.046509      0.694600
  H      -4.855998      5.135429     -0.091727
  H      -3.369012      2.027531      2.139913
  H      -4.307832      0.642007      1.566882
  H      -4.384208      1.118811      3.271585
  H      -4.233141      5.180794      2.577301
  H      -3.861629      3.944614      3.787937
  H      -4.751271      5.401603      4.249722
  H      -7.120079      5.783487      3.442931
  H      -7.952403      4.561987      2.471929
  H      -6.632481      5.503917      1.764107
  H      -7.465984      2.881908      4.337027
  H      -6.561304      4.097223      5.249211
  H      -5.800048      2.555361      4.839420
  H      -7.272181      0.877113      0.917103
  H      -8.219313      2.230982      1.556666
  H      -7.520782      1.035694      2.661652
  H      -1.744337      7.455809     -1.018771
  H      -2.079820      7.036675      0.683970
  H      -3.362344      6.868846     -0.542044
  H      -1.927399      2.803877     -3.560313
69
Coordinates from ORCA-job goat_0_93 E -1780.867518399099
  O      -1.512303      2.804350      0.252456
  C      -1.751917      2.566255     -1.129008
  H      -1.235519      1.638517     -1.383915
  C      -3.245709      2.365819     -1.434526
  H      -3.672137      1.699063     -0.680937
  O      -3.339370      1.796300     -2.742131
  Si     -3.627847      0.167063     -3.040225
  C      -2.736786     -0.872195     -1.764545
  C      -5.489309     -0.152305     -2.997784
  C      -6.195612      0.782553     -3.990272
  C      -5.762754     -1.611330     -3.393100
  C      -6.043170      0.102316     -1.588985
  C      -2.918197     -0.114282     -4.743061
  C      -4.049252      3.663792     -1.429753
  H      -4.957831      3.473640     -2.004904
  C      -4.512986      4.095996     -0.036260
  O      -5.596014      3.255812      0.335798
  Si     -5.778193      2.600968      1.863726
  C      -4.313634      1.502616      2.251758
  C      -5.963236      3.966831      3.164034
  C      -4.623865      4.659683      3.453685
  C      -6.976179      5.010240      2.671635
  C      -6.481109      3.334315      4.465918
  C      -7.342697      1.588130      1.741955
  O      -3.394759      4.720451     -2.148031
  C      -2.037232      4.953381     -1.855168
  H      -1.719734      5.705094     -2.584723
  O      -1.841388      5.435135     -0.544491
  C      -2.291170      6.775717     -0.347543
  C      -1.186353      3.689896     -2.002618
  H      -0.170581      3.923818     -1.676305
  O      -1.118052      3.308258     -3.367423
  H      -1.579752      3.757542      0.407913
  H      -3.033051     -0.622361     -0.742318
  H      -1.654454     -0.741354     -1.850217
  H      -2.960286     -1.930644     -1.927536
  H      -5.856842      0.613488     -5.016764
  H      -6.020162      1.833948     -3.744311
  H      -7.278177      0.607785     -3.964812
  H      -5.401190     -1.832909     -4.401678
  H      -6.841969     -1.806224     -3.377177
  H      -5.290009     -2.315130     -2.701386
  H      -5.565940     -0.538140     -0.840720
  H      -7.119507     -0.109633     -1.567332
  H      -5.908495      1.141388     -1.278541
  H      -3.053532     -1.153460     -5.055475
  H      -1.846024      0.103226     -4.741677
  H      -3.396760      0.530086     -5.485340
  H      -3.704820      4.045263      0.693665
  H      -4.858416      5.132213     -0.092063
  H      -3.364305      2.032355      2.142358
  H      -4.300420      0.643277      1.573901
  H      -4.378100      1.125447      3.276891
  H      -4.232956      5.181437      2.576234
  H      -3.864143      3.948515      3.790859
  H      -4.755616      5.406297      4.246762
  H      -7.124279      5.783305      3.435822
  H      -7.951608      4.560331      2.462403
  H      -6.630591      5.504145      1.758938
  H      -7.468658      2.884091      4.332611
  H      -6.567025      4.101495      5.245070
  H      -5.803741      2.559448      4.839394
  H      -7.267073      0.874061      0.917899
  H      -8.217256      2.220916      1.567830
  H      -7.508417      1.024081      2.664003
  H      -1.745223      7.454946     -1.010317
  H      -2.082521      7.030518      0.690787
  H      -3.363178      6.864952     -0.537226
  H      -1.925768      2.805014     -3.559745
69
Coordinates from ORCA-job goat_0_93 E -1780.867519457898
  O      -1.513356      2.802022      0.252929
  C      -1.752910      2.565123     -1.128736
  H      -1.236733      1.637444     -1.384306
  C      -3.246779      2.365160     -1.434373
  H      -3.673358      1.698401     -0.680878
  O      -3.340670      1.796280     -2.742290
  Si     -3.627698      0.167436     -3.042206
  C      -2.734870     -0.872213     -1.767772
  C      -5.488732     -0.154550     -2.999480
  C      -6.196963      0.780992     -3.989881
  C      -5.760343     -1.613345     -3.397033
  C      -6.042003      0.096864     -1.589788
  C      -2.918604     -0.111327     -4.745752
  C      -4.049871      3.663291     -1.429145
  H      -4.958368      3.474051     -2.004683
  C      -4.513055      4.095469     -0.035577
  O      -5.596335      3.255797      0.336774
  Si     -5.778782      2.602323      1.865245
  C      -4.314466      1.503850      2.254277
  C      -5.963101      3.969508      3.164191
  C      -4.623069      4.661265      3.453516
  C      -6.974975      5.013407      2.670687
  C      -6.482010      3.338507      4.466424
  C      -7.343696      1.589611      1.745030
  O      -3.395061      4.720293     -2.146825
  C      -2.037495      4.952546     -1.854005
  H      -1.720043      5.704539     -2.583324
  O      -1.841171      5.433525     -0.543165
  C      -2.291454      6.773795     -0.345093
  C      -1.187079      3.688911     -2.001802
  H      -0.171195      3.922663     -1.675800
  O      -1.118977      3.307416     -3.366788
  H      -1.580307      3.755199      0.408719
  H      -3.030824     -0.623384     -0.745233
  H      -1.652726     -0.740219     -1.853817
  H      -2.957174     -1.930775     -1.931476
  H      -5.858949      0.613904     -5.016904
  H      -6.022610      1.832172     -3.742286
  H      -7.279273      0.604918     -3.963479
  H      -5.397964     -1.832909     -4.405738
  H      -6.839315     -1.809403     -3.381876
  H      -5.287099     -2.317549     -2.706126
  H      -5.562827     -0.543516     -0.842727
  H      -7.117848     -0.117408     -1.567697
  H      -5.909343      1.135827     -1.278154
  H      -3.052876     -1.150116     -5.059722
  H      -1.846690      0.107386     -4.744200
  H      -3.398096      0.533611     -5.486904
  H      -3.704583      4.044239      0.694029
  H      -4.858135      5.131831     -0.091057
  H      -3.364840      2.032352      2.142033
  H      -4.302950      0.642584      1.578857
  H      -4.378194      1.129588      3.280502
  H      -4.231407      5.181280      2.575375
  H      -3.864269      3.949677      3.791795
  H      -4.754248      5.409098      4.245488
  H      -7.123194      5.786617      3.434681
  H      -7.950445      4.564036      2.460666
  H      -6.628176      5.507028      1.758329
  H      -7.469785      2.888892      4.332908
  H      -6.567692      4.106463      5.244775
  H      -5.805406      2.563400      4.840713
  H      -7.269254      0.877012      0.919605
  H      -8.218794      2.222403      1.573862
  H      -7.507686      1.023817      2.666286
  H      -1.744227      7.453763     -1.006011
  H      -2.084609      7.026890      0.693987
  H      -3.363090      6.863162     -0.536531
  H      -1.927032      2.804686     -3.559087
