69
Coordinates from ORCA-job goat_0_45 E -1780.872132859715
  O          -0.98671275175171      0.86660798570336     -1.60386218289849
  C          -1.49214588051776      2.19162419701263     -1.74831423878630
  H          -1.31616080492956      2.45543825254136     -2.79608653602585
  C          -2.98636998348317      2.28783911964745     -1.46929785409439
  H          -3.18491126626265      1.93152785234818     -0.45326288945704
  O          -3.72722568014357      1.55291542833108     -2.41855277155899
  Si         -4.29308966728200     -0.01084983655204     -2.24086832785022
  C          -4.24645513594872     -0.51802224513154     -0.43944957709600
  C          -6.07207665420631     -0.00399641025594     -2.88541433476638
  C          -6.53560909757337     -1.44973041644287     -3.11927164387946
  C          -7.00306774719484      0.65949364125913     -1.86099988994183
  C          -6.14295423548848      0.76845494568649     -4.21026203428803
  C          -3.24148049861371     -1.15939423077352     -3.27711765241231
  C          -3.41707489728927      3.75350770173886     -1.55250141898854
  H          -3.25075871972949      4.11575302123463     -2.57800489285264
  C          -4.88362321211522      3.95281193207691     -1.22054117577847
  O          -5.27831556862491      3.28919803054368     -0.03711314913183
  Si         -5.09157400610248      3.82997318514021      1.53073119253394
  C          -4.98212498014308      5.69796032142817      1.56811227333172
  C          -6.63918244756662      3.21613940625184      2.42902432229799
  C          -6.73556964719394      1.68778184573555      2.31511296637028
  C          -6.57321460549809      3.60875173189117      3.91196610042504
  C          -7.88699521619489      3.84623445345179      1.79454060603796
  C          -3.55788008746242      3.07158164253955      2.29102621805006
  O          -2.64614894039425      4.52839949350837     -0.63900715086400
  C          -1.26675216874819      4.55284284051644     -0.96810595388851
  H          -1.14586113420349      4.93710511490412     -1.99490159507317
  O          -0.61624015957436      5.37399593193536     -0.05926776594837
  C          -0.89438093725503      6.76095460777324     -0.25247298330232
  C          -0.69846502250191      3.14687416875927     -0.86121854111433
  H          -0.79403497922875      2.82876679075282      0.18670500037782
  O           0.66593535927062      3.17313381507301     -1.25101287368547
  H          -1.12429323045627      0.58790446840943     -0.68900448808266
  H          -4.73708068541882      0.22170729968750      0.19818680438048
  H          -3.22275210254767     -0.65837276410047     -0.08243647134573
  H          -4.77480869243441     -1.46913607495446     -0.31988285702287
  H          -6.46062899263505     -2.05343127388833     -2.20868986144204
  H          -5.94749088638964     -1.94132946259366     -3.89910512849423
  H          -7.58545700678274     -1.45981689481924     -3.43701756945233
  H          -8.02238742652573      0.71878446403889     -2.26261480064445
  H          -6.67926620510602      1.67305088862119     -1.61157293605296
  H          -7.04628716913360      0.08644487723719     -0.93034227373614
  H          -7.16500376543165      0.74018411170287     -4.60818219872573
  H          -5.48076494065811      0.33672546180661     -4.96773664338441
  H          -5.86273828174960      1.81658342286922     -4.07571285712544
  H          -2.19342465099492     -1.07027400605841     -2.98273082952237
  H          -3.32275910368346     -0.91602839578552     -4.34069704682043
  H          -3.55313634098006     -2.19929042722486     -3.14298478821038
  H          -5.08028583174543      5.02832532819127     -1.15561821328622
  H          -5.47770656547417      3.54730367974518     -2.04236742778425
  H          -5.83782572391656      6.16400769172672      1.07186503803775
  H          -4.06879788656376      6.03797330709862      1.07451527779285
  H          -4.95976943873314      6.04847181712324      2.60426284293179
  H          -6.79573898910762      1.36704165772421      1.27160436409092
  H          -7.63558790920667      1.32819426862637      2.82945485421815
  H          -5.87298156810977      1.19257373897113      2.77127181552650
  H          -5.70876631231095      3.16152027744301      4.41148541753014
  H          -7.47365081156440      3.26087154215477      4.43312442654925
  H          -6.51489525495499      4.69379859579510      4.04186372138420
  H          -7.87837392283086      4.93669135981004      1.88413716479158
  H          -8.79168209548545      3.47908138642684      2.29496866792361
  H          -7.96625063970975      3.59457562560829      0.73286713499319
  H          -3.57240610540289      1.98146745162985      2.20177536847740
  H          -3.48573601270406      3.32450288778600      3.35302713765968
  H          -2.66455162178405      3.44566419524989      1.78667341694199
  H          -0.26146605194679      7.30814424100692      0.44552881437394
  H          -1.94420944447817      6.98431395237735     -0.04596714079689
  H          -0.65203353955133      7.06006525809554     -1.27818124846140
  H           0.93635598046041      2.25364175383291     -1.37211871295434
