69
Coordinates from ORCA-job goat_0_55 E -1780.870532682737
  O          -1.54300415426190      1.25202335877333     -2.36261656936769
  C          -2.01459148092464      2.59364530658287     -2.32429919903458
  H          -2.06538139171989      3.00226955004242     -3.34277777932663
  C          -3.40530071883310      2.66287213510128     -1.70217284561018
  H          -3.36923259872584      2.17678803479814     -0.72391620274376
  O          -4.31606146343259      2.00574311150614     -2.56359037881336
  Si         -5.33388367001916      0.74117243313462     -2.14623023646019
  C          -7.04468750061419      1.38326820865415     -1.74795703647970
  C          -5.39916193945178     -0.35572512285868     -3.68631577780707
  C          -6.17434453347670     -1.64146871055850     -3.36134959976128
  C          -6.10980901738391      0.38792664151293     -4.82688455620274
  C          -3.98056351997749     -0.72551625053970     -4.13942905378785
  C          -4.63345361571522     -0.18076947468596     -0.67740277912409
  C          -3.82824763343931      4.11657908560399     -1.49957744025319
  H          -3.89632843452110      4.61439014755438     -2.47798011375593
  C          -5.17667596360480      4.24569680090540     -0.81652830589705
  O          -5.31494737342619      3.39497492539881      0.30293482684520
  Si         -4.80843902698756      3.68704625431307      1.86616911896448
  C          -4.59205755316450      5.52364163202401      2.14951138174145
  C          -6.18326847454505      2.98548276873368      2.95933580584576
  C          -5.79467843767773      3.12778537537771      4.43787414763984
  C          -7.48723008207370      3.75330424232457      2.70077559510740
  C          -6.40390778809147      1.50058905799332      2.63598406115692
  C          -3.20380259612636      2.77609436424193      2.18132667410092
  O          -2.85124757567765      4.78298135280413     -0.69801572790553
  C          -1.59475215209229      4.83396379329956     -1.34378846225063
  H          -1.70299794236399      5.29738156626509     -2.33360941519379
  O          -0.74127087072361      5.68372047531468     -0.63861120295652
  C          -0.48392606766340      5.33124031224335      0.72463283046816
  C          -1.03218208418174      3.42078799654826     -1.51727189722590
  H          -0.90673966282710      2.94967402728597     -0.53521393638155
  O           0.20484887809147      3.47080233376633     -2.21356808396044
  H          -2.13099845116129      0.75813075376635     -2.94586818241301
  H          -7.03182511779155      1.94128330326393     -0.80950640044883
  H          -7.74560204505777      0.54948508397034     -1.64290280419209
  H          -7.41676778017105      2.03980025436845     -2.53908626044238
  H          -6.26127986018839     -2.26364525525758     -4.26027065995395
  H          -7.18783515486212     -1.42740328687990     -3.00854222512068
  H          -5.66812769703197     -2.23493261456398     -2.59450520094785
  H          -7.14922610497901      0.61417707138085     -4.57320552345284
  H          -6.11515003154998     -0.22984396223734     -5.73336509980670
  H          -5.60692740311773      1.32958248836384     -5.06786382305919
  H          -3.43475633911665      0.15699378299651     -4.48763107028377
  H          -4.02269594716508     -1.43149587902357     -4.97750964755189
  H          -3.40513209946787     -1.20151367297936     -3.33825555257534
  H          -5.27122122475988     -1.03843982677201     -0.44416174749409
  H          -4.60332029721640      0.46001379997513      0.20699471960721
  H          -3.62268205134473     -0.54907918887016     -0.87214579937749
  H          -5.32719431001952      5.29453875183969     -0.54051558692835
  H          -5.95041485213075      3.97126621436063     -1.53677691071507
  H          -5.50734571850770      6.07790271322843      1.92443283241026
  H          -3.78834741829573      5.91827342408780      1.52407057018391
  H          -4.33280815021898      5.70977712603507      3.19598469781583
  H          -4.87852912572042      2.57653524733347      4.67018516589549
  H          -6.59228484735037      2.72929255937261      5.07688715098795
  H          -5.63913857364239      4.17439959829287      4.71734579304232
  H          -8.29843881891658      3.33712704585609      3.31090463761729
  H          -7.78922433367999      3.68529922543648      1.65136940695931
  H          -7.38981504147907      4.81247781375292      2.95690198432360
  H          -6.68965988884037      1.35561807209781      1.59055477566868
  H          -7.20776941025450      1.09527356336804      3.26306884425628
  H          -5.50471413883646      0.90663517287061      2.82489166070847
  H          -3.32909072753407      1.69884235482298      2.04123284814872
  H          -2.85364387374741      2.94733619303108      3.20357893752901
  H          -2.43004421639466      3.12073692767126      1.49279101305314
  H           0.06691741976904      4.38953696616639      0.80302385849324
  H          -1.41164207105322      5.26155734610742      1.29464734519461
  H           0.13070732857760      6.13473253181738      1.12886250414760
  H           0.77819489888971      4.08697256748809     -1.74109408284987
