69
Coordinates from ORCA-job goat_0_40 E -1780.869024959956
  O          -1.09734768625659      1.66305379186417     -2.56421076663165
  C          -1.83325825896643      2.87353625955494     -2.44136299789459
  H          -2.00928424875565      3.30767312545791     -3.43554100963763
  C          -3.17634510407661      2.55799058187647     -1.80428790889093
  H          -3.00105785799035      2.04761876804368     -0.85290284871282
  O          -3.97360528310784      1.77013296469167     -2.66196495196125
  Si         -4.07865769037402      0.10005190524594     -2.65436718994580
  C          -3.34214248484389     -0.59289844255387     -1.08063465678253
  C          -5.92304215312177     -0.31017248182428     -2.76696407301420
  C          -6.58599996889410      0.55796918048679     -3.84567849366463
  C          -6.09520130618530     -1.79151426959449     -3.13441685948425
  C          -6.60383835424593     -0.04653144801358     -1.41693695550812
  C          -3.18217566322849     -0.56495507212631     -4.15543453257060
  C          -3.93077792796627      3.85885909504088     -1.52040396915431
  H          -4.15045148444742      4.35653887627724     -2.47647168704428
  C          -5.24533606035407      3.61799916618990     -0.80852998176728
  O          -5.03964680375392      2.81037933752010      0.33712122477653
  Si         -6.03669213700367      2.81775768889479      1.67587691077973
  C          -5.87424295923292      1.10449872784220      2.40426089331271
  C          -5.43895753215966      4.13029815761407      2.89951572691801
  C          -5.39593264124337      5.50997798494119      2.22683010605454
  C          -6.39356908426883      4.18302058628313      4.10101642208641
  C          -4.02753098298618      3.76906298834507      3.38479322368682
  C          -7.80001614508339      3.14816547721390      1.13904663621682
  O          -3.13773997323084      4.72167052450187     -0.70746559262556
  C          -1.94017818940591      5.11501994870171     -1.35179190502125
  H          -2.17097828901649      5.59347545474530     -2.31290016509222
  O          -1.31826879091394      6.10351971026764     -0.58943736393718
  C          -0.91448857092948      5.71561862552546      0.72800742287588
  C          -1.07069411425449      3.88205963883955     -1.59640503878525
  H          -0.82217828351449      3.41224146968051     -0.63832354846314
  O           0.10998187296087      4.21866430820090     -2.31476809995703
  H          -0.23870016367589      1.88904049452804     -2.94186192314712
  H          -3.78318503705015     -0.13292337986042     -0.19215325805923
  H          -2.26124706770835     -0.43627272042187     -1.05237041177117
  H          -3.53279534430648     -1.66957978555615     -1.03280163102920
  H          -7.64707533914501      0.29535793432902     -3.94035669071562
  H          -6.12024497492512      0.41317870393384     -4.82572055925864
  H          -6.52280605601552      1.62036508588294     -3.59543278038516
  H          -5.60119465147500     -2.44949680167828     -2.41184875854135
  H          -5.68699086604264     -2.01152393266709     -4.12472815118782
  H          -7.16018088745847     -2.05424770444822     -3.14673403536509
  H          -6.45760312843270      0.98307474615902     -1.08205589920714
  H          -6.21642097396389     -0.70777663453669     -0.63672312837199
  H          -7.68363934257703     -0.22378857545225     -1.49798157987344
  H          -3.18475118954486     -1.65882469718056     -4.15771553219458
  H          -2.14576286563039     -0.22030108052292     -4.14933915384983
  H          -3.65521402991652     -0.22348496856296     -5.08096404894013
  H          -5.67671335955587      4.58932960351334     -0.54671558638956
  H          -5.92718937185617      3.11796746738466     -1.50257091071003
  H          -4.82373546828539      0.84226306494043      2.55679696987718
  H          -6.31585959125607      0.36483537297905      1.73075188895800
  H          -6.38568702965345      1.03646478384744      3.36862491571565
  H          -4.67951900208177      5.53139949248667      1.40146448442361
  H          -5.08813523790419      6.27078306475672      2.95505448603156
  H          -6.37531926717860      5.80411815609127      1.83665207148050
  H          -7.40297341832615      4.48016308561543      3.80113787526676
  H          -6.03550910613336      4.91674210712878      4.83368430193337
  H          -6.46311527199824      3.21577440656699      4.60844743581650
  H          -3.32517359664440      3.69164292261714      2.54913087499536
  H          -4.01711802560237      2.81816238942493      3.92542979982491
  H          -3.65286572039562      4.54355442176907      4.06551067980335
  H          -7.92704237045499      4.15985408815760      0.74455308468487
  H          -8.48363842717730      3.02731460998469      1.98425727681103
  H          -8.09645761691466      2.43805231714906      0.36118817589932
  H          -0.04823996975772      5.04758648071839      0.70306078301090
  H          -1.73277826659366      5.23592187542156      1.26829971775173
  H          -0.63469441492164      6.63615057651558      1.23925500060205
  H           0.68407076741154      4.73395027925104     -1.73653378405044
