69
Coordinates from ORCA-job goat_0_117 E -1780.867295195736
  O          -1.63402301450222      2.42950988631611     -0.21932037235378
  C          -2.11766724589991      2.51424936215068     -1.55313722375880
  H          -1.80421321306339      1.60111282399476     -2.06354922742221
  C          -3.65210288112472      2.57140234693790     -1.61217869202163
  H          -4.05761254477172      1.82762770024358     -0.92177745819090
  O          -4.02130057150415      2.28167080156985     -2.96253995037833
  Si         -5.14757818751217      1.11245766478333     -3.39458571204807
  C          -5.59120147030250      1.55005112274533     -5.15346903779780
  C          -4.37078593812151     -0.60780138332537     -3.28625647400375
  C          -3.94720979361106     -0.93197765393954     -1.84596027965738
  C          -5.40311391618379     -1.64931390091504     -3.74644177654475
  C          -3.14035080937576     -0.67694073287611     -4.20241808429593
  C          -6.63320843504053      1.25090707722390     -2.26727350182684
  C          -4.22991487768860      3.93309107642416     -1.23129633962602
  H          -5.23135386563386      3.98306478617190     -1.66352902723677
  C          -4.41342986383244      4.12284841512801      0.27621793244869
  O          -5.51717280385832      3.32164473650028      0.67062995485568
  Si         -5.58079972339045      2.46616110049891      2.10548652036136
  C          -4.14941668482331      1.26332184930570      2.18373188946262
  C          -5.55394093775580      3.64714284846948      3.58556039758765
  C          -4.15985959478312      4.25905778579437      3.78659763928065
  C          -6.57179393068249      4.77413553118405      3.36014495897700
  C          -5.93661656174411      2.86423362684109      4.85154241340823
  C          -7.20419572094075      1.54672820459541      2.01309994585707
  O          -3.53034166727187      5.02519808446913     -1.84578680995596
  C          -2.12453628655515      5.01593662421888     -1.76994186277731
  H          -1.80688819917046      5.85580535027019     -2.39604738220013
  O          -1.65250196047222      5.18609904088975     -0.45202933548817
  C          -1.86209494084354      6.49675563197824      0.07368610338114
  C          -1.52140655636338      3.71216681457508     -2.29751584916640
  H          -0.44316899927301      3.74290947688442     -2.12580720794915
  O          -1.72847992526612      3.61328669755795     -3.69775920089621
  H          -1.53472924224388      3.33068357733156      0.12040039270633
  H          -6.06385983360425      2.53595129830238     -5.18516009477355
  H          -6.29199231907564      0.82371761694165     -5.57402768052072
  H          -4.70333855901276      1.57581313133732     -5.79084619167388
  H          -3.55463767295458     -1.95492606588836     -1.79607191245558
  H          -4.78713887970631     -0.86532226104755     -1.14782251469153
  H          -3.15811808724135     -0.26354862785479     -1.49173401591143
  H          -5.73624757562360     -1.46654818185604     -4.77237899369590
  H          -6.28565085506990     -1.65792446418677     -3.09984786959025
  H          -4.95965464647016     -2.65187318793206     -3.71520490064113
  H          -2.67309212683293     -1.66666045574578     -4.13060739985944
  H          -2.38906746263563      0.06829603647799     -3.92503119514369
  H          -3.40859076987142     -0.51206010191832     -5.25002907135880
  H          -7.39890016869952      0.52791944994933     -2.56294897408963
  H          -7.06865935260698      2.25200256058700     -2.33405504092026
  H          -6.37640717163860      1.06186572173333     -1.22247109631691
  H          -3.51359459067141      3.85903005346410      0.83355057243015
  H          -4.63749436472333      5.17645944150706      0.46795041277076
  H          -4.23655041152175      0.52283540899004      1.38269528289354
  H          -4.14974012993977      0.73139910361528      3.13989718283587
  H          -3.18543947359045      1.76533431640716      2.07406721685892
  H          -3.84993589358814      4.86416974183728      2.93044968764159
  H          -3.39962230021203      3.48979035398013      3.95047041300263
  H          -4.16496246689854      4.91412961933248      4.66662079806291
  H          -6.58806134589140      5.44655749010263      4.22675400507016
  H          -7.58509297352425      4.38373076147060      3.22490770358968
  H          -6.32038645587121      5.37073632652048      2.47834946066742
  H          -5.24804182722021      2.03414779543967      5.03901957462159
  H          -6.94873539771913      2.45544490863368      4.78455424565974
  H          -5.90184984766602      3.52659595473323      5.72507812460830
  H          -8.05396958547916      2.23447734577398      1.99609662331583
  H          -7.32110412585230      0.88135716548043      2.87291809167749
  H          -7.23973865756253      0.93644446013376      1.10631592229020
  H          -2.92547816668238      6.74356298348482      0.10645947711326
  H          -1.33403351043159      7.23467711588424     -0.53892834061412
  H          -1.45586165538600      6.50074380901492      1.08435838706274
  H          -2.61710101491815      3.24405658129657     -3.82786491264604
