69
Coordinates from ORCA-job goat_0_120 E -1780.870577709885
  O          -1.15114098769485      0.84831672794374     -2.00311862395580
  C          -1.70603768704720      2.15712878145707     -1.93495254094942
  H          -1.65086037023167      2.54599944917673     -2.95720076207646
  C          -3.16578997236999      2.17417174118770     -1.49880814689329
  H          -3.25836074387423      1.69295553866391     -0.51688183916946
  O          -3.96585241703329      1.53236110877010     -2.47038393638909
  Si         -4.81056098075714      0.10289497906248     -2.27949139252956
  C          -5.80106264688335      0.12024213267288     -0.69378823919129
  C          -5.93081602116078      0.04001822815469     -3.79830985984638
  C          -5.07909921598426      0.01089750618036     -5.07548608677985
  C          -6.80018276612671     -1.22482203493851     -3.74116825771796
  C          -6.84045075155475      1.27665493735887     -3.82507408614515
  C          -3.64580815342859     -1.36165470178701     -2.23362239126384
  C          -3.63465256237261      3.62969134187517     -1.38009025381354
  H          -3.63262374136834      4.07061777481839     -2.38819262335089
  C          -5.03711229916088      3.75608809766921     -0.81499967171512
  O          -5.16787880666212      3.14612252482772      0.45170480716130
  Si         -4.82409510012534      3.82093403618878      1.93810671312807
  C          -4.81534048077477      5.68946816645141      1.83146052357521
  C          -6.21792600969994      3.22405128140260      3.07248961331815
  C          -7.56873495829877      3.70515592593078      2.52457258579700
  C          -6.21981455389725      1.68985649595252      3.13520837754440
  C          -6.01856257003062      3.78531544747979      4.48769658929105
  C          -3.17636829159260      3.18432449453952      2.55861761619104
  O          -2.76847953768289      4.36816910478874     -0.52568945433988
  C          -1.43317811946652      4.43995752709140     -0.99651865033198
  H          -1.42493549035254      4.88605273267068     -2.00518616951091
  O          -0.70133779387091      5.21897973947429     -0.11258789527380
  C          -0.97988194344819      6.61451070067009     -0.22455475598691
  C          -0.84585453282393      3.03977693142084     -1.03628800898034
  H          -0.85511242191798      2.64120239054598     -0.01183416316266
  O           0.48083612189944      3.10754363953147     -1.53446055879649
  H          -1.27459355128183      0.42112965030145     -1.14574981652801
  H          -6.34683662499191     -0.82355321590163     -0.59700273501824
  H          -6.51892060982358      0.94222706953334     -0.66593345641537
  H          -5.14670896623166      0.21939995080190      0.17577844163148
  H          -4.44144880136654      0.89624827308153     -5.15230257422122
  H          -5.72792385308127     -0.01370660928582     -5.95977390073103
  H          -4.43613366929059     -0.87361324453304     -5.11132601641472
  H          -7.44094115586833     -1.23606753759254     -2.85429077496831
  H          -6.19255883398034     -2.13470635270883     -3.73156028664697
  H          -7.45207285200866     -1.27091974024997     -4.62202241323874
  H          -6.25825531917309      2.20035836828323     -3.88376630965107
  H          -7.47352467831796      1.33248891893626     -2.93431068747374
  H          -7.50086438063539      1.23859337577808     -4.70023620734792
  H          -4.21813826979176     -2.29433268473531     -2.21650982521315
  H          -3.02768761174875     -1.33345083800407     -1.33185812942021
  H          -2.98164249343982     -1.37867118600320     -3.10070256380800
  H          -5.29752616813470      4.81893976899415     -0.76986643701484
  H          -5.73176227940978      3.26462196624512     -1.50060889230520
  H          -4.01987052361577      6.03256566680724      1.16699198226260
  H          -4.63792856571301      6.11564447894068      2.82337601861787
  H          -5.76751021577297      6.07982913152712      1.46174501753211
  H          -7.62630872962951      4.79737866943096      2.49333939680145
  H          -8.38525873313191      3.34806775829334      3.16453821748736
  H          -7.74614346432256      3.32819776279401      1.51314681938866
  H          -7.03391629948659      1.33988340117158      3.78238430693080
  H          -5.28199557126257      1.30119000228876      3.54356047347348
  H          -6.36634291736517      1.24847785421629      2.14566182546208
  H          -5.07309922863005      3.45262737231929      4.92633852059084
  H          -6.82708254225045      3.44258179586587      5.14529620164751
  H          -6.02810776979124      4.87948222989658      4.49544453650820
  H          -2.36178519494509      3.60114738992170      1.96331775217844
  H          -3.13045464588030      2.09366410545815      2.48668925876165
  H          -3.01961835582501      3.46171776570866      3.60525239843610
  H          -0.29701023387205      7.12659370804371      0.45268344752269
  H          -2.01117255089574      6.83575927214019      0.06165477365605
  H          -0.80409329369043      6.95781649225069     -1.24992008605300
  H           0.72715463045023      2.20501693275206     -1.77666619425578
