69
Coordinates from ORCA-job goat_0_101 E -1780.869694634441
  O          -2.31952977966427      2.64392457665155     -4.43557723314561
  C          -2.94902940768087      3.44930713319085     -3.44790379409041
  H          -3.91054776275488      3.82296280965725     -3.82663085933830
  C          -3.22977837728047      2.58449993435037     -2.22672051129961
  H          -2.29422996453951      2.10811653361558     -1.90824178529452
  O          -4.21653049869950      1.61781129305776     -2.51200245080928
  Si         -3.98741419024112      0.08494841464466     -3.14188720642723
  C          -2.19119458887851     -0.42000613921765     -3.01776150497719
  C          -5.07283758640282     -1.06596627706642     -2.10035983947238
  C          -5.23904330030910     -2.40674152723569     -2.83137813440618
  C          -4.41689882597571     -1.32105403239130     -0.73584547464557
  C          -6.45530882677831     -0.43373916256011     -1.88478318499151
  C          -4.56522375581987      0.07667581411676     -4.92041979161059
  C          -3.74736611556299      3.46710657666536     -1.08519671556307
  H          -4.71107850290168      3.90264991109145     -1.38549413633642
  C          -3.94311942209047      2.67406156305704      0.18644909443577
  O          -4.60238455193743      3.47358906797052      1.15457389956344
  Si         -5.20535803955242      2.79080745718817      2.55599232257994
  C          -3.79273040897105      2.09244380605391      3.56710161931250
  C          -6.07647448754102      4.20621117022641      3.44647960359476
  C          -7.26598617238306      4.69344106819070      2.60702111600401
  C          -6.58410641723479      3.71380037361970      4.80962595474152
  C          -5.09708763424277      5.36922948153738      3.66034007216369
  C          -6.39024524098083      1.40931337332545      2.11115302626471
  O          -2.81383264295586      4.50829588947999     -0.81493175081778
  C          -2.68039915340933      5.39403999807625     -1.91305661367548
  H          -3.67166967936177      5.79677417833228     -2.17925242768664
  O          -1.81476158413113      6.41993681653576     -1.56074315406693
  C          -2.39272594624236      7.36475999870629     -0.65851613096873
  C          -2.07615898057919      4.64198435199939     -3.08977857159427
  H          -1.08129768627666      4.28874863633599     -2.79145711333661
  O          -1.99254569214066      5.46183837697332     -4.24781337371947
  H          -2.16570731315163      3.20464225234276     -5.20548575373703
  H          -1.57134290411135      0.17375633061990     -3.69252708952677
  H          -2.09032871464064     -1.47437185841439     -3.29371278156828
  H          -1.80859031649426     -0.30206526123171     -2.00032841431498
  H          -4.27285902998455     -2.87550011958567     -3.04568450985611
  H          -5.77251294572620     -2.28602236442666     -3.77828759193768
  H          -5.81473467631627     -3.10437795371900     -2.21076462052065
  H          -5.07389531620549     -1.94009211919209     -0.11222730058936
  H          -4.22793976076256     -0.39046883628168     -0.19357885806107
  H          -3.46443672835375     -1.84829758909726     -0.84043558554070
  H          -7.09821641698290     -1.11935933182879     -1.31864104741100
  H          -6.95553330276254     -0.21862436823202     -2.83453169942119
  H          -6.38299275912416      0.50068361334940     -1.32211874183344
  H          -4.02632692052123      0.83880947901307     -5.48770887064951
  H          -5.63673016769892      0.28727667893447     -4.98716704510683
  H          -4.38196049895117     -0.89624262262029     -5.38556017084763
  H          -4.53516060480490      1.78811462952392     -0.05479958745248
  H          -2.96328819481217      2.34826203595477      0.55802836165354
  H          -3.08460608175869      2.87240982362091      3.85978540360033
  H          -3.24942230936814      1.33716647610146      2.99068961281054
  H          -4.16864620198004      1.61169158588510      4.47495174245589
  H          -8.00675470213277      3.90195873051121      2.45950751140242
  H          -6.94440718936495      5.04383808447733      1.62184642295088
  H          -7.76719781829835      5.52780062806796      3.11300468766199
  H          -7.10546472022233      4.52596206146409      5.33066081209600
  H          -5.76216834647477      3.38238588952381      5.45122155261039
  H          -7.28809713853616      2.88240934647360      4.70486403596996
  H          -4.72388520148321      5.75812366507521      2.70889086289855
  H          -4.23567303335802      5.06741984827650      4.26378044019421
  H          -5.59920818783199      6.19080836276088      4.18602175658849
  H          -6.89830066021448      1.03945025647219      3.00673381923208
  H          -5.85711572938067      0.56740956116933      1.65979461339577
  H          -7.15022698913582      1.74997117052870      1.40264438955946
  H          -3.31424542360109      7.78062280175424     -1.08016308630899
  H          -1.66077969841562      8.16064312171792     -0.52498718074916
  H          -2.61004826803418      6.90138266083508      0.30719914787561
  H          -1.34946057548329      6.15826185399664     -4.06994013790975
