69
Coordinates from ORCA-job goat_0_36 E -1780.870920659486
  O          -0.81171249692881      1.70228237133896     -2.44079195936900
  C          -1.65684386742048      2.84010902370055     -2.27619077879271
  H          -1.81776664482752      3.32190077784867     -3.24834206403022
  C          -3.00954336660994      2.46590873876211     -1.68765031527181
  H          -2.85395980260673      1.94174612262546     -0.74079947362917
  O          -3.74032904889620      1.66813977875360     -2.59630227909684
  Si         -3.94068500239862      0.00779129801992     -2.51738963592238
  C          -3.34168874211020     -0.64615718892504     -0.87117994402538
  C          -5.78631601858165     -0.33963814014406     -2.75530947469422
  C          -6.34438254501596      0.54905268606793     -3.87589849907971
  C          -5.98635801791734     -1.81465567941640     -3.13576286895453
  C          -6.54876468853122     -0.05686673788496     -1.45341888381462
  C          -2.97113892974953     -0.77138736055820     -3.91797137445482
  C          -3.78797879700202      3.75151378063374     -1.40237554843592
  H          -3.94865006209419      4.29123364460308     -2.34756477764037
  C          -5.14271168663803      3.49931677007426     -0.77772955423301
  O          -5.01009088233661      2.66848985632448      0.36153664290351
  Si         -6.03986377301247      2.71649859214566      1.67483893205365
  C          -5.91766551183565      1.01225809795431      2.43145957248985
  C          -5.46435978301487      4.04144487450194      2.89677633424934
  C          -6.42263265854480      4.07552289164024      4.09666726696728
  C          -4.04797878821584      3.70687344810763      3.38684710148815
  C          -5.44567691651617      5.42398798586410      2.22847672012913
  C          -7.78433918963809      3.05855667158804      1.08508704432819
  O          -3.03008531594060      4.56143032816654     -0.50685534892333
  C          -1.80687361350538      5.00931363274739     -1.06829908175230
  H          -2.01672199510087      5.56983516047577     -1.99476448100301
  O          -1.17439563606458      5.82207692098642     -0.13977801757364
  C          -1.80922886902400      7.09038825327199      0.02378646262755
  C          -0.91742221455107      3.81208915957650     -1.36715365315481
  H          -0.69111475017817      3.31393120408504     -0.41493066730100
  O           0.27376267243889      4.27106414785233     -1.98651569341895
  H          -0.95485313763173      1.34515789816840     -3.32286251337474
  H          -3.57473725842191     -1.71329949939590     -0.80057044488764
  H          -3.82656763758410     -0.13839028336326     -0.03352375719261
  H          -2.25952189235854     -0.52892879509761     -0.76903769489963
  H          -5.81137497877252      0.39335738108881     -4.81951449341936
  H          -6.27090296292784      1.60877483078577     -3.61812755808487
  H          -7.40217872152053      0.31535307922080     -4.04913428364890
  H          -5.54178658819433     -2.04529971381361     -4.10744233000747
  H          -7.05760992412842     -2.04222584072194     -3.19663431007966
  H          -5.54701450397899     -2.49012304881162     -2.39409234539032
  H          -7.62618942660782     -0.18990501513305     -1.61207320701992
  H          -6.38504592799702      0.96173807795787     -1.09629992515039
  H          -6.24373840552659     -0.73999931035008     -0.65570182911809
  H          -1.89799507094896     -0.59599928019056     -3.80746650472365
  H          -3.28692552443087     -0.37170845084937     -4.88613469042444
  H          -3.12640967862946     -1.85384260867130     -3.93275624948491
  H          -5.58967882382299      4.46605136452186     -0.52532265779141
  H          -5.78135644376105      3.01525849314569     -1.52263030222749
  H          -4.87810274731638      0.75312187078980      2.64983905189784
  H          -6.31669196524538      0.26537369568210      1.73949499425005
  H          -6.48681110436220      0.95273898422491      3.36338592812315
  H          -6.08427436247418      4.82256651433432      4.82518745238544
  H          -6.46710586995161      3.10983532287093      4.60946460195354
  H          -7.43916630555783      4.34497646907411      3.79457010431873
  H          -4.01819253987266      2.74911218747182      3.91465281056871
  H          -3.69786666190839      4.48031836085252      4.08168316920799
  H          -3.33795131162816      3.65884284864983      2.55581327475249
  H          -5.15398643485832      6.18763977956773      2.96041663675116
  H          -6.42934662770232      5.70101709060448      1.83682953010735
  H          -4.72694635053633      5.46248459762687      1.40598841582693
  H          -7.88046116943633      4.05338842437828      0.64202653908213
  H          -8.48946340967075      2.99119669380459      1.91847562539270
  H          -8.07860353382622      2.32017055845232      0.33323398451874
  H          -2.80058806001068      6.97988729717083      0.47067326872581
  H          -1.89869134915063      7.60045810908144     -0.94173677612502
  H          -1.17368048191964      7.67625426091201      0.68714530948676
  H           0.73017416504087      3.48620652517187     -2.31636044696382
