69
Coordinates from ORCA-job goat_0_81 E -1780.868072283775
  O          -1.25467599910729      2.63092781800709     -0.03641463959038
  C          -1.86151201603119      2.30879107027634     -1.28189619286954
  H          -1.61873948394893      1.26494951547283     -1.49443744004158
  C          -3.39129695321717      2.42469860561791     -1.22505768911254
  H          -3.74333681551466      1.95336276999842     -0.30411198677650
  O          -3.90766283703739      1.75119268209591     -2.37680180371364
  Si         -4.83058022804701      0.35816630106403     -2.20164375455996
  C          -6.40173070241952      0.80295991931793     -1.29214521193085
  C          -5.15674453337728     -0.23017346287309     -3.96081705573014
  C          -5.74388910339308      0.91741917918513     -4.79472531737470
  C          -3.84950768643853     -0.71198103315158     -4.60663541073381
  C          -6.15923889280676     -1.39352127177149     -3.91793541797147
  C          -3.86376347385069     -0.89437773592999     -1.20335161222786
  C          -3.90061279703194      3.86265801340970     -1.24147682130416
  H          -4.94012897685605      3.82199503730548     -1.57411805129842
  C          -3.92277313588855      4.53002390304963      0.13620867830669
  O          -4.97536612135271      3.94221111066900      0.88793877447518
  Si         -4.78507982602020      3.40278401117110      2.45973751011374
  C          -3.73978221297205      4.62627052575933      3.41805808607225
  C          -6.53653695550832      3.29407328752583      3.15351264274147
  C          -7.14841229584973      4.69997839845469      3.23214850618320
  C          -7.40851388131572      2.41288626881040      2.24817881051612
  C          -6.49024300093305      2.68115051240457      4.56109618143742
  C          -3.94355004224974      1.73054326478175      2.45933997465771
  O          -3.24611599689954      4.66845567073256     -2.23289203409511
  C          -1.83995856006313      4.61065851654644     -2.28809644163062
  H          -1.57401887615387      5.18830135935161     -3.17908870764293
  O          -1.22898611017272      5.17013237862821     -1.14682906482533
  C          -1.36320611623888      6.58882165739021     -1.05818182918271
  C          -1.31750588569535      3.17798797852964     -2.41961974509925
  H          -0.22716199470948      3.20843011500383     -2.36260244820664
  O          -1.66289544093269      2.65266302671702     -3.69155030180658
  H          -1.09055949852580      3.58503869146290     -0.02215533798388
  H          -6.16338867953074      1.26218569394240     -0.32868143684764
  H          -7.00158114262941     -0.09052902251027     -1.09663559855315
  H          -7.01064845499651      1.50886963014490     -1.86330458200902
  H          -5.96427873192411      0.56687334748100     -5.81033215076255
  H          -5.04423941985702      1.75417876051457     -4.87273900333775
  H          -6.67639301378895      1.29515876897858     -4.36427652472333
  H          -3.42730433417445     -1.56665983458251     -4.07053361257123
  H          -3.09320961656493      0.07811651354393     -4.63074646433034
  H          -4.03641051505884     -1.02640676043680     -5.64055273467038
  H          -6.34272130869415     -1.76650916807997     -4.93263802230980
  H          -7.12083343989094     -1.08287993641346     -3.49892991136958
  H          -5.78385139461001     -2.23036714050299     -3.32045636192996
  H          -3.69079240065478     -0.53045840877324     -0.18595698709536
  H          -2.89428689884192     -1.10890897250789     -1.66007864410203
  H          -4.42285431290286     -1.83213839793249     -1.13011112392625
  H          -2.96635608124145      4.43862256371321      0.65264779067189
  H          -4.13149795136453      5.59469385153949     -0.00343337171725
  H          -2.70366442473331      4.61760956426772      3.06766746962166
  H          -3.73253467817695      4.36656444442039      4.48082058287620
  H          -4.12653963923337      5.64410276985065      3.31869468412391
  H          -7.17883709050877      5.17947397998644      2.24926729418057
  H          -6.58280978154332      5.34834298218046      3.90780437797667
  H          -8.17674087829220      4.64229631760934      3.60957852675946
  H          -8.42194556808281      2.33871229216494      2.66151840727422
  H          -7.00888563651548      1.39769217458832      2.16486094091723
  H          -7.48674519193943      2.82797800989660      1.23986058532637
  H          -5.87171447417223      3.27314841270200      5.24284407186164
  H          -6.09467972744749      1.66137648048428      4.54455414400708
  H          -7.50130635895890      2.63839942390345      4.98392051448384
  H          -2.95769164214566      1.79899902755603      1.99044425644304
  H          -4.53085444212447      0.98717303851560      1.91242250867569
  H          -3.80582854877379      1.37163112308660      3.48365943090465
  H          -2.41400858422489      6.88314549658644     -1.01346721783682
  H          -0.88650311357918      7.06408123631299     -1.92168363191188
  H          -0.85835395764586      6.89804351910639     -0.14387525877529
  H          -2.57078211461697      2.31552009364940     -3.62180779611966
