69
Coordinates from ORCA-job goat_0_57 E -1780.869544518444
  O          -1.13923478986427      0.86512837516937     -1.86024464035713
  C          -1.50690884573287      2.23275577273960     -1.98734985142364
  H          -1.36589745866690      2.56354953388480     -3.02594617620164
  C          -2.97658149743876      2.37552640665510     -1.62858349864434
  H          -3.13258072031118      1.97885474527067     -0.62108763875627
  O          -3.79672216358128      1.71390510273946     -2.56712757371919
  Si         -4.37700359161084      0.14962221441993     -2.44404843960011
  C          -4.14848726407552     -0.49654234107740     -0.70358518066910
  C          -6.21350663374406      0.23287169474210     -2.89465708866803
  C          -7.01371956143145      0.84851034580978     -1.73818824227298
  C          -6.40260917161520      1.08979911900199     -4.15432731159168
  C          -6.73792837989566     -1.18513928302909     -3.16526894891478
  C          -3.46412506626036     -0.92486569625042     -3.67336209374207
  C          -3.36043088962620      3.85702537671657     -1.62598708928793
  H          -3.24252324994940      4.25472965545560     -2.64487258509855
  C          -4.79765722711981      4.07882049576139     -1.20128333312492
  O          -5.06037791696451      3.42968064057052      0.03012533423807
  Si         -5.82872018370213      4.19344872364267      1.29818061420804
  C          -7.54977400263902      4.69632829952574      0.75886024930402
  C          -5.86549634817252      2.90922111530107      2.67932801065499
  C          -4.44316837984062      2.39433686225896      2.94452003927979
  C          -6.42019336010161      3.55545822384715      3.95726003443429
  C          -6.76194881208223      1.72942993723920      2.27775362385353
  C          -4.86361210715962      5.71645205333031      1.80393788253674
  O          -2.51979228433068      4.58238655258348     -0.73146543965812
  C          -1.15960771042831      4.54669511708144     -1.12128807730883
  H          -1.05109047923840      4.93721097617393     -2.14191074296893
  O          -0.43511149523349      5.42179686764586     -0.31213824444156
  C          -0.42057871964321      5.11021217719360      1.08499934177239
  C          -0.65602078179966      3.10423809705389     -1.07701211148224
  H          -0.73665911051356      2.71737121313151     -0.05515080211051
  O           0.68371764886928      3.01265999746417     -1.54630521271131
  H          -0.19542665894364      0.80629065709803     -2.05225515277960
  H          -4.57742589354050      0.18086018933583      0.03946248494640
  H          -3.08909166732906     -0.63509120191813     -0.47512245281428
  H          -4.64911575651881     -1.46483370766545     -0.60520217556846
  H          -8.06692020990046      0.95821441150957     -2.02580706408207
  H          -6.63702127497124      1.83602222007328     -1.45960572533328
  H          -6.97805149902299      0.21594846622373     -0.84682682448841
  H          -5.83487715807556      0.69446616944147     -5.00281909285868
  H          -6.08288667162322      2.12153932834869     -3.98561645918615
  H          -7.46109143729218      1.10663743089860     -4.44269706745991
  H          -6.58588657019926     -1.84548459859511     -2.30505174769928
  H          -6.24684777784653     -1.63967649426334     -4.03022227311163
  H          -7.81483063334407     -1.15393223199838     -3.37188251573394
  H          -2.38997016563178     -0.86962424988704     -3.48291221455146
  H          -3.65105546792814     -0.59656589840390     -4.70011092236343
  H          -3.77890986402917     -1.96903934335662     -3.58903338071052
  H          -4.97088840619464      5.15896665078182     -1.13669893024130
  H          -5.45574699302322      3.67615491756672     -1.97575950842405
  H          -8.11065778391106      3.83735560372608      0.38042420826467
  H          -7.49572255762139      5.44529066791766     -0.03753017081807
  H          -8.10979484525170      5.13331344660073      1.59090951338969
  H          -3.76569116856084      3.20378388100515      3.23338171368956
  H          -4.02587673179809      1.90362920989405      2.06077511953436
  H          -4.45539208658447      1.66303329706600      3.76216800019765
  H          -5.78634872637684      4.37750408643011      4.30266536146225
  H          -6.46957695880544      2.81239594803781      4.76245487264335
  H          -7.43097908897633      3.94809416182067      3.80733853486550
  H          -6.76571924422423      0.97302909568126      3.07228518688577
  H          -6.40716733629295      1.25034652587860      1.36147122778080
  H          -7.79659950290030      2.04525378812947      2.11500232105252
  H          -5.38568708590142      6.25147628503933      2.60268127498419
  H          -4.75106610369622      6.40334598630287      0.96018141541802
  H          -3.86468928167345      5.45299572652214      2.16140850410967
  H           0.21664695142357      4.24654918593430      1.29726606436445
  H          -1.42878794933945      4.92281798084905      1.45948307282419
  H          -0.00628289486543      5.98542645766096      1.58441174502200
  H           1.26462703467492      3.42763761826088     -0.89843176073850
