69
Coordinates from ORCA-job goat_0_135 E -1780.865461514485
  O          -1.53512815341429      2.39191296112950     -0.08555037179385
  C          -1.90714285013098      2.40913063055182     -1.45815339068557
  H          -1.62147222614083      1.44273344438386     -1.87945985665420
  C          -3.42476719973885      2.55760850538612     -1.63355780094654
  H          -3.91844183375455      1.89613007651257     -0.92052720153792
  O          -3.71731276082651      2.17316085716240     -2.97764909692143
  Si         -5.09227517540665      1.34340816569200     -3.47048567286345
  C          -4.78285822192131      1.09557583780140     -5.29432285728824
  C          -5.25963836376608     -0.31298747593035     -2.56237600147973
  C          -5.97562856700856     -0.15871373558372     -1.21166178805984
  C          -6.10234630698849     -1.24719242138668     -3.44867626208826
  C          -3.87752470690625     -0.94382908654909     -2.34488470185191
  C          -6.62066317470226      2.38424860052691     -3.18790655700167
  C          -3.93154034276216      3.97903577158732     -1.38905189827160
  H          -4.88730420735923      4.06685752342538     -1.90705901389626
  C          -4.22205939511147      4.28020766050806      0.08163820388292
  O          -5.27431351226098      3.41212812944534      0.47200604496458
  Si         -5.87320104322989      3.30237402905310      2.02837861789780
  C          -7.55157359790479      2.51158864959668      1.80606969917865
  C          -4.76054002364305      2.21889029421347      3.11280689807163
  C          -4.44624744021131      0.90307564697837      2.38737503888154
  C          -3.44398912314633      2.93111337456604      3.45629548401008
  C          -5.50875065209549      1.90853478373415      4.41958701636239
  C          -6.02789071809432      5.02426727440033      2.74635605181642
  O          -3.11322292155046      4.98475765760812     -2.00271028468044
  C          -1.71867059848273      4.88519153046850     -1.83552924818596
  H          -1.30658272143454      5.65555462380852     -2.49536054034503
  O          -1.30983612329216      5.11846875943762     -0.50599912780814
  C          -1.50972871650317      6.46213827378168     -0.06752754736541
  C          -1.17862855502285      3.51007795982256     -2.23328206627756
  H          -0.11414237819734      3.48106777608749     -1.98999754566442
  O          -1.30137607552493      3.32781785662589     -3.63536783978655
  H          -1.38670836155962      3.30660401483425      0.19553569035268
  H          -5.66671194506959      0.68650404796051     -5.79065502687843
  H          -3.94735639876635      0.41027842486096     -5.46304113747366
  H          -4.54096094198625      2.05325594802416     -5.76451207140447
  H          -6.05098686306561     -1.13628581128350     -0.71954681992693
  H          -6.99065107551782      0.22765027596722     -1.33825824093704
  H          -5.44848946315569      0.51117134410607     -0.52866094024067
  H          -6.27702348073784     -2.19518223710026     -2.92589583760552
  H          -5.59895271026691     -1.47364083654868     -4.39221338722005
  H          -7.08050639430060     -0.81365410818569     -3.68238421999477
  H          -3.32040130336164     -1.03268982573896     -3.28299114576667
  H          -3.98717975924771     -1.95145387229523     -1.92565336976537
  H          -3.27061783692891     -0.35968549610984     -1.64817951513079
  H          -6.76253470371323      2.62049452461102     -2.13023169376519
  H          -7.50607031370065      1.83986034877556     -3.53156470632977
  H          -6.55971852980018      3.32223090123320     -3.74738757105262
  H          -3.34359024784005      4.13972493677154      0.71112053617483
  H          -4.53678149401520      5.32600045768498      0.16094503384205
  H          -8.15485904935303      3.10817638770810      1.11554950389819
  H          -8.08695764806737      2.44795750254483      2.75714740345845
  H          -7.46330285240477      1.50173183865859      1.39579147755819
  H          -3.83903515166197      0.25480852340741      3.03135327774367
  H          -3.88579978400505      1.07850226271778      1.46514196019126
  H          -5.35693523098146      0.35450591551139      2.12898773047502
  H          -3.61758129375870      3.88037444762626      3.97108618028927
  H          -2.84321956799557      3.13182986918204      2.56548081408136
  H          -2.84194220465558      2.29860959797669      4.12054881584472
  H          -6.42580160277706      1.34176693776603      4.23608679814750
  H          -5.77738762670861      2.82089676286966      4.96166762690136
  H          -4.87198051728249      1.30706759263292      5.07969011097972
  H          -5.06184732675856      5.53509218194392      2.78163281298942
  H          -6.42477576432065      4.98332357231392      3.76485414550931
  H          -6.71057563846664      5.62763573709341      2.14041425508882
  H          -2.56929050099322      6.72674250163725     -0.07569890624147
  H          -0.95564869641439      7.15262669334103     -0.71184706538933
  H          -1.12648760302265      6.52255156742058      0.95029379275143
  H          -2.20169225080527      3.00589312523535     -3.80406275476652
