69
Coordinates from ORCA-job goat_0_24 E -1780.870814864196
  O          -0.97632226588212      1.42987849753291     -2.45577119002611
  C          -1.73721918112591      2.61783998624313     -2.28778350602596
  H          -1.97124038496464      3.05363920035206     -3.26968451368174
  C          -3.05254391537693      2.27327859537993     -1.60450883341321
  H          -2.84213402827116      1.72249084931493     -0.68076762928098
  O          -3.86373436232935      1.52114997565332     -2.48564718372266
  Si         -4.35460060225723     -0.06155820294799     -2.26599499545063
  C          -5.10195664830184     -0.30133534605557     -0.56758657380492
  C          -5.64072420986651     -0.32106413653321     -3.62450516960542
  C          -4.99336505594698     -0.12918426076160     -5.00339042042582
  C          -6.20653684655479     -1.74537424029214     -3.52512507783019
  C          -6.78463415315602      0.68951297898820     -3.45768920302233
  C          -2.91357391080881     -1.23938655772345     -2.45316177852162
  C          -3.80431660036709      3.56503890252221     -1.25745742216723
  H          -4.08602461642874      4.05518895129986     -2.20105345011035
  C          -5.07312370911858      3.31839035337857     -0.46911951171970
  O          -4.76616442113574      2.69108629584984      0.76262547424397
  Si         -5.79557904479258      2.71032852811944      2.07547747723255
  C          -5.42684857155624      1.14140053260576      3.02126147628348
  C          -5.42934173653555      4.23183519624278      3.13866354060580
  C          -4.01231984601845      4.11848020187892      3.71952061624194
  C          -5.51861115247009      5.51059363986321      2.29329956445789
  C          -6.44561491249077      4.31328914842892      4.28676295657028
  C          -7.56894347541670      2.71940260194938      1.47270208213445
  O          -2.98043069354017      4.43698209934874     -0.48852478969640
  C          -1.83006963560012      4.85489150135763     -1.20035699817014
  H          -2.13753922583623      5.34197514043158     -2.14081529611198
  O          -1.10977784613350      5.73775921219061     -0.40728245757383
  C          -1.72101282699226      7.02324263783008     -0.29011395082795
  C          -0.95402680495356      3.64507959005790     -1.48582301007372
  H          -0.65341515292851      3.20897984916607     -0.52515433990697
  O           0.18678329948178      3.99262512128562     -2.25946492303388
  H          -0.12318265725994      1.69444615276139     -2.82175157734896
  H          -5.37856015377050     -1.35245531446179     -0.43873022255100
  H          -5.99412213676388      0.31041515199341     -0.41865782505002
  H          -4.38739337398665     -0.04238088685642      0.21678176934507
  H          -5.74121220504580     -0.27051336885793     -5.79356021843617
  H          -4.18921259765397     -0.85089736168033     -5.17506854624400
  H          -4.57541292564439      0.87551788622711     -5.11372272320703
  H          -5.42531353541709     -2.50123916356515     -3.65012117938642
  H          -6.95405551645262     -1.90778891972375     -4.31119347361171
  H          -6.69544113764174     -1.92017489053710     -2.56195930545908
  H          -7.53503785986154      0.54167803063945     -4.24422770653883
  H          -6.42294238983195      1.71904356723357     -3.52811436257692
  H          -7.28857224617399      0.57410832250598     -2.49326880390625
  H          -2.41137776105476     -1.11182378559765     -3.41486675558153
  H          -3.26116229924993     -2.27422851884775     -2.37606745849637
  H          -2.17702774299506     -1.06813666222533     -1.66377128349172
  H          -5.57112338345964      4.28100057476505     -0.31492346491176
  H          -5.73696392096919      2.68491444065301     -1.06557506657584
  H          -5.93093503229289      1.14207131323191      3.99194465763807
  H          -4.35291562153695      1.03278576454151      3.19580114249139
  H          -5.77045203659794      0.26997019125116      2.45761049736205
  H          -3.77575789385583      5.00997832712006      4.31355574624706
  H          -3.26078166302385      4.03619631913246      2.92810579961158
  H          -3.91228739183081      3.24756779876654      4.37377243593262
  H          -5.34688876855741      6.39028346141012      2.92619189841711
  H          -6.50304393102204      5.62535008039084      1.82874159202286
  H          -4.76473702344853      5.51939660669349      1.50158077209782
  H          -6.21685309067416      5.17163144860807      4.93040093132606
  H          -6.42574238883218      3.41602218842229      4.91331941880319
  H          -7.46602362854480      4.44157137023690      3.91347664487980
  H          -8.25675113417305      2.58696639245068      2.31274154620867
  H          -7.73164813714289      1.89611871336149      0.77026470139331
  H          -7.82766635626956      3.65465843468183      0.96891945921215
  H          -1.02734802445071      7.65187949347673      0.26725898940047
  H          -2.66965715011551      6.95798777114149      0.24891259202443
  H          -1.89256050456177      7.45581938237220     -1.28177035799253
  H           0.75996610783939      4.54141284532659     -1.71160115661414
