69
Coordinates from ORCA-job goat_0_115 E -1780.868073860852
  O          -1.25939684770970      2.77155258427964     -0.12008284825129
  C          -1.88357482636159      2.39426033390555     -1.34115621219951
  H          -1.60301360478252      1.35633000229138     -1.53503531205157
  C          -3.41508582269318      2.44882435913817     -1.24759462151268
  H          -3.72478408952827      1.98680189470976     -0.30691153723517
  O          -3.93138824046488      1.72657375706401     -2.36954601839066
  Si         -4.77626260362469      0.29211066400675     -2.13972414294658
  C          -6.34335947952280      0.67643419690622     -1.19627666180236
  C          -5.11830243800505     -0.34874793280852     -3.87733244559137
  C          -3.80540470837248     -0.77519272140271     -4.54991816791490
  C          -6.05831356100204     -1.56027747368223     -3.78572713108583
  C          -5.78593015376430      0.75085196466594     -4.71581334872424
  C          -3.72044343164559     -0.88767456032626     -1.14323011097486
  C          -3.98388503126115      3.86395653419827     -1.28580920575646
  H          -5.02856191795436      3.77258426627519     -1.59120802577244
  C          -4.00137997990246      4.56418568504251      0.07565297671416
  O          -5.01159481506750      3.95388849101911      0.86626752662131
  Si         -4.76435988153341      3.45968090543577      2.44477001426851
  C          -3.74802726176292      4.74545227224988      3.35116960050437
  C          -6.49441639224656      3.29761643183797      3.18077219922814
  C          -7.34956751724249      2.36104162714474      2.31573444572141
  C          -6.39302145595003      2.72039581085308      4.60046028114549
  C          -7.16047056965809      4.67956253813958      3.24137591927235
  C          -3.85701336399362      1.82236833905470      2.46299916035508
  O          -3.38746121716766      4.67132949825624     -2.31202329170641
  C          -1.98179580774065      4.66964678631589     -2.40127615551350
  H          -1.76140490673333      5.23603380838497     -3.31170987744538
  O          -1.36678186596750      5.28049664142470     -1.28904283362989
  C          -1.55850624409754      6.69394066698027     -1.22767423738531
  C          -1.40450506896811      3.25652729422878     -2.51291170693501
  H          -0.31524545281100      3.33225129549723     -2.48495626554538
  O          -1.76026710165748      2.68695503235239     -3.76270698933216
  H          -1.14008764289394      3.73238709181478     -0.13004513202808
  H          -7.00047726441206      1.34098355329293     -1.76361755922211
  H          -6.10335860551217      1.16479449561910     -0.24761190654720
  H          -6.89336549404495     -0.24138164777279     -0.96932903865859
  H          -4.00295128204863     -1.11739496209699     -5.57298960543561
  H          -3.32564087685615     -1.59743506520247     -4.01142164742102
  H          -3.09164026599964      0.05184367060071     -4.60780124794634
  H          -7.02380208710523     -1.28933055146597     -3.34846354227608
  H          -5.62662737930661     -2.36440121532438     -3.18128846624459
  H          -6.24769740551819     -1.96342554147267     -4.78773184369287
  H          -6.72563968522676      1.08733564267740     -4.26725671527330
  H          -6.01344880043340      0.37003471786219     -5.71884298302919
  H          -5.13339819642285      1.62127458742595     -4.82649134254508
  H          -3.53532187136389     -0.49074390488139     -0.14041992063610
  H          -2.75576402239687     -1.06713042949865     -1.62456239443757
  H          -4.23116103660100     -1.84886372052028     -1.03097957750150
  H          -3.03054307580473      4.52397697723923      0.57138340453770
  H          -4.25619773863098      5.61580062231273     -0.08480696733264
  H          -4.17591142350367      5.74501746288033      3.23632996876176
  H          -2.71967811738019      4.76771934157007      2.97917162540257
  H          -3.70927258534537      4.51180539114219      4.41932683989605
  H          -6.91131056187766      1.36079272568986      2.24732553158974
  H          -7.46632702537361      2.74805812042534      1.29999901668857
  H          -8.35001537278752      2.25649112032991      2.75347976594196
  H          -7.39209594176107      2.64771227758946      5.04698610970729
  H          -5.78388068778902      3.35234673800849      5.25422582988119
  H          -5.95715279350360      1.71706330922746      4.59792637984453
  H          -7.23322511749518      5.13361373945995      2.24869655598789
  H          -6.60571750671381      5.36606599484885      3.88775142221189
  H          -8.17652425868073      4.59038909290901      3.64507368410224
  H          -4.42597342477961      1.04448560488570      1.94548886815805
  H          -3.68367598975355      1.49257282926747      3.49168358216334
  H          -2.88466975239105      1.91867929754147      1.97135570167688
  H          -1.13044895676992      7.16841148781529     -2.11672185706363
  H          -1.03810952222020      7.04557495718512     -0.33772348348304
  H          -2.61886015432873      6.94517249103253     -1.15462516086642
  H          -2.65166261777411      2.31555278414284     -3.66104889103853
