69
Coordinates from ORCA-job goat_0_67 E -1780.871210204450
  O          -1.53930618791943      1.59808461296642     -2.48927081869259
  C          -2.19868416293986      2.86028046077439     -2.43660947526097
  H          -2.35064470949523      3.24280103291370     -3.45469664518293
  C          -3.54891775659962      2.76557327728109     -1.74195591380359
  H          -3.40346478546691      2.30220675382038     -0.76307793704588
  O          -4.42749717331904      2.00088175752019     -2.54475984826323
  Si         -5.25206390066558      0.62446461859706     -2.06369629676797
  C          -6.99876807618017      1.05973906037659     -1.55535301554837
  C          -5.28191501319812     -0.48201728902773     -3.59781716526725
  C          -6.17203548467527      0.14815139078597     -4.67906105622477
  C          -3.86341805064201     -0.65406628428349     -4.15715154261278
  C          -5.84578758310256     -1.86015601284764     -3.22032925135725
  C          -4.35383368460620     -0.19139301257365     -0.64016719374607
  C          -4.11934359495259      4.16784327445343     -1.53247465961316
  H          -4.31236573935938      4.62800820360935     -2.51283375516926
  C          -5.42398063500976      4.15766711825873     -0.75707974669840
  O          -5.38911283766796      3.31630239993866      0.37767709912885
  Si         -4.80335564479166      3.68290327738497      1.89656609414679
  C          -4.75602048153349      5.53587576735717      2.15008465570675
  C          -6.01336787069451      2.85646111048950      3.09221551498885
  C          -7.40219495160567      3.49220259172500      2.93884990519823
  C          -6.11101613861530      1.35587369965702      2.78097147253205
  C          -5.52709982808061      3.04168619982891      4.53667233128226
  C          -3.09305074144128      2.95097985295846      2.10277729222557
  O          -3.17610321747347      4.96428720441062     -0.81542359441203
  C          -1.97088687521795      5.15632695175028     -1.54019005618745
  H          -2.20085727657827      5.55846462711564     -2.53574444504933
  O          -1.21662585721577      6.14052205656011     -0.91229705716238
  C          -0.69660443616840      5.80585348006243      0.37605806026452
  C          -1.27254518809236      3.80675125639836     -1.68969860994676
  H          -1.07692627446568      3.38620024254512     -0.69604872662166
  O          -0.05757180486925      4.00463410612929     -2.39562679618130
  H          -2.01264156090194      1.04047675429185     -3.11700829753867
  H          -6.99262247228527      1.62378653847653     -0.62025478333439
  H          -7.58814833185237      0.15001365224982     -1.40492259707167
  H          -7.49520379553494      1.66177447646221     -2.32118573217898
  H          -5.82512253877496      1.14940607231989     -4.95295541590513
  H          -7.21127901438799      0.22874172196960     -4.34837064285064
  H          -6.15806289080913     -0.46976904635692     -5.58534281500430
  H          -3.47078932424235      0.29572960755544     -4.53337065763326
  H          -3.87042167630295     -1.35952446234941     -4.99683784807517
  H          -3.17149989185484     -1.04665735554129     -3.40442441793386
  H          -5.20313939365974     -2.37579541730869     -2.50093948335482
  H          -5.91916006856495     -2.49222560588859     -4.11360037120688
  H          -6.84732912340357     -1.78482281279343     -2.78556284476555
  H          -3.31844905074272     -0.43146348124142     -0.89615180966338
  H          -4.86427450062157     -1.11945545582516     -0.36682763260696
  H          -4.35132855676429      0.45686090950911      0.23967193794925
  H          -5.67110536208206      5.18791944914611     -0.48056489361753
  H          -6.21037778432561      3.78642142257919     -1.41785259606351
  H          -4.46276594422580      5.76178376592699      3.17965538465079
  H          -5.73180662766296      5.99455079866546      1.96829473598871
  H          -4.02750330341927      5.99601279451884      1.47873024775547
  H          -7.38867853597731      4.55648928334984      3.19197488106620
  H          -8.11924185071225      3.00038163477062      3.60782367464926
  H          -7.77671714179237      3.39233788093246      1.91567176874555
  H          -6.81997219316305      0.87522341159693      3.46665453293427
  H          -5.14572573604834      0.85410783175596      2.89734293024779
  H          -6.46072724324716      1.18023955797989      1.76003712007838
  H          -4.54865615932527      2.57897273278877      4.69657031181571
  H          -6.23289342872833      2.57405607856181      5.23417582304876
  H          -5.44854440340478      4.09956847035523      4.80586994481461
  H          -2.69610228819735      3.17058027487517      3.09835404455820
  H          -2.40999971631309      3.37196614459121      1.36281221281004
  H          -3.10824353530116      1.86512581332054      1.97452612630258
  H          -0.24639692123424      6.71874672809291      0.76495999386313
  H           0.07188574574901      5.03125965121163      0.30566015326571
  H          -1.49064756208877      5.48071512755362      1.05174148080965
  H           0.27389823484735      3.12868126496079     -2.63090332520782
