69
Coordinates from ORCA-job goat_0_99 E -1780.869803306301
  O          -1.33508315099258      1.76999753426596     -3.58428186814339
  C          -1.81090055786359      2.87486564637063     -2.82725589266814
  H          -2.34172588335217      3.57877317329694     -3.48321376294326
  C          -2.80192797632210      2.35836031903263     -1.79299953610078
  H          -2.32245329837552      1.55854857696686     -1.21494256644682
  O          -3.98148602699764      1.89449249042530     -2.41382368777321
  Si         -4.27673823497760      0.36155284147494     -3.01803580489343
  C          -3.06654453067391     -0.86894158146188     -2.29771268509401
  C          -6.04788747724359     -0.05694663705062     -2.49548911787863
  C          -6.97220720837540      1.13536977854936     -2.78073140051809
  C          -6.53708891991772     -1.27657182213579     -3.29101792196401
  C          -6.09680262750248     -0.38714516895942     -0.99732018478856
  C          -4.15881869119030      0.40553635645407     -4.88432252811590
  C          -3.18727067439231      3.49412158602878     -0.83670081927831
  H          -3.73059707211978      4.26357121120919     -1.40331990879876
  C          -4.06670981000238      2.99227637918866      0.28625874475661
  O          -4.55858663255049      4.08253702203701      1.04739484675539
  Si         -6.00240022568782      4.01052229114666      1.88761568573064
  C          -7.38855667439169      3.54790792835766      0.71644074426999
  C          -5.88903614799679      2.76190446138073      3.30641466347874
  C          -4.56329535657907      2.95636694462204      4.05546287058012
  C          -7.05789402005659      3.00173860983536      4.27486889155717
  C          -5.97069626291427      1.32088676951999      2.78150330837019
  C          -6.23559228686352      5.74629565940839      2.53621758170198
  O          -2.01752276311652      4.06165477944791     -0.25481066835235
  C          -1.18966063465485      4.67761774453574     -1.22584583366660
  H          -1.77488391909450      5.42858795149022     -1.78199816690547
  O          -0.11307447286863      5.27487422078560     -0.58544889472663
  C          -0.46000247421193      6.47665739637523      0.10444673976305
  C          -0.65453033938422      3.61073115882482     -2.16845749966875
  H          -0.06119281265443      2.90260771020721     -1.57695839994257
  O           0.12827336019392      4.17519397749473     -3.21184972368586
  H          -0.72250047678646      2.11793389816006     -4.24352167932878
  H          -3.36652674544103     -1.88377933799455     -2.57685829968363
  H          -3.04016252750746     -0.81530819728348     -1.20588526254316
  H          -2.05805536560140     -0.69248283828313     -2.67758947235392
  H          -6.96506864060939      1.40858009413126     -3.84070903036368
  H          -6.67764585649463      2.01529590232786     -2.20312953909544
  H          -8.00519931556378      0.88416271488829     -2.50927268232030
  H          -5.88479432299397     -2.14427386311961     -3.14723810540654
  H          -6.58647644487213     -1.06559320855230     -4.36281555565884
  H          -7.54362170952100     -1.56121798636386     -2.96058161476661
  H          -7.13191053447957     -0.57599587535303     -0.68629215742485
  H          -5.71384177580099      0.43353792338596     -0.38558875810761
  H          -5.51142750684584     -1.28096574618507     -0.76320300780525
  H          -4.28794162419510     -0.59593327820829     -5.30509267596569
  H          -3.17977465785329      0.78431791829775     -5.18474539838966
  H          -4.92867296867287      1.05395902078772     -5.31291522240202
  H          -4.88394804962164      2.41911243502749     -0.15674508932885
  H          -3.47703299939543      2.32205901469335      0.92321952430614
  H          -7.22479773569417      2.57510429160234      0.24628369240140
  H          -7.48474604685285      4.29767271252597     -0.07457001117056
  H          -8.33868918975698      3.50161666531344      1.25748554045628
  H          -4.50496602034184      2.26555299738752      4.90572018202585
  H          -4.46643566500828      3.97356147979876      4.44769396197702
  H          -3.70373090391486      2.76329819139575      3.40733092132608
  H          -7.03237860707072      2.26028117126897      5.08277751756208
  H          -8.02660000674178      2.91017019099248      3.77284096478858
  H          -7.00674186016991      3.99392743306640      4.73189826711331
  H          -5.16083017422743      1.08958865724014      2.08462018174711
  H          -6.91818211213631      1.13157082617881      2.26911770620770
  H          -5.89817532522222      0.61491273216747      3.61819389146144
  H          -5.46497251048128      6.00535047838447      3.26752426434570
  H          -7.21161353249877      5.85380063678466      3.01714444161573
  H          -6.18185969357139      6.46452051328395      1.71288367516379
  H          -0.91612922487225      7.19445460891245     -0.58585957069415
  H           0.46643219441147      6.89020903049746      0.50153085905363
  H          -1.15065408394170      6.27064161205139      0.92599982971433
  H           0.92740588347802      4.54202185166610     -2.81577951306693
