69
Coordinates from ORCA-job goat_0_66 E -1780.867002133334
  O          -1.63561233389196      2.14601895381253     -0.27960444848594
  C          -2.18456485212275      2.20986320220152     -1.58918998275446
  H          -2.10711595089250      1.20739536322866     -2.01542840274284
  C          -3.67196119227205      2.59188607445938     -1.57192454683414
  H          -4.17292084804966      2.01794364170849     -0.78865215387898
  O          -4.19464558441640      2.27380047655892     -2.86382411637245
  Si         -5.57678870519213      1.35459788099684     -3.12120814300433
  C          -6.08019771296794      1.78328029155468     -4.86645620717356
  C          -5.16559464794568     -0.48313631798252     -2.95536559845477
  C          -6.42074431109046     -1.30818031241542     -3.28017121210032
  C          -4.04879752481382     -0.85112110420114     -3.94283931704949
  C          -4.70830321039866     -0.81464449655585     -1.52740523475721
  C          -6.89503871637151      1.86323529784329     -1.89526683100130
  C          -3.92050113335530      4.07535746951667     -1.30332584556579
  H          -4.91664538298214      4.29839741098465     -1.69091217387257
  C          -3.96039998947159      4.44153413231835      0.18137874119784
  O          -5.14097721208856      3.85751545377038      0.70919815126214
  Si         -5.51873134650966      3.81107438172077      2.33678513979877
  C          -7.38394886144896      3.91127848461763      2.39766572885864
  C          -4.90809666751708      2.18378641261692      3.08151939154539
  C          -3.37861094367661      2.09271382382593      2.98411391581791
  C          -5.32568332667853      2.10622567762783      4.55733690858312
  C          -5.52818991097169      1.00656606980514      2.31496262354251
  C          -4.74200755044583      5.28467446633190      3.19110017755371
  O          -3.05264725498036      4.93129236927512     -2.06022877224520
  C          -1.67874879284806      4.62331307605863     -2.06525128265748
  H          -1.24335368915254      5.31362908417575     -2.79490163698816
  O          -1.07583469038744      4.80821870550614     -0.80398012661100
  C          -0.99324589943696      6.17449643519326     -0.39860792404662
  C          -1.40579126595592      3.17712801018418     -2.48490204648069
  H          -0.33555963793655      2.98839428088008     -2.37508939512533
  O          -1.73278215747018      2.99887645007469     -3.85404735613132
  H          -1.32792867543337      3.03251592850985     -0.04070657518915
  H          -6.32461803406466      2.84733241934147     -4.93369102568516
  H          -6.96070939856491      1.21209577378122     -5.17294309388565
  H          -5.27382057414428      1.57263376559569     -5.57398393032892
  H          -7.23765203576290     -1.09385736088220     -2.58451733729588
  H          -6.19344013538054     -2.37842136037799     -3.20467831400553
  H          -6.78103489821730     -1.11700477371723     -4.29530456486755
  H          -3.79088269564770     -1.91229847765414     -3.84077975024771
  H          -3.14180091351750     -0.26718051630744     -3.76097092979611
  H          -4.35598259546081     -0.68276159035269     -4.97917494468843
  H          -3.78465152701659     -0.29304301865598     -1.26270543264723
  H          -4.51249341065702     -1.89034736472531     -1.43966319299960
  H          -5.46849564375728     -0.55468061045720     -0.78516039430823
  H          -7.81742849648849      1.30831501749525     -2.09016950515860
  H          -7.11515900739272      2.93009733713351     -1.99348078735762
  H          -6.59787362428403      1.67177260768408     -0.86146290845746
  H          -3.07715441572060      4.09538107168379      0.71987434223291
  H          -4.00534013295905      5.53236916293741      0.26227324078000
  H          -7.72089748404649      4.87064944535353      1.99420428384470
  H          -7.75226997940812      3.82535540173779      3.42363539331895
  H          -7.83953613352930      3.11389347226145      1.80395647159653
  H          -3.03064682228044      1.15698465241978      3.43958151851373
  H          -2.88809653956053      2.91768603172405      3.50973443931730
  H          -3.03810108359619      2.09934147442882      1.94554915587609
  H          -4.98038295258730      1.16136221973581      4.99471314229666
  H          -6.41262380232446      2.14769665702858      4.67492648056180
  H          -4.89043977315562      2.92053513916250      5.14469560315724
  H          -5.16604837660444      0.05621110467985      2.72639404738542
  H          -5.26104275298709      1.03417097424182      1.25464213712726
  H          -6.61982613351641      1.00524147470022      2.38834371406986
  H          -3.65060626786867      5.26264543463773      3.13130429283101
  H          -5.02223425768865      5.30490156345181      4.24816607684989
  H          -5.08983030413215      6.21511381269081      2.73220509289686
  H          -0.48647982745412      6.18815022483350      0.56550111089481
  H          -1.98665885078857      6.61648068103925     -0.29590320030143
  H          -0.41198556234744      6.74719450577854     -1.12872175741078
  H          -2.68694549791446      2.82366638336858     -3.89720113274600
