69
Coordinates from ORCA-job goat_0_71 E -1780.865085507464
  O      -1.659432      1.938920     -0.035351
  C      -2.086738      2.008019     -1.385399
  H      -2.065572      0.994232     -1.791144
  C      -3.528019      2.517295     -1.486792
  H      -4.128253      2.008158     -0.727877
  O      -3.992720      2.217495     -2.801158
  Si     -5.465485      1.530163     -3.192628
  C      -5.672697      1.976455     -4.988656
  C      -5.399862     -0.343595     -2.950398
  C      -5.251965     -0.681166     -1.461091
  C      -6.698615     -0.969975     -3.478949
  C      -4.210241     -0.919644     -3.727890
  C      -6.800520      2.283777     -2.122441
  C      -3.650143      4.020713     -1.247385
  H      -4.592540      4.330559     -1.702222
  C      -3.769837      4.393826      0.229221
  O      -5.009527      3.866311      0.653387
  Si     -5.613411      3.805146      2.199733
  C      -7.458902      3.864016      1.950448
  C      -5.083602      2.194702      3.027062
  C      -3.553565      2.085108      3.041975
  C      -5.610926      2.163887      4.467171
  C      -5.663635      1.013847      2.239024
  C      -5.017454      5.284573      3.176518
  O      -2.659129      4.786234     -1.936025
  C      -1.328870      4.350976     -1.857945
  H      -0.787793      4.976456     -2.574860
  O      -0.786734      4.518387     -0.562258
  C      -0.574185      5.877579     -0.212391
  C      -1.162646      2.879983     -2.236000
  H      -0.125929      2.598428     -2.041106
  O      -1.392993      2.710823     -3.616722
  H      -1.204615      2.766429      0.176617
  H      -6.618783      1.612076     -5.392166
  H      -4.864032      1.569071     -5.598718
  H      -5.654597      3.062600     -5.098852
  H      -4.321519     -0.289263     -1.040952
  H      -5.237329     -1.766921     -1.319960
  H      -6.082508     -0.286264     -0.869524
  H      -6.850263     -0.764084     -4.541221
  H      -7.577708     -0.611751     -2.937642
  H      -6.665617     -2.057763     -3.359729
  H      -4.144163     -2.001900     -3.575393
  H      -3.264002     -0.478751     -3.406281
  H      -4.308984     -0.746320     -4.802128
  H      -7.689306      1.649516     -2.098520
  H      -7.096743      3.259731     -2.512727
  H      -6.462782      2.429675     -1.093448
  H      -2.943310      4.003737      0.827311
  H      -3.768638      5.487113      0.305083
  H      -7.776231      3.100738      1.237145
  H      -7.747456      4.834253      1.541585
  H      -8.007334      3.710513      2.881290
  H      -3.090098      2.923468      3.570129
  H      -3.135729      2.039348      2.033674
  H      -3.248984      1.169168      3.559391
  H      -6.699088      2.259314      4.509826
  H      -5.179758      2.965884      5.071153
  H      -5.347203      1.215856      4.947007
  H      -5.337140      0.064757      2.676727
  H      -5.329582      1.027503      1.198030
  H      -6.756443      1.020269      2.242121
  H      -3.941399      5.258491      3.359954
  H      -5.516878      5.326862      4.147100
  H      -5.249245      6.210284      2.645421
  H      -0.221824      5.897042      0.815882
  H      -1.497549      6.453271     -0.291872
  H       0.184406      6.320287     -0.864295
  H      -2.350783      2.639681     -3.745908
69
Coordinates from ORCA-job goat_0_71 E -1780.865996063385
  O      -1.617156      1.891836     -0.106237
  C      -2.072004      1.997811     -1.447937
  H      -2.056915      0.993202     -1.878747
  C      -3.518339      2.507547     -1.511061
  H      -4.103334      1.982563     -0.753186
  O      -4.001888      2.225007     -2.821772
  Si     -5.464951      1.492992     -3.171259
  C      -5.788358      1.994544     -4.937156
  C      -5.302542     -0.382696     -3.001874
  C      -5.032617     -0.762026     -1.538787
  C      -6.607971     -1.047734     -3.462073
  C      -4.147152     -0.882384     -3.879599
  C      -6.772637      2.148598     -2.004940
  C      -3.650806      4.008953     -1.251479
  H      -4.596947      4.320657     -1.699470
  C      -3.761270      4.372394      0.231749
  O      -5.022782      3.896275      0.663418
  Si     -5.613095      3.875688      2.217871
  C      -7.456886      4.058236      1.998544
  C      -5.184513      2.232665      3.044300
  C      -3.664196      2.025467      3.057765
  C      -5.708216      2.234203      4.486883
  C      -5.841168      1.086084      2.261356
  C      -4.906109      5.315159      3.181478
  O      -2.665919      4.787689     -1.939979
  C      -1.330725      4.356614     -1.875200
  H      -0.792977      5.005051     -2.574476
  O      -0.786946      4.484381     -0.576834
  C      -0.603452      5.834485     -0.162072
  C      -1.163065      2.894282     -2.292303
  H      -0.121082      2.612370     -2.121880
  O      -1.424365      2.750777     -3.675889
  H      -1.181082      2.722261      0.132604
  H      -6.739803      1.599287     -5.303093
  H      -4.995490      1.643523     -5.603303
  H      -5.826147      3.085891     -5.006611
  H      -4.083538     -0.353129     -1.179363
  H      -4.976043     -1.852822     -1.435671
  H      -5.824524     -0.406999     -0.872221
  H      -6.838471     -0.815621     -4.506077
  H      -7.461639     -0.739673     -2.850964
  H      -6.522306     -2.138131     -3.378538
  H      -4.030587     -1.967756     -3.772124
  H      -3.197639     -0.415057     -3.603000
  H      -4.326158     -0.673572     -4.938657
  H      -7.646200      1.491213     -1.987812
  H      -7.104964      3.141982     -2.321099
  H      -6.396837      2.233029     -0.981944
  H      -2.949752      3.950018      0.825403
  H      -3.714148      5.463556      0.317572
  H      -7.837078      3.313329      1.293841
  H      -7.686967      5.047887      1.592305
  H      -7.997671      3.943366      2.941839
  H      -3.146840      2.835256      3.582242
  H      -3.254332      1.954340      2.047839
  H      -3.418013      1.090254      3.577083
  H      -6.789721      2.397349      4.530791
  H      -5.226006      3.009455      5.089853
  H      -5.501378      1.268869      4.965379
  H      -5.570871      0.118987      2.703514
  H      -5.514354      1.074002      1.216912
  H      -6.932514      1.160694      2.271692
  H      -3.829513      5.216851      3.345459
  H      -5.387025      5.390662      4.161227
  H      -5.085279      6.254634      2.649640
  H      -0.237375      5.809398      0.863879
  H      -1.544181      6.389410     -0.198843
  H       0.135493      6.329428     -0.801616
  H      -2.385830      2.672751     -3.783332
69
Coordinates from ORCA-job goat_0_71 E -1780.866417535470
  O      -1.671109      1.902175     -0.073965
  C      -2.109545      1.999652     -1.423677
  H      -2.095151      0.990442     -1.843021
  C      -3.552378      2.518311     -1.510703
  H      -4.151551      2.000020     -0.759075
  O      -4.016306      2.234516     -2.830049
  Si     -5.467581      1.475604     -3.183825
  C      -5.805720      1.966645     -4.951845
  C      -5.260805     -0.395504     -3.011361
  C      -4.988200     -0.767408     -1.546477
  C      -6.547707     -1.092695     -3.476625
  C      -4.087734     -0.870693     -3.880758
  C      -6.791249      2.107169     -2.020011
  C      -3.679189      4.021298     -1.260564
  H      -4.622115      4.336021     -1.713780
  C      -3.782778      4.392184      0.221382
  O      -5.048899      3.935048      0.664460
  Si     -5.595760      3.912220      2.236808
  C      -7.440672      4.168890      2.088894
  C      -5.205338      2.236652      3.019442
  C      -3.692348      1.979191      2.994529
  C      -5.697840      2.220932      4.473611
  C      -5.914590      1.127146      2.227729
  C      -4.799092      5.307884      3.196395
  O      -2.684708      4.789084     -1.953204
  C      -1.349180      4.353661     -1.866354
  H      -0.800354      4.994288     -2.564406
  O      -0.817966      4.487374     -0.565395
  C      -0.636900      5.841626     -0.149981
  C      -1.183582      2.884382     -2.264180
  H      -0.144825      2.599451     -2.079178
  O      -1.431764      2.722693     -3.652416
  H      -1.272038      2.748263      0.176666
  H      -6.747990      1.543534     -5.313389
  H      -5.004496      1.631444     -5.617181
  H      -5.874336      3.057221     -5.023630
  H      -4.048537     -0.338295     -1.185917
  H      -4.910373     -1.857608     -1.443423
  H      -5.789334     -0.426345     -0.883419
  H      -6.775086     -0.868413     -4.523672
  H      -7.411605     -0.799202     -2.871869
  H      -6.436369     -2.181131     -3.386791
  H      -3.950213     -1.954175     -3.770561
  H      -3.150271     -0.383520     -3.594668
  H      -4.263540     -0.665160     -4.941581
  H      -7.671663      1.458403     -2.045814
  H      -7.105601      3.116164     -2.306227
  H      -6.436212      2.145259     -0.987185
  H      -2.976473      3.956657      0.812910
  H      -3.718001      5.481877      0.307736
  H      -7.875795      3.447453      1.390311
  H      -7.647459      5.174709      1.707886
  H      -7.947528      4.059233      3.052483
  H      -3.137695      2.755790      3.530834
  H      -3.308287      1.930734      1.972146
  H      -3.467242      1.018848      3.478078
  H      -6.773492      2.414503      4.542564
  H      -5.180493      2.969292      5.082540
  H      -5.508552      1.238057      4.924991
  H      -5.665911      0.143435      2.647587
  H      -5.610518      1.125633      1.175917
  H      -7.002843      1.237495      2.263444
  H      -3.720600      5.165486      3.312958
  H      -5.238957      5.381904      4.196038
  H      -4.963815      6.262949      2.686262
  H      -0.264035      5.813536      0.874213
  H      -1.580406      6.392581     -0.178575
  H       0.096381      6.339147     -0.794647
  H      -2.392839      2.641592     -3.765453
69
Coordinates from ORCA-job goat_0_71 E -1780.866642368032
  O      -1.666684      1.876059     -0.097240
  C      -2.115733      1.994968     -1.441701
  H      -2.103580      0.991310     -1.871715
  C      -3.559716      2.515770     -1.520460
  H      -4.159787      1.990091     -0.774239
  O      -4.022160      2.248379     -2.846623
  Si     -5.472602      1.486320     -3.213611
  C      -5.784262      1.943628     -4.996813
  C      -5.269580     -0.382054     -3.005837
  C      -5.037732     -0.733846     -1.529062
  C      -6.543530     -1.087907     -3.494262
  C      -4.072257     -0.870274     -3.834704
  C      -6.818032      2.144601     -2.088840
  C      -3.689453      4.016312     -1.259332
  H      -4.630588      4.330740     -1.715885
  C      -3.800215      4.384330      0.223047
  O      -5.065401      3.919238      0.664637
  Si     -5.593823      3.904090      2.246855
  C      -7.444693      4.148753      2.130392
  C      -5.185358      2.234538      3.036474
  C      -3.668610      1.999536      3.025316
  C      -5.689988      2.212418      4.486792
  C      -5.868508      1.112018      2.241865
  C      -4.787892      5.312051      3.181657
  O      -2.693316      4.789019     -1.948539
  C      -1.355919      4.353644     -1.862061
  H      -0.807752      5.001986     -2.553267
  O      -0.823665      4.474005     -0.562123
  C      -0.638327      5.826757     -0.136915
  C      -1.190914      2.888415     -2.273302
  H      -0.151887      2.601923     -2.095677
  O      -1.443540      2.739103     -3.664117
  H      -1.295269      2.729944      0.170588
  H      -6.719406      1.507789     -5.360990
  H      -4.972277      1.595590     -5.641719
  H      -5.857498      3.031655     -5.091573
  H      -4.109178     -0.299544     -1.147930
  H      -4.962792     -1.822382     -1.412017
  H      -5.858969     -0.386876     -0.895240
  H      -6.739528     -0.881734     -4.551075
  H      -7.423254     -0.781359     -2.919852
  H      -6.434891     -2.173978     -3.380591
  H      -3.940873     -1.951949     -3.704116
  H      -3.143392     -0.380616     -3.527050
  H      -4.217365     -0.679484     -4.902626
  H      -7.721940      1.534658     -2.175580
  H      -7.075389      3.173775     -2.357571
  H      -6.510651      2.133562     -1.040608
  H      -2.995408      3.951142      0.818170
  H      -3.743353      5.473754      0.311779
  H      -7.888961      3.416070      1.449756
  H      -7.665229      5.149827      1.745936
  H      -7.928671      4.045049      3.106025
  H      -3.131932      2.780816      3.572073
  H      -3.275108      1.967462      2.005935
  H      -3.434866      1.038879      3.502902
  H      -6.770068      2.381735      4.544295
  H      -5.195387      2.974659      5.097116
  H      -5.481641      1.235469      4.941697
  H      -5.612419      0.135220      2.672298
  H      -5.548820      1.109759      1.195715
  H      -6.958377      1.209163      2.261284
  H      -3.705972      5.178026      3.270708
  H      -5.204860      5.386088      4.190709
  H      -4.973105      6.262180      2.670088
  H      -0.246405      5.787589      0.879050
  H      -1.583022      6.374889     -0.142783
  H       0.081672      6.329545     -0.791332
  H      -2.405052      2.653323     -3.770222
69
Coordinates from ORCA-job goat_0_71 E -1780.866812412370
  O      -1.672879      1.867572     -0.086293
  C      -2.124092      1.993799     -1.428831
  H      -2.119557      0.989825     -1.856236
  C      -3.563909      2.524202     -1.510980
  H      -4.169460      2.006587     -0.763212
  O      -4.027666      2.253481     -2.836984
  Si     -5.476019      1.474889     -3.188497
  C      -5.831503      1.950850     -4.958976
  C      -5.245051     -0.393724     -3.011444
  C      -4.976876     -0.768569     -1.545707
  C      -6.522020     -1.107335     -3.481901
  C      -4.063220     -0.855872     -3.876567
  C      -6.810375      2.103165     -2.034123
  C      -3.686548      4.026021     -1.260444
  H      -4.622790      4.341471     -1.725282
  C      -3.804985      4.403300      0.216374
  O      -5.073925      3.937071      0.646392
  Si     -5.593119      3.925176      2.233914
  C      -7.442389      4.195483      2.137830
  C      -5.202657      2.245485      3.011581
  C      -3.687156      1.999101      3.006901
  C      -5.716484      2.214659      4.458595
  C      -5.889875      1.135300      2.203314
  C      -4.757406      5.319202      3.164078
  O      -2.683277      4.789472     -1.948873
  C      -1.349658      4.345440     -1.849840
  H      -0.793114      4.991192     -2.536533
  O      -0.830802      4.463543     -0.545384
  C      -0.639946      5.815393     -0.120726
  C      -1.192282      2.879501     -2.259471
  H      -0.155852      2.586176     -2.081385
  O      -1.444475      2.732308     -3.650459
  H      -1.316130      2.724768      0.188477
  H      -6.766234      1.501776     -5.305109
  H      -5.028555      1.622504     -5.624053
  H      -5.926022      3.037297     -5.039783
  H      -4.045400     -0.331335     -1.176634
  H      -4.887537     -1.857465     -1.451664
  H      -5.788457     -0.443825     -0.888207
  H      -6.741389     -0.890526     -4.531293
  H      -7.392022     -0.815919     -2.885971
  H      -6.399864     -2.192479     -3.383189
  H      -3.919949     -1.937559     -3.766797
  H      -3.132797     -0.363286     -3.582240
  H      -4.235175     -0.648960     -4.936852
  H      -7.731552      1.530389     -2.174390
  H      -7.029500      3.155187     -2.235719
  H      -6.518301      2.008751     -0.985387
  H      -3.005555      3.972068      0.820802
  H      -3.751306      5.493122      0.299985
  H      -7.905460      3.467292      1.466114
  H      -7.654427      5.198278      1.756237
  H      -7.911746      4.099534      3.120459
  H      -3.148290      2.769400      3.566770
  H      -3.287686      1.977922      1.989867
  H      -3.464407      1.031404      3.472823
  H      -6.796733      2.380183      4.509592
  H      -5.228280      2.974957      5.075636
  H      -5.507440      1.236674      4.908621
  H      -5.648201      0.154691      2.631048
  H      -5.559723      1.135922      1.160503
  H      -6.978491      1.243958      2.212619
  H      -3.675867      5.174147      3.228809
  H      -5.153416      5.388214      4.181125
  H      -4.944623      6.273587      2.663178
  H      -0.242848      5.772396      0.892230
  H      -1.582949      6.364998     -0.121782
  H       0.077394      6.314132     -0.779748
  H      -2.406856      2.649249     -3.752948
69
Coordinates from ORCA-job goat_0_71 E -1780.866903955736
  O      -1.689878      1.868745     -0.082432
  C      -2.135148      1.994317     -1.426609
  H      -2.131097      0.989570     -1.853209
  C      -3.572771      2.526285     -1.514514
  H      -4.183053      2.008311     -0.771205
  O      -4.029984      2.257761     -2.843195
  Si     -5.474971      1.476565     -3.204696
  C      -5.810296      1.941102     -4.981601
  C      -5.251111     -0.391398     -3.013272
  C      -4.990907     -0.759205     -1.544386
  C      -6.529555     -1.102594     -3.484625
  C      -4.068643     -0.862553     -3.872158
  C      -6.821938      2.115773     -2.073052
  C      -3.691540      4.027614     -1.259404
  H      -4.627689      4.346370     -1.722034
  C      -3.807091      4.400557      0.218549
  O      -5.073952      3.928075      0.649623
  Si     -5.587284      3.919429      2.240145
  C      -7.436999      4.182334      2.148799
  C      -5.188713      2.244418      3.022801
  C      -3.671640      2.007612      3.025789
  C      -5.708194      2.214834      4.467646
  C      -5.866359      1.128325      2.214692
  C      -4.753985      5.320135      3.162039
  O      -2.687680      4.790135     -1.945707
  C      -1.355658      4.343901     -1.844787
  H      -0.797040      4.988839     -2.530723
  O      -0.841737      4.463892     -0.538017
  C      -0.647505      5.815534     -0.118025
  C      -1.199600      2.878228     -2.255001
  H      -0.164329      2.582646     -2.072758
  O      -1.444328      2.735032     -3.646653
  H      -1.335670      2.726339      0.194074
  H      -6.741417      1.488955     -5.332997
  H      -5.000814      1.608244     -5.636290
  H      -5.903629      3.026687     -5.072060
  H      -4.061499     -0.320713     -1.171117
  H      -4.902152     -1.847658     -1.444949
  H      -5.806591     -0.432484     -0.892996
  H      -6.743740     -0.893140     -4.536466
  H      -7.401068     -0.803479     -2.894763
  H      -6.412964     -2.187411     -3.377690
  H      -3.929989     -1.944135     -3.756602
  H      -3.136977     -0.372020     -3.578351
  H      -4.236519     -0.660852     -4.933980
  H      -7.753925      1.572927     -2.255433
  H      -7.005188      3.177794     -2.256358
  H      -6.564044      1.989975     -1.018863
  H      -3.003596      3.972461      0.820402
  H      -3.757998      5.490765      0.302823
  H      -7.901113      3.446614      1.486471
  H      -7.655072      5.180342      1.758702
  H      -7.900007      4.093971      3.135041
  H      -3.140605      2.782176      3.587360
  H      -3.265885      1.984917      2.011430
  H      -3.445234      1.042747      3.495561
  H      -6.790633      2.365780      4.513698
  H      -5.232827      2.984727      5.082795
  H      -5.487892      1.242487      4.924177
  H      -5.625920      0.150541      2.649231
  H      -5.526635      1.124322      1.175104
  H      -6.955265      1.233602      2.213515
  H      -3.670764      5.184320      3.215152
  H      -5.139174      5.385495      4.183367
  H      -4.955074      6.272842      2.663654
  H      -0.246518      5.775768      0.893524
  H      -1.589988      6.366457     -0.118091
  H       0.068048      6.311270     -0.781390
  H      -2.406143      2.654395     -3.755742
69
Coordinates from ORCA-job goat_0_71 E -1780.866963675615
  O      -1.700941      1.862020     -0.086299
  C      -2.144287      1.991374     -1.430567
  H      -2.144731      0.987102     -1.859650
  C      -3.579342      2.529359     -1.517990
  H      -4.193131      2.011945     -0.777315
  O      -4.036920      2.265129     -2.846540
  Si     -5.477269      1.476431     -3.207703
  C      -5.813468      1.941506     -4.983502
  C      -5.249441     -0.390807     -3.017295
  C      -4.974776     -0.759460     -1.551760
  C      -6.532665     -1.101926     -3.476309
  C      -4.075501     -0.859813     -3.888541
  C      -6.827195      2.110311     -2.078943
  C      -3.691041      4.030774     -1.257500
  H      -4.626006      4.355640     -1.718694
  C      -3.808062      4.397630      0.222524
  O      -5.076196      3.924641      0.650501
  Si     -5.590660      3.919738      2.241267
  C      -7.439898      4.174082      2.144809
  C      -5.184645      2.250254      3.029856
  C      -3.665905      2.026093      3.046419
  C      -5.715702      2.220276      4.470365
  C      -5.847285      1.127606      2.218118
  C      -4.765903      5.327655      3.159099
  O      -2.683586      4.791126     -1.939120
  C      -1.353886      4.338096     -1.841401
  H      -0.792249      4.981570     -2.526374
  O      -0.838867      4.453754     -0.533561
  C      -0.632939      5.802133     -0.112643
  C      -1.204746      2.873161     -2.257292
  H      -0.170978      2.571543     -2.074036
  O      -1.447187      2.738185     -3.648656
  H      -1.335473      2.714592      0.190962
  H      -6.741813      1.483013     -5.334864
  H      -5.001990      1.615854     -5.639576
  H      -5.913746      3.026688     -5.073910
  H      -4.045094     -0.316260     -1.184266
  H      -4.878451     -1.847737     -1.454484
  H      -5.787007     -0.439137     -0.892804
  H      -6.758773     -0.892521     -4.525833
  H      -7.398538     -0.804841     -2.876998
  H      -6.414569     -2.187123     -3.372161
  H      -3.933304     -1.941424     -3.775447
  H      -3.140862     -0.367457     -3.605643
  H      -4.254994     -0.658460     -4.948606
  H      -7.769428      1.601588     -2.302918
  H      -6.976784      3.183320     -2.227400
  H      -6.596040      1.941093     -1.024629
  H      -3.004722      3.969498      0.823829
  H      -3.758196      5.487799      0.309225
  H      -7.902045      3.428703      1.491838
  H      -7.662680      5.165879      1.741090
  H      -7.902005      4.096875      3.132711
  H      -3.146283      2.806266      3.611123
  H      -3.249687      2.001461      2.036260
  H      -3.435361      1.064576      3.521963
  H      -6.800751      2.354904      4.507224
  H      -5.257073      2.999799      5.086401
  H      -5.485201      1.253462      4.934225
  H      -5.607378      0.152072      2.658694
  H      -5.494733      1.121010      1.182549
  H      -6.936710      1.226428      2.203270
  H      -3.680672      5.204281      3.203864
  H      -5.142900      5.387278      4.184005
  H      -4.981997      6.279174      2.664293
  H      -0.226531      5.759372      0.896976
  H      -1.571667      6.360187     -0.107089
  H       0.082473      6.295347     -0.778693
  H      -2.408768      2.662923     -3.762486
69
Coordinates from ORCA-job goat_0_71 E -1780.866995679629
  O      -1.708529      1.858453     -0.088244
  C      -2.149855      1.989212     -1.433020
  H      -2.151900      0.985629     -1.863565
  C      -3.583899      2.531010     -1.520740
  H      -4.199588      2.014869     -0.780712
  O      -4.043008      2.270181     -2.849222
  Si     -5.479281      1.474282     -3.207577
  C      -5.823045      1.942305     -4.980903
  C      -5.243348     -0.392263     -3.021859
  C      -4.952489     -0.762859     -1.560267
  C      -6.529289     -1.105850     -3.468590
  C      -4.076818     -0.856101     -3.905716
  C      -6.829456      2.098561     -2.074476
  C      -3.691205      4.032512     -1.257886
  H      -4.625391      4.361387     -1.718042
  C      -3.807518      4.396197      0.223470
  O      -5.077317      3.927669      0.651162
  Si     -5.591560      3.924673      2.242148
  C      -7.439678      4.182039      2.144187
  C      -5.187146      2.255568      3.031910
  C      -3.668508      2.032894      3.056021
  C      -5.725076      2.224420      4.469818
  C      -5.844622      1.132299      2.216957
  C      -4.765891      5.332183      3.159346
  O      -2.681164      4.791336     -1.936770
  C      -1.352719      4.334610     -1.839772
  H      -0.788608      4.976987     -2.523634
  O      -0.837063      4.446719     -0.531684
  C      -0.628422      5.793358     -0.107413
  C      -1.207103      2.869694     -2.257723
  H      -0.174462      2.565027     -2.072776
  O      -1.448588      2.736802     -3.649042
  H      -1.335042      2.707769      0.188687
  H      -6.748001      1.476267     -5.331846
  H      -5.010326      1.627387     -5.640810
  H      -5.933894      3.026941     -5.067789
  H      -4.021838     -0.315644     -1.200451
  H      -4.849355     -1.850896     -1.465999
  H      -5.759626     -0.447913     -0.892533
  H      -6.768411     -0.894254     -4.514923
  H      -7.389246     -0.813654     -2.858366
  H      -6.406678     -2.191245     -3.369455
  H      -3.928534     -1.937301     -3.795237
  H      -3.140987     -0.359997     -3.632815
  H      -4.268342     -0.654832     -4.963813
  H      -7.777265      1.612022     -2.323034
  H      -6.960029      3.177646     -2.196201
  H      -6.612862      1.898982     -1.022405
  H      -3.005271      3.964571      0.823523
  H      -3.752664      5.486054      0.312301
  H      -7.904662      3.432711      1.497527
  H      -7.660893      5.170962      1.732165
  H      -7.901417      4.114138      3.133136
  H      -3.152514      2.813145      3.623862
  H      -3.246839      2.008240      2.048069
  H      -3.439184      1.071302      3.532575
  H      -6.810821      2.355757      4.501248
  H      -5.271980      3.005200      5.088471
  H      -5.494552      1.258177      4.935306
  H      -5.607161      0.156711      2.659223
  H      -5.485942      1.125100      1.183567
  H      -6.934074      1.230318      2.195690
  H      -3.679880      5.212563      3.197742
  H      -5.136633      5.387856      4.186883
  H      -4.987911      6.284710      2.668773
  H      -0.218806      5.747779      0.900913
  H      -1.566460      6.352914     -0.096773
  H       0.085375      6.289159     -0.773517
  H      -2.409887      2.663162     -3.765120
69
Coordinates from ORCA-job goat_0_71 E -1780.867005935526
  O      -1.713385      1.855773     -0.088630
  C      -2.152761      1.987437     -1.433979
  H      -2.155252      0.984592     -1.865902
  C      -3.586118      2.532006     -1.521730
  H      -4.202696      2.017595     -0.781101
  O      -4.047241      2.273305     -2.850008
  Si     -5.480760      1.472556     -3.205378
  C      -5.832489      1.944536     -4.976121
  C      -5.239012     -0.393860     -3.025493
  C      -4.934518     -0.767748     -1.567581
  C      -6.527609     -1.108433     -3.462069
  C      -4.079143     -0.853469     -3.920368
  C      -6.830041      2.088302     -2.066239
  C      -3.690252      4.033762     -1.258401
  H      -4.623389      4.365209     -1.718801
  C      -3.806640      4.396626      0.223388
  O      -5.077490      3.932017      0.651082
  Si     -5.593123      3.929076      2.241482
  C      -7.440796      4.187697      2.141121
  C      -5.189302      2.260089      3.032106
  C      -3.670541      2.039642      3.063054
  C      -5.733836      2.226962      4.467524
  C      -5.841022      1.135865      2.214014
  C      -4.768601      5.336282      3.159924
  O      -2.677837      4.791357     -1.935372
  C      -1.350340      4.331934     -1.838821
  H      -0.784596      4.973270     -2.522253
  O      -0.832798      4.440981     -0.531316
  C      -0.623149      5.786560     -0.103867
  C      -1.207803      2.866809     -2.257346
  H      -0.175955      2.560051     -2.071777
  O      -1.450072      2.733924     -3.648721
  H      -1.332846      2.702461      0.186965
  H      -6.753448      1.471204     -5.327960
  H      -5.018175      1.641317     -5.639564
  H      -5.954610      3.028467     -5.057953
  H      -4.001855     -0.319538     -1.214746
  H      -4.828230     -1.855776     -1.476825
  H      -5.736114     -0.455789     -0.891880
  H      -6.778156     -0.893135     -4.505034
  H      -7.381694     -0.820416     -2.841660
  H      -6.401807     -2.194056     -3.368698
  H      -3.926026     -1.934265     -3.812268
  H      -3.142402     -0.354550     -3.655620
  H      -4.280982     -0.651828     -4.976542
  H      -7.782095      1.619058     -2.331285
  H      -6.946902      3.171293     -2.166411
  H      -6.623133      1.864998     -1.016999
  H      -3.005694      3.961874      0.822889
  H      -3.747840      5.486182      0.313409
  H      -7.907146      3.434645      1.499654
  H      -7.660531      5.174004      1.721917
  H      -7.903523      4.127645      3.130175
  H      -3.158261      2.820102      3.633874
  H      -3.244428      2.016603      2.056854
  H      -3.441825      1.077839      3.539583
  H      -6.819885      2.357534      4.493712
  H      -5.284421      3.007301      5.089423
  H      -5.505213      1.260232      4.933044
  H      -5.603847      0.160497      2.657036
  H      -5.477843      1.129617      1.182282
  H      -6.930619      1.231783      2.188063
  H      -3.682027      5.220225      3.194717
  H      -5.135951      5.388191      4.188927
  H      -4.994826      6.289680      2.672823
  H      -0.210896      5.738399      0.903295
  H      -1.560901      6.346456     -0.088648
  H       0.088896      6.284990     -0.769895
  H      -2.411331      2.661662     -3.765120
69
Coordinates from ORCA-job goat_0_71 E -1780.867006278823
  O      -1.713481      1.855865     -0.088459
  C      -2.151843      1.987433     -1.434212
  H      -2.153329      0.984935     -1.866820
  C      -3.585279      2.531918     -1.521801
  H      -4.201437      2.018064     -0.780374
  O      -4.047431      2.273270     -2.849841
  Si     -5.480723      1.472407     -3.204293
  C      -5.833973      1.945443     -4.974599
  C      -5.239372     -0.394311     -3.025807
  C      -4.932621     -0.769525     -1.568621
  C      -6.529156     -1.107842     -3.460395
  C      -4.081067     -0.853950     -3.922759
  C      -6.829542      2.087093     -2.063318
  C      -3.689276      4.033785     -1.258971
  H      -4.622135      4.365227     -1.719867
  C      -3.805367      4.397406      0.222576
  O      -5.075771      3.933225      0.651191
  Si     -5.593110      3.929319      2.240714
  C      -7.440936      4.187371      2.138192
  C      -5.189267      2.260482      3.032159
  C      -3.670356      2.041132      3.065896
  C      -5.736590      2.226892      4.466552
  C      -5.838501      1.135508      2.213157
  C      -4.770586      5.336643      3.160762
  O      -2.676568      4.791499     -1.935800
  C      -1.349175      4.332107     -1.839432
  H      -0.783555      4.973421     -2.523000
  O      -0.830655      4.440559     -0.532400
  C      -0.622944      5.786209     -0.103699
  C      -1.206871      2.866872     -2.257347
  H      -0.174979      2.560269     -2.072125
  O      -1.450041      2.732771     -3.648755
  H      -1.330319      2.701785      0.185902
  H      -6.752377      1.468890     -5.328605
  H      -5.017753      1.647489     -5.638063
  H      -5.961189      3.028972     -5.054172
  H      -3.998694     -0.322816     -1.217407
  H      -4.827713     -1.857710     -1.478804
  H      -5.732473     -0.456799     -0.891263
  H      -6.782298     -0.890685     -4.502335
  H      -7.381367     -0.820162     -2.837268
  H      -6.403633     -2.193615     -3.368929
  H      -3.927376     -1.934621     -3.814598
  H      -3.144050     -0.354711     -3.659625
  H      -4.284938     -0.652428     -4.978557
  H      -7.782806      1.621650     -2.330647
  H      -6.943436      3.170775     -2.159261
  H      -6.624263      1.859159     -1.014724
  H      -3.004238      3.962212      0.821632
  H      -3.746317      5.486931      0.312403
  H      -7.906849      3.432427      1.498633
  H      -7.659826      5.172461      1.715742
  H      -7.905228      4.130555      3.126660
  H      -3.159635      2.822003      3.637508
  H      -3.242769      2.018934      2.060283
  H      -3.441813      1.079413      3.542507
  H      -6.822512      2.358932      4.490563
  H      -5.287432      3.006250      5.089818
  H      -5.510089      1.259521      4.931666
  H      -5.600470      0.160478      2.656344
  H      -5.474314      1.130093      1.181816
  H      -6.928201      1.230092      2.186105
  H      -3.683865      5.222095      3.195892
  H      -5.138396      5.387115      4.189654
  H      -4.997604      6.290293      2.674551
  H      -0.210298      5.737574      0.903244
  H      -1.561423      6.344714     -0.087420
  H       0.088154      6.286250     -0.769452
  H      -2.411411      2.660596     -3.764335
69
Coordinates from ORCA-job goat_0_71 E -1780.867008697285
  O      -1.714959      1.855681     -0.087336
  C      -2.152373      1.987227     -1.433467
  H      -2.153790      0.984762     -1.866199
  C      -3.585358      2.532365     -1.521321
  H      -4.201645      2.019078     -0.779600
  O      -4.047726      2.273630     -2.849345
  Si     -5.480938      1.472891     -3.203830
  C      -5.834120      1.946233     -4.974216
  C      -5.239883     -0.393981     -3.025766
  C      -4.931104     -0.769671     -1.569020
  C      -6.530635     -1.107050     -3.458489
  C      -4.083015     -0.853727     -3.924543
  C      -6.829983      2.087509     -2.062496
  C      -3.688596      4.034326     -1.258941
  H      -4.620917      4.365984     -1.720683
  C      -3.804618      4.398852      0.222196
  O      -5.074412      3.933869      0.651341
  Si     -5.593348      3.928889      2.240025
  C      -7.441604      4.184972      2.135804
  C      -5.188483      2.260498      3.032272
  C      -3.669245      2.043190      3.068245
  C      -5.738070      2.226477      4.465835
  C      -5.835013      1.134454      2.212538
  C      -4.773319      5.337006      3.161195
  O      -2.675224      4.791480     -1.935841
  C      -1.348174      4.331264     -1.839665
  H      -0.782530      4.972217     -2.523591
  O      -0.828913      4.439538     -0.532951
  C      -0.621255      5.785306     -0.104211
  C      -1.206917      2.865837     -2.256775
  H      -0.175103      2.558749     -2.072085
  O      -1.450642      2.730899     -3.648252
  H      -1.330422      2.701252      0.186146
  H      -6.749649      1.466325     -5.330885
  H      -5.015277      1.652862     -5.636465
  H      -5.965992      3.029298     -5.052238
  H      -3.996047     -0.323971     -1.219433
  H      -4.827270     -1.857967     -1.479768
  H      -5.729607     -0.456367     -0.890364
  H      -6.785703     -0.889117     -4.499750
  H      -7.381415     -0.819228     -2.833496
  H      -6.405266     -2.192823     -3.367725
  H      -3.929121     -1.934319     -3.816339
  H      -3.145710     -0.354373     -3.662736
  H      -4.288623     -0.652189     -4.979968
  H      -7.783808      1.623898     -2.330987
  H      -6.942302      3.171475     -2.156460
  H      -6.625816      1.857211     -1.014189
  H      -3.003089      3.964082      0.821121
  H      -3.746591      5.488431      0.311525
  H      -7.906474      3.428017      1.497924
  H      -7.660425      5.168872      1.710643
  H      -7.906993      4.130517      3.123824
  H      -3.160435      2.824798      3.640537
  H      -3.240432      2.022141      2.063108
  H      -3.440171      1.081708      3.544882
  H      -6.823963      2.358739      4.488126
  H      -5.289727      3.005668      5.089849
  H      -5.512205      1.258984      4.930864
  H      -5.595745      0.159943      2.656038
  H      -5.469897      1.129835      1.181524
  H      -6.924814      1.227424      2.184421
  H      -3.686458      5.224092      3.196650
  H      -5.141724      5.386266      4.189896
  H      -5.001403      6.290594      2.675437
  H      -0.208259      5.736422      0.902536
  H      -1.559778      6.343570     -0.087608
  H       0.089582      6.285036     -0.770401
  H      -2.412218      2.659751     -3.763110
69
Coordinates from ORCA-job goat_0_71 E -1780.867008999478
  O      -1.714764      1.855897     -0.086898
  C      -2.151959      1.987254     -1.433155
  H      -2.153275      0.984713     -1.865764
  C      -3.584852      2.532358     -1.521120
  H      -4.201135      2.019097     -0.779403
  O      -4.047254      2.273434     -2.849083
  Si     -5.480866      1.473445     -3.203713
  C      -5.833039      1.946675     -4.974373
  C      -5.241006     -0.393548     -3.025204
  C      -4.931663     -0.769144     -1.568541
  C      -6.532526     -1.105937     -3.456969
  C      -4.085002     -0.854159     -3.924659
  C      -6.829801      2.089357     -2.062809
  C      -3.688116      4.034331     -1.258948
  H      -4.620284      4.365805     -1.721140
  C      -3.804174      4.399302      0.221969
  O      -5.073483      3.933207      0.651364
  Si     -5.593444      3.927841      2.239498
  C      -7.441968      4.182253      2.134042
  C      -5.187738      2.259970      3.032465
  C      -3.668295      2.044124      3.069711
  C      -5.738518      2.225957      4.465578
  C      -5.832615      1.133142      2.212469
  C      -4.775199      5.336821      3.161031
  O      -2.674657      4.791387     -1.935943
  C      -1.347665      4.331055     -1.839875
  H      -0.782183      4.972008     -2.523952
  O      -0.828398      4.439597     -0.533132
  C      -0.620959      5.785513     -0.104657
  C      -1.206507      2.865612     -2.256679
  H      -0.174630      2.558525     -2.072310
  O      -1.450291      2.730426     -3.648162
  H      -1.330048      2.701481      0.186284
  H      -6.746746      1.464807     -5.332959
  H      -5.012230      1.655653     -5.635230
  H      -5.967250      3.029482     -5.051860
  H      -3.995944     -0.324263     -1.219724
  H      -4.828836     -1.857531     -1.479262
  H      -5.729543     -0.455109     -0.889491
  H      -6.788229     -0.887961     -4.498048
  H      -7.382627     -0.817470     -2.831359
  H      -6.407697     -2.191745     -3.366096
  H      -3.931717     -1.934810     -3.816270
  H      -3.147254     -0.355269     -3.663517
  H      -4.291243     -0.652674     -4.979950
  H      -7.783925      1.626343     -2.331257
  H      -6.941297      3.173376     -2.156874
  H      -6.625916      1.858902     -1.014464
  H      -3.002142      3.965458      0.820901
  H      -3.747384      5.488979      0.310840
  H      -7.905898      3.423967      1.497085
  H      -7.660963      5.165375      1.707184
  H      -7.907953      4.129068      3.121828
  H      -3.160756      2.826358      3.642280
  H      -3.238697      2.023454      2.064901
  H      -3.438727      1.082939      3.546667
  H      -6.824477      2.357652      4.486974
  H      -5.291036      3.005592      5.089651
  H      -5.512320      1.258741      4.930991
  H      -5.592637      0.158990      2.656334
  H      -5.466856      1.128768      1.181676
  H      -6.922469      1.225129      2.183600
  H      -3.688250      5.224919      3.196791
  H      -5.144063      5.385595      4.189582
  H      -5.004019      6.290205      2.675237
  H      -0.207874      5.736794      0.902050
  H      -1.559654      6.343481     -0.088218
  H       0.089747      6.284980     -0.771175
  H      -2.411961      2.659639     -3.762782
