69
Coordinates from ORCA-job goat_0_130 E -1780.867277371738
  O          -1.61768946447404      2.66852971806754     -0.43244443197932
  C          -2.19929415841120      2.66595225980743     -1.72923456652065
  H          -1.84271847440851      1.76646934766469     -2.23582828284382
  C          -3.73301409115721      2.58812194467513     -1.67776898172435
  H          -4.02208805353407      1.83720948604372     -0.93840110700934
  O          -4.16781200598676      2.21983320219376     -2.98887695316013
  Si         -5.22578965121470      0.95264577316964     -3.29987309081451
  C          -5.78835890814352      1.26274692447808     -5.05187709790918
  C          -4.32242309563084     -0.70195068757489     -3.14866323986979
  C          -3.14807435158547     -0.74164578767109     -4.13727539679005
  C          -3.78954736640594     -0.91489648951580     -1.72378212007053
  C          -5.30438411952438     -1.83553156457384     -3.48493031451717
  C          -6.65965962676496      1.04670773421963     -2.10320955637264
  C          -4.40113721065961      3.90685955090757     -1.29339697042298
  H          -5.43105601639961      3.85546394503958     -1.65214067477232
  C          -4.49494848817629      4.12916140031628      0.21813681688122
  O          -5.48685271660243      3.24193397313972      0.71206292953229
  Si         -5.38501451466546      2.44952510165683      2.18027750112799
  C          -3.83799725500486      1.39710411944198      2.22435517909742
  C          -5.39839387375222      3.69347321953538      3.60776566968402
  C          -4.06595203392863      4.45208811553370      3.69657686578015
  C          -6.53856564214792      4.70046605897622      3.39922245663812
  C          -5.62557098673801      2.93648783734995      4.92569798985438
  C          -6.90787050959764      1.36825904514872      2.21480010770408
  O          -3.84680587843528      5.03443454437734     -1.98658753802261
  C          -2.44379538866417      5.14940868124446     -2.01351392025315
  H          -2.24677246728384      5.99196467732513     -2.68404682491055
  O          -1.89747110246250      5.40461081879394     -0.73860624192307
  C          -2.18839377633072      6.70888191281449     -0.23596958996162
  C          -1.76583017171397      3.88555907017475     -2.54757982861784
  H          -0.68521229346739      4.01580160035904     -2.45616661077850
  O          -2.06095226692249      3.72206580092627     -3.92581656115539
  H          -1.57841403425534      3.58566754451269     -0.12469864046756
  H          -6.32773458052031      2.21261257006131     -5.10899622890883
  H          -6.45936267293955      0.47026405242983     -5.39438837309568
  H          -4.93848755483068      1.31014082797402     -5.73785826169922
  H          -2.43777619444557      0.06954184895210     -3.95226663981503
  H          -3.49042554192780     -0.66086434276301     -5.17305298658953
  H          -2.60667683326287     -1.69047615896291     -4.03916224261756
  H          -3.02418009072385     -0.18060703033883     -1.45969615040218
  H          -3.32971827008834     -1.90756357241540     -1.64483397868517
  H          -4.58662444056869     -0.85882366040957     -0.97615262456217
  H          -4.78932083225639     -2.80227168744719     -3.43126681862732
  H          -5.71302591248752     -1.73420759299151     -4.49479460993590
  H          -6.14207493896942     -1.86774451379049     -2.78194815417662
  H          -7.38275459853688      0.25447506204887     -2.31741384988439
  H          -7.17166321200831      2.00829689115834     -2.20100344728847
  H          -6.33756354730149      0.93881567850921     -1.06500518349784
  H          -3.53785893714394      3.96871638399746      0.71625124919129
  H          -4.80382905516286      5.16339268205576      0.39746218400865
  H          -3.75724417155378      0.88132661521074      3.18601745119457
  H          -2.93105916442235      1.98861073403342      2.08013960356149
  H          -3.87705587919891      0.64028648788799      1.43488214630812
  H          -3.22216687390784      3.77259442300024      3.84729492117070
  H          -4.08949167999629      5.14673640530579      4.54539470809642
  H          -3.86926729495912      5.04132748108830      2.79690654513498
  H          -6.57427042397377      5.40784683600827      4.23688285876053
  H          -7.51210585753399      4.20393918558468      3.34268556790979
  H          -6.40032951324124      5.27672971932222      2.47976990392868
  H          -5.60985570718884      3.63918243714325      5.76772716039525
  H          -4.84596680455341      2.18913221592870      5.10491679518512
  H          -6.59243654622560      2.42553816356686      4.93745501126343
  H          -6.92023630590620      0.74350508902631      3.11211625453550
  H          -6.91777652835734      0.70728924356555      1.34345666216533
  H          -7.82373281306992      1.96527547451681      2.20192196984478
  H          -1.72838244147477      6.77840568959357      0.74895790568554
  H          -3.26550217241793      6.86680563303975     -0.14811333330948
  H          -1.76013816379887      7.46887481916278     -0.89753454359985
  H          -2.92120441059514      3.27509702038864     -3.98099858707751
