69
Coordinates from ORCA-job goat_0_47 E -1780.866157836239
  O      -1.422555      2.523034     -0.399706
  C      -2.045385      2.519952     -1.674781
  H      -1.861995      1.543223     -2.128676
  C      -3.561542      2.702280     -1.548216
  H      -3.932901      2.027466     -0.771279
  O      -4.126733      2.399105     -2.823443
  Si     -5.454244      1.420781     -3.092235
  C      -6.030227      1.860233     -4.807107
  C      -4.927223     -0.391452     -2.994158
  C      -4.500484     -0.743027     -1.563536
  C      -6.099802     -1.291548     -3.405175
  C      -3.746979     -0.629543     -3.943867
  C      -6.754299      1.811645     -1.810975
  C      -3.955276      4.123724     -1.168464
  H      -5.015098      4.236900     -1.406523
  C      -3.826834      4.432711      0.324552
  O      -4.822074      3.695838      1.011598
  Si     -4.534951      2.810917      2.397039
  C      -3.349918      3.752063      3.498254
  C      -6.229195      2.623906      3.206228
  C      -6.726107      3.990514      3.693340
  C      -7.224922      2.072475      2.178185
  C      -6.141875      1.660628      4.396912
  C      -3.801115      1.149710      1.957364
  O      -3.305833      5.092941     -1.996029
  C      -1.916969      4.983386     -2.161756
  H      -1.673375      5.701673     -2.951384
  O      -1.216684      5.307235     -0.977549
  C      -1.331732      6.680620     -0.632005
  C      -1.460968      3.590636     -2.596815
  H      -0.371836      3.561066     -2.522307
  O      -1.797768      3.369530     -3.947535
  H      -1.110567      3.420399     -0.223804
  H      -6.905458      1.273570     -5.093623
  H      -5.248691      1.679800     -5.547019
  H      -6.303018      2.915902     -4.856321
  H      -3.625015     -0.169505     -1.248914
  H      -4.233479     -1.803344     -1.497277
  H      -5.300998     -0.558492     -0.841693
  H      -6.417244     -1.099681     -4.432334
  H      -6.968488     -1.156676     -2.755810
  H      -5.805893     -2.344867     -3.344912
  H      -3.414452     -1.670982     -3.882143
  H      -2.895582      0.007852     -3.695021
  H      -4.016329     -0.431351     -4.984017
  H      -7.580278      1.099144     -1.867521
  H      -7.166425      2.811348     -1.966881
  H      -6.351719      1.778810     -0.795892
  H      -2.830412      4.203657      0.702774
  H      -4.001735      5.503948      0.464308
  H      -3.692829      4.777219      3.652725
  H      -2.345107      3.789036      3.071335
  H      -3.267342      3.274996      4.477962
  H      -7.738557      3.898353      4.102058
  H      -6.759213      4.715439      2.876684
  H      -6.088987      4.396822      4.482613
  H      -6.914322      1.097986      1.790720
  H      -7.333280      2.753192      1.331746
  H      -8.210249      1.943677      2.640100
  H      -7.120612      1.572466      4.880485
  H      -5.435230      2.007731      5.155593
  H      -5.838129      0.657744      4.088038
  H      -4.480296      0.559862      1.336144
  H      -3.588059      0.570573      2.859506
  H      -2.863086      1.274472      1.409741
  H      -0.785933      6.831754      0.295584
  H      -2.375218      6.967814     -0.494272
  H      -0.893672      7.303836     -1.416892
  H      -2.732356      3.114485     -3.969759
69
Coordinates from ORCA-job goat_0_47 E -1780.866890847047
  O      -1.324531      2.497337     -0.469364
  C      -2.011043      2.518273     -1.715513
  H      -1.858803      1.543588     -2.185929
  C      -3.522285      2.713679     -1.528079
  H      -3.868078      2.047796     -0.734998
  O      -4.135947      2.392737     -2.774755
  Si     -5.447493      1.371448     -2.960183
  C      -6.227316      1.895708     -4.569019
  C      -4.848471     -0.420185     -3.045967
  C      -4.206274     -0.836382     -1.714765
  C      -6.040895     -1.341756     -3.338197
  C      -3.815539     -0.562279     -4.172608
  C      -6.612533      1.622704     -1.520549
  C      -3.912068      4.143031     -1.158554
  H      -4.970280      4.256862     -1.404609
  C      -3.803082      4.461274      0.334855
  O      -4.832935      3.744256      0.994824
  Si     -4.606478      2.850553      2.386226
  C      -3.438232      3.764828      3.528070
  C      -6.329271      2.691225      3.138097
  C      -6.821834      4.069221      3.601924
  C      -7.299857      2.138297      2.083347
  C      -6.286818      1.737503      4.339090
  C      -3.893114      1.175156      1.964503
  O      -3.256239      5.114271     -1.985022
  C      -1.868568      4.985818     -2.172526
  H      -1.622870      5.722300     -2.944845
  O      -1.134603      5.252487     -0.994285
  C      -1.189713      6.617611     -0.588941
  C      -1.455643      3.592696     -2.653612
  H      -0.363956      3.545600     -2.638341
  O      -1.876381      3.391487     -3.989604
  H      -0.995707      3.387895     -0.287178
  H      -7.108939      1.289833     -4.795311
  H      -5.526106      1.795626     -5.402125
  H      -6.541749      2.941981     -4.514377
  H      -3.309410     -0.250252     -1.495659
  H      -3.903564     -1.889974     -1.755126
  H      -4.896941     -0.722337     -0.873844
  H      -6.512593     -1.103299     -4.296053
  H      -6.807912     -1.277255     -2.560208
  H      -5.706873     -2.385415     -3.385835
  H      -3.448113     -1.594637     -4.221511
  H      -2.953859      0.092052     -4.014195
  H      -4.244854     -0.318400     -5.149097
  H      -7.421427      0.886723     -1.544915
  H      -7.064319      2.618492     -1.556806
  H      -6.102216      1.525493     -0.558566
  H      -2.821455      4.218784      0.738886
  H      -3.965444      5.535692      0.466157
  H      -3.763802      4.798567      3.674791
  H      -2.419044      3.780670      3.131203
  H      -3.399982      3.281145      4.508907
  H      -7.845527      3.992682      3.988541
  H      -6.827854      4.789418      2.778238
  H      -6.195577      4.474753      4.401911
  H      -6.984371      1.157348      1.714040
  H      -7.379492      2.810928      1.225397
  H      -8.300510      2.021519      2.517544
  H      -7.281565      1.664102      4.795605
  H      -5.595694      2.085544      5.113457
  H      -5.983563      0.728271      4.045474
  H      -4.567342      0.600738      1.322461
  H      -3.716257      0.591886      2.873446
  H      -2.938934      1.284893      1.441980
  H      -0.611284      6.706085      0.329964
  H      -2.218381      6.935470     -0.404869
  H      -0.748817      7.258291     -1.360775
  H      -2.814529      3.145153     -3.958262
69
Coordinates from ORCA-job goat_0_47 E -1780.867346682177
  O      -1.362359      2.486689     -0.478297
  C      -2.036145      2.522462     -1.732914
  H      -1.875757      1.554510     -2.214371
  C      -3.550663      2.710962     -1.560778
  H      -3.903846      2.033615     -0.782320
  O      -4.141420      2.401453     -2.823488
  Si     -5.452503      1.385132     -3.054769
  C      -6.120565      1.865810     -4.727977
  C      -4.870519     -0.414367     -3.044175
  C      -4.316343     -0.791643     -1.662251
  C      -6.056529     -1.332211     -3.375993
  C      -3.772733     -0.607958     -4.100849
  C      -6.707932      1.694202     -1.705115
  C      -3.946487      4.137618     -1.177781
  H      -5.003172      4.251498     -1.430050
  C      -3.837533      4.449496      0.318954
  O      -4.854036      3.727117      0.998255
  Si     -4.586574      2.847068      2.392534
  C      -3.395570      3.781387      3.494597
  C      -6.284806      2.678647      3.199130
  C      -6.790344      4.063253      3.630641
  C      -7.279521      2.064031      2.202511
  C      -6.178965      1.771497      4.432396
  C      -3.867960      1.174316      1.965450
  O      -3.283627      5.121866     -1.986426
  C      -1.890864      4.998132     -2.148965
  H      -1.628395      5.754116     -2.896532
  O      -1.177920      5.228022     -0.951531
  C      -1.223905      6.582073     -0.501588
  C      -1.474628      3.612836     -2.651407
  H      -0.382821      3.566235     -2.634877
  O      -1.892690      3.431330     -3.994846
  H      -1.059743      3.380560     -0.265364
  H      -6.993077      1.260020     -4.990608
  H      -5.367292      1.732516     -5.510718
  H      -6.426551      2.917098     -4.724904
  H      -3.429884     -0.204434     -1.404720
  H      -4.021459     -1.848837     -1.652138
  H      -5.058598     -0.647261     -0.871280
  H      -6.469746     -1.118721     -4.367181
  H      -6.865235     -1.233681     -2.644363
  H      -5.732068     -2.380681     -3.371019
  H      -3.417447     -1.646580     -4.090494
  H      -2.912549      0.041995     -3.912361
  H      -4.140660     -0.394558     -5.109673
  H      -7.529478      0.974014     -1.770862
  H      -7.132820      2.698952     -1.795274
  H      -6.267899      1.604869     -0.710066
  H      -2.849804      4.214808      0.715033
  H      -4.007233      5.522373      0.453251
  H      -3.724304      4.814947      3.640921
  H      -2.387720      3.800286      3.068224
  H      -3.329438      3.304799      4.478092
  H      -7.796034      3.979903      4.062043
  H      -6.846339      4.752337      2.781642
  H      -6.139886      4.511963      4.387856
  H      -6.959398      1.072116      1.868366
  H      -7.398800      2.694064      1.317362
  H      -8.264011      1.953246      2.675052
  H      -7.156116      1.693579      4.926354
  H      -5.468058      2.164481      5.167142
  H      -5.861650      0.758881      4.163827
  H      -4.554193      0.588748      1.346556
  H      -3.659508      0.602283      2.875379
  H      -2.929928      1.290605      1.415191
  H      -0.654320      6.630040      0.427099
  H      -2.251760      6.903481     -0.315574
  H      -0.766177      7.243066     -1.246940
  H      -2.828846      3.175142     -3.969057
69
Coordinates from ORCA-job goat_0_47 E -1780.867524271678
  O      -1.383865      2.495944     -0.454109
  C      -2.044909      2.521404     -1.714044
  H      -1.883536      1.548545     -2.183957
  C      -3.559066      2.716770     -1.553636
  H      -3.919213      2.046384     -0.771033
  O      -4.148971      2.402562     -2.816325
  Si     -5.457401      1.379435     -3.042205
  C      -6.138592      1.867824     -4.708734
  C      -4.866538     -0.417027     -3.044620
  C      -4.306763     -0.800807     -1.667117
  C      -6.050236     -1.338148     -3.377422
  C      -3.770855     -0.599533     -4.104982
  C      -6.705506      1.675483     -1.682264
  C      -3.946178      4.145950     -1.179289
  H      -5.001679      4.264325     -1.433769
  C      -3.832135      4.459237      0.314859
  O      -4.855647      3.747354      0.994417
  Si     -4.588873      2.857360      2.383067
  C      -3.396633      3.782201      3.492470
  C      -6.286986      2.681772      3.188411
  C      -6.791951      4.062026      3.633069
  C      -7.283029      2.076484      2.188658
  C      -6.179095      1.761988      4.412948
  C      -3.869354      1.188229      1.941273
  O      -3.276872      5.124168     -1.990346
  C      -1.883715      4.993392     -2.145912
  H      -1.615433      5.745405     -2.894999
  O      -1.175849      5.227507     -0.948231
  C      -1.209716      6.586484     -0.512995
  C      -1.472567      3.602719     -2.636507
  H      -0.381580      3.550639     -2.618436
  O      -1.886054      3.414733     -3.980163
  H      -1.107612      3.397769     -0.237378
  H      -7.008455      1.258192     -4.969366
  H      -5.389765      1.745097     -5.496243
  H      -6.451236      2.916206     -4.695261
  H      -3.425916     -0.207912     -1.404596
  H      -4.002577     -1.854860     -1.667864
  H      -5.050021     -0.671398     -0.874937
  H      -6.470386     -1.117727     -4.363432
  H      -6.853868     -1.250447     -2.639768
  H      -5.719788     -2.384120     -3.384059
  H      -3.410754     -1.635865     -4.099941
  H      -2.913723      0.053594     -3.915680
  H      -4.143212     -0.383798     -5.110941
  H      -7.532898      0.964046     -1.759429
  H      -7.120594      2.685165     -1.753860
  H      -6.263069      1.562693     -0.690137
  H      -2.845872      4.212602      0.709246
  H      -3.990720      5.533592      0.448238
  H      -3.723075      4.814570      3.647444
  H      -2.389914      3.802647      3.064953
  H      -3.331257      3.296670      4.470861
  H      -7.794174      3.973937      4.070447
  H      -6.854635      4.757053      2.790212
  H      -6.136883      4.505631      4.388731
  H      -6.963722      1.087322      1.846598
  H      -7.403698      2.713329      1.308549
  H      -8.266513      1.963213      2.661644
  H      -7.155638      1.676644      4.905376
  H      -5.469453      2.148903      5.151193
  H      -5.859180      0.753628      4.133551
  H      -4.555606      0.608757      1.317464
  H      -3.659950      0.609500      2.846070
  H      -2.931582      1.310712      1.391699
  H      -0.641325      6.636618      0.415224
  H      -2.234500      6.918270     -0.331417
  H      -0.744618      7.233545     -1.264428
  H      -2.820175      3.151024     -3.952877
69
Coordinates from ORCA-job goat_0_47 E -1780.867628931582
  O      -1.367752      2.491032     -0.477234
  C      -2.043111      2.522500     -1.727967
  H      -1.889954      1.549638     -2.199823
  C      -3.555345      2.723722     -1.553298
  H      -3.910742      2.054976     -0.766565
  O      -4.160595      2.410702     -2.809414
  Si     -5.461863      1.371506     -3.016074
  C      -6.179528      1.866759     -4.666253
  C      -4.849326     -0.417022     -3.042100
  C      -4.271722     -0.807892     -1.674197
  C      -6.026382     -1.348752     -3.370801
  C      -3.762242     -0.576454     -4.114493
  C      -6.687644      1.643474     -1.630415
  C      -3.936311      4.152817     -1.176463
  H      -4.991106      4.274367     -1.431974
  C      -3.822202      4.462054      0.317973
  O      -4.859335      3.764159      0.991882
  Si     -4.603366      2.864186      2.377147
  C      -3.408917      3.773951      3.497468
  C      -6.305501      2.692377      3.174361
  C      -6.804550      4.071741      3.627273
  C      -7.301810      2.099049      2.168874
  C      -6.205127      1.762583      4.392832
  C      -3.890356      1.193956      1.926094
  O      -3.265864      5.131100     -1.987145
  C      -1.873714      4.993396     -2.151205
  H      -1.607005      5.750941     -2.894987
  O      -1.159173      5.216509     -0.956837
  C      -1.177037      6.574817     -0.518333
  C      -1.475478      3.603266     -2.652909
  H      -0.385003      3.544836     -2.652481
  O      -1.908873      3.423526     -3.991679
  H      -1.110606      3.397168     -0.253508
  H      -7.045003      1.247202     -4.916517
  H      -5.443437      1.762764     -5.467464
  H      -6.506473      2.909739     -4.634975
  H      -3.401814     -0.201040     -1.408054
  H      -3.946742     -1.855178     -1.693064
  H      -5.012866     -0.705808     -0.876353
  H      -6.462161     -1.121396     -4.347860
  H      -6.819928     -1.279859     -2.621005
  H      -5.682587     -2.389721     -3.394655
  H      -3.389961     -1.607971     -4.121293
  H      -2.911589      0.085273     -3.927681
  H      -4.147751     -0.356986     -5.114224
  H      -7.523043      0.943232     -1.717794
  H      -7.091116      2.659105     -1.669868
  H      -6.233496      1.497012     -0.647738
  H      -2.841887      4.199731      0.715974
  H      -3.966042      5.538006      0.452895
  H      -3.727066      4.807394      3.658921
  H      -2.401600      3.788881      3.072121
  H      -3.351042      3.279635      4.471401
  H      -7.805117      3.984671      4.067861
  H      -6.868094      4.770827      2.788423
  H      -6.145217      4.509177      4.382463
  H      -6.987473      1.109647      1.823526
  H      -7.416146      2.740364      1.291135
  H      -8.287255      1.990624      2.638182
  H      -7.183954      1.675384      4.879199
  H      -5.498495      2.142150      5.137124
  H      -5.885786      0.756414      4.106420
  H      -4.577400      0.624001      1.294804
  H      -3.687485      0.608498      2.827587
  H      -2.949819      1.317071      1.381536
  H      -0.598563      6.616029      0.403328
  H      -2.197125      6.913222     -0.324785
  H      -0.714522      7.217725     -1.273712
  H      -2.839563      3.148800     -3.949644
69
Coordinates from ORCA-job goat_0_47 E -1780.867671989414
  O      -1.360534      2.478246     -0.494350
  C      -2.047355      2.519069     -1.738676
  H      -1.903936      1.546351     -2.213879
  C      -3.557417      2.728925     -1.553954
  H      -3.911239      2.061654     -0.765445
  O      -4.173090      2.419169     -2.806001
  Si     -5.465071      1.363780     -2.998635
  C      -6.215772      1.864453     -4.632895
  C      -4.830751     -0.416261     -3.047523
  C      -4.224414     -0.810281     -1.692674
  C      -6.002627     -1.359656     -3.361587
  C      -3.762378     -0.555432     -4.141226
  C      -6.670510      1.611354     -1.590784
  C      -3.930138      4.159190     -1.173337
  H      -4.984651      4.286467     -1.427245
  C      -3.812513      4.463838      0.321836
  O      -4.860983      3.779394      0.992688
  Si     -4.614793      2.872039      2.375812
  C      -3.418432      3.769191      3.504680
  C      -6.320641      2.706354      3.165800
  C      -6.815903      4.087058      3.618666
  C      -7.315703      2.117458      2.156674
  C      -6.227788      1.775068      4.384022
  C      -3.908553      1.199979      1.918827
  O      -3.256901      5.135593     -1.983696
  C      -1.865919      4.989245     -2.152848
  H      -1.596863      5.750597     -2.891981
  O      -1.148704      5.200655     -0.957922
  C      -1.155975      6.557237     -0.512455
  C      -1.480351      3.599178     -2.664414
  H      -0.390255      3.533017     -2.674684
  O      -1.927802      3.429384     -4.000392
  H      -1.110910      3.384895     -0.263154
  H      -7.076843      1.235537     -4.874924
  H      -5.490901      1.778048     -5.446461
  H      -6.555818      2.902710     -4.585350
  H      -3.361162     -0.191148     -1.433295
  H      -3.881821     -1.851617     -1.727571
  H      -4.954736     -0.728841     -0.882564
  H      -6.458412     -1.131509     -4.329310
  H      -6.782958     -1.304206     -2.596802
  H      -5.647047     -2.396393     -3.397622
  H      -3.379155     -1.582795     -4.162728
  H      -2.915829      0.114216     -3.965346
  H      -4.169269     -0.332403     -5.131837
  H      -7.512751      0.920281     -1.687164
  H      -7.064876      2.631289     -1.600729
  H      -6.206143      1.436375     -0.617745
  H      -2.836759      4.186151      0.721124
  H      -3.940831      5.541430      0.459339
  H      -3.729043      4.804204      3.670592
  H      -2.409933      3.778143      3.081749
  H      -3.367401      3.268518      4.475844
  H      -7.816802      4.002574      4.059155
  H      -6.877493      4.786140      2.779573
  H      -6.155801      4.522833      4.374267
  H      -7.005678      1.125457      1.814813
  H      -7.422083      2.757419      1.276936
  H      -8.304115      2.016172      2.621494
  H      -7.209450      1.689252      4.865005
  H      -5.524358      2.152625      5.132452
  H      -5.908969      0.768633      4.097843
  H      -4.595054      0.638980      1.278606
  H      -3.715085      0.607819      2.817998
  H      -2.963449      1.321659      1.381988
  H      -0.571178      6.590423      0.405666
  H      -2.173194      6.899745     -0.310821
  H      -0.694798      7.200430     -1.268479
  H      -2.857090      3.150254     -3.950981
69
Coordinates from ORCA-job goat_0_47 E -1780.867697928665
  O      -1.360515      2.466384     -0.506389
  C      -2.052620      2.516249     -1.747835
  H      -1.913524      1.545429     -2.228252
  C      -3.561979      2.729067     -1.558992
  H      -3.916162      2.059546     -0.772676
  O      -4.179778      2.426027     -2.811785
  Si     -5.466768      1.364078     -3.006232
  C      -6.215877      1.860018     -4.642535
  C      -4.825554     -0.413423     -3.050559
  C      -4.215811     -0.802192     -1.695581
  C      -5.994697     -1.361625     -3.360112
  C      -3.759400     -0.551898     -4.146566
  C      -6.675758      1.609856     -1.601790
  C      -3.931570      4.158840     -1.171750
  H      -4.986272      4.289046     -1.423617
  C      -3.812446      4.457902      0.324975
  O      -4.863402      3.777189      0.996244
  Si     -4.616610      2.872205      2.381440
  C      -3.419729      3.771257      3.508240
  C      -6.321952      2.709066      3.172980
  C      -6.817286      4.091286      3.621306
  C      -7.317902      2.116606      2.166757
  C      -6.228346      1.782384      4.394545
  C      -3.909482      1.199530      1.927478
  O      -3.257547      5.136464     -1.979658
  C      -1.867007      4.987825     -2.151678
  H      -1.597412      5.751249     -2.888546
  O      -1.148174      5.193841     -0.956096
  C      -1.150861      6.549731     -0.507863
  C      -1.485237      3.599245     -2.669999
  H      -0.395178      3.530174     -2.681825
  O      -1.935208      3.437938     -4.006156
  H      -1.110423      3.371460     -0.269510
  H      -7.073382      1.226995     -4.886748
  H      -5.488198      1.776913     -5.454162
  H      -6.560785      2.896896     -4.595905
  H      -3.354996     -0.178931     -1.438094
  H      -3.868603     -1.842168     -1.728487
  H      -4.945490     -0.721617     -0.884779
  H      -6.451462     -1.139541     -4.328917
  H      -6.775102     -1.304581     -2.595259
  H      -5.636360     -2.397712     -3.391039
  H      -3.373841     -1.578514     -4.167587
  H      -2.913944      0.120005     -3.974005
  H      -4.169068     -0.330891     -5.136650
  H      -7.524464      0.928309     -1.710324
  H      -7.059685      2.633945     -1.603601
  H      -6.218184      1.420920     -0.628435
  H      -2.837969      4.174617      0.723521
  H      -3.935090      5.535761      0.465645
  H      -3.729545      4.806747      3.673170
  H      -2.411425      3.778730      3.084464
  H      -3.367974      3.271531      4.480024
  H      -7.817710      4.007778      4.063312
  H      -6.880315      4.786932      2.779316
  H      -6.157014      4.530630      4.374815
  H      -7.008771      1.122947      1.828739
  H      -7.424335      2.753191      1.284651
  H      -8.306182      2.017534      2.632570
  H      -7.210344      1.697304      4.875341
  H      -5.525914      2.163504      5.142247
  H      -5.908501      0.775042      4.112338
  H      -4.594164      0.638407      1.285359
  H      -3.718730      0.607593      2.827494
  H      -2.962587      1.320618      1.393733
  H      -0.563184      6.580554      0.408703
  H      -2.166725      6.894510     -0.303151
  H      -0.690469      7.193284     -1.264394
  H      -2.864156      3.157609     -3.957905
69
Coordinates from ORCA-job goat_0_47 E -1780.867712149517
  O      -1.365412      2.456575     -0.513179
  C      -2.060397      2.513701     -1.753060
  H      -1.925194      1.544347     -2.237486
  C      -3.568963      2.730027     -1.561539
  H      -3.924456      2.059741     -0.776306
  O      -4.188587      2.432753     -2.814829
  Si     -5.468744      1.362195     -3.010544
  C      -6.219459      1.854019     -4.646965
  C      -4.818930     -0.412143     -3.054262
  C      -4.204466     -0.798577     -1.700860
  C      -5.984986     -1.365322     -3.360361
  C      -3.755267     -0.546607     -4.153328
  C      -6.679866      1.602525     -1.607615
  C      -3.933901      4.160173     -1.169898
  H      -4.989113      4.293967     -1.417982
  C      -3.810257      4.454220      0.327486
  O      -4.864331      3.778427      0.998907
  Si     -4.617649      2.873586      2.384694
  C      -3.418505      3.771105      3.510146
  C      -6.322558      2.714518      3.177785
  C      -6.815762      4.098536      3.623209
  C      -7.320018      2.121493      2.173121
  C      -6.230098      1.790733      4.401388
  C      -3.912374      1.200322      1.930352
  O      -3.258782      5.137755     -1.976236
  C      -1.868812      4.986212     -2.149339
  H      -1.596998      5.750149     -2.884812
  O      -1.149420      5.187212     -0.952665
  C      -1.148172      6.542348     -0.502148
  C      -1.490779      3.598373     -2.672022
  H      -0.400853      3.525821     -2.682924
  O      -1.941302      3.443925     -4.008511
  H      -1.113149      3.359562     -0.271219
  H      -7.071882      1.215107     -4.893787
  H      -5.489772      1.777788     -5.457605
  H      -6.572030      2.888410     -4.599218
  H      -3.345420     -0.172249     -1.445117
  H      -3.853211     -1.837201     -1.734207
  H      -4.932438     -0.720219     -0.888324
  H      -6.443650     -1.147402     -4.329358
  H      -6.765099     -1.309183     -2.594955
  H      -5.623298     -2.400382     -3.389138
  H      -3.366357     -1.571995     -4.176363
  H      -2.911297      0.128044     -3.983127
  H      -4.168257     -0.326066     -5.142174
  H      -7.536346      0.933128     -1.730449
  H      -7.051559      2.631174     -1.596534
  H      -6.229220      1.394942     -0.634904
  H      -2.836907      4.163240      0.723691
  H      -3.924931      5.532576      0.471485
  H      -3.726267      4.807083      3.676157
  H      -2.410560      3.776785      3.085223
  H      -3.365896      3.270796      4.481714
  H      -7.816235      4.017180      4.065701
  H      -6.878213      4.792094      2.779360
  H      -6.155176      4.539120      4.375765
  H      -7.012655      1.126691      1.836719
  H      -7.425929      2.756817      1.290053
  H      -8.308173      2.024278      2.639739
  H      -7.212546      1.707696      4.881941
  H      -5.527982      2.173130      5.148819
  H      -5.911232      0.782168      4.122129
  H      -4.596617      0.640950      1.286284
  H      -3.724144      0.606628      2.829840
  H      -2.964233      1.320175      1.398408
  H      -0.558778      6.571203      0.413500
  H      -2.162898      6.889650     -0.295622
  H      -0.687689      7.186489     -1.258400
  H      -2.870706      3.165294     -3.962283
69
Coordinates from ORCA-job goat_0_47 E -1780.867718403576
  O      -1.369060      2.454207     -0.514876
  C      -2.064293      2.513519     -1.754461
  H      -1.930005      1.544898     -2.240459
  C      -3.572539      2.730873     -1.561892
  H      -3.928691      2.060499     -0.776930
  O      -4.193459      2.436413     -2.815196
  Si     -5.469130      1.360583     -3.011363
  C      -6.221548      1.850080     -4.647372
  C      -4.814953     -0.412227     -3.056091
  C      -4.197733     -0.798992     -1.704183
  C      -5.979959     -1.367203     -3.360791
  C      -3.752807     -0.544066     -4.156988
  C      -6.681284      1.596889     -1.608821
  C      -3.935112      4.161173     -1.168364
  H      -4.990692      4.296485     -1.413959
  C      -3.808924      4.452127      0.329415
  O      -4.864654      3.778073      1.000054
  Si     -4.618644      2.873243      2.386088
  C      -3.417622      3.769019      3.510718
  C      -6.323408      2.717627      3.180049
  C      -6.813831      4.102876      3.624831
  C      -7.322186      2.126359      2.175518
  C      -6.232835      1.794213      4.403889
  C      -3.915912      1.199344      1.931142
  O      -3.259964      5.138998     -1.974174
  C      -1.870415      4.986676     -2.148331
  H      -1.598037      5.750009     -2.884162
  O      -1.149461      5.186602     -0.952331
  C      -1.145018      6.541797     -0.502590
  C      -1.493636      3.598879     -2.672076
  H      -0.403814      3.525074     -2.681636
  O      -1.943505      3.446215     -4.008716
  H      -1.113843      3.355920     -0.271792
  H      -7.070078      1.206890     -4.896305
  H      -5.490782      1.779517     -5.457536
  H      -6.580022      2.882391     -4.598476
  H      -3.338698     -0.172261     -1.449461
  H      -3.845614     -1.837245     -1.738744
  H      -4.924214     -0.721832     -0.890220
  H      -6.439910     -1.150258     -4.329404
  H      -6.759651     -1.312126     -2.594893
  H      -5.616969     -2.401769     -3.389895
  H      -3.362132     -1.568725     -4.181691
  H      -2.909586      0.131857     -3.987813
  H      -4.167632     -0.323447     -5.145010
  H      -7.543257      0.936367     -1.740808
  H      -7.044480      2.628443     -1.588295
  H      -6.235272      1.376147     -0.636830
  H      -2.836112      4.157060      0.724002
  H      -3.919660      5.530558      0.475836
  H      -3.723907      4.805276      3.677612
  H      -2.409895      3.773641      3.085288
  H      -3.364593      3.268401      4.482111
  H      -7.814674      4.023683      4.066865
  H      -6.874463      4.796217      2.780712
  H      -6.152776      4.542419      4.377548
  H      -7.016281      1.131413      1.838254
  H      -7.427753      2.762586      1.293067
  H      -8.310138      2.029803      2.642663
  H      -7.215431      1.713296      4.884525
  H      -5.530110      2.175603      5.151237
  H      -5.916010      0.784782      4.125402
  H      -4.600874      0.641153      1.286822
  H      -3.728572      0.604517      2.830072
  H      -2.967698      1.317692      1.398922
  H      -0.554682      6.570273      0.412440
  H      -2.158696      6.891761     -0.295373
  H      -0.683944      7.185050     -1.259262
  H      -2.873620      3.170292     -3.963553
69
Coordinates from ORCA-job goat_0_47 E -1780.867707645080
  O      -1.371671      2.453363     -0.515717
  C      -2.066115      2.513701     -1.755503
  H      -1.931791      1.545631     -2.242520
  C      -3.574203      2.731559     -1.562435
  H      -3.930711      2.061241     -0.777520
  O      -4.196365      2.438454     -2.815455
  Si     -5.468979      1.359233     -3.011226
  C      -6.223322      1.847285     -4.646661
  C      -4.812198     -0.412706     -3.057257
  C      -4.191789     -0.799670     -1.706945
  C      -5.977197     -1.368475     -3.359730
  C      -3.752172     -0.543219     -4.160311
  C      -6.681330      1.592323     -1.608171
  C      -3.935500      4.161913     -1.168027
  H      -4.991206      4.298073     -1.412448
  C      -3.807789      4.451322      0.329907
  O      -4.864318      3.777679      0.999798
  Si     -4.619210      2.873301      2.386240
  C      -3.416894      3.767908      3.510269
  C      -6.323981      2.720304      3.180696
  C      -6.811759      4.106331      3.625931
  C      -7.323956      2.131321      2.175964
  C      -6.234931      1.796175      4.404041
  C      -3.918899      1.198658      1.931222
  O      -3.260368      5.139934     -1.973502
  C      -1.871097      4.987288     -2.147554
  H      -1.598022      5.750795     -2.882932
  O      -1.149992      5.185821     -0.951649
  C      -1.145126      6.540260     -0.500276
  C      -1.494834      3.599590     -2.672154
  H      -0.405086      3.525392     -2.681148
  O      -1.944360      3.447215     -4.008858
  H      -1.113311      3.354162     -0.272834
  H      -7.068604      1.200532     -4.897171
  H      -5.491982      1.781644     -5.456675
  H      -6.586830      2.877750     -4.596630
  H      -3.332257     -0.172887     -1.454007
  H      -3.839580     -1.837825     -1.742751
  H      -4.916343     -0.723274     -0.891216
  H      -6.439362     -1.151625     -4.327262
  H      -6.755396     -1.314285     -2.592319
  H      -5.613472     -2.402703     -3.390097
  H      -3.360180     -1.567322     -4.185835
  H      -2.909453      0.133737     -3.992874
  H      -4.169256     -0.323324     -5.147501
  H      -7.547011      0.937853     -1.745698
  H      -7.038868      2.625684     -1.580867
  H      -6.238021      1.362402     -0.636996
  H      -2.835181      4.154206      0.723373
  H      -3.916787      5.529723      0.477830
  H      -3.722243      4.804387      3.677366
  H      -2.409236      3.771854      3.084781
  H      -3.363965      3.267458      4.481722
  H      -7.812947      4.028981      4.067433
  H      -6.870541      4.800303      2.782255
  H      -6.149990      4.544014      4.379062
  H      -7.019201      1.136604      1.837063
  H      -7.429519      2.769033      1.294573
  H      -8.311653      2.035050      2.643634
  H      -7.217403      1.716968      4.885123
  H      -5.531072      2.175842      5.151169
  H      -5.920169      0.786245      4.125098
  H      -4.605032      0.641013      1.287657
  H      -3.731457      0.603519      2.829895
  H      -2.971171      1.315555      1.397794
  H      -0.555344      6.567178      0.415123
  H      -2.158684      6.890653     -0.293005
  H      -0.683236      7.184541     -1.255510
  H      -2.875237      3.173962     -3.963808
69
Coordinates from ORCA-job goat_0_47 E -1780.867724824720
  O      -1.373230      2.453557     -0.515741
  C      -2.066862      2.513936     -1.755840
  H      -1.932372      1.546030     -2.243141
  C      -3.574822      2.732229     -1.562568
  H      -3.931453      2.061956     -0.777632
  O      -4.197908      2.439598     -2.815299
  Si     -5.468734      1.358553     -3.010544
  C      -6.224660      1.846131     -4.645455
  C      -4.810307     -0.412831     -3.057769
  C      -4.186709     -0.799462     -1.708825
  C      -5.975497     -1.369247     -3.357626
  C      -3.752520     -0.542712     -4.162977
  C      -6.680842      1.589140     -1.606618
  C      -3.935426      4.162603     -1.167769
  H      -4.991020      4.299269     -1.412264
  C      -3.807621      4.451363      0.330277
  O      -4.864358      3.777233      0.999445
  Si     -4.620183      2.873397      2.386295
  C      -3.417577      3.767586      3.510303
  C      -6.325139      2.721502      3.180678
  C      -6.811156      4.107596      3.627573
  C      -7.325886      2.134904      2.175342
  C      -6.237022      1.795737      4.402872
  C      -3.921194      1.198245      1.931525
  O      -3.260044      5.140673     -1.973149
  C      -1.870934      4.987554     -2.147673
  H      -1.597843      5.751192     -2.882953
  O      -1.148962      5.185415     -0.952395
  C      -1.142708      6.539557     -0.500395
  C      -1.495431      3.599719     -2.672520
  H      -0.405715      3.525364     -2.682173
  O      -1.945451      3.446884     -4.009073
  H      -1.112829      3.354084     -0.273938
  H      -7.067566      1.196768     -4.897109
  H      -5.492976      1.784255     -5.455437
  H      -6.591899      2.875206     -4.594349
  H      -3.326851     -0.172341     -1.457899
  H      -3.834273     -1.837510     -1.745587
  H      -4.909416     -0.723667     -0.891421
  H      -6.440289     -1.152376     -4.323862
  H      -6.751709     -1.315869     -2.588197
  H      -5.611034     -2.403159     -3.389359
  H      -3.359450     -1.566387     -4.188798
  H      -2.910201      0.135194     -3.997472
  H      -4.171929     -0.323832     -5.149388
  H      -7.548163      0.937376     -1.746515
  H      -7.035905      2.623236     -1.575564
  H      -6.238366      1.354487     -0.636165
  H      -2.835091      4.153757      0.723439
  H      -3.916655      5.529630      0.478981
  H      -3.722671      4.804196      3.677058
  H      -2.409770      3.771297      3.085241
  H      -3.365243      3.267502      4.481960
  H      -7.812640      4.031148      4.068510
  H      -6.868512      4.802942      2.784947
  H      -6.148884      4.543117      4.381505
  H      -7.021845      1.140668      1.834458
  H      -7.431541      2.774343      1.295203
  H      -8.313428      2.038528      2.643293
  H      -7.219302      1.717396      4.884401
  H      -5.532059      2.173380      5.149984
  H      -5.923835      0.785747      4.122442
  H      -4.608336      0.640553      1.289057
  H      -3.732950      0.603375      2.830188
  H      -2.974139      1.314379      1.396734
  H      -0.553396      6.565079      0.415330
  H      -2.155896      6.891029     -0.293249
  H      -0.679598      7.183694     -1.254956
  H      -2.876926      3.175715     -3.963419
69
Coordinates from ORCA-job goat_0_47 E -1780.867722813598
  O      -1.373631      2.453535     -0.515757
  C      -2.066571      2.513996     -1.756219
  H      -1.931699      1.546287     -2.243819
  C      -3.574571      2.732271     -1.563083
  H      -3.931161      2.061883     -0.778218
  O      -4.198009      2.439715     -2.815711
  Si     -5.468406      1.358473     -3.010886
  C      -6.224076      1.845840     -4.646101
  C      -4.809983     -0.412961     -3.057765
  C      -4.185000     -0.798795     -1.709194
  C      -5.975616     -1.369459     -3.355700
  C      -3.753322     -0.543620     -4.163918
  C      -6.680818      1.588675     -1.606985
  C      -3.935350      4.162559     -1.168207
  H      -4.990811      4.299209     -1.413318
  C      -3.807952      4.451524      0.329792
  O      -4.864269      3.776616      0.998850
  Si     -4.620334      2.873648      2.386199
  C      -3.417917      3.768434      3.509946
  C      -6.325282      2.721863      3.180749
  C      -6.810307      4.107640      3.629658
  C      -7.326712      2.137183      2.175023
  C      -6.237222      1.794389      4.401702
  C      -3.921645      1.198175      1.932109
  O      -3.259818      5.140712     -1.973453
  C      -1.870675      4.987594     -2.147769
  H      -1.597596      5.751691     -2.882608
  O      -1.149002      5.184947     -0.952318
  C      -1.143511      6.538685     -0.499072
  C      -1.495140      3.599856     -2.672766
  H      -0.405406      3.525813     -2.682964
  O      -1.945244      3.446621     -4.009322
  H      -1.112152      3.354021     -0.274817
  H      -7.065552      1.195054     -4.898865
  H      -5.491598      1.785829     -5.455507
  H      -6.593298      2.874193     -4.594804
  H      -3.324683     -0.171762     -1.459777
  H      -3.833010     -1.837013     -1.745715
  H      -4.906740     -0.722313     -0.891010
  H      -6.441988     -1.152757     -4.321205
  H      -6.750484     -1.315998     -2.584941
  H      -5.611031     -2.403319     -3.387851
  H      -3.360020     -1.567222     -4.189109
  H      -2.911031      0.134640     -3.999739
  H      -4.173808     -0.325766     -5.150095
  H      -7.548806      0.937977     -1.747664
  H      -7.034739      2.623128     -1.574903
  H      -6.238775      1.352361     -0.636732
  H      -2.835264      4.154519      0.722967
  H      -3.917892      5.529704      0.478471
  H      -3.723237      4.805136      3.675796
  H      -2.409945      3.772082      3.085306
  H      -3.366087      3.269115      4.482018
  H      -7.811949      4.031395      4.070250
  H      -6.866879      4.804427      2.788150
  H      -6.147732      4.541349      4.384369
  H      -7.023069      1.143500      1.832205
  H      -7.432830      2.778199      1.296079
  H      -8.314013      2.040356      2.643393
  H      -7.219167      1.716464      4.883941
  H      -5.531128      2.170227      5.148669
  H      -5.925300      0.784501      4.119532
  H      -4.609575      0.639845      1.291035
  H      -3.732050      0.604104      2.831005
  H      -2.975358      1.314066      1.395915
  H      -0.555414      6.563298      0.417458
  H      -2.157044      6.889669     -0.292793
  H      -0.679510      7.183465     -1.252510
  H      -2.876952      3.176138     -3.963438
69
Coordinates from ORCA-job goat_0_47 E -1780.867728029971
  O      -1.373620      2.453440     -0.515905
  C      -2.066492      2.514006     -1.756467
  H      -1.931598      1.546367     -2.244224
  C      -3.574485      2.732289     -1.563293
  H      -3.930927      2.061771     -0.778479
  O      -4.198038      2.439726     -2.815884
  Si     -5.468250      1.358393     -3.011091
  C      -6.223779      1.845863     -4.646433
  C      -4.809608     -0.412959     -3.057819
  C      -4.183336     -0.797998     -1.709578
  C      -5.975300     -1.369893     -3.354159
  C      -3.753913     -0.543938     -4.164861
  C      -6.680692      1.588235     -1.607105
  C      -3.935358      4.162539     -1.168291
  H      -4.990720      4.299191     -1.413842
  C      -3.808314      4.451585      0.329681
  O      -4.864410      3.776334      0.998715
  Si     -4.620717      2.873707      2.386270
  C      -3.418401      3.768709      3.509984
  C      -6.325673      2.722057      3.180882
  C      -6.809964      4.107598      3.631301
  C      -7.327617      2.138794      2.174878
  C      -6.237672      1.793380      4.400966
  C      -3.922289      1.197959      1.932505
  O      -3.259653      5.140769     -1.973397
  C      -1.870468      4.987523     -2.147935
  H      -1.597587      5.751845     -2.882619
  O      -1.148614      5.184626     -0.952497
  C      -1.142955      6.538367     -0.499028
  C      -1.495139      3.599844     -2.673054
  H      -0.405394      3.525858     -2.683845
  O      -1.945595      3.446683     -4.009558
  H      -1.112203      3.354051     -0.275227
  H      -7.064251      1.194087     -4.900024
  H      -5.490690      1.787220     -5.455404
  H      -6.594350      2.873717     -4.594794
  H      -3.322847     -0.170750     -1.461365
  H      -3.831322     -1.836223     -1.745874
  H      -4.904307     -0.721073     -0.890760
  H      -6.443077     -1.153503     -4.319063
  H      -6.749058     -1.316569     -2.582268
  H      -5.610350     -2.403625     -3.386598
  H      -3.360275     -1.567425     -4.189756
  H      -2.911724      0.134729     -4.001782
  H      -4.175392     -0.326761     -5.150770
  H      -7.548740      0.937648     -1.747943
  H      -7.034400      2.622751     -1.574641
  H      -6.238482      1.351457     -0.637049
  H      -2.835553      4.154944      0.722977
  H      -3.918756      5.529724      0.478255
  H      -3.723633      4.805575      3.675050
  H      -2.410252      3.771938      3.085752
  H      -3.367217      3.269928      4.482371
  H      -7.811751      4.031482      4.071603
  H      -6.865950      4.805416      2.790580
  H      -6.147289      4.540028      4.386662
  H      -7.024430      1.145388      1.830855
  H      -7.433836      2.780805      1.296669
  H      -8.314811      2.041859      2.643468
  H      -7.219401      1.715937      4.883731
  H      -5.530737      2.167846      5.147841
  H      -5.926863      0.783492      4.117570
  H      -4.610831      0.639318      1.292349
  H      -3.731741      0.604394      2.831537
  H      -2.976501      1.313743      1.395407
  H      -0.555491      6.562623      0.417924
  H      -2.156533      6.889567     -0.293415
  H      -0.678218      7.182956     -1.252184
  H      -2.877319      3.176245     -3.963540
