69
Coordinates from ORCA-job goat_0_131 E -1780.868082955837
  O          -1.24683472616771      2.66263751055681     -0.11257951972161
  C          -1.88083355485720      2.35421411220879     -1.34790778489056
  H          -1.63154627905339      1.31702562952309     -1.58399283320115
  C          -3.40986776413082      2.45114063067602     -1.25066504037824
  H          -3.73269608269318      1.96207466809936     -0.32830215703844
  O          -3.94913119237480      1.78888587893011     -2.39892012334204
  Si         -4.83279643654359      0.37062980238187     -2.21803305465110
  C          -6.37491424208754      0.75887021359792     -1.23554183364615
  C          -5.21993801481425     -0.18636515057716     -3.97514780378037
  C          -6.18471986703826     -1.38054691328889     -3.91680283168365
  C          -5.87882502840370      0.96203502640375     -4.75275334800878
  C          -3.93033619741526     -0.61214110928812     -4.69154134679945
  C          -3.79832628656096     -0.87992459526452     -1.28753050372668
  C          -3.93583409692936      3.88304924576062     -1.23185877226061
  H          -4.98269648473358      3.83511656287416     -1.53964921005869
  C          -3.93284519680889      4.52882879097032      0.15613201397933
  O          -4.96001157134896      3.91728682945454      0.92357310353111
  Si         -4.72868409150920      3.35211956821862      2.48049268607918
  C          -3.66853513811219      4.56546211926402      3.43535779562274
  C          -6.46298535751800      3.21994848207643      3.21265698598048
  C          -7.08591995186956      4.61908168758236      3.31940673701011
  C          -7.34696678111581      2.33950404631689      2.31823674773393
  C          -6.37992218997832      2.59372999097551      4.61266742116421
  C          -3.87692119583955      1.68567621911614      2.43198402728561
  O          -3.31504142146555      4.71252122477075     -2.22542217446121
  C          -1.90994820821914      4.67264807455717     -2.31480988649847
  H          -1.67193111755612      5.26859114761365     -3.20164484835141
  O          -1.27825430323736      5.21963550477904     -1.17892376091957
  C          -1.42618939169994      6.63486377274617     -1.06224663505205
  C          -1.37525159757273      3.24848724669567     -2.48381968627184
  H          -0.28420725486580      3.29003224594711     -2.45362326653326
  O          -1.74799875115788      2.74125642959660     -3.75544406267659
  H          -1.09568021560835      3.61858680875064     -0.08513679760221
  H          -6.94993838295420     -0.15145531824149     -1.04316087563673
  H          -7.01830671369148      1.46796267676074     -1.76326630525585
  H          -6.10877755046962      1.19596271281232     -0.26917984074528
  H          -7.13534858495282     -1.10870122528467     -3.44864372288190
  H          -5.75932810961238     -2.21948807972521     -3.35695908548134
  H          -6.40251829084526     -1.73512848711407     -4.93130793679611
  H          -6.13145676057738      0.63000459565750     -5.76705991996853
  H          -5.21039406311036      1.82323774030526     -4.83787267484858
  H          -6.80351948755478      1.29696162673584     -4.27306787228443
  H          -3.20142489127159      0.20236766795155     -4.73403717324196
  H          -4.15646781931919     -0.91090515948067     -5.72228593055358
  H          -3.45592485644647     -1.46375029359260     -4.19556233202495
  H          -4.33731526360827     -1.82840066204773     -1.20290535252703
  H          -3.58456393817906     -0.52777626192577     -0.27369062827315
  H          -2.84783572446397     -1.07010958455674     -1.79235092154340
  H          -2.96367055154475      4.44172936720536      0.64904715335858
  H          -4.15761142754870      5.59279757799754      0.03744256975797
  H          -4.06415832957316      5.58226516534094      3.36439696228131
  H          -2.64114040207343      4.57029789391583      3.06007032110758
  H          -3.63400841179869      4.28626424528812      4.49263565040023
  H          -8.10354683462254      4.54793112303717      3.72272097354420
  H          -7.14644721195202      5.10666765485259      2.34196448360011
  H          -6.50940116842032      5.26727696934713      3.98597962334631
  H          -6.94122427055138      1.32831112712418      2.21799543292543
  H          -7.45000646394792      2.76221125686938      1.31530550139750
  H          -8.35078722726630      2.25370816117365      2.75232245077138
  H          -5.75299718359248      3.18568304735568      5.28670459476867
  H          -5.97420158135359      1.57840307048041      4.57768883161564
  H          -7.38115747514353      2.53627938401844      5.05660239417435
  H          -3.71993640143747      1.30674459549090      3.44627031761518
  H          -2.89929484138568      1.77012812931373      1.94866873920488
  H          -4.46888271193684      0.95012842482442      1.87957416869241
  H          -0.97861458671409      7.13040468405621     -1.92992704864840
  H          -0.90010583304863      6.93460765260941     -0.15679165545846
  H          -2.47863488339369      6.91607774339071     -0.98401672866245
  H          -2.64962169635058      2.39194908602825     -3.66755439056213
