69
Coordinates from ORCA-job goat_0_58 E -1780.866461227382
  O      -1.278990      2.581221      0.066140
  C      -1.851308      2.170488     -1.165584
  H      -1.603908      1.115362     -1.305723
  C      -3.378660      2.295938     -1.137599
  H      -3.741519      1.874175     -0.194649
  O      -3.882318      1.573280     -2.258821
  Si     -5.151509      0.490020     -2.178433
  C      -6.690169      1.363805     -1.577847
  C      -5.315934     -0.131492     -3.947125
  C      -5.586626      1.048183     -4.889675
  C      -4.010045     -0.818347     -4.366644
  C      -6.470451     -1.136930     -4.049552
  C      -4.686829     -0.869302     -0.984015
  C      -3.860507      3.740105     -1.229712
  H      -4.912719      3.708112     -1.516802
  C      -3.822178      4.488170      0.103168
  O      -4.808968      3.903969      0.932104
  Si     -4.728140      3.897745      2.596255
  C      -5.047207      5.618149      3.246873
  C      -6.079154      2.698640      3.125455
  C      -6.206220      2.674335      4.654257
  C      -7.423232      3.113015      2.516727
  C      -5.710964      1.297175      2.625179
  C      -3.044902      3.296929      3.141709
  O      -3.226478      4.450302     -2.295607
  C      -1.826312      4.385095     -2.361575
  H      -1.575570      4.850708     -3.318545
  O      -1.214976      5.090569     -1.302745
  C      -1.409858      6.494851     -1.396347
  C      -1.283946      2.955452     -2.347976
  H      -0.198290      3.008397     -2.245424
  O      -1.559386      2.330239     -3.582377
  H      -1.026551      3.511202     -0.012976
  H      -7.509947      0.656239     -1.432727
  H      -7.024630      2.127276     -2.283660
  H      -6.509234      1.853940     -0.616954
  H      -4.789638      1.793720     -4.850382
  H      -6.528209      1.549921     -4.655462
  H      -5.654299      0.692970     -5.923035
  H      -4.075830     -1.147532     -5.408560
  H      -3.803715     -1.700407     -3.756585
  H      -3.150960     -0.148816     -4.288215
  H      -6.558883     -1.497083     -5.079809
  H      -7.430611     -0.691056     -3.777111
  H      -6.310237     -2.011019     -3.412855
  H      -5.465565     -1.633089     -0.927909
  H      -4.550463     -0.476754      0.026831
  H      -3.754578     -1.354012     -1.281822
  H      -2.841269      4.436534      0.575974
  H      -4.055205      5.540603     -0.086641
  H      -6.049766      5.964687      2.989263
  H      -4.330603      6.332206      2.834254
  H      -4.945308      5.646649      4.333826
  H      -6.977179      1.955427      4.950923
  H      -6.496988      3.646921      5.058694
  H      -5.276883      2.372149      5.143474
  H      -8.205631      2.407808      2.816800
  H      -7.383907      3.123297      1.426080
  H      -7.733219      4.105123      2.853449
  H      -4.768005      0.948648      3.053503
  H      -5.616721      1.278473      1.536630
  H      -6.487490      0.576306      2.901058
  H      -3.099323      2.871853      4.146643
  H      -2.310273      4.103598      3.173523
  H      -2.657869      2.528028      2.469910
  H      -2.470470      6.751465     -1.369478
  H      -0.977993      6.874938     -2.327239
  H      -0.900581      6.946037     -0.549094
  H      -2.489853      2.061006     -3.561452
69
Coordinates from ORCA-job goat_0_58 E -1780.867483407162
  O      -1.168066      2.532515     -0.021411
  C      -1.797297      2.164953     -1.242476
  H      -1.572235      1.109555     -1.417436
  C      -3.324176      2.306232     -1.160913
  H      -3.665027      1.879259     -0.212631
  O      -3.858538      1.587828     -2.270156
  Si     -5.133604      0.512971     -2.145754
  C      -6.643666      1.404919     -1.500237
  C      -5.367828     -0.117501     -3.904498
  C      -5.628881      1.064270     -4.849054
  C      -4.101769     -0.858561     -4.359218
  C      -6.562595     -1.079040     -3.955229
  C      -4.649165     -0.848343     -0.960179
  C      -3.814962      3.751975     -1.241369
  H      -4.862734      3.711167     -1.546704
  C      -3.817370      4.493721      0.098571
  O      -4.811877      3.882785      0.902531
  Si     -4.782276      3.904707      2.569311
  C      -5.213851      5.617680      3.178518
  C      -6.080615      2.638278      3.080957
  C      -6.257318      2.652653      4.604877
  C      -7.425770      2.959852      2.415722
  C      -5.616123      1.243095      2.636815
  C      -3.082278      3.414396      3.176238
  O      -3.173545      4.487748     -2.291021
  C      -1.770952      4.411535     -2.374559
  H      -1.521407      4.916283     -3.313841
  O      -1.125354      5.048859     -1.292448
  C      -1.267935      6.466992     -1.302412
  C      -1.258948      2.970929     -2.427399
  H      -0.168129      2.999784     -2.371026
  O      -1.607132      2.380772     -3.666889
  H      -0.912920      3.463094     -0.074821
  H      -7.466897      0.703799     -1.332908
  H      -6.988603      2.173833     -2.196847
  H      -6.426526      1.890296     -0.544066
  H      -4.800936      1.779110     -4.843521
  H      -6.542438      1.604130     -4.582577
  H      -5.748642      0.702025     -5.877464
  H      -4.217906     -1.200097     -5.395038
  H      -3.905677     -1.739904     -3.741538
  H      -3.216836     -0.217518     -4.320589
  H      -6.699968     -1.450891     -4.977916
  H      -7.494086     -0.588974     -3.655589
  H      -6.413783     -1.947977     -3.306765
  H      -5.438163     -1.602085     -0.879908
  H      -4.477043     -0.450467      0.044508
  H      -3.732396     -1.347054     -1.286114
  H      -2.846730      4.465567      0.593354
  H      -4.074590      5.541188     -0.091243
  H      -6.227273      5.903999      2.884056
  H      -4.521617      6.361629      2.771393
  H      -5.147817      5.669592      4.269595
  H      -6.996532      1.898392      4.901583
  H      -6.614799      3.621978      4.965499
  H      -5.325398      2.421364      5.129892
  H      -8.178251      2.217909      2.710641
  H      -7.348902      2.943005      1.325412
  H      -7.801081      3.943762      2.713499
  H      -4.671670      0.960453      3.111331
  H      -5.477291      1.196173      1.553286
  H      -6.363978      0.487858      2.908648
  H      -3.140471      3.030647      4.199367
  H      -2.390288      4.261698      3.184943
  H      -2.645619      2.634620      2.547473
  H      -2.318002      6.761521     -1.241162
  H      -0.832227      6.883886     -2.217253
  H      -0.729538      6.849252     -0.435965
  H      -2.538846      2.117525     -3.605917
69
Coordinates from ORCA-job goat_0_58 E -1780.867902432511
  O      -1.189229      2.533884     -0.041496
  C      -1.813426      2.171377     -1.269127
  H      -1.573358      1.121515     -1.456953
  C      -3.342498      2.285963     -1.185849
  H      -3.678996      1.837553     -0.246372
  O      -3.854258      1.574636     -2.312678
  Si     -5.091181      0.450776     -2.206336
  C      -6.626322      1.275388     -1.531110
  C      -5.324910     -0.148932     -3.977096
  C      -5.611739      1.047626     -4.896822
  C      -4.054851     -0.868445     -4.458047
  C      -6.510138     -1.122990     -4.028282
  C      -4.557179     -0.925361     -1.058045
  C      -3.853615      3.726966     -1.245455
  H      -4.900936      3.676438     -1.552106
  C      -3.850286      4.463053      0.098658
  O      -4.835266      3.853400      0.919360
  Si     -4.769197      3.903592      2.586192
  C      -5.089920      5.653029      3.165937
  C      -6.120728      2.719645      3.161861
  C      -6.242413      2.782911      4.690219
  C      -7.467873      3.108895      2.534238
  C      -5.754357      1.287255      2.739281
  C      -3.078252      3.342655      3.163769
  O      -3.220106      4.489863     -2.283806
  C      -1.813483      4.438068     -2.361355
  H      -1.562641      4.977330     -3.281997
  O      -1.177570      5.038638     -1.254295
  C      -1.320840      6.459172     -1.198497
  C      -1.288024      3.002998     -2.445698
  H      -0.196797      3.043109     -2.399589
  O      -1.641840      2.424791     -3.694359
  H      -0.985576      3.478767     -0.064912
  H      -7.424704      0.540582     -1.382676
  H      -6.997372      2.052991     -2.205405
  H      -6.417231      1.738132     -0.562988
  H      -4.788016      1.768841     -4.889069
  H      -6.525521      1.574787     -4.602688
  H      -5.746084      0.701773     -5.930404
  H      -4.181891     -1.198214     -5.497823
  H      -3.839585     -1.755252     -3.852875
  H      -3.178456     -0.213657     -4.421535
  H      -6.655063     -1.485373     -5.054422
  H      -7.441692     -0.642913     -3.710768
  H      -6.344380     -1.995571     -3.387520
  H      -5.325589     -1.703323     -0.996002
  H      -4.390614     -0.544948     -0.045187
  H      -3.628506     -1.388979     -1.403836
  H      -2.871874      4.441029      0.582168
  H      -4.114145      5.509938     -0.088070
  H      -6.094224      5.988667      2.888275
  H      -4.365039      6.344915      2.722057
  H      -4.994619      5.724939      4.255038
  H      -7.013005      2.080333      5.034229
  H      -6.528786      3.783121      5.032175
  H      -5.303758      2.512759      5.185889
  H      -8.252412      2.417219      2.869315
  H      -7.429383      3.068592      1.442045
  H      -7.772316      4.120182      2.825044
  H      -4.815096      0.958996      3.196279
  H      -5.647687      1.205047      1.654365
  H      -6.540227      0.586732      3.052514
  H      -3.122692      3.026652      4.211515
  H      -2.336897      4.145862      3.091536
  H      -2.720534      2.495251      2.571930
  H      -2.371634      6.749095     -1.119747
  H      -0.883243      6.917491     -2.093054
  H      -0.782227      6.799649     -0.312976
  H      -2.562853      2.126701     -3.622603
69
Coordinates from ORCA-job goat_0_58 E -1780.868232514719
  O      -1.218110      2.556607     -0.011423
  C      -1.823706      2.185967     -1.244474
  H      -1.587269      1.133313     -1.417652
  C      -3.352169      2.310944     -1.185701
  H      -3.703897      1.874517     -0.245976
  O      -3.861386      1.593737     -2.311012
  Si     -5.107709      0.479949     -2.192744
  C      -6.638896      1.328928     -1.537925
  C      -5.339898     -0.149550     -3.953830
  C      -5.609887      1.032061     -4.897427
  C      -4.077618     -0.892180     -4.417400
  C      -6.536501     -1.111371     -3.988433
  C      -4.591354     -0.879860     -1.016704
  C      -3.850370      3.753171     -1.260144
  H      -4.892985      3.707834     -1.581932
  C      -3.857275      4.485573      0.082711
  O      -4.837341      3.856128      0.893903
  Si     -4.769244      3.892284      2.561572
  C      -5.115180      5.632484      3.157178
  C      -6.099491      2.679322      3.126830
  C      -6.220988      2.730594      4.656273
  C      -7.452188      3.049532      2.500869
  C      -5.709357      1.257269      2.693834
  C      -3.066395      3.355198      3.129634
  O      -3.197220      4.510419     -2.290425
  C      -1.790621      4.445442     -2.349543
  H      -1.525190      4.980759     -3.267257
  O      -1.165714      5.046091     -1.238241
  C      -1.295652      6.467844     -1.194973
  C      -1.275387      3.005576     -2.418276
  H      -0.185031      3.036672     -2.360720
  O      -1.617423      2.421494     -3.666426
  H      -1.035383      3.506572     -0.035307
  H      -7.443567      0.603214     -1.384495
  H      -6.998066      2.100019     -2.225117
  H      -6.429567      1.802856     -0.574825
  H      -4.775773      1.739980     -4.904676
  H      -6.514395      1.578286     -4.612197
  H      -5.751192      0.667487     -5.922693
  H      -4.206600     -1.240935     -5.449802
  H      -3.873522     -1.768082     -3.794189
  H      -3.195112     -0.245605     -4.391656
  H      -6.681232     -1.495011     -5.005898
  H      -7.462811     -0.613204     -3.685819
  H      -6.383422     -1.970334     -3.327139
  H      -5.365826     -1.650275     -0.950138
  H      -4.432034     -0.482199     -0.009553
  H      -3.663243     -1.354919     -1.346270
  H      -2.879455      4.469396      0.568586
  H      -4.132936      5.529644     -0.100069
  H      -6.124462      5.955031      2.884912
  H      -4.401649      6.336325      2.715970
  H      -5.017810      5.697121      4.245569
  H      -6.979090      2.013996      4.996308
  H      -6.522655      3.723613      5.003858
  H      -5.277687      2.472622      5.148232
  H      -8.224269      2.342998      2.831196
  H      -7.412254      3.016393      1.408695
  H      -7.772691      4.053341      2.797406
  H      -4.766539      0.941644      3.151191
  H      -5.598103      1.184424      1.608246
  H      -6.484214      0.543102      3.000468
  H      -3.096265      3.060803      4.183423
  H      -2.334342      4.162499      3.030810
  H      -2.711430      2.497605      2.551278
  H      -2.344321      6.767399     -1.131709
  H      -0.841038      6.913686     -2.086164
  H      -0.766184      6.807572     -0.305034
  H      -2.534570      2.111799     -3.593603
69
Coordinates from ORCA-job goat_0_58 E -1780.868372328718
  O      -1.209566      2.547277     -0.023568
  C      -1.824897      2.187171     -1.253076
  H      -1.599325      1.132652     -1.427892
  C      -3.351793      2.326549     -1.191315
  H      -3.705239      1.891612     -0.251693
  O      -3.871031      1.616186     -2.317320
  Si     -5.116454      0.501306     -2.185678
  C      -6.647858      1.357009     -1.538903
  C      -5.348201     -0.148180     -3.939545
  C      -5.618976      1.021389     -4.897175
  C      -4.085634     -0.893345     -4.395221
  C      -6.543904     -1.112593     -3.960773
  C      -4.598049     -0.843734     -0.993209
  C      -3.840147      3.771559     -1.261160
  H      -4.880182      3.732737     -1.590811
  C      -3.853323      4.493959      0.086515
  O      -4.834335      3.853024      0.887768
  Si     -4.774991      3.886689      2.556769
  C      -5.140398      5.623187      3.153481
  C      -6.094492      2.657273      3.110183
  C      -6.221257      2.700180      4.640074
  C      -7.447474      3.017327      2.480587
  C      -5.689628      1.242605      2.671110
  C      -3.069083      3.367822      3.133714
  O      -3.179336      4.530324     -2.284904
  C      -1.774429      4.448418     -2.348962
  H      -1.509421      4.987093     -3.263977
  O      -1.142179      5.041492     -1.238522
  C      -1.267085      6.462729     -1.193199
  C      -1.273562      3.003794     -2.425915
  H      -0.182931      3.022359     -2.375236
  O      -1.628603      2.429127     -3.673888
  H      -1.037337      3.499866     -0.043992
  H      -7.451325      0.632349     -1.379322
  H      -7.006307      2.121384     -2.233143
  H      -6.437398      1.839470     -0.580330
  H      -4.782651      1.725457     -4.917167
  H      -6.519614      1.574277     -4.614787
  H      -5.766194      0.644038     -5.916059
  H      -4.214659     -1.254240     -5.422509
  H      -3.879195     -1.760547     -3.761896
  H      -3.205482     -0.243780     -4.377366
  H      -6.686590     -1.511196     -4.971880
  H      -7.470898     -0.611633     -3.666906
  H      -6.390178     -1.961376     -3.287322
  H      -5.370335     -1.615039     -0.923895
  H      -4.446310     -0.434209      0.009751
  H      -3.666859     -1.318160     -1.313124
  H      -2.877916      4.476773      0.575022
  H      -4.131640      5.538245     -0.088775
  H      -6.150617      5.936790      2.877155
  H      -4.431088      6.331346      2.714487
  H      -5.047506      5.688277      4.241278
  H      -6.973549      1.975929      4.974224
  H      -6.532409      3.688385      4.991045
  H      -5.277594      2.447803      5.132937
  H      -8.213621      2.302952      2.805359
  H      -7.402900      2.988237      1.388983
  H      -7.777657      4.016704      2.779187
  H      -4.747947      0.932794      3.133642
  H      -5.569507      1.177249      1.585965
  H      -6.460307      0.521077      2.967870
  H      -3.093059      3.114848      4.197777
  H      -2.338779      4.169856      2.998340
  H      -2.720485      2.488706      2.586038
  H      -2.314396      6.764225     -1.122567
  H      -0.816787      6.906306     -2.086750
  H      -0.731013      6.798368     -0.306875
  H      -2.541265      2.109083     -3.588692
69
Coordinates from ORCA-job goat_0_58 E -1780.868439251755
  O      -1.209419      2.533050     -0.033294
  C      -1.831367      2.182896     -1.262253
  H      -1.611242      1.127912     -1.441865
  C      -3.357745      2.327977     -1.198053
  H      -3.711900      1.889148     -0.260639
  O      -3.879724      1.625623     -2.328532
  Si     -5.112569      0.495855     -2.194292
  C      -6.649458      1.333913     -1.536826
  C      -5.345079     -0.149405     -3.949484
  C      -5.627127      1.020879     -4.902846
  C      -4.078567     -0.883873     -4.411398
  C      -6.534133     -1.122314     -3.969482
  C      -4.573467     -0.847774     -1.009111
  C      -3.842833      3.774488     -1.260440
  H      -4.882376      3.739287     -1.592454
  C      -3.855828      4.490274      0.090999
  O      -4.834360      3.844793      0.891789
  Si     -4.774592      3.886860      2.561431
  C      -5.128662      5.629445      3.147986
  C      -6.100414      2.667520      3.120969
  C      -6.225569      2.719042      4.650943
  C      -7.451534      3.032753      2.490465
  C      -5.704613      1.248492      2.689272
  C      -3.071195      3.363321      3.141686
  O      -3.179204      4.537289     -2.279056
  C      -1.774775      4.448696     -2.345832
  H      -1.509621      4.992708     -3.257787
  O      -1.139565      5.033774     -1.232227
  C      -1.264859      6.454675     -1.177464
  C      -1.279948      3.002669     -2.432609
  H      -0.188971      3.015666     -2.385269
  O      -1.642580      2.438675     -3.683139
  H      -1.043237      3.487007     -0.046755
  H      -7.444269      0.600103     -1.375795
  H      -7.018833      2.096883     -2.226802
  H      -6.438215      1.815398     -0.577934
  H      -4.793745      1.728352     -4.925778
  H      -6.528507      1.569405     -4.614267
  H      -5.778137      0.645071     -5.921716
  H      -4.208030     -1.242593     -5.439346
  H      -3.863410     -1.751335     -3.781259
  H      -3.203617     -0.227445     -4.394155
  H      -6.675691     -1.520373     -4.980978
  H      -7.464184     -0.628449     -3.673317
  H      -6.372982     -1.971301     -3.298069
  H      -5.336365     -1.628727     -0.943865
  H      -4.426598     -0.441259     -0.004475
  H      -3.636648     -1.308505     -1.332425
  H      -2.879606      4.473127      0.577624
  H      -4.135648      5.535031     -0.079137
  H      -6.136610      5.948494      2.869861
  H      -4.414070      6.328457      2.702861
  H      -5.034123      5.701338      4.235127
  H      -6.982676      2.001809      4.989345
  H      -6.529502      3.711155      4.997210
  H      -5.283245      2.462188      5.143983
  H      -8.222006      2.325445      2.820432
  H      -7.408081      2.996252      1.398978
  H      -7.774899      4.036181      2.782934
  H      -4.766003      0.934373      3.155123
  H      -5.582801      1.177463      1.604920
  H      -6.480943      0.533796      2.987830
  H      -3.088050      3.155506      4.215568
  H      -2.330899      4.147966      2.965176
  H      -2.742727      2.457349      2.626378
  H      -2.312001      6.754821     -1.099989
  H      -0.819094      6.903352     -2.070781
  H      -0.724452      6.784887     -0.291689
  H      -2.551961      2.110072     -3.592049
69
Coordinates from ORCA-job goat_0_58 E -1780.868494928347
  O      -1.215036      2.523494     -0.050964
  C      -1.846022      2.187249     -1.279800
  H      -1.633579      1.131770     -1.467130
  C      -3.371418      2.339846     -1.210476
  H      -3.725428      1.896227     -0.275425
  O      -3.899164      1.647658     -2.345170
  Si     -5.113995      0.497855     -2.202448
  C      -6.662045      1.318532     -1.548924
  C      -5.335747     -0.161206     -3.953533
  C      -5.619515      1.000416     -4.916876
  C      -4.063175     -0.892822     -4.404133
  C      -6.519911     -1.139946     -3.972257
  C      -4.553077     -0.829095     -1.008462
  C      -3.851257      3.788679     -1.261557
  H      -4.891472      3.759450     -1.593103
  C      -3.859278      4.491939      0.096622
  O      -4.831117      3.836130      0.897044
  Si     -4.766973      3.877844      2.567589
  C      -5.095518      5.625687      3.153371
  C      -6.106836      2.675168      3.127861
  C      -6.224547      2.722684      4.658593
  C      -7.455339      3.062864      2.504903
  C      -5.734352      1.251729      2.689350
  C      -3.069586      3.334489      3.145894
  O      -3.184724      4.558205     -2.272756
  C      -1.780909      4.460874     -2.344741
  H      -1.515001      5.011235     -3.253099
  O      -1.139526      5.033821     -1.226808
  C      -1.264014      6.454455     -1.157261
  C      -1.295213      3.012989     -2.446567
  H      -0.203702      3.018087     -2.403185
  O      -1.669585      2.466314     -3.701321
  H      -1.051558      3.477944     -0.053635
  H      -7.445561      0.574125     -1.379829
  H      -7.043638      2.070111     -2.244935
  H      -6.455244      1.811639     -0.594958
  H      -4.787082      1.709243     -4.944049
  H      -6.522726      1.549930     -4.635110
  H      -5.767208      0.615770     -5.933231
  H      -4.185365     -1.259042     -5.430599
  H      -3.846621     -1.755325     -3.767202
  H      -3.191445     -0.232177     -4.386874
  H      -6.652515     -1.547547     -4.981539
  H      -7.454704     -0.648254     -3.687052
  H      -6.359194     -1.983026     -3.293102
  H      -5.300877     -1.625299     -0.947203
  H      -4.423550     -0.416489     -0.003825
  H      -3.604237     -1.271160     -1.322901
  H      -2.879674      4.473302      0.576947
  H      -4.141896      5.538019     -0.061805
  H      -6.098811      5.960028      2.875774
  H      -4.370377      6.312045      2.704700
  H      -4.997344      5.698338      4.240312
  H      -6.991545      2.015786      4.997475
  H      -6.511791      3.718005      5.010585
  H      -5.284094      2.448826      5.146485
  H      -8.235277      2.366847      2.837516
  H      -7.417723      3.027249      1.413009
  H      -7.762210      4.070799      2.800517
  H      -4.800626      0.919938      3.152923
  H      -5.614761      1.183576      1.604512
  H      -6.522136      0.548078      2.985217
  H      -3.071511      3.190982      4.230504
  H      -2.311001      4.085851      2.909783
  H      -2.777550      2.391466      2.676873
  H      -2.310383      6.754236     -1.068407
  H      -0.826132      6.911441     -2.050704
  H      -0.715361      6.776597     -0.273131
  H      -2.576374      2.131137     -3.604310
69
Coordinates from ORCA-job goat_0_58 E -1780.868511769045
  O      -1.220968      2.519458     -0.050798
  C      -1.851198      2.184975     -1.280706
  H      -1.640148      1.129441     -1.469157
  C      -3.376326      2.339749     -1.211603
  H      -3.731585      1.895662     -0.277356
  O      -3.905200      1.650724     -2.347490
  Si     -5.114061      0.494568     -2.204713
  C      -6.664061      1.307323     -1.546393
  C      -5.335559     -0.161299     -3.956770
  C      -5.623549      1.001608     -4.917381
  C      -4.060500     -0.887682     -4.408988
  C      -6.516117     -1.143947     -3.978294
  C      -4.544464     -0.832342     -1.015043
  C      -3.853334      3.789587     -1.260881
  H      -4.894264      3.762536     -1.590420
  C      -3.858108      4.491194      0.098330
  O      -4.827234      3.834198      0.900725
  Si     -4.764538      3.878564      2.571236
  C      -5.090566      5.627638      3.153567
  C      -6.107732      2.679584      3.131044
  C      -6.227202      2.727605      4.661413
  C      -7.454726      3.070155      2.506410
  C      -5.738849      1.254577      2.693717
  C      -3.069610      3.333245      3.153264
  O      -3.186220      4.558879     -2.271697
  C      -1.782545      4.460104     -2.344350
  H      -1.515444      5.008438     -3.253558
  O      -1.139286      5.033177     -1.227171
  C      -1.262276      6.453971     -1.158515
  C      -1.298223      3.011669     -2.446002
  H      -0.206818      3.015900     -2.399604
  O      -1.670417      2.466492     -3.702033
  H      -1.050183      3.472436     -0.053128
  H      -7.443551      0.559550     -1.373113
  H      -7.052184      2.055996     -2.242056
  H      -6.456624      1.803153     -0.593881
  H      -4.793664      1.713457     -4.943859
  H      -6.528590      1.547593     -4.634420
  H      -5.770388      0.618667     -5.934608
  H      -4.180687     -1.250633     -5.436965
  H      -3.842065     -1.751985     -3.775105
  H      -3.190202     -0.225032     -4.388793
  H      -6.647102     -1.549371     -4.988784
  H      -7.452856     -0.656431     -3.692179
  H      -6.352896     -1.988552     -3.301495
  H      -5.285702     -1.635172     -0.958501
  H      -4.420602     -0.423843     -0.007997
  H      -3.591333     -1.265399     -1.329158
  H      -2.876991      4.472426      0.575680
  H      -4.141267      5.537509     -0.057876
  H      -6.092038      5.964460      2.872258
  H      -4.362401      6.311999      2.706476
  H      -4.995556      5.701695      4.240764
  H      -6.996371      2.022516      4.999439
  H      -6.512695      3.723524      5.013387
  H      -5.288062      2.451649      5.150833
  H      -8.236889      2.376500      2.838955
  H      -7.416133      3.033217      1.414507
  H      -7.759770      4.079075      2.800625
  H      -4.807123      0.919484      3.158882
  H      -5.617864      1.185686      1.609152
  H      -6.529400      0.553311      2.988160
  H      -3.069316      3.206369      4.240002
  H      -2.307032      4.076732      2.904572
  H      -2.782592      2.382391      2.697049
  H      -2.308040      6.755485     -1.067929
  H      -0.826257      6.910389     -2.053294
  H      -0.711156      6.776811     -0.276103
  H      -2.578449      2.134193     -3.608320
69
Coordinates from ORCA-job goat_0_58 E -1780.868524919158
  O      -1.232739      2.516761     -0.046960
  C      -1.858964      2.183014     -1.279245
  H      -1.649669      1.127222     -1.467764
  C      -3.383525      2.342041     -1.213001
  H      -3.742304      1.899207     -0.279588
  O      -3.913593      1.656240     -2.349989
  Si     -5.116948      0.494590     -2.206031
  C      -6.668462      1.302219     -1.545804
  C      -5.337942     -0.162158     -3.957592
  C      -5.624748      1.000462     -4.918957
  C      -4.062227     -0.888970     -4.407512
  C      -6.518277     -1.144585     -3.980949
  C      -4.541130     -0.830337     -1.017528
  C      -3.854751      3.793725     -1.261744
  H      -4.896169      3.770548     -1.590079
  C      -3.855887      4.494304      0.098050
  O      -4.821335      3.835084      0.902545
  Si     -4.762226      3.881302      2.572822
  C      -5.095291      5.629340      3.152828
  C      -6.103677      2.678819      3.129519
  C      -6.223454      2.721874      4.659799
  C      -7.451219      3.069256      2.505734
  C      -5.733896      1.255020      2.687971
  C      -3.067790      3.342490      3.160230
  O      -3.184691      4.561173     -2.271733
  C      -1.781337      4.458995     -2.342577
  H      -1.510388      5.004335     -3.252350
  O      -1.136758      5.030668     -1.225609
  C      -1.256317      6.451584     -1.156635
  C      -1.300424      3.009154     -2.442310
  H      -0.209278      3.011164     -2.390958
  O      -1.668819      2.463858     -3.699475
  H      -1.050570      3.467407     -0.050287
  H      -7.444199      0.552462     -1.364224
  H      -7.063302      2.044705     -2.244428
  H      -6.459912      1.805247     -0.597222
  H      -4.795241      1.712711     -4.945471
  H      -6.530271      1.546381     -4.637347
  H      -5.770695      0.616988     -5.936177
  H      -4.179925     -1.250433     -5.436368
  H      -3.846491     -1.754475     -3.774350
  H      -3.190841     -0.227695     -4.384295
  H      -6.647911     -1.550208     -4.991569
  H      -7.455447     -0.656943     -3.696302
  H      -6.356574     -1.989149     -3.303651
  H      -5.274113     -1.641313     -0.968310
  H      -4.427782     -0.425628     -0.007618
  H      -3.581758     -1.252793     -1.327198
  H      -2.872987      4.475861      0.571801
  H      -4.140498      5.540620     -0.055952
  H      -6.095465      5.964533      2.864888
  H      -4.365893      6.316021      2.711230
  H      -5.007828      5.703622      4.240692
  H      -6.991389      2.014375      4.995692
  H      -6.510778      3.716102      5.015207
  H      -5.283829      2.446408      5.148703
  H      -8.232601      2.373848      2.836523
  H      -7.412509      3.035016      1.413740
  H      -7.757937      4.076961      2.802356
  H      -4.802671      0.918136      3.152763
  H      -5.612267      1.189335      1.603202
  H      -6.524570      0.552614      2.979463
  H      -3.064725      3.235153      4.249108
  H      -2.304346      4.080542      2.897605
  H      -2.780811      2.384252      2.719667
  H      -2.301076      6.756204     -1.063588
  H      -0.821753      6.907901     -2.052248
  H      -0.702182      6.773533     -0.275776
  H      -2.579777      2.138910     -3.611411
69
Coordinates from ORCA-job goat_0_58 E -1780.868532639423
  O      -1.237058      2.513449     -0.045090
  C      -1.861436      2.180453     -1.278434
  H      -1.653244      1.124495     -1.467100
  C      -3.385643      2.342372     -1.213604
  H      -3.746383      1.900007     -0.280724
  O      -3.917028      1.659146     -2.351519
  Si     -5.117265      0.494489     -2.206890
  C      -6.668634      1.298638     -1.542343
  C      -5.341132     -0.160788     -3.958640
  C      -5.628158      1.002771     -4.918783
  C      -4.066470     -0.888238     -4.410476
  C      -6.522257     -1.142230     -3.981247
  C      -4.536619     -0.831278     -1.021797
  C      -3.853414      3.795131     -1.261441
  H      -4.894732      3.774225     -1.590273
  C      -3.853787      4.495175      0.098609
  O      -4.818146      3.835076      0.903536
  Si     -4.763643      3.884547      2.573589
  C      -5.105931      5.631986      3.149773
  C      -6.101651      2.677277      3.128732
  C      -6.222582      2.719250      4.658960
  C      -7.449914      3.063690      2.503981
  C      -5.727313      1.254840      2.686813
  C      -3.068594      3.354884      3.166943
  O      -3.181370      4.561643     -2.270874
  C      -1.778300      4.456660     -2.341526
  H      -1.506148      5.000945     -3.251540
  O      -1.131953      5.027095     -1.225320
  C      -1.248454      6.448108     -1.156013
  C      -1.300004      3.005784     -2.440563
  H      -0.208960      3.006086     -2.388046
  O      -1.667358      2.460039     -3.697805
  H      -1.049414      3.463037     -0.049795
  H      -7.441772      0.547580     -1.355421
  H      -7.068378      2.038099     -2.241384
  H      -6.457778      1.804920     -0.595987
  H      -4.798213      1.714381     -4.946186
  H      -6.532757      1.549173     -4.635225
  H      -5.776222      0.620087     -5.935950
  H      -4.185213     -1.248076     -5.439740
  H      -3.851453     -1.754841     -3.778647
  H      -3.194285     -0.228022     -4.386895
  H      -6.653523     -1.547288     -4.991804
  H      -7.458545     -0.653803     -3.695113
  H      -6.360603     -1.987065     -3.304313
  H      -5.264698     -1.646914     -0.977631
  H      -4.428099     -0.430305     -0.009886
  H      -3.574130     -1.247101     -1.330785
  H      -2.870524      4.477088      0.571424
  H      -4.139206      5.541334     -0.054885
  H      -6.105439      5.963538      2.855467
  H      -4.376419      6.321160      2.712415
  H      -5.025654      5.707504      4.238078
  H      -6.988459      2.009298      4.994173
  H      -6.513075      3.712451      5.014590
  H      -5.282362      2.446636      5.148235
  H      -8.229209      2.365436      2.833537
  H      -7.410084      3.030434      1.412017
  H      -7.760228      4.070102      2.801100
  H      -4.795541      0.920430      3.152273
  H      -5.604603      1.189843      1.602119
  H      -6.516187      0.550176      2.977539
  H      -3.065387      3.259338      4.256897
  H      -2.306669      4.091834      2.896952
  H      -2.778545      2.392816      2.736921
  H      -2.292319      6.754931     -1.060316
  H      -0.815107      6.903774     -2.052490
  H      -0.691615      6.768820     -0.276472
  H      -2.579861      2.139082     -3.611738
69
Coordinates from ORCA-job goat_0_58 E -1780.868535991899
  O      -1.241640      2.509879     -0.042155
  C      -1.864073      2.177871     -1.276749
  H      -1.657199      1.121616     -1.465366
  C      -3.387932      2.343201     -1.214017
  H      -3.750947      1.901438     -0.281716
  O      -3.920341      1.662357     -2.352929
  Si     -5.118301      0.495647     -2.207855
  C      -6.669905      1.297755     -1.541360
  C      -5.343839     -0.159901     -3.959392
  C      -5.629194      1.003716     -4.919945
  C      -4.070648     -0.889750     -4.411452
  C      -6.526850     -1.139204     -3.980587
  C      -4.534707     -0.830254     -1.024362
  C      -3.852185      3.797054     -1.261490
  H      -4.893120      3.778515     -1.591747
  C      -3.852227      4.497141      0.098415
  O      -4.816048      3.836688      0.903571
  Si     -4.765588      3.888597      2.573303
  C      -5.118481      5.634823      3.147041
  C      -6.098526      2.674870      3.127212
  C      -6.218017      2.713561      4.657723
  C      -7.448742      3.057464      2.504378
  C      -5.719166      1.254884      2.682140
  C      -3.068818      3.369543      3.171215
  O      -3.177417      4.562155     -2.270307
  C      -1.774609      4.453711     -2.339986
  H      -1.501051      4.997650     -3.249820
  O      -1.127506      5.022486     -1.223720
  C      -1.241607      6.443545     -1.153283
  C      -1.299428      3.001701     -2.438277
  H      -0.208424      2.999904     -2.385350
  O      -1.666389      2.455466     -3.695399
  H      -1.049287      3.458567     -0.048657
  H      -7.440785      0.545773     -1.349192
  H      -7.073514      2.033666     -2.241918
  H      -6.457362      1.808028     -0.597528
  H      -4.797870      1.713621     -4.948262
  H      -6.532417      1.551971     -4.635596
  H      -5.779072      0.620788     -5.936703
  H      -4.190341     -1.249552     -5.440570
  H      -3.857191     -1.756520     -3.779361
  H      -3.197360     -0.231005     -4.388214
  H      -6.659518     -1.544928     -4.990620
  H      -7.461875     -0.648563     -3.694172
  H      -6.366408     -1.983503     -3.302744
  H      -5.258529     -1.649882     -0.985179
  H      -4.431355     -0.431862     -0.010919
  H      -3.569246     -1.240419     -1.331680
  H      -2.868911      4.479209      0.570892
  H      -4.138109      5.543157     -0.055244
  H      -6.117516      5.962092      2.846438
  H      -4.389259      6.327365      2.714697
  H      -5.045795      5.710532      4.235849
  H      -6.981194      2.000583      4.992502
  H      -6.511144      3.705237      5.015353
  H      -5.276331      2.443071      5.145256
  H      -8.224863      2.355046      2.832458
  H      -7.409471      3.027496      1.412314
  H      -7.762802      4.061766      2.804576
  H      -4.785369      0.923529      3.145748
  H      -5.597656      1.192233      1.597184
  H      -6.504814      0.546753      2.973036
  H      -3.065736      3.281859      4.261824
  H      -2.309978      4.107896      2.896532
  H      -2.774050      2.405572      2.748766
  H      -2.284816      6.751786     -1.055130
  H      -0.809162      6.898991     -2.050251
  H      -0.682654      6.762616     -0.274521
  H      -2.580479      2.138510     -3.610740
