69
Coordinates from ORCA-job goat_0_17 E -1780.873571042504
  O          -1.21520474118945      1.02702514624016     -1.95785863279622
  C          -1.64731873617253      2.38166843164254     -1.98998036742284
  H          -1.54798983898488      2.78241395863768     -3.00853484879548
  C          -3.11377621183106      2.43001203501899     -1.59177185338241
  H          -3.22673830022020      1.94616168770136     -0.61749703017193
  O          -3.92547155141865      1.80629434322870     -2.56322287082962
  Si         -4.42063957215114      0.20801334737517     -2.55460333078367
  C          -4.14164474725732     -0.55238447349379     -0.86815766560307
  C          -6.26365432005602      0.22891777347929     -2.98571893152927
  C          -6.51202114316383      1.17412626068939     -4.16958611673336
  C          -6.71343017957063     -1.18896237735138     -3.36936385559828
  C          -7.08381147103843      0.70377235514700     -1.77827321374047
  C          -3.46852953218308     -0.72286244209505     -3.86828444098708
  C          -3.56727874024745      3.88528230258134     -1.45942407594683
  H          -3.49773774026231      4.37234764200434     -2.44336175112907
  C          -5.00153106387400      4.00216961886811     -0.97950625160806
  O          -5.26977702524765      3.20093156304465      0.15304310399742
  Si         -4.95990922834018      3.57354194088737      1.74971830556067
  C          -4.92280885029575      5.42946365785486      1.98860300008113
  C          -6.39449359709406      2.78335216965705      2.69676900974644
  C          -7.72531101306539      3.35908331723115      2.19304201306527
  C          -6.38696822175666      1.26423236055125      2.47116606690728
  C          -6.25492544712698      3.07183830499266      4.19811193150548
  C          -3.33601567105897      2.81449144051558      2.29061976587119
  O          -2.73570292147860      4.56987149594708     -0.52606355664359
  C          -1.38777804649500      4.63702695133816     -0.95649910983018
  H          -1.34387004187179      5.13805558904089     -1.93805661091820
  O          -0.65367315226440      5.34510913044594     -0.01429925484811
  C          -0.91802661389484      6.74845431380154     -0.02557074774386
  C          -0.80952270931721      3.23254137192708     -1.04895184317918
  H          -0.83129697364418      2.78940645828340     -0.04594264179844
  O           0.51571116230856      3.24802270715788     -1.56277221006299
  H          -0.27913947256253      1.02122323956228     -2.19190000453943
  H          -4.59610419727816      0.04684175696713     -0.07467015869961
  H          -3.07457347476568     -0.65527542430381     -0.65721522226981
  H          -4.59313210697817     -1.54900786081181     -0.83871030999456
  H          -5.93200689479456      0.88207796131212     -5.05094216656800
  H          -6.24760300616361      2.20464817529530     -3.91776490800019
  H          -7.57281143874681      1.15642291622357     -4.44932709253414
  H          -6.20733535515229     -1.54232129724949     -4.27199186458436
  H          -7.79260014917989     -1.20036957013339     -3.56593248656376
  H          -6.51654397930540     -1.90869825126443     -2.56786843137370
  H          -8.14480765000481      0.77477018764035     -2.04876771557143
  H          -6.75953058564450      1.68608015559213     -1.42523421983033
  H          -7.00129091026851      0.00613231269968     -0.93985286950496
  H          -2.39621174560262     -0.62268605590460     -3.68671880731127
  H          -3.68887703057251     -0.33163023137490     -4.86600231383837
  H          -3.72557863993955     -1.78602354820648     -3.85722352098406
  H          -5.21346627756857      5.05738249451146     -0.77665394499994
  H          -5.66061132631729      3.67080423459499     -1.78481644809184
  H          -4.79849313838960      5.66638807173201      3.04942991378304
  H          -5.84682025097581      5.90095913339264      1.64250844674636
  H          -4.08456771325579      5.86889824654481      1.44246783191347
  H          -7.86402700330696      3.16685515160458      1.12536332023648
  H          -7.78421337912794      4.44011158509884      2.35289501407487
  H          -8.56370289380283      2.89817419615272      2.73005551132519
  H          -7.22765599141720      0.79988208737569      3.00170827175765
  H          -5.46596143032140      0.80531073421451      2.84303396455514
  H          -6.48261572284309      1.01570607218003      1.41035910311148
  H          -5.32304009792761      2.66760575756889      4.60463073921331
  H          -7.08387308912707      2.60965560263965      4.74831540697851
  H          -6.27738044132492      4.14554436339406      4.40796296164959
  H          -3.28952795128455      1.75509394119954      2.02221891644021
  H          -3.21317287450152      2.89561956463192      3.37484596206495
  H          -2.50055991240588      3.32712183225040      1.80985704366567
  H          -0.22263680586918      7.20520879513112      0.67786859085788
  H          -1.94438110677461      6.95586542520142      0.28785425724607
  H          -0.75075025514312      7.16008077294683     -1.02674966961212
  H           1.08159051890900      3.67173900923967     -0.90684504540058
