69
Coordinates from ORCA-job goat_0_56 E -1780.868098473176
  O          -1.29041890301843      2.90149221030305     -0.09557523106988
  C          -1.88491157790675      2.45383113022235     -1.30748354007534
  H          -1.56284335401133      1.42084264177957     -1.45850689121417
  C          -3.41880640095543      2.45250820181019     -1.23341859477570
  H          -3.72431925677094      2.01185228229230     -0.28098920454937
  O          -3.88995674390793      1.67295159818785     -2.33659545044075
  Si         -4.69951684749169      0.22344329756428     -2.07770328488818
  C          -6.31650294528081      0.59750495826296     -1.21867963599216
  C          -4.94706038437224     -0.50145504571868     -3.79841778150063
  C          -5.59589201413930      0.54462696946990     -4.71633215660665
  C          -3.59510498715680     -0.92775649918015     -4.38873161068413
  C          -5.86565868868032     -1.72830773052915     -3.69540629194218
  C          -3.65084613731822     -0.87773917583841     -0.98794715228042
  C          -4.03995515619604      3.84280462986239     -1.32949137664848
  H          -5.07712869519355      3.70157524149758     -1.64148080743076
  C          -4.09787041993956      4.59244088800964      0.00422736462768
  O          -5.09317480547898      3.97497910599785      0.80881756962820
  Si         -4.83700912615640      3.58215423387960      2.41469819173527
  C          -3.94588907511375      4.99113519428267      3.26831238739720
  C          -6.56086833210335      3.31408979143242      3.13345577224244
  C          -7.32402925983802      2.27636739075195      2.29859341506916
  C          -6.43569251489380      2.80693026110271      4.57782467929693
  C          -7.33679592562245      4.63877192709950      3.12592172125193
  C          -3.79622096265520      2.03067828313374      2.52597453828774
  O          -3.46249589247937      4.63370255269499     -2.37930183519809
  C          -2.05688562577630      4.68253303753796     -2.45408261690118
  H          -1.84753842685930      5.22252761254106     -3.38305526364685
  O          -1.47823552013608      5.35759628091464     -1.35981660169183
  C          -1.72479939124795      6.76375982654389     -1.35239731959105
  C          -1.42482109570628      3.28934024919491     -2.50618733294007
  H          -0.33970191493422      3.40832775572211     -2.46890497654347
  O          -1.74248960312944      2.66035976638089     -3.73755142103611
  H          -1.20679141163306      3.86507335062648     -0.14220289686970
  H          -6.84557080163939     -0.32610351336375     -0.96698238046347
  H          -6.97069195345761      1.20991710719481     -1.84512282785296
  H          -6.13151108313749      1.14107024450400     -0.28793198180257
  H          -4.95585570026912      1.42286797865320     -4.83743500634946
  H          -6.56172386750909      0.88099350532820     -4.32699907883736
  H          -5.76926892325760      0.11397352547749     -5.70998270129507
  H          -3.12569606552827     -1.71441086665690     -3.79126958371847
  H          -2.89639455912195     -0.08813123836392     -4.44970782192612
  H          -3.73609855879238     -1.31899392452348     -5.40352920210139
  H          -5.44697708810941     -2.49435059621799     -3.03493181612602
  H          -5.99877832947431     -2.18032835710892     -4.68551955478216
  H          -6.85608471857198     -1.45954481302726     -3.31653062208789
  H          -2.65577674286184     -1.03202134505100     -1.41290339435519
  H          -4.12710573652233     -1.85562102028024     -0.86854274743287
  H          -3.53488132488228     -0.44119386011355      0.00871319611868
  H          -3.13089240489144      4.60588687324695      0.50895629642868
  H          -4.38871516409650      5.62735686183757     -0.19790898657063
  H          -4.45181400970777      5.94525568883136      3.09777536861858
  H          -2.91676708320293      5.08019984952594      2.90855172029745
  H          -3.90587270562026      4.81463213947312      4.34735681141421
  H          -6.80321003807966      1.31434635684988      2.27271668416730
  H          -7.46035017923457      2.61378429454609      1.26781980100356
  H          -8.31750355972599      2.10502683542845      2.73112910764565
  H          -5.89096409984197      3.51395534194323      5.21127693963261
  H          -5.91872014318411      1.84395265679179      4.62373754597563
  H          -7.43247474915793      2.67052996568488      5.01435452932880
  H          -8.34891021540663      4.48423022894232      3.51956293048758
  H          -7.42945398590774      5.04358285932458      2.11375587912360
  H          -6.84986300643591      5.39447535915306      3.74926574290383
  H          -4.29626973681355      1.17822022312682      2.05704906406127
  H          -3.59600108630900      1.77768100906196      3.57139896632076
  H          -2.83602836566712      2.18062084497111      2.02404058502327
  H          -2.79456966462861      6.97625916586317     -1.29610346134654
  H          -1.30774035542873      7.22144986794709     -2.25534757509385
  H          -1.22582194639884      7.16776485710842     -0.47246711803016
  H          -2.62056966102219      2.25933374605837     -3.63185178339866
