69
Coordinates from ORCA-job goat_0_126 E -1780.869944536218
  O          -1.11786465689464      0.94694500890526     -1.77388676327497
  C          -1.66276173336070      2.25663232427247     -1.84810563647116
  H          -1.60201122774533      2.62703680180318     -2.88330039256371
  C          -3.13108516598443      2.20892128310806     -1.45882368705886
  H          -3.22346232396487      1.72856122807421     -0.47855996607463
  O          -3.87026057333721      1.51881605537002     -2.44796420342384
  Si         -4.63065465970879      0.04057854527229     -2.27316722243798
  C          -5.55221050489223     -0.04171038712793     -0.64786113427894
  C          -5.81118798028754     -0.03562173906310     -3.74673867187936
  C          -6.78128782418590      1.15325417012752     -3.70350324963004
  C          -5.01368374487081      0.01209148192046     -5.05805527490913
  C          -6.61417310099081     -1.34377763024668     -3.69181107406219
  C          -3.39333443148349     -1.36136083446321     -2.33209270109369
  C          -3.68466061659024      3.63496201456643     -1.36693227895393
  H          -3.69081883051977      4.06733100058739     -2.37863289973733
  C          -5.10166568120232      3.68048038113145     -0.82606242282461
  O          -5.21473094204329      3.07288399501980      0.44358189605689
  Si         -4.94989433477019      3.78278104312089      1.92967110626246
  C          -5.08083237627033      5.64557384734886      1.80292996307698
  C          -6.31470149411655      3.08767703362390      3.04310453088317
  C          -7.68815720981107      3.42150561892518      2.44456060647157
  C          -6.17136012099153      1.56270824071898      3.15274436001593
  C          -6.21271684245672      3.70482839319295      4.44533487890350
  C          -3.27113656943891      3.27912870938038      2.58838448428010
  O          -2.88218976795257      4.43271587121867     -0.50321632690369
  C          -1.54349414592619      4.57603576846871     -0.94593315513832
  H          -1.54294443150869      5.01379946006319     -1.96002086350743
  O          -0.87599093880011      5.40646723205467     -0.05895775822551
  C          -1.23934688761613      6.78087889354861     -0.18727126833362
  C          -0.87527333210760      3.20789791322231     -0.95317338290353
  H          -0.86755121884480      2.82768490422167      0.07200241710943
  O           0.48460109814746      3.25924590394171     -1.36659734094573
  H          -0.16352950658020      1.03803225932126     -1.89217420693042
  H          -6.28935751653948      0.75758464774717     -0.55159339781083
  H          -4.86345471518245      0.03667494797596      0.19752506005853
  H          -6.06698583029197     -1.00442270344059     -0.57031704402333
  H          -7.37324808200941      1.16008910418899     -2.78313257392177
  H          -7.47994783927158      1.09929777603686     -4.54765556760202
  H          -6.24892983800971      2.10594149273478     -3.76969943315218
  H          -4.33504376604458     -0.84117007807845     -5.14840782871744
  H          -4.41909543430988      0.92721407832029     -5.13293449033167
  H          -5.69771931568562     -0.01479880350393     -5.91538128521157
  H          -7.21903421710816     -1.40979570928148     -2.78244244849314
  H          -5.96244503929929     -2.22187370977488     -3.72915342706852
  H          -7.29615854103515     -1.40054384376990     -4.54896340367786
  H          -3.91247498636875     -2.32441955462887     -2.30679719981325
  H          -2.72206633462432     -1.31105095112665     -1.47138015697774
  H          -2.78269759354781     -1.32166754063962     -3.23744670537759
  H          -5.42661765772408      4.72578969265408     -0.79358098808001
  H          -5.75427532616180      3.14255112754658     -1.51747653341369
  H          -4.95954417334022      6.09433384088260      2.79324011728691
  H          -6.05125325593566      5.95776885109155      1.40711562553493
  H          -4.29858192632467      6.04233742548159      1.15240269336631
  H          -7.84399873645102      4.50206079551887      2.36920576652022
  H          -8.48590876660564      3.01471182610150      3.07853917136390
  H          -7.80288252996469      2.99312804799052      1.44476995383986
  H          -5.21817922527984      1.27949863322012      3.60919161134068
  H          -6.23257274487511      1.08158843965407      2.17260388035052
  H          -6.97411890224866      1.15257857292379      3.77834839953880
  H          -5.24898321451021      3.48785395581850      4.91580146997091
  H          -6.99698276696600      3.29546035762979      5.09409626790485
  H          -6.33888876189745      4.79135688550708      4.41944979169593
  H          -3.13516265438717      2.19628633558814      2.51300705714307
  H          -3.16408351531776      3.56107602376234      3.64013626468003
  H          -2.47751917910528      3.76380446750522      2.01669226259550
  H          -1.07232316771929      7.12565073307530     -1.21369762172617
  H          -0.59823819065915      7.34020887431091      0.49339539369990
  H          -2.28595066806231      6.93987262020423      0.08417861861300
  H           0.51993633997092      3.63764856914386     -2.25515164160244
