69
Coordinates from ORCA-job goat_0_28 E -1780.872786353016
  O          -1.59371427912304      0.66367651918567     -2.23897485756789
  C          -1.85627252401685      2.06142866245515     -2.14851520305654
  H          -1.80220907855527      2.51378930832950     -3.14772252915849
  C          -3.22992782406483      2.34969308875403     -1.56275628840605
  H          -3.31597311069890      1.84286024855737     -0.59777186072592
  O          -4.21833734111488      1.90107463147024     -2.47044198948217
  Si         -5.43980451306916      0.80839589541227     -2.12493529675559
  C          -6.99469235549970      1.71176188896753     -1.60872775657523
  C          -5.72433989488769     -0.11848101111781     -3.74788117427812
  C          -6.72540901937979     -1.25998073039309     -3.51481703891623
  C          -6.28896167889057      0.84046845193619     -4.80634558253748
  C          -4.40132526359907     -0.70391401735805     -4.25969246636728
  C          -4.89564578520919     -0.34791802857707     -0.75854444997799
  C          -3.36884587031262      3.85386178612875     -1.32925064491925
  H          -3.30163126944651      4.37643122486628     -2.29476970365737
  C          -4.68650161437614      4.22713582014354     -0.68294100932867
  O          -4.91283754099686      3.44509125303691      0.47687353794555
  Si         -5.38382769509126      4.12424629579731      1.92697972976031
  C          -7.01391688545284      5.01421728994470      1.68684778537814
  C          -5.54381659264153      2.66535742152109      3.11171057421833
  C          -5.91351369911951      3.18534617836929      4.50880528057605
  C          -6.64059295316922      1.70905261514146      2.62190547521520
  C          -4.20998491397485      1.90814772697888      3.18863054520617
  C          -4.08807986037293      5.34718197999354      2.50272558716902
  O          -2.31607854612097      4.28705398890675     -0.47071592038562
  C          -1.03180927048203      4.13346363315753     -1.05369996257641
  H          -0.99988922713236      4.68312480503667     -2.00932698106339
  O          -0.08958300080564      4.63714357001751     -0.16971533800930
  C          -0.10889832246880      6.06168559155080     -0.07785864991123
  C          -0.75348582800432      2.65568621776592     -1.28597470076299
  H          -0.75028243173576      2.15547722914793     -0.30846916475998
  O           0.50931668071213      2.52239356990954     -1.92066123185744
  H          -2.13633509856415      0.30327256255289     -2.94936889893357
  H          -6.83989496645888      2.21777946491586     -0.65322297415509
  H          -7.82207563299474      1.00502511173964     -1.49218667365826
  H          -7.28744820752170      2.45749046288436     -2.35268434002086
  H          -6.33826336114398     -1.99892329541212     -2.80716240519275
  H          -6.92813816051354     -1.77887957086534     -4.45949216078316
  H          -7.68056815078933     -0.89051664765762     -3.12909904886188
  H          -6.41734018694207      0.31434849700503     -5.76031712568001
  H          -5.61794960144973      1.68723482023826     -4.98014747019163
  H          -7.26489927785493      1.23646096875768     -4.51174749116785
  H          -3.69395745442532      0.08902595405686     -4.52094553313839
  H          -4.57596590896722     -1.29870133349233     -5.16445043672374
  H          -3.93066850613324     -1.35985708130710     -3.51995567544420
  H          -3.97871335972039     -0.88254174436482     -1.01975954383292
  H          -5.68100304273133     -1.08518246283016     -0.56777152972586
  H          -4.72158772461324      0.19769539697169      0.17253963374914
  H          -4.66364904620060      5.29852539282932     -0.45365571344498
  H          -5.49114016808509      4.05385325197130     -1.40258413821151
  H          -7.37585647904432      5.42948252477283      2.63197007222590
  H          -7.77943802983079      4.34094570928289      1.29169580235397
  H          -6.89345047019069      5.84327133031463      0.98247880954026
  H          -5.14342946282558      3.85094370225005      4.90997103902106
  H          -6.02133812872181      2.34461662778162      5.20480210031508
  H          -6.86197719350092      3.73145840321192      4.50013943966901
  H          -6.41697332287639      1.31703648310824      1.62638238733353
  H          -7.61652500394706      2.20170334385005      2.58009228612876
  H          -6.72769430009014      0.85631225132794      3.30656145983782
  H          -3.40268556624209      2.54766863012109      3.55788656558231
  H          -3.91260232856967      1.51903328266880      2.21084541361765
  H          -4.30106470024177      1.05780794120764      3.87565965829637
  H          -3.11870145795748      4.86243049745756      2.64434270688729
  H          -4.38769769121421      5.80479316529941      3.45015814722078
  H          -3.96140098372006      6.14952441079539      1.76981844442140
  H          -1.03905117222062      6.41465959113411      0.37485469997162
  H           0.00705322236277      6.51030998500913     -1.07065154023843
  H           0.73376778864216      6.34727307115076      0.55108894276946
  H           0.57437459439946      1.60527625622598     -2.21609362396840
