69
Coordinates from ORCA-job goat_0_53 E -1780.867744076262
  O          -1.39217575580338      2.73826875280518     -0.71290175975990
  C          -2.15470450287627      2.63023631407862     -1.90861173689603
  H          -1.94794736824150      1.64460337007103     -2.33088937434838
  C          -3.66456483354575      2.71216272713378     -1.63767748373933
  H          -3.90418557219230      2.07424702865328     -0.78410243601349
  O          -4.32102105838628      2.25775167812743     -2.82318394734999
  Si         -5.49968971160437      1.06173893121874     -2.85503901817741
  C          -6.38360689123488      1.34418623381937     -4.47414687528074
  C          -4.68781299429434     -0.64451339999440     -2.80094640293506
  C          -5.77683736212932     -1.72004541119417     -2.93889000867846
  C          -3.69167317442375     -0.78114625237119     -3.96129297104944
  C          -3.94890917950672     -0.85311282738890     -1.47101709324499
  C          -6.64989891806095      1.30299187517079     -1.40171644540213
  C          -4.15024465213759      4.12683215545215     -1.32882087404970
  H          -5.22597236349486      4.13914410456825     -1.51663374482894
  C          -3.97138521918649      4.54742304244820      0.13233561097680
  O          -4.91702135235187      3.83154650776300      0.91507314523259
  Si         -4.50317515022624      3.08522099076880      2.35439743100578
  C          -3.35949869530323      4.20360515248801      3.32912168003920
  C          -6.13552632177544      2.81130966611932      3.26020098764207
  C          -7.11074153174634      2.02697064446138      2.37158680778023
  C          -5.87140661217699      2.01345521188521      4.54589881542322
  C          -6.75984614723088      4.16628565712642      3.62277404755037
  C          -3.63499099015215      1.46722858260079      1.99402673652488
  O          -3.62524235896419      5.09913122596393     -2.24594014570529
  C          -2.23944791675694      5.07139561979712     -2.49589849678263
  H          -2.08893750543735      5.79644221663454     -3.30218761395990
  O          -1.47676072730848      5.43602243365670     -1.36700819741413
  C          -1.58877029950261      6.81511008624933     -1.01555262216764
  C          -1.75069907102153      3.69002553654638     -2.93776262291459
  H          -0.66143310025437      3.72446526717220     -3.01150269033163
  O          -2.25583156618358      3.38495921189707     -4.22783786112022
  H          -1.20738968989023      3.67607432738968     -0.55926246938620
  H          -7.17488465692279      0.60422937219184     -4.62247344070991
  H          -5.69365865498752      1.27963743103464     -5.31975944250995
  H          -6.84162529523495      2.33747671622824     -4.48139476592370
  H          -6.50181223441999     -1.66974201385346     -2.12082899151466
  H          -5.32114060862828     -2.71735544901084     -2.91722566714235
  H          -6.32300560932482     -1.62575713976980     -3.88205339873010
  H          -2.90844014806399     -0.01923829737502     -3.91147713813586
  H          -4.18869752051165     -0.69065943613859     -4.93164345206176
  H          -3.20644296913149     -1.76420498788899     -3.92670631269171
  H          -4.61978611457791     -0.75393253523208     -0.61288814780454
  H          -3.12835296140166     -0.14212661388549     -1.34225891276299
  H          -3.51589761245576     -1.86042072040915     -1.43974844964251
  H          -7.10222862753288      2.29833671341209     -1.43312711698060
  H          -6.13478335427003      1.19566911740292     -0.44473279488607
  H          -7.45568081633866      0.56383050987470     -1.43314650567144
  H          -2.95391823753702      4.37669155390522      0.48542886809090
  H          -4.17961217119784      5.61883387856942      0.20584447691991
  H          -2.38421418400361      4.28967091693922      2.84154828410846
  H          -3.19429158419191      3.79610570334541      4.33091947506518
  H          -3.77903226385932      5.20776537283940      3.43469241745097
  H          -7.34516532762501      2.57226027050639      1.45373431530472
  H          -8.05057759415750      1.85366042245310      2.91025486194845
  H          -6.70553651820310      1.05071896980487      2.08890460966016
  H          -6.80909910042337      1.86722199586273      5.09557932445446
  H          -5.17571044238259      2.53362590670593      5.21157794409767
  H          -5.45663439754588      1.02465395862802      4.32891712928567
  H          -7.72035186716559      4.01423316359543      4.13019265712276
  H          -6.94442260518032      4.77396619772255      2.73196683809354
  H          -6.11572864670770      4.73943093429276      4.29606717670225
  H          -3.32002749858475      0.98375943476218      2.92354312886379
  H          -2.74425371386194      1.64220883785481      1.38372554973684
  H          -4.28747617271950      0.77642906849445      1.45270587942782
  H          -0.95658047837532      6.97164684478223     -0.14242687280481
  H          -2.62053735167916      7.07715011575822     -0.77149051009383
  H          -1.23778282962046      7.44186158478390     -1.84183230663677
  H          -3.15042117777438      3.02795563069464     -4.10302110026889
