69
Coordinates from ORCA-job goat_0_43 E -1780.867910067674
  O          -1.26812424812647      2.89316953734367      0.13260469858661
  C          -1.61910288195537      2.47948769820671     -1.18278896442925
  H          -1.22900539747043      1.46762362316981     -1.31212839538758
  C          -3.14168301388490      2.42356570362793     -1.37963442109836
  H          -3.59169822622820      1.91935955900965     -0.52249432185596
  O          -3.38983527446809      1.70371887723018     -2.58975301440777
  Si         -3.85651990470080      0.09036030713431     -2.65818900072920
  C          -3.06629478106445     -0.85632577670548     -1.25076226746110
  C          -5.74026853113110     -0.00681454662657     -2.57162547631981
  C          -6.23073848501485      0.49164194686297     -1.20562967767675
  C          -6.35338218732701      0.86746268496061     -3.67482414074464
  C          -6.18674296809196     -1.46303515084807     -2.76988326009403
  C          -3.20863818920995     -0.50233423897523     -4.30533211932801
  C          -3.78610286406528      3.79940175491160     -1.51638510986155
  H          -4.75332571712666      3.64268270606348     -1.99936164043257
  C          -4.07857515039628      4.49921846775329     -0.18676099490076
  O          -5.11657742043728      3.79168267017408      0.47424097365393
  Si         -5.03797360434082      3.32766438779355      2.07964646006838
  C          -4.10742629919674      4.62406738122432      3.06117133182317
  C          -6.83385152700631      3.19410287328415      2.64425537028642
  C          -7.61107988354269      2.25674749902917      1.70983640271985
  C          -6.88167559736110      2.63501528762428      4.07384291101115
  C          -7.48396847612630      4.58477742959254      2.62133880906323
  C          -4.15288959653071      1.68468851007553      2.22547093053402
  O          -3.07186246233347      4.65052541849997     -2.42666220831580
  C          -1.67535147239902      4.74764692832213     -2.26415478251575
  H          -1.33709170969534      5.32617380855521     -3.12976033976740
  O          -1.30910850790618      5.40345378515850     -1.07070005390472
  C          -1.62026647699601      6.79672799196785     -1.05870653514165
  C          -0.98856903228808      3.38012828335585     -2.24944846552615
  H           0.06659556891325      3.53494130442495     -2.01337363010947
  O          -1.05231586098056      2.79019811854340     -3.53816000749716
  H          -1.19446524339477      3.85842010844850      0.13355308101095
  H          -3.33117710122797     -0.44701386756288     -0.27251864596783
  H          -1.97680429575668     -0.84731577724189     -1.34416003295793
  H          -3.39617688205481     -1.89911885978731     -1.27683268224289
  H          -5.82810666260463     -0.10894141344757     -0.38465859472303
  H          -7.32469854024606      0.43049369215936     -1.15475927793537
  H          -5.95301390931791      1.53366021916980     -1.02672387769676
  H          -7.44813579861942      0.81977525026413     -3.62571364608814
  H          -6.05124311670148      0.53319704104321     -4.67184132273505
  H          -6.05876546621475      1.91518789068832     -3.56459214983841
  H          -5.78025518049589     -2.12113611846326     -1.99589108847359
  H          -5.87634395976256     -1.85335037004916     -3.74371892455641
  H          -7.28041334779548     -1.52862310705842     -2.71898343432256
  H          -3.46155216466277     -1.55352067124985     -4.46908914779111
  H          -2.11918316240059     -0.40625070148087     -4.33417083149961
  H          -3.62521446208925      0.08136812933987     -5.13057460710608
  H          -3.19060082216156      4.57783689486701      0.43950591864532
  H          -4.42272132062706      5.51333398853936     -0.41139240299533
  H          -3.04058399186942      4.61265274683677      2.82053316159939
  H          -4.20755070522860      4.42603445206916      4.13252882439712
  H          -4.49313517371011      5.62793317488944      2.86350796383122
  H          -7.62024825372573      2.63200392484374      0.68346370064160
  H          -8.65138862829196      2.16998194013309      2.04720159570050
  H          -7.18096608584773      1.25096542603802      1.69549403336330
  H          -6.46168757516223      1.62635677466440      4.12685924118840
  H          -7.92112545078426      2.58058429292554      4.41957733882317
  H          -6.33227567315299      3.26793915063254      4.77770920624040
  H          -7.44945878446063      5.02733791629444      1.62128200137629
  H          -6.98854250906709      5.27252954418515      3.31299460779338
  H          -8.53698891306941      4.51337012442013      2.92022583378025
  H          -4.66313466260134      0.90223612051794      1.65705868242543
  H          -4.10118363347539      1.36964449524758      3.27195995469724
  H          -3.13003798072342      1.77115592009523      1.84801589099166
  H          -1.26724948248369      7.19154828319341     -0.10683590880282
  H          -2.69630718886576      6.96155258627750     -1.14653915494536
  H          -1.10448851954187      7.30223688649043     -1.88172357820716
  H          -1.92648518331532      2.37381903132264     -3.61268136786147
