69
Coordinates from ORCA-job goat_0_51 E -1780.872453686178
  O          -1.54946548468411      1.04334177459570     -2.39793810332090
  C          -1.96359413708240      2.39202014546421     -2.20335807858318
  H          -1.96369502009871      2.84132309847201     -3.20187268009134
  C          -3.36411680103666      2.51220016948355     -1.61671718628101
  H          -3.38811564536841      2.00021118365574     -0.64943271209327
  O          -4.31107375835676      1.96481413804519     -2.50952844838809
  Si         -5.38664346226936      0.73199549527309     -2.15282887024021
  C          -7.05953535750993      1.44664073616186     -1.71268312725548
  C          -5.51792207317133     -0.29675813888208     -3.73347233895154
  C          -4.18572453265692     -1.00331620703852     -4.01881597233075
  C          -6.62093189803692     -1.35279430785414     -3.56643575889380
  C          -5.86963846781657      0.61497296333772     -4.91808048316349
  C          -4.74580266941971     -0.28619802664259     -0.71865384305700
  C          -3.67549427902911      3.99195912993976     -1.37796208218232
  H          -3.67074885275291      4.51857428905744     -2.34380417442494
  C          -5.03049518365829      4.20821358114425     -0.73241892206690
  O          -5.24854516107546      3.36491203312244      0.38003748827694
  Si         -4.73599751462148      3.60838103465711      1.94981289876348
  C          -4.46222226150994      5.43094360306789      2.27289448084651
  C          -6.14448358408172      2.92704550381257      3.01329212590113
  C          -7.42750638784424      3.72396411912084      2.73880346510001
  C          -6.38804290440489      1.45015966141956      2.67025149886332
  C          -5.78282490576365      3.04698608733449      4.50057436759326
  C          -3.16086102889609      2.64637596236432      2.26251416141744
  O          -2.68609236731362      4.55266065851044     -0.51966179711756
  C          -1.39149819893175      4.55595019315137     -1.09880974621685
  H          -1.42268181469423      5.10965767355999     -2.05222709100322
  O          -0.51823670268714      5.16383721842514     -0.20902110900679
  C          -0.70335358860483      6.57622593812443     -0.11349317551858
  C          -0.94230339760634      3.12334288920033     -1.33587583749165
  H          -0.87961969874070      2.62655899264124     -0.35742305717990
  O           0.32797601405981      3.13976547252243     -1.96816729815926
  H          -1.61678615076746      0.58114813053834     -1.55249330545234
  H          -7.77646184533498      0.64238663406247     -1.52254071258028
  H          -7.45549953110941      2.06989201896159     -2.51945162824801
  H          -6.98128241648672      2.05360728797367     -0.80820118386375
  H          -3.36602337863141     -0.28879539977761     -4.12825670135882
  H          -4.25907041241427     -1.58038547131688     -4.94900283681414
  H          -3.92008927540112     -1.69913925002332     -3.21719060115875
  H          -7.60175704905438     -0.89365609409724     -3.41456474901794
  H          -6.42288697253643     -2.01620581040371     -2.71859235747685
  H          -6.68161824858137     -1.97593289525527     -4.46699472106068
  H          -5.09679245729913      1.37034458385029     -5.08516914377866
  H          -6.82094128800529      1.13281111273452     -4.76162791546238
  H          -5.96249818081259      0.02016964429256     -5.83523609050025
  H          -4.74117973398854      0.29685060341358      0.20594940051225
  H          -3.73366109622584     -0.65652273918013     -0.90032865466880
  H          -5.39999591279300     -1.14961759365568     -0.56379269651522
  H          -5.11787616298656      5.26355545857293     -0.45348476162565
  H          -5.80319443246441      3.98766849669458     -1.47186744086849
  H          -3.62857881893641      5.80431940836748      1.67370887493541
  H          -4.22052252885640      5.58924502401723      3.32814563598032
  H          -5.35055797313511      6.02323648681387      2.03701760399865
  H          -7.31174203807712      4.77940316437964      3.00307737483519
  H          -8.25688256111244      3.32166070475519      3.33371721947048
  H          -7.71404230669516      3.66864777096112      1.68450487458459
  H          -7.20844285627824      1.05242935780785      3.28059654571155
  H          -5.50226890296940      0.83813150131023      2.86559706635908
  H          -6.66048655057872      1.32241052994357      1.61892627181535
  H          -4.88374508244480      2.47425999390655      4.74653665563663
  H          -6.60180010171758      2.65958300939145      5.11909417009484
  H          -5.61125782970386      4.08733523419627      4.79354812904467
  H          -2.34009143119489      3.06946503165606      1.67955805635399
  H          -3.27890740801531      1.59662886110407      1.97861383491091
  H          -2.88676021704842      2.68349594996873      3.32103965344314
  H           0.09533431860231      6.95527794589426      0.52335133312006
  H          -1.67169891252138      6.81710266271878      0.33254523294494
  H          -0.63243573691457      7.03875952397443     -1.10405201725889
  H           0.48663268815504      2.24207255620065     -2.28821907978617
