69
Coordinates from ORCA-job goat_0_125 E -1780.867246643132
  O          -1.58155288495730      2.66326155452268      0.46214108200435
  C          -1.73662817941837      2.33014449870584     -0.91162283189124
  H          -1.36911858854526      1.30906901749692     -1.03347564062939
  C          -3.21107776452840      2.34999205588959     -1.34110934109271
  H          -3.80523727361014      1.84842785878161     -0.57461696877275
  O          -3.30416601321290      1.67039190547057     -2.59607729286726
  Si         -3.85601510942627      0.09072905706422     -2.76061278544380
  C          -3.20880559103781     -0.94781145546350     -1.34422941436733
  C          -5.74579355166828      0.07516315142852     -2.80072100895817
  C          -6.25168014130954      1.06540580087398     -3.85914387776761
  C          -6.22373880575278     -1.33967148169857     -3.16338364218728
  C          -6.32104778532266      0.46336436464761     -1.43073287649453
  C          -3.12938644826103     -0.46927149954998     -4.38599379616078
  C          -3.77569360972254      3.75623110847250     -1.52658185394937
  H          -4.64493801189141      3.65529150339698     -2.17964835104440
  C          -4.29276196802320      4.39274259615064     -0.23533405458406
  O          -5.42512490461762      3.63533205545433      0.15999859707699
  Si         -6.22824484193295      3.82242559456519      1.61314479661499
  C          -7.97637434089635      3.26736568249670      1.25420962913915
  C          -5.43888677300417      2.73230994144920      2.94315557382642
  C          -5.33118866998690      1.28832855125966      2.43258492570425
  C          -4.03646483055942      3.24199115040615      3.30486209436053
  C          -6.32181763588705      2.76014673833385      4.20038070397236
  C          -6.18684043651383      5.62749283024965      2.10767672688140
  O          -2.89085669072849      4.62293257159022     -2.25116740368945
  C          -1.53867861102936      4.64801680735004     -1.85821482400532
  H          -1.04147354842088      5.25859299161795     -2.61886327552155
  O          -1.35356433378167      5.21836403895589     -0.58177360725197
  C          -1.62934850493108      6.61819048631068     -0.53041409327801
  C          -0.91573666124211      3.25095082173273     -1.81839312896224
  H           0.09749289997122      3.34235278429024     -1.42085711422926
  O          -0.81227960259399      2.72841515303906     -3.13374100224920
  H          -1.50005348197715      3.62587357796381      0.52864720645509
  H          -3.48691270778190     -0.53773682145309     -0.36969439170187
  H          -2.11847477380605     -1.02011098564766     -1.38816521012764
  H          -3.61571369684936     -1.96128327564973     -1.40784646251910
  H          -5.88207849456530      0.81527069259059     -4.85818507339193
  H          -5.94193531149096      2.08888732046357     -3.63043510254488
  H          -7.34779186916376      1.04669546715147     -3.89632190442521
  H          -5.86999381247219     -1.64671157532955     -4.15196812354912
  H          -7.31997954208410     -1.36972615296909     -3.17837786621171
  H          -5.88344653810974     -2.08299357794020     -2.43583927392485
  H          -5.99388303389846     -0.22407093292470     -0.64498009544199
  H          -7.41726446434344      0.42944998525997     -1.46482523630864
  H          -6.03319112852378      1.47548814052561     -1.13541585687032
  H          -2.03925092629427     -0.38231712613637     -4.35453025532799
  H          -3.49712896633673      0.13713645510791     -5.21800706920759
  H          -3.38118605218009     -1.51403672608805     -4.58748500342663
  H          -3.53708022922676      4.41025836617085      0.55066148116336
  H          -4.58191632044168      5.42547645059632     -0.45575125755190
  H          -8.40312303622901      3.87715609607800      0.45251796105071
  H          -8.61272622664680      3.37315813037977      2.13704257148488
  H          -8.00333704858901      2.22131492816423      0.93704668527641
  H          -6.30993084422631      0.87642441473559      2.16847958394101
  H          -4.89898337671416      0.64618019518619      3.20999988119643
  H          -4.68895965104052      1.22256706501354      1.54997929923313
  H          -4.06176492030120      4.27072611370344      3.67600709674314
  H          -3.35827736837042      3.20338651911709      2.44846091728672
  H          -3.60408121496336      2.61496491540348      4.09467658024766
  H          -6.43444898011090      3.77483072597260      4.59515529324510
  H          -5.86905458422290      2.14662660530961      4.98892816637899
  H          -7.32090060339298      2.36127235655612      4.00257158516991
  H          -5.16356461150728      5.98905343528250      2.23996675247353
  H          -6.72303637252417      5.78062586174480      3.04865134212131
  H          -6.66843145911797      6.24110136909473      1.34030466592683
  H          -0.97015608430809      7.15494508804958     -1.22047909743381
  H          -1.43315201474499      6.94192067357655      0.49094355968553
  H          -2.67084375748017      6.82447107770782     -0.78622026318959
  H          -1.67607726312075      2.34266681194111     -3.35299915010762
