69
Coordinates from ORCA-job goat_0_69 E -1780.869514245193
  O          -1.06507827193537      0.93640119805274     -1.74048443980361
  C          -1.47130208009831      2.28871648228743     -1.90782254199969
  H          -1.31176249769802      2.60164774656583     -2.94922560865692
  C          -2.95414044638873      2.39265940611078     -1.59215016129116
  H          -3.12536429775985      2.01483310731592     -0.57995184145000
  O          -3.72716775105367      1.68384239785962     -2.53615734048951
  Si         -4.25914223090107      0.10412035090459     -2.38930876058533
  C          -4.06325892621872     -0.48716751730414     -0.62549976776509
  C          -6.08250245925152      0.11506315321626     -2.89686205707310
  C          -6.93750656565807      0.73478031194438     -1.78267695951492
  C          -6.26014024518838      0.93064668484153     -4.18526905874704
  C          -6.55189897470350     -1.32657418958943     -3.14337907265101
  C          -3.27457486527637     -0.97210332972016     -3.56011480483416
  C          -3.38277792632740      3.86134007222207     -1.63477425189678
  H          -3.24628757283773      4.23989908327811     -2.65864142393300
  C          -4.83834680894965      4.04715125614086     -1.25802594891563
  O          -5.11875326107682      3.41752280707904     -0.02055030690685
  Si         -5.92092779909640      4.19484159161577      1.21814695786691
  C          -7.64167008998799      4.65326146506512      0.63935128892559
  C          -5.95802656522908      2.93893901792121      2.62500692303633
  C          -4.53130736808608      2.45512762858334      2.92312555732365
  C          -6.54451075712140      3.60128887086293      3.88024203878177
  C          -6.82724489304538      1.73566839779222      2.23327764909195
  C          -4.99304914008083      5.74546763369990      1.70807963509827
  O          -2.59155246571761      4.63166162004813     -0.73260320868382
  C          -1.21996060460765      4.63003567668794     -1.08188011916637
  H          -1.09306411209225      5.00471402554601     -2.10627905519223
  O          -0.54594748971199      5.54141693084558     -0.26913387932178
  C          -0.55429650716583      5.25001035284981      1.13259319756756
  C          -0.67392910218993      3.20531937718057     -0.99373587467205
  H          -0.77193308074424      2.83726405230710      0.03358087841429
  O           0.68071995208626      3.14681123167836     -1.42320462277102
  H          -0.11623998333482      0.90170046173917     -1.91227472343545
  H          -4.54145462958836      0.19291546472779      0.08434813559059
  H          -3.00727662317097     -0.57774546235186     -0.36003585461835
  H          -4.52924813332768     -1.47127588442385     -0.51511258310900
  H          -7.98466738446549      0.80016145225955     -2.10382923879654
  H          -6.60267235513710      1.74204327192650     -1.52180499582024
  H          -6.90742009317935      0.12896010483894     -0.87267052539499
  H          -5.65551661352141      0.53041412605162     -5.00544757363943
  H          -5.97732059061027      1.97623226494324     -4.03674385906021
  H          -7.30967087109027      0.90663419934515     -4.50422201911885
  H          -6.40381962930240     -1.95861495365373     -2.26146146718110
  H          -6.02039028025217     -1.78665292778172     -3.98106779624635
  H          -7.62258949813943     -1.33733804809995     -3.38188041932194
  H          -2.20909387612280     -0.87757204246616     -3.33909161913079
  H          -3.43976034681257     -0.67838088762847     -4.60098495246635
  H          -3.55944344971274     -2.02307958128408     -3.45574597262470
  H          -5.04832540990423      5.12218481097906     -1.22445763616634
  H          -5.45907841269695      3.60546831951099     -2.04202285071512
  H          -8.17761902035252      3.77638505185981      0.26585199943718
  H          -7.58905882369063      5.38986753699785     -0.16853623721979
  H          -8.22543861149844      5.09201814902682      1.45399153501758
  H          -4.09132795246635      1.95432970263639      2.05627092184072
  H          -4.54382290380417      1.74041739674440      3.75532123716475
  H          -3.87297099704882      3.28232263474292      3.20607184686044
  H          -5.92999981640370      4.44055786210724      4.21910505280561
  H          -6.59515383050411      2.87390191178944      4.69958042523734
  H          -7.55895383589861      3.97380073525748      3.70575698237582
  H          -6.82934490238831      0.99425914034371      3.04181705552053
  H          -6.45086979565936      1.24561085557219      1.33136630742345
  H          -7.86466639065292      2.03013944643850      2.04953101352006
  H          -5.54296062472403      6.29092580175652      2.48068683111928
  H          -4.87064336814297      6.41315168736359      0.85046940480215
  H          -3.99917429961566      5.50724428256481      2.09574574122823
  H           0.11391965631909      4.41769668387539      1.37298231284304
  H          -1.56278526312319      5.02442164116986      1.48465834962431
  H          -0.19091156092024      6.14897107929099      1.62944409618704
  H           1.22731567505804      3.60892687794019     -0.77732191431772
