69
Coordinates from ORCA-job goat_0_22 E -1780.871221798612
  O          -1.51507575262953      1.51638197492119     -2.41914508900958
  C          -2.12777373080858      2.80201338311327     -2.36651994104117
  H          -2.23574271794155      3.20388908858462     -3.38275620055301
  C          -3.50040945160621      2.74856554694260     -1.71260099558126
  H          -3.40198572792329      2.26617063016871     -0.73701893906974
  O          -4.38185705462010      2.02814866025794     -2.55255443950468
  Si         -5.27106566447947      0.67754009090419     -2.11576492873335
  C          -7.01333150259564      1.17045630895583     -1.64690212717050
  C          -5.29693212679022     -0.40412059427342     -3.66722189254893
  C          -6.11851961571307      0.28308514463892     -4.76800692371163
  C          -3.86828896876287     -0.63176724074152     -4.17915112084976
  C          -5.93534731242437     -1.76041407710752     -3.33283326896748
  C          -4.44662731420493     -0.19305226205823     -0.67998047811187
  C          -4.02458230519523      4.16822107091949     -1.49922784288499
  H          -4.17200358225154      4.64817649107254     -2.47806862046606
  C          -5.35066351433209      4.19671748806604     -0.76174377160332
  O          -5.37883426818264      3.34174204620711      0.36288968103326
  Si         -4.82067955874447      3.66678367233011      1.90168366491341
  C          -4.70328534718872      5.51281435206315      2.18131370071095
  C          -6.09747419772597      2.87887839816023      3.05331490388814
  C          -5.65079911547561      3.03894313967064      4.51348339561466
  C          -7.45673929774343      3.56579221836366      2.86047276716556
  C          -6.24000153631906      1.38451221001046      2.72963483089018
  C          -3.15004097643212      2.85833107856247      2.14478551599220
  O          -3.07389872556459      4.91861221713100     -0.74372423892115
  C          -1.84156569268760      5.07550667465554     -1.43034860280128
  H          -2.02679264119538      5.49987406523179     -2.42592974030008
  O          -1.07081504407166      6.02231028643605     -0.76597473823274
  C          -0.60043410720792      5.65015623302610      0.53116560888019
  C          -1.18937918544984      3.70292501854269     -1.57968802838168
  H          -1.03819214541140      3.26197445917967     -0.58711310991411
  O           0.05212260584066      3.86515346402653     -2.24757177959261
  H          -1.99286927696721      0.98506098465008     -3.06614281745292
  H          -7.00950863796193      1.72394276499374     -0.70540930119598
  H          -7.63801131226877      0.28086688766456     -1.52038959898863
  H          -7.46998036754094      1.79754490945649     -2.41736349431061
  H          -6.10113648993809     -0.32102092365382     -5.68349109983048
  H          -5.71637320000442      1.27110469648629     -5.01253051668860
  H          -7.16389621202807      0.40691579979760     -4.47166116887015
  H          -3.22195429466131     -1.06551637820721     -3.40871276738603
  H          -3.42025629136027      0.30449084322114     -4.52616752937943
  H          -3.87661095784170     -1.32401962233659     -5.02971487503140
  H          -5.34481906548730     -2.31425399333970     -2.59728140551349
  H          -6.00222015564747     -2.37657039750387     -4.23768059632186
  H          -6.94873309931279     -1.64604880506011     -2.93570551084578
  H          -4.44984531201062      0.43936492228205      0.21129482627966
  H          -3.41262527261199     -0.46605933703814     -0.90673286340049
  H          -4.99759144865485     -1.10700928143131     -0.43947226869519
  H          -5.56852465741172      5.23207437927598     -0.47965710657089
  H          -6.13040251193489      3.86161245235376     -1.44921771646014
  H          -4.42039921714481      5.71299655008487      3.21909054877942
  H          -5.65619449686606      6.01325325570015      1.98853509448751
  H          -3.94450254164217      5.95209693721525      1.52993222445998
  H          -4.69349734767282      2.54326056824757      4.70045863470877
  H          -6.39296751613394      2.59070373919362      5.18550520015553
  H          -5.54606235321742      4.09203532069173      4.79226119084065
  H          -8.21139744385642      3.09857261112716      3.50526095489406
  H          -7.80301500836497      3.48300908749646      1.82594388467280
  H          -7.41193191274660      4.62806889186145      3.11841502649036
  H          -6.98968262739922      0.92730760156915      3.38746083310006
  H          -5.29860208038036      0.84661957768161      2.87636184445842
  H          -6.56041565017229      1.22674950038152      1.69614778707018
  H          -3.20952316308187      1.77654798395304      1.99669259723743
  H          -2.77375833878511      3.04313540074623      3.15532740245895
  H          -2.42667680508546      3.25986503736833      1.43281120550749
  H           0.14631683487215      4.85376304323648      0.46985163768324
  H          -1.42396381507546      5.33787298909012      1.17690756834836
  H          -0.13499619893426      6.54215275449216      0.94952507799763
  H           0.35848387117012      2.98079799029018     -2.48539014382595
