69
Coordinates from ORCA-job goat_0_52 E -1780.869548887645
  O          -1.69152773450652      0.79124938780103     -2.26612932682874
  C          -1.92294415094424      2.19410977989615     -2.24718326673486
  H          -1.88726769013878      2.59376334462944     -3.27050789010010
  C          -3.30615594512394      2.45706803811146     -1.67457972437286
  H          -3.36926547028935      1.98811242366091     -0.68827996745088
  O          -4.29401935251238      1.95130374031781     -2.54975019846150
  Si         -5.42777437023838      0.78321095536979     -2.15881071519683
  C          -7.01894250684280      1.59375046118878     -1.59528616327169
  C          -5.71785313818893     -0.17941665986674     -3.75930720188383
  C          -4.44896165706683     -0.95011152339395     -4.14840692247001
  C          -6.86955563282509     -1.17528221376327     -3.55663448254591
  C          -6.08520330160050      0.79143512258295     -4.89094259447854
  C          -4.77554602387631     -0.31811008185521     -0.79388140721400
  C          -3.51394260391996      3.96510615242815     -1.50566637393732
  H          -3.49474685617848      4.43770908053164     -2.49875150070784
  C          -4.84052235637476      4.29331447787137     -0.85211831598753
  O          -4.99388973447789      3.55997482047683      0.34978503696786
  Si         -5.47998020348867      4.26240914966197      1.78215918500574
  C          -7.18746540859533      4.99764051508921      1.55780999194082
  C          -5.47413828403384      2.84621456834241      3.02838636811248
  C          -5.79259243997629      3.39965208551240      4.42513140649765
  C          -6.53215816584517      1.80252933518492      2.64337328307097
  C          -4.09020220095416      2.18071809540353      3.04845212936944
  C          -4.28095041774764      5.61597371075205      2.26864329673676
  O          -2.48080446831401      4.51994461319942     -0.69425895023809
  C          -1.20069351854047      4.38039280798842     -1.28084487408067
  H          -1.18991613058337      4.84648540503131     -2.27510713024849
  O          -0.27669748010730      5.10169225228415     -0.52456503283365
  C          -0.09930956666178      4.66067133621275      0.82593726268200
  C          -0.86374247003146      2.89640888490846     -1.41188052033368
  H          -0.84810571650858      2.43563453523001     -0.41784285674129
  O           0.38089778191515      2.70879993748933     -2.07446586158115
  H          -0.78885016912019      0.65887742801363     -2.58085224111175
  H          -7.43772505864578      2.24277738046821     -2.36948396287168
  H          -6.84103567747477      2.19189534995183     -0.69869679675665
  H          -7.76442030214896      0.83049537183980     -1.35235991278173
  H          -4.61294907220164     -1.49448417533260     -5.08671056296623
  H          -4.17272624869485     -1.68192825576763     -3.38338614597617
  H          -3.59899992963534     -0.27788452199186     -4.29234801318804
  H          -6.65656823259697     -1.88319578980471     -2.74944258536285
  H          -7.02732041911689     -1.75621858247712     -4.47347968977174
  H          -7.80851599356253     -0.66630704118318     -3.32093274902228
  H          -5.28129575051323      1.50807682804815     -5.08043232449991
  H          -6.99462603663128      1.35540464990325     -4.66183477216532
  H          -6.26510823370829      0.23490817969416     -5.81912813424155
  H          -3.78649385113603     -0.71289674350570     -1.03647999270577
  H          -5.45773189133035     -1.16039553608268     -0.64373569473774
  H          -4.70719676590060      0.22603474018069      0.15216664457888
  H          -4.87751333948913      5.37437119632808     -0.67710228680544
  H          -5.64664217706990      4.03499867839553     -1.54357946307893
  H          -7.56120299823792      5.41581350803347      2.49710492583340
  H          -7.89955503492718      4.24483601717459      1.20904205446644
  H          -7.15833763166700      5.80581521389919      0.82020024966225
  H          -6.76917527922437      3.89327783160941      4.45210731880712
  H          -5.03976715803180      4.12182378793353      4.75470881141721
  H          -5.81324449004086      2.58309131784368      5.15704991653733
  H          -6.51238630931659      0.96769986024869      3.35479385294520
  H          -6.35110737813514      1.39543345057544      1.64492146427290
  H          -7.54042188452773      2.22670871623840      2.65743661738956
  H          -4.07580622358505      1.36708239727755      3.78416480562422
  H          -3.30415593356750      2.89056173316441      3.32362677535157
  H          -3.83598721581663      1.75648507521230      2.07317723712225
  H          -4.21331424548202      6.37398464029866      1.48285075891554
  H          -3.27779856848932      5.21757403476252      2.44111616081173
  H          -4.61678295315687      6.11249340366673      3.18376650989545
  H           0.46432525885739      5.44651085139159      1.32774101273989
  H           0.47312557650624      3.72938533097560      0.87181964096152
  H          -1.05927937308822      4.52629325637986      1.32825953242011
  H           1.08540825548577      3.02385581835884     -1.49658553439300
