69
Coordinates from ORCA-job goat_0_3 E -1780.873697084685
  O          -1.51633469140982      1.07544239094709     -2.25157123923334
  C          -1.94834297678380      2.42959197766490     -2.15302485301552
  H          -1.93571695219851      2.89636365932646     -3.14707054900810
  C          -3.35381189415345      2.54020757417040     -1.58344016282531
  H          -3.38376884657127      2.02313937159149     -0.62123029952200
  O          -4.26900314767898      1.97070050176559     -2.50000352700647
  Si         -5.34679873958996      0.73455477135631     -2.15665395770657
  C          -7.03289144935095      1.43931117267021     -1.75825098002826
  C          -5.43012025750518     -0.29619238202513     -3.74027194558129
  C          -6.26826192251448     -1.55709852375395     -3.48020842704404
  C          -6.08477088321515      0.52259431548201     -4.86250918217541
  C          -4.02043790903917     -0.71221539347714     -4.18125574414661
  C          -4.71921219208156     -0.27503056257972     -0.71196285978446
  C          -3.68494407667020      4.01283321233875     -1.34663232749349
  H          -3.67103161811583      4.54799951738756     -2.30758576259131
  C          -5.04942720140999      4.21243534970546     -0.71545065813303
  O          -5.27265569017882      3.35915944759461      0.38858719204819
  Si         -4.77961703499331      3.59843513509622      1.96561354955888
  C          -4.53097303242544      5.42231342049078      2.30191138921741
  C          -6.19107563861227      2.89480082878981      3.01071532345232
  C          -7.48167408705584      3.67495975420596      2.72405405928531
  C          -6.41024859443204      1.41556561317175      2.66124444624523
  C          -5.84805298066315      3.01525848184734      4.50238752344274
  C          -3.19713917521924      2.65316655724488      2.29177386182185
  O          -2.70829147125901      4.56946846650374     -0.46985086635829
  C          -1.40166791910928      4.57349459746802     -1.02225661360565
  H          -1.41190930571414      5.13652921704618     -1.97059890187167
  O          -0.54662542445273      5.17162033240156     -0.10856787897018
  C          -0.73038037122000      6.58353675006483     -0.00515801908106
  C          -0.94141562355319      3.14367373550049     -1.26538594016059
  H          -0.89121040363601      2.63340842157651     -0.29472875896426
  O           0.33866459586608      3.17824370582064     -1.87851360548356
  H          -2.02220546060805      0.65355310780471     -2.95527358114406
  H          -7.00512532734743      1.96512379381522     -0.80132659243541
  H          -7.77375718367499      0.63694549595589     -1.68918838700617
  H          -7.36308347691906      2.13966354741330     -2.53020968083990
  H          -7.27715159056883     -1.31103213688135     -3.13508765266948
  H          -5.80268693966385     -2.20289187323337     -2.73010562876518
  H          -6.36711184943782     -2.13886653712524     -4.40463495420035
  H          -6.10051529814172     -0.05860691711392     -5.79274321636547
  H          -5.53632388696224      1.44941962420994     -5.05747807381076
  H          -7.11769442335800      0.78567885868462     -4.61783365068860
  H          -3.48446663650393     -1.24608920193079     -3.38942659769802
  H          -3.42725638065296      0.15748544395628     -4.48070623878012
  H          -4.07747402052051     -1.38061684768440     -5.04881795956653
  H          -3.72064894080671     -0.67792050616789     -0.90081131672337
  H          -5.39777794550933     -1.11293549466213     -0.52735468362931
  H          -4.68152749736007      0.32753564514748      0.19907562705099
  H          -5.15079160130605      5.26497241755887     -0.43054785338264
  H          -5.81122211975221      3.98929884745942     -1.46558761305841
  H          -4.30148338498209      5.57708996660826      3.36042292412586
  H          -5.42411395070825      6.00533273098068      2.06100599234671
  H          -3.69614777897638      5.80958419789451      1.71329147121743
  H          -7.75637673904188      3.61782387271716      1.66670087351343
  H          -7.38249056496211      4.73137427232174      2.99125774871990
  H          -8.31182279677943      3.26079008684335      3.30969243726978
  H          -7.23250914451088      1.00532321292542      3.26076374092941
  H          -5.51865111995450      0.81521594359274      2.86595779068638
  H          -6.66838828213051      1.28642700753678      1.60651536129231
  H          -5.69470636943774      4.05703696144329      4.80031164516934
  H          -4.94371498681677      2.45468610335094      4.75694451514946
  H          -6.66842433000268      2.61428294850887      5.11033062047984
  H          -3.29814853527641      1.60438607009354      1.99811389704077
  H          -2.93760446368905      2.68493208071938      3.35415727309691
  H          -2.37393756900723      3.09074690539888      1.72326971153446
  H           0.05726660922993      6.95567396414200      0.64929512280567
  H          -1.70625024960082      6.82322563739129      0.42484817798395
  H          -0.64024102565373      7.05379048843236     -0.99051361754668
  H           0.52855211634119      2.27889890449848     -2.17445190738356
