69
Coordinates from ORCA-job goat_0_42 E -1780.872410243584
  O          -1.50380794207933      0.86600586931863     -2.06388250740027
  C          -1.87494680819120      2.23798947381946     -2.04524291764119
  H          -1.80651231792876      2.57563438963050     -3.08446375129381
  C          -3.31255906834140      2.42818190516498     -1.56410366947718
  H          -3.40271326198987      1.98494610800978     -0.56711992994488
  O          -4.20427782730940      1.81960849417278     -2.47454475579997
  Si         -5.28912963910444      0.59942704915049     -2.10588001199515
  C          -6.98943988720867      1.32381819675856     -1.80780254557700
  C          -5.32444200052901     -0.52310271740424     -3.62700080584627
  C          -3.96580564924845     -1.21290620291427     -3.80860670053503
  C          -6.41190503782314     -1.59328349738777     -3.44898761728420
  C          -5.63818919747931      0.30942011256599     -4.87875468169720
  C          -4.73105781554485     -0.32609279858805     -0.57745203430242
  C          -3.64523576277449      3.91657381141805     -1.44707711340156
  H          -3.58943846939003      4.37773958532643     -2.44429870511081
  C          -5.03589610521461      4.16286475284370     -0.89415320978544
  O          -5.31164000588179      3.39504669044961      0.25944749260237
  Si         -4.88433384639875      3.74577079807540      1.83431967439139
  C          -4.63883721314453      5.58854556065335      2.04934809733557
  C          -6.34343104449597      3.12358877721735      2.86559734853447
  C          -6.57217404198003      1.62927463909058      2.59529044459808
  C          -6.05433518840818      3.32714352001242      4.35967291855549
  C          -7.61071073614983      3.90223188835303      2.48558537873308
  C          -3.32360786824823      2.81971039466397      2.29441206413000
  O          -2.70921003359798      4.54506686970079     -0.57517914776298
  C          -1.39552239793752      4.50185016071429     -1.09658431946261
  H          -1.38357231074038      4.97766192429654     -2.09164053393333
  O          -0.54636048239687      5.17432442047062     -0.22598410922793
  C          -0.71422126271705      6.59242626899390     -0.25067072173182
  C          -0.91230073866207      3.06050302001706     -1.19747919577677
  H          -0.88526716232581      2.64674320276965     -0.17969163290133
  O           0.37431120044291      3.00819348798073     -1.79431951601900
  H          -1.54750615070404      0.53270932848059     -1.15891919323913
  H          -7.71208105375515      0.52594218393698     -1.61219436128532
  H          -7.34043825171214      1.89388928325645     -2.67265064538169
  H          -6.96929241836216      1.98511365729316     -0.93893068010125
  H          -3.72291072562322     -1.85310973783458     -2.95505632866404
  H          -3.15782920399530     -0.48602197167413     -3.92198635421593
  H          -3.98333365985575     -1.84594558535467     -4.70457412534097
  H          -7.40747349232355     -1.14897524248452     -3.36251134399373
  H          -6.23642552206717     -2.20589917721438     -2.55904815165790
  H          -6.42189965494615     -2.26482193388758     -4.31616853450332
  H          -5.66902628280011     -0.33929698803946     -5.76296070876747
  H          -4.87703275493034      1.07537436243160     -5.05159560060214
  H          -6.60899494180611      0.80825023826492     -4.80015469089213
  H          -4.77473432315175      0.31361099866091      0.30788401113207
  H          -3.71212231949418     -0.70715555677102     -0.68049682456411
  H          -5.39690192350317     -1.17719465768828     -0.40484524871272
  H          -5.14383018508548      5.23390380911956     -0.69281186176795
  H          -5.76474861429246      3.88585560432963     -1.65854735222167
  H          -3.77251217558946      5.92998272322672      1.47792844624602
  H          -4.46308673312608      5.81926360179615      3.10432090231686
  H          -5.51477056041562      6.15467723986671      1.72093073467289
  H          -6.79654779718332      1.44222330942985      1.54158211614597
  H          -7.41986334113473      1.26526298123368      3.18919189835821
  H          -5.69680492008052      1.03064858632861      2.86503049957451
  H          -5.17335237874990      2.76434112401870      4.68188960872021
  H          -6.90600852701817      2.98024406812548      4.95771640103052
  H          -5.88875529120835      4.38162179976128      4.60131065194862
  H          -7.50718646733871      4.97030724758854      2.69920088110748
  H          -8.46875204856388      3.53031334464721      3.05922545727839
  H          -7.84523949403141      3.79072060890811      1.42282180756407
  H          -3.10959250900936      2.92593181024701      3.36205399724738
  H          -2.47312791705359      3.21126028040780      1.73252736202626
  H          -3.42096456901299      1.75313169740637      2.07192862001959
  H          -1.69659004389290      6.87582608261292      0.13567233898544
  H          -0.59812748503710      6.97271605645274     -1.27126101586487
  H           0.06345169740894      7.01239457147532      0.38634763498723
  H           0.96582194224466      3.53360805629725     -1.24164356255765
