69
Coordinates from ORCA-job goat_0_124 E -1780.867463920319
  O          -1.51798067543281      2.92286937734629      0.15272351898473
  C          -1.97146016763580      2.47927885341587     -1.11917446413804
  H          -1.60377331703339      1.45874916172290     -1.25027282225595
  C          -3.50365085155078      2.42662125252531     -1.20107639272883
  H          -3.88444947805264      1.98052359782695     -0.27778790053860
  O          -3.83201758692046      1.62373142295305     -2.33811491443635
  Si         -4.76609086294853      0.23897427136250     -2.16297934369325
  C          -6.44697677799418      0.72457653491070     -1.50213492888957
  C          -4.85504599802179     -0.49116028441320     -3.89697395526762
  C          -5.40216485754521      0.55714860565128     -4.87640417514026
  C          -3.45490233661471     -0.92830074284600     -4.35148433422676
  C          -5.78882513715159     -1.71065950411979     -3.88214832778798
  C          -3.92518224478104     -0.91051611230149     -0.94979258505993
  C          -4.16547613606414      3.79278703418364     -1.36787338103037
  H          -5.14637835487213      3.60973645470176     -1.81144505878546
  C          -4.43529537781291      4.50817430561043     -0.04338514743663
  O          -5.47416367660720      3.78194487880957      0.59459547622353
  Si         -5.95662714265610      4.00403522341950      2.17902490864920
  C          -7.80631397941928      3.73636561635187      2.16387828826595
  C          -5.09980405633470      2.72281442177496      3.27309335793451
  C          -5.57501861350428      2.88342067934818      4.72439426483112
  C          -5.44576289096319      1.31112220961754      2.77713128727219
  C          -3.57791892460465      2.91444647558514      3.21365531793843
  C          -5.53871641921377      5.74861207146415      2.71372627580621
  O          -3.49954886356920      4.62662934447805     -2.32672030218283
  C          -2.09746076380022      4.72062481057395     -2.24291027888991
  H          -1.80466325801295      5.28988203130512     -3.13098128797634
  O          -1.66771057745248      5.38736186307704     -1.07688108685134
  C          -1.97855826166930      6.78076984763260     -1.06079040406949
  C          -1.41978265662457      3.34824245179836     -2.25274947089478
  H          -0.34765775797798      3.49742069692589     -2.10658155288702
  O          -1.59695485883498      2.73186696449993     -3.51887168404336
  H          -1.48715681880054      3.89069526747887      0.13771023573824
  H          -6.97565873864608      1.38274630527806     -2.19672378036707
  H          -6.34417133031681      1.24905745789894     -0.54755412866834
  H          -7.06271896871077     -0.16362456702894     -1.33298444289526
  H          -5.46895482215490      0.12854482028178     -5.88376037183497
  H          -4.75215541402023      1.43515335659374     -4.92796350721388
  H          -6.40369291597394      0.89361112537465     -4.59191234363496
  H          -2.75134883766220     -0.09049775284199     -4.35461301295756
  H          -3.50057727947463     -1.33060227428653     -5.37075205646398
  H          -3.04696545087445     -1.70972257454926     -3.70392826171721
  H          -5.83797245573017     -2.15636466230861     -4.88284904666022
  H          -6.80689535866155     -1.43601823685206     -3.59034355440250
  H          -5.43552503651139     -2.48350877239145     -3.19239223215527
  H          -3.87965093768001     -0.45786967651315      0.04535125472903
  H          -2.90589399974601     -1.14757775812112     -1.26529160874669
  H          -4.48424549681967     -1.84699681036507     -0.86283362006130
  H          -3.54677274731234      4.56267848993896      0.58832802816526
  H          -4.76360743208289      5.52909070656741     -0.26299433271532
  H          -8.22313545922317      3.78313011945889      3.17379050879858
  H          -8.05701078911924      2.76150110081547      1.73646433121452
  H          -8.29191377650746      4.50797872704020      1.55924064823867
  H          -6.65587180225473      2.74017648616321      4.81668007321104
  H          -5.32972970775204      3.87278227254846      5.12244239982710
  H          -5.08595028964853      2.13841471516355      5.36402414379428
  H          -4.93680543301276      0.56029839687263      3.39422963803193
  H          -5.12850100953605      1.16097314758934      1.74080919071551
  H          -6.52036244591747      1.11363921614717      2.83349484204851
  H          -3.28017341681028      3.90778874456615      3.56323248096221
  H          -3.19303635936514      2.78168751971558      2.19932763868369
  H          -3.08206142732921      2.17560736275667      3.85583051698486
  H          -4.46119092744486      5.93272022006100      2.70045891981543
  H          -5.90128982368162      5.93356172492863      3.72891153475646
  H          -6.01689376979771      6.47332678877006      2.04784095306307
  H          -1.51029005347617      7.27842754465721     -1.91627652051195
  H          -1.57256623610447      7.18453533197173     -0.13416816135846
  H          -3.05793283259558      6.94441644898440     -1.08945590721381
  H          -2.46014756756740      2.28775582244310     -3.50209927589477
