69
Coordinates from ORCA-job goat_0_37 E -1780.872368339499
  O          -1.19596152945584      1.01540485230161     -2.08481838931307
  C          -1.66348674319711      2.35815239477005     -2.05663880709499
  H          -1.58704291569802      2.71838753481759     -3.08758988334741
  C          -3.12668400507621      2.42804108141125     -1.62344690035270
  H          -3.22165209716086      1.95089715810425     -0.64239117268756
  O          -3.96026611335099      1.79941050231379     -2.57213306252608
  Si         -4.46573964357186      0.20549836558783     -2.55045697691954
  C          -4.19484314959868     -0.54616194136711     -0.85724179669054
  C          -6.31086597198042      0.23864335533389     -2.97274214716183
  C          -6.55676506461024      1.17913347161670     -4.16109539325498
  C          -6.77541202959429     -1.17710185723238     -3.34599504373374
  C          -7.12120566684257      0.72726388395574     -1.76418075892443
  C          -3.53167682886762     -0.75131790031614     -3.85823734447551
  C          -3.57878423511677      3.88198928596543     -1.48569077837519
  H          -3.53395701326847      4.36618287892705     -2.47255375942920
  C          -5.00013189942864      4.00411254844365     -0.96963762626505
  O          -5.24660559426846      3.20200672919297      0.16753706204291
  Si         -4.88699925757970      3.56619099693238      1.75620592614864
  C          -4.81495631408553      5.42093360237618      1.99694886043414
  C          -6.30578846009506      2.79828912489246      2.74416516101134
  C          -7.63071315696858      3.46124050757054      2.34221493455887
  C          -6.38741029673540      1.29313099013681      2.44963875445468
  C          -6.07171923933243      3.00626829759532      4.24722779032629
  C          -3.26014478099781      2.78083295003568      2.24832991286779
  O          -2.71933842856348      4.56540504301847     -0.57762906107766
  C          -1.39138601263927      4.63247956208162     -1.05963530367679
  H          -1.38737049808050      5.12257236946965     -2.04778742455234
  O          -0.62300077569007      5.35485660583276     -0.15530081116230
  C          -0.89121391595728      6.75756872054348     -0.17442164652544
  C          -0.79423310751087      3.23425725398672     -1.16444891493132
  H          -0.76955383365740      2.80641008483382     -0.15228392289639
  O           0.51188860296582      3.29045593334239     -1.71646695415383
  H          -1.17497245414642      0.68666107694523     -1.17743711754858
  H          -4.69526129446293     -1.51856146391322     -0.81102720857696
  H          -4.61093279031734      0.08295062546751     -0.06590091360270
  H          -3.13361461222061     -0.70626538440015     -0.65123977571525
  H          -6.28122095330773      2.20867208997471     -3.91756131025371
  H          -7.61909391880628      1.16946925121603     -4.43524172464574
  H          -5.98427794029017      0.87573838088376     -5.04356683580888
  H          -6.58171641164247     -1.89391720576349     -2.54112108873225
  H          -6.27691993983541     -1.54078159025749     -4.24871947503214
  H          -7.85550367922455     -1.17931706270083     -3.53761965812435
  H          -6.78726718739510      1.70896018257190     -1.41857070651433
  H          -7.04028342981005      0.03383829787207     -0.92214395868783
  H          -8.18291099056670      0.80554236352217     -2.02970798147774
  H          -3.80368580799939     -1.81054771017670     -3.83338906080772
  H          -2.45714933806253     -0.66391320885308     -3.68436821957238
  H          -3.75291006613691     -0.36858248470099     -4.85906596638885
  H          -5.20200811878851      5.05994104541129     -0.75959439150162
  H          -5.67995985825869      3.67790742362108     -1.75964344553556
  H          -3.96662699843126      5.84511667907267      1.45452777620770
  H          -4.69243777341333      5.65571054381595      3.05847094094878
  H          -5.72857465513718      5.90881042854867      1.64612815297856
  H          -7.63163665995488      4.53149770621960      2.56974467095419
  H          -8.46386245470843      3.00441815136210      2.89067852862209
  H          -7.82850199915369      3.34235729774667      1.27282984361031
  H          -7.21237545135377      0.84294042810881      3.01589156225456
  H          -5.46740419342314      0.77448078324123      2.73596019878365
  H          -6.56636483117053      1.10207367628171      1.38809159728974
  H          -5.15139253455392      2.52041661987311      4.58432535664183
  H          -6.90240587240438      2.57561055298791      4.81983669672399
  H          -6.00776865925641      4.06784289023373      4.50546567250498
  H          -2.43611072757888      3.24597947469792      1.70382956276438
  H          -3.25735113507862      1.70934358286075      2.02810973091103
  H          -3.07991821111073      2.90747220082782      3.32007863793632
  H          -0.76443848966719      7.15641190536600     -1.18657841981431
  H          -0.17017061554575      7.22481064581227      0.49543558156505
  H          -1.90517529544778      6.96593624463350      0.17640473552147
  H           1.04006524467647      3.85515110511524     -1.13879650019444
