69
Coordinates from ORCA-job goat_0_104 E -1780.867688615962
  O          -1.45993344570996      2.62702319391242      0.12694210369205
  C          -1.92417638085112      2.28371537778829     -1.17178519751126
  H          -1.51772715000152      1.29668375350700     -1.40512956011816
  C          -3.45459142384760      2.17264457464039     -1.23081087267846
  H          -3.79721064239566      1.61671343040922     -0.35306204079976
  O          -3.77097930637211      1.47691598227762     -2.43908845652936
  Si         -4.67929449909695      0.06499833270775     -2.41109394782172
  C          -6.37611853301039      0.45484485010643     -1.72936966902493
  C          -4.73301348533389     -0.49535380296105     -4.20845365472186
  C          -5.65210187800745     -1.72051108051450     -4.32544773869663
  C          -5.27816785974439      0.63591726427686     -5.09196180115335
  C          -3.32081167071637     -0.87188069136535     -4.67960390785627
  C          -3.82803745336152     -1.17988296988489     -1.30381649990736
  C          -4.17386208139489      3.51928985970378     -1.24771373077289
  H          -5.16182543851718      3.33975634129569     -1.67701060326367
  C          -4.42421119437794      4.10184898735759      0.14480833195838
  O          -5.43160207000188      3.30628086983744      0.74969828864285
  Si         -5.47262943235562      2.90135796666075      2.37023251094304
  C          -3.86045936839074      2.09092040101406      2.86630580927657
  C          -5.80561383679603      4.43824596846203      3.42326173565798
  C          -7.00159917163163      5.20643102448632      2.84364520614550
  C          -6.12954872444585      4.00178989373965      4.86024562184121
  C          -4.57809487648913      5.36102173431446      3.44819939934089
  C          -6.87889461620270      1.67781938250989      2.48978760917768
  O          -3.56962699651356      4.46220301271762     -2.14454432392906
  C          -2.17109297098041      4.61167880570938     -2.08045779086964
  H          -1.92403290284951      5.27064317751393     -2.91893348876716
  O          -1.74296555564929      5.18875347937168     -0.86688023021357
  C          -2.10401350255701      6.56229982434050     -0.72073820105157
  C          -1.43432720202383      3.27795329835311     -2.22882316360747
  H          -0.36729778853428      3.46182482828367     -2.08501534349986
  O          -1.60749410262975      2.77416247349162     -3.54419921123264
  H          -1.46291789014600      3.59257312924264      0.19926784115134
  H          -6.97202996643807     -0.45749956078827     -1.63365210409829
  H          -6.91595509078724      1.15254329105198     -2.37514961265244
  H          -6.29166847068715      0.90634627407247     -0.73642070453560
  H          -6.67797045907974     -1.48551563758357     -4.02642874235580
  H          -5.30059387839882     -2.55169494729135     -3.70619072744653
  H          -5.68000552690365     -2.06965347765217     -5.36458161536314
  H          -4.63864417046806      1.52202068483103     -5.04914723652495
  H          -6.28795846679997      0.93266408160335     -4.79277210580350
  H          -5.32469342446153      0.30507704557148     -6.13662025479617
  H          -2.62802250034724     -0.02946235117164     -4.59325403004543
  H          -3.34627224693291     -1.17722658257522     -5.73266815762842
  H          -2.91250476056425     -1.70587219810982     -4.10159962359612
  H          -3.81885913475617     -0.83516995400941     -0.26533496885795
  H          -2.79485018441466     -1.35045605648121     -1.61709919691693
  H          -4.35707323024184     -2.13725586030256     -1.33045965415581
  H          -3.51800470706417      4.12314701119673      0.75244263252125
  H          -4.78293246663566      5.12943517560203      0.03076337516362
  H          -3.88283672784678      1.82838201501507      3.92836073158690
  H          -2.99938353826621      2.74146148308408      2.69711826895173
  H          -3.70783161852536      1.17220453819656      2.29205802613599
  H          -7.22056292455630      6.08633184127313      3.46119069881432
  H          -7.90447300445541      4.58871229837751      2.81518755934162
  H          -6.79853516452419      5.55337507734491      1.82625411014874
  H          -6.30134544190059      4.88345619887740      5.48973701480873
  H          -5.30794355863449      3.43260039513219      5.30659624389913
  H          -7.03063435359150      3.38319082583377      4.90158747328946
  H          -3.69999311576609      4.85588865256293      3.86071046146751
  H          -4.78269004256157      6.23751645693007      4.07546454060280
  H          -4.32057633083294      5.72543703911678      2.44979847205558
  H          -6.96951106669420      1.28621837490310      3.50669328406188
  H          -6.69631405400904      0.83497987553954      1.81674946707957
  H          -7.83268486081403      2.13524760235684      2.21339940818811
  H          -3.18879279403853      6.68835791749439     -0.73124195284180
  H          -1.65916366939236      7.15426732114395     -1.52721943441155
  H          -1.70777172401007      6.89297340280535      0.23852183841632
  H          -2.45180371366286      2.29489939274243     -3.55728859830367
