69
Coordinates from ORCA-job goat_0_61 E -1780.868547853203
  O          -1.26098229249881      2.53858489406675      0.03330180038856
  C          -1.85214244732703      2.15539829396013     -1.20179007046932
  H          -1.64087754685994      1.09230930092082     -1.34081995153514
  C          -3.37706740953210      2.32254426025732     -1.18545474889365
  H          -3.76447479258889      1.91870223738495     -0.24583249138605
  O          -3.88055206528672      1.59616789748685     -2.30948950688179
  Si         -5.07063362371352      0.42391948451053     -2.14706636707458
  C          -6.64553292761705      1.23721316532613     -1.55228932851259
  C          -5.24726078781638     -0.30391907711154     -3.87559936903886
  C          -5.50793139624117      0.81766612817091     -4.89144461363863
  C          -3.96142066883106     -1.04925489239951     -4.26171999818776
  C          -6.42834410651020     -1.28586741754812     -3.88750678532724
  C          -4.50417556027189     -0.84851442308333     -0.89801409612253
  C          -3.83968061171576      3.77284326569262     -1.30473211199181
  H          -4.87134641908732      3.73926243254301     -1.66187753938465
  C          -3.87574609355371      4.52946885525070      0.02422862924991
  O          -4.85886181760502      3.90154252291251      0.83203219363818
  Si         -4.84732540373335      4.01365218764204      2.49934983174321
  C          -5.22239021396670      5.77682766091676      3.00341122309710
  C          -6.18607891766363      2.81253111184619      3.06661105039833
  C          -5.78620300490881      1.37983137362738      2.68463350830591
  C          -6.34317236967392      2.90753434905196      4.59127050831694
  C          -7.52310312372283      3.16216611999372      2.39775104285255
  C          -3.16191974013933      3.52602855449004      3.15394860946769
  O          -3.13808242982789      4.49603307203160     -2.32629430107130
  C          -1.73385743472446      4.38488672748967     -2.35563384619840
  H          -1.43712561327300      4.89137195658596     -3.27977483101730
  O          -1.11501146480917      4.99932017570309     -1.24732576359132
  C          -1.23067271781898      6.42205057651227     -1.23770255524868
  C          -1.25733960055230      2.93031765438616     -2.38176039437206
  H          -0.16799906934601      2.93127292245345     -2.30122541425602
  O          -1.59234470719286      2.33256221552328     -3.62427338395630
  H          -1.07159445230491      3.48711245590190     -0.00708710610820
  H          -7.04338088076805      1.93238747942946     -2.29640041755595
  H          -6.45869603416418      1.79605984621468     -0.63078652669912
  H          -7.41089990139485      0.48533988648106     -1.33884639784554
  H          -4.67552769544399      1.52583472854429     -4.92903752069591
  H          -6.41751542358639      1.37742445035864     -4.65328433776136
  H          -5.63267481717450      0.39178908182437     -5.89441913288433
  H          -3.76488217228884     -1.88810010672070     -3.58789341248226
  H          -3.08999509201901     -0.38786692660421     -4.24171694285665
  H          -4.05210863501660     -1.45209494291890     -5.27777747591188
  H          -6.28587413373126     -2.10051056915709     -3.17045642306015
  H          -6.53256797889528     -1.73435185832768     -4.88272283070101
  H          -7.37134832578987     -0.78541766025384     -3.64812792248102
  H          -3.52387377999687     -1.25410416410087     -1.16137124435783
  H          -5.21666740617650     -1.67765455084322     -0.85121054988538
  H          -4.43766672854175     -0.41245941553746      0.10287446072574
  H          -2.90469503964933      4.53413586661236      0.52157193268115
  H          -4.15934863816279      5.56723322182354     -0.18081909255810
  H          -6.21450900944435      6.08874247059893      2.66583168164356
  H          -4.48464150198626      6.45813938140528      2.56771191324925
  H          -5.17893539564694      5.88866138631645      4.09070540963647
  H          -4.86123110359350      1.07431507072527      3.18248107967745
  H          -5.63819044329100      1.27750259464446      1.60604794336648
  H          -6.57335617247382      0.67669766389055      2.98350543714495
  H          -6.65294538481797      3.90932841071229      4.90371971374766
  H          -5.41175834905492      2.66365750444310      5.11149233367108
  H          -7.10884273236310      2.20091871279016      4.93383878617818
  H          -8.30262895161163      2.46653179082787      2.73218801254240
  H          -7.45699835785171      3.09303515065794      1.30876173713907
  H          -7.85036158691589      4.17449667215069      2.65365020687668
  H          -2.85073799867936      2.55142274364149      2.76943290440091
  H          -3.18548472714420      3.47192720573233      4.24652791426370
  H          -2.40156780624922      4.26128474522154      2.87532685139715
  H          -2.27572358396200      6.73303395698738     -1.17446004580584
  H          -0.77920943838412      6.84049283866417     -2.14329173494531
  H          -0.69055480233962      6.77734876886692     -0.36103331100284
  H          -2.50851004067508      2.01886225240226     -3.54987714204558
