69
Coordinates from ORCA-job goat_0_108 E -1780.867725268080
  O          -1.52637869416565      2.92958354841595      0.01103882452671
  C          -2.00846813098854      2.59238204130421     -1.28294043503123
  H          -1.50183952748656      1.67143978071243     -1.58121011138487
  C          -3.51720502419606      2.30580454252005     -1.28337486475294
  H          -3.75277545101340      1.68119757024400     -0.41638999667791
  O          -3.81314770225587      1.62703556887978     -2.50705181290645
  Si         -4.40169729976893      0.05383287957509     -2.49304185207217
  C          -6.06977639618439      0.04942615197913     -1.64743584568710
  C          -4.51345044430320     -0.42867474958331     -4.31028198130393
  C          -5.34911955974796      0.60797304341457     -5.07490348827010
  C          -3.10626404096566     -0.49821573348667     -4.92116823955025
  C          -5.18452180286976     -1.80593603572825     -4.42239074988482
  C          -3.21165006408668     -1.03141471092630     -1.54147355802917
  C          -4.38719174936500      3.55806868844108     -1.20960798001777
  H          -5.36608518783482      3.28046697560859     -1.60652691577425
  C          -4.63717901900964      4.05122286397665      0.21659045800242
  O          -5.51009433688004      3.11608173896439      0.83146942195853
  Si         -5.44694952336397      2.70547880521382      2.45054903717000
  C          -3.74188061788597      2.05930139633594      2.87269683465763
  C          -5.88692979079608      4.19715193957146      3.52920294757232
  C          -4.73892647141042      5.21705329046775      3.55407653950474
  C          -7.15132038798453      4.87203174500219      2.97903918184015
  C          -6.15227737836716      3.71329162105162      4.96326608635973
  C          -6.71928158588418      1.34842005568774      2.61764893756877
  O          -3.93729880669379      4.60196039242420     -2.08525925378987
  C          -2.56385717763052      4.91211142486607     -2.06908415043881
  H          -2.43277005949554      5.63169688051345     -2.88367099514475
  O          -2.15103483927807      5.48153637664837     -0.84678908611438
  C          -2.66464965323283      6.79380320229747     -0.61754337027479
  C          -1.68626281706146      3.68157568936763     -2.31043228358073
  H          -0.64175775636325      3.98268275258398     -2.20377399712859
  O          -1.86302645763607      3.21642762408005     -3.63938438814675
  H          -1.63697411102418      3.88402015855359      0.13054576671374
  H          -6.79573028270378      0.65686716789057     -2.19443384086225
  H          -5.98491003923682      0.45204520918959     -0.63358439034537
  H          -6.46068616350741     -0.96935382682048     -1.57157322516048
  H          -5.43182520260469      0.31724513993169     -6.12918639696059
  H          -4.89114702026017      1.60022888003075     -5.03523381086694
  H          -6.36329671250205      0.68680778793682     -4.67181856608288
  H          -3.17246460166687     -0.75204614072224     -5.98604137408314
  H          -2.49373064510492     -1.26258965242805     -4.43462794275156
  H          -2.58118167207545      0.45798307229766     -4.83875120766247
  H          -4.62436472363181     -2.57537593601384     -3.88184931534022
  H          -5.23780391569974     -2.11166451346527     -5.47411418514795
  H          -6.20514414264983     -1.79063098284286     -4.02872654113198
  H          -2.20386424025368     -0.98432619981186     -1.96184515877325
  H          -3.54486858345347     -2.07329577144404     -1.56503255373199
  H          -3.16003569867930     -0.72311928621867     -0.49281267656576
  H          -3.71064127161136      4.15866815367726      0.78289924477586
  H          -5.12129078067829      5.03121617983632      0.16378978129204
  H          -3.52956593687851      1.15213027246984      2.29898237797704
  H          -3.68482152389600      1.81046526990823      3.93674402653974
  H          -2.95817317485978      2.78841976113530      2.65412677720404
  H          -4.52254730295748      5.61498907879297      2.55881872721690
  H          -3.81824778569362      4.77938997052309      3.95044008923389
  H          -5.00734428968291      6.06501067509010      4.19632616848684
  H          -7.99860350237728      4.18011487671019      2.94708743423924
  H          -6.99192933862501      5.25563519355581      1.96715466767715
  H          -7.43666155905467      5.71733687245905      3.61745075264583
  H          -5.28356024887651      3.19771585776426      5.38520770274737
  H          -7.00495492306645      3.02982870884365      5.00797642643171
  H          -6.37644061040055      4.56899795035328      5.61174632550623
  H          -7.72805020106448      1.71707333762065      2.41285876883989
  H          -6.70805079976556      0.92642279585757      3.62631589666319
  H          -6.49947342297028      0.54321579341656      1.91046902211864
  H          -3.75616989906235      6.78985250662545     -0.58382018022024
  H          -2.32549763348291      7.47174346833495     -1.40752503736230
  H          -2.27132909500263      7.12383645677694      0.34314586711326
  H          -2.64871114073244      2.64595436376160     -3.63899223357252
