69
Coordinates from ORCA-job goat_0_94 E -1780.867695231489
  O          -1.46733617767490      2.75923185507426      0.12395775186722
  C          -1.91637459134414      2.38712400945294     -1.17232774800462
  H          -1.46370252879769      1.41931487159998     -1.40126044202193
  C          -3.43977247983149      2.20252599608756     -1.22797286961965
  H          -3.75318275761277      1.63542745115647     -0.34641532680859
  O          -3.72317788661792      1.48505802997251     -2.43146836795508
  Si         -4.59532561939476      0.05082175942611     -2.40183506250907
  C          -6.30674886393973      0.39739496145452     -1.73313874294313
  C          -4.62145281801769     -0.51795153022747     -4.19731053815735
  C          -5.50252254911480     -1.77062959798010     -4.31550535341833
  C          -5.19499069354659      0.59348832163041     -5.08811706334934
  C          -3.19568685676161     -0.85329696288380     -4.65860683125238
  C          -3.71975885436384     -1.16648429589594     -1.28287643327414
  C          -4.22262254732970      3.51324297770938     -1.25050350298790
  H          -5.20194379331289      3.28527671741092     -1.67628417593976
  C          -4.49560772690937      4.08996563296237      0.13986056195429
  O          -5.47015605462408      3.25587697519819      0.74748244806567
  Si         -5.49202777667910      2.85726693798317      2.36991489956642
  C          -3.85787163805759      2.08621768513353      2.85772189921422
  C          -5.85391899027287      4.38958068426538      3.42024611802083
  C          -6.17823347275234      3.94726211402151      4.85545176555538
  C          -4.64189324291337      5.33227556937078      3.45224173802161
  C          -7.05939107588539      5.13819327387615      2.83446509883150
  C          -6.86923767064462      1.60231763099771      2.50289163266473
  O          -3.66577345963494      4.47827452859781     -2.15468791608572
  C          -2.27609510384660      4.69518016892729     -2.09362809578479
  H          -2.06213625184623      5.36065840711889     -2.93605619224085
  O          -1.87536166384645      5.29880655618724     -0.88373347972880
  C          -2.29802436606870      6.65565358542590     -0.74714959784065
  C          -1.47637836577249      3.39758007005818     -2.23576046420290
  H          -0.41910657193349      3.63347671131019     -2.09568466506750
  O          -1.62730888790722      2.87842170007577     -3.54791524424851
  H          -1.51090676077302      3.72434932765542      0.18889804759823
  H          -6.87980777757030     -0.53010532637960     -1.64347054428596
  H          -6.85944672490773      1.08200881170908     -2.38202053596437
  H          -6.24170060329889      0.84933359361230     -0.73887925445513
  H          -5.51392785293196     -2.12364573495645     -5.35363092153272
  H          -6.53672943121309     -1.56577363732230     -4.02312795154961
  H          -5.12971832253960     -2.58886661666275     -3.69149821599797
  H          -5.22370067149965      0.25846522962700     -6.13205941249925
  H          -4.58350224569400      1.49908931085858     -5.04331458624963
  H          -6.21554451777339      0.85948957437902     -4.79677227193504
  H          -2.76614760259528     -1.67280481896093     -4.07528182229060
  H          -2.52923566624577      0.00991966188495     -4.57070318542612
  H          -3.20555696683016     -1.16260111108651     -5.71075724187690
  H          -2.68075626577346     -1.31308324927061     -1.58899169136597
  H          -4.22457720401260     -2.13689374206438     -1.30723937343903
  H          -3.72537644920521     -0.81587587468160     -0.24634160276013
  H          -3.59056208817477      4.14847244448401      0.74662291238919
  H          -4.89545280918860      5.10196496555964      0.02373329280718
  H          -3.01345040777716      2.75484667111892      2.67548357512208
  H          -3.68993017889880      1.16678094265013      2.28885136933269
  H          -3.86412666609758      1.83139783316995      3.92187264649560
  H          -5.35147458042274      3.38743853190910      5.30422085794712
  H          -7.07186119985913      3.31772608343422      4.89229363431592
  H          -6.36318972055820      4.82598277498470      5.48528276785088
  H          -4.38386728683683      5.70003285298324      2.45523301275540
  H          -3.75840367843413      4.84162679205616      3.87066240859379
  H          -4.86468085152940      6.20572132907409      4.07752550877540
  H          -6.85520917923318      5.49178341447902      1.81962169881361
  H          -7.29836890999788      6.01221808429039      3.45292630750084
  H          -7.95096087230665      4.50470185048055      2.79761434414582
  H          -7.83720824622388      2.04072294984213      2.24560358230892
  H          -6.93483998533532      1.20152505234783      3.51812559455080
  H          -6.67937256428023      0.76851341880218      1.82062117533719
  H          -3.38732100516031      6.73313898894568     -0.76311198709555
  H          -1.87612957128323      7.26214732355275     -1.55514430042920
  H          -1.92126547660708      7.00914866250208      0.21182119520987
  H          -2.44772855167527      2.35916095949411     -3.55670520301817
