69
Coordinates from ORCA-job goat_0_107 E -1780.867423489248
  O          -1.54810516646012      2.23375463259388      0.41860152612318
  C          -1.97572762873535      1.92426936514213     -0.90091317206478
  H          -1.84846256827450      0.84706630576620     -1.03250529446580
  C          -3.46332130052399      2.23734160181227     -1.11737913797865
  H          -4.02248420171118      1.88550645338644     -0.24549967847574
  O          -3.86389074510212      1.54564511785713     -2.30352095164867
  Si         -5.10414892689744      0.41397463497432     -2.25549594223880
  C          -6.68302147960291      1.27430592493667     -1.74106437434054
  C          -5.19118001017349     -0.26554712718129     -4.00989764319424
  C          -3.89727691588487     -1.02332115067390     -4.34112241694098
  C          -6.38475344393719     -1.22652571964771     -4.11630350527864
  C          -5.37449575713266      0.88704308996047     -5.00756294217931
  C          -4.67167188573167     -0.90720924967881     -1.00356131478644
  C          -3.76811132174192      3.72270983793834     -1.29983323674398
  H          -4.71914137189319      3.78034911913013     -1.83325241214444
  C          -3.98593928784918      4.47100007540911      0.01637250165868
  O          -5.22990418053723      4.01798164980544      0.52874742758907
  Si         -5.77907199790738      4.30815942717932      2.08035269208164
  C          -7.63237821670679      4.48087443260328      1.91029838300207
  C          -5.34038490793395      2.83900334768375      3.18632290379043
  C          -5.88885750498737      3.07803338910547      4.60049095674819
  C          -5.96189943465051      1.55848441098361      2.60975685329042
  C          -3.81663301349472      2.66702436821604      3.25634069273820
  C          -5.01665030599994      5.89367780300520      2.72024849568798
  O          -2.83956755624653      4.38341282823862     -2.17125230379547
  C          -1.46873461424940      4.14271731106474     -1.96073506540107
  H          -0.96862347622571      4.63554238043891     -2.80066793135520
  O          -1.00709140409169      4.67676349821910     -0.73991098628760
  C          -0.97609258629463      6.10379877585669     -0.70950529753979
  C          -1.13372707605967      2.64925075098773     -1.95443440065877
  H          -0.07471042072268      2.53929537764739     -1.71055763031590
  O          -1.33310423380794      2.10452625898705     -3.24962346310191
  H          -1.28651187524453      3.16604771178590      0.43619608464715
  H          -7.49745176994308      0.55193746911009     -1.63381304974347
  H          -6.98485181698697      2.02676143755528     -2.47454102484439
  H          -6.54744701068194      1.77408452058860     -0.77733545582199
  H          -3.93549560548315     -1.39810927122633     -5.37113532772061
  H          -3.75401429586422     -1.88271376546137     -3.67987241955876
  H          -3.01754667624389     -0.37887356125230     -4.25321907574890
  H          -6.29376639020718     -2.06363452177196     -3.41711818436110
  H          -6.44023925359467     -1.64404604311643     -5.12876002219077
  H          -7.33202231023183     -0.71767653549540     -3.91433083339813
  H          -5.44183899428138      0.49108513119867     -6.02813899897579
  H          -4.53292018943225      1.58465431341393     -4.97319024091777
  H          -6.29042621224702      1.45208968496084     -4.80990367302322
  H          -5.43552460697316     -1.69054185175697     -0.99892082325013
  H          -4.62284606505391     -0.48596701369283      0.00502844895528
  H          -3.70724890438121     -1.36968012463737     -1.22871874059613
  H          -3.17938466468921      4.29969257354155      0.73137316879617
  H          -4.03199238034153      5.54309786379122     -0.19965981356686
  H          -7.87464862089120      5.36212806134266      1.30913172909610
  H          -8.11128285112046      4.59298608175732      2.88698161647249
  H          -8.06306271809880      3.60441136573474      1.41809314355638
  H          -6.97731658834336      3.18971628330517      4.60079334519191
  H          -5.45675377920433      3.97429472496942      5.05602009414226
  H          -5.64288581981531      2.22641416274684      5.24672949879042
  H          -5.69654711407454      0.69680583039120      3.23479739624917
  H          -5.60148875120641      1.35852024058504      1.59637079736703
  H          -7.05376109066584      1.61879282906832      2.57396224439101
  H          -3.32572148648086      3.55705525663316      3.66196818101317
  H          -3.38634340291810      2.46042305609011      2.27310963216229
  H          -3.56517551968450      1.82338606622059      3.91153448548025
  H          -5.25101876936541      6.72480902445821      2.04827259254900
  H          -3.92920849806249      5.81967509881613      2.80462646552013
  H          -5.41696359360391      6.13636670810782      3.70877971107755
  H          -0.30373960654252      6.48015524376881     -1.48733127799281
  H          -0.59987538568451      6.39104062743907      0.27153746094965
  H          -1.97404233397707      6.52260034460862     -0.85582202823004
  H          -2.27463178681086      1.87891265467361     -3.32246832823962
