69
Coordinates from ORCA-job goat_0_122 E -1780.867694848270
  O          -1.47397140763826      2.53595821197680      0.20519820653251
  C          -1.91314099315453      2.23692832209439     -1.11306558601850
  H          -1.52489211115092      1.24631417301543     -1.36173128812942
  C          -3.44382237348227      2.16558338584258     -1.21253436834296
  H          -3.82194105869547      1.59560598887289     -0.35863760576462
  O          -3.74664607050859      1.51052706095792     -2.44663996068868
  Si         -4.68364551596195      0.11767767054873     -2.48051473071812
  C          -6.38799757353805      0.52268904888414     -1.82709210614998
  C          -4.70519516991269     -0.38956325293111     -4.29414853452037
  C          -5.65683857927216     -1.58213866761674     -4.47106652228107
  C          -5.19184837460339      0.78282289783808     -5.15813203030604
  C          -3.29238627185171     -0.79535285167965     -4.73863808041150
  C          -3.88344566055335     -1.17500613550293     -1.39020544231784
  C          -4.12967888454887      3.52970521850424     -1.21156025159241
  H          -5.11068353422968      3.38547087124983     -1.66929818354991
  C          -4.40055022817856      4.08373995889905      0.18862944156445
  O          -5.43838911511451      3.29571762108169      0.75069287811550
  Si         -5.52926777272508      2.85991909589996      2.36135006564617
  C          -3.94724695480280      2.00610595253022      2.88158362040087
  C          -5.85803964485369      4.38152641102851      3.43732634135155
  C          -4.61601815192501      5.28250676018196      3.50544804628343
  C          -7.02906800897009      5.18094334219298      2.84891849550772
  C          -6.21855463849490      3.92292534877696      4.85869606987621
  C          -6.96308357733368      1.66403016511550      2.41805836369859
  O          -3.48052098947393      4.47965585386396     -2.06879851744216
  C          -2.08060939065948      4.59233325281641     -1.96740600538294
  H          -1.79716663181491      5.26596625835661     -2.78245226226019
  O          -1.66836922237183      5.12784931690331     -0.72945711758988
  C          -2.00192192011872      6.50501056206174     -0.55518921966981
  C          -1.37289891968672      3.24486551409158     -2.13188801731741
  H          -0.30575312964940      3.39869810672825     -1.95694565725295
  O          -1.52439143130496      2.77876599203607     -3.46360720996057
  H          -1.45433927277302      3.49925595819252      0.30159255312997
  H          -6.31774389741353      0.94445086563955     -0.81998358480435
  H          -7.00349005292526     -0.37988232792181     -1.77067184055633
  H          -6.89906595789705      1.24888745110602     -2.46481990999311
  H          -5.34974637874337     -2.43957682625599     -3.86401144823013
  H          -5.66370039454678     -1.90337790604935     -5.51951522316224
  H          -6.68368898070271     -1.32312642701107     -4.19631399072318
  H          -5.22276216019700      0.48271326533626     -6.21259829771897
  H          -4.52535226975890      1.64578328216581     -5.07438541087150
  H          -6.19873387444979      1.10421610150882     -4.87492626230948
  H          -2.57744059854621      0.02249105043797     -4.60784500957638
  H          -3.29772160156836     -1.06807399424603     -5.80090483289488
  H          -2.92553781243720     -1.65840170815538     -4.17571630056947
  H          -3.89937479372619     -0.86319482121069     -0.34147859992252
  H          -2.84418230418656     -1.35108028060057     -1.67945314411119
  H          -4.42500369949430     -2.12295427601027     -1.46243185417862
  H          -3.50860815227819      4.07103457830860      0.81715435089068
  H          -4.73514971635291      5.12112537424380      0.09132856513954
  H          -3.79554052138035      1.09973624167426      2.28783110048486
  H          -4.00462071095856      1.71668771530411      3.93528146830201
  H          -3.06976484167027      2.64406584987353      2.75373512044612
  H          -4.81829141842793      6.14906125533347      4.14710059505652
  H          -4.33274569502344      5.66327220803750      2.52025063243324
  H          -3.75486121705077      4.75377067541604      3.92405338114548
  H          -7.24426894604101      6.05381100380164      3.47764529195620
  H          -7.94179501844288      4.57985605988705      2.79288018983277
  H          -6.80061888851034      5.54161108542296      1.84171073193871
  H          -7.12991857525612      3.31823419902059      4.86994720976881
  H          -6.38962195775836      4.79521170692556      5.50131237110430
  H          -5.41520405332872      3.33254217538328      5.31063435716041
  H          -7.09247181585547      1.25663597851145      3.42449059501626
  H          -6.77777072191425      0.82945446473612      1.73544830544512
  H          -7.89848447579601      2.14615854519133      2.12149011240369
  H          -1.52420139154343      7.10764651712016     -1.33450795438505
  H          -1.62212465077944      6.80112217716490      0.42185597187348
  H          -3.08299159875686      6.65606972940299     -0.58835509134335
  H          -2.38023826692806      2.32259151769532     -3.51075695948707
