69
Coordinates from ORCA-job goat_0_86 E -1780.868084121875
  O          -1.27179577596676      2.54834593544987      0.01690755661200
  C          -1.87089458784441      2.17388932294163     -1.21739698991653
  H          -1.66420263908727      1.11087916743356     -1.36222117787893
  C          -3.39649253025080      2.34863758192184     -1.19753008414107
  H          -3.78364220678376      1.94472754190118     -0.25847600630430
  O          -3.91393763096279      1.62776519640881     -2.31986913943578
  Si         -4.88126928603043      0.27249633912288     -2.09431662648100
  C          -6.48296700782327      0.81935086944196     -1.30186487114803
  C          -5.13412800047921     -0.43055487928981     -3.82322945841469
  C          -6.17025572850329     -1.56271111043601     -3.75291416878595
  C          -5.64555680235202      0.66919586222611     -4.76471799025210
  C          -3.80964526400647     -0.98862489370341     -4.36372240081861
  C          -3.99883475552874     -0.92859911191997     -0.96335045125648
  C          -3.85093299215564      3.80060308311135     -1.30962246036323
  H          -4.88594783788756      3.77853407457168     -1.65775733214296
  C          -3.86909907431081      4.55259960515282      0.02394389396847
  O          -4.96046419014851      4.05852167903530      0.78828701049748
  Si         -4.81290497443802      3.64142376180099      2.40162738748962
  C          -3.81533266387116      4.95108184472779      3.29477310388994
  C          -6.58232779308142      3.55488306455070      3.04999235931501
  C          -7.41602832375498      2.60174847514371      2.18248301512990
  C          -6.56684014650545      3.03872086324761      4.49651230526651
  C          -7.21552126261343      4.95315738217080      3.01693395373117
  C          -3.94393412958023      1.98987349394601      2.54627636712113
  O          -3.15051446697828      4.51877452027585     -2.33652717397614
  C          -1.74660437818999      4.40727408669335     -2.36129586676243
  H          -1.44461266291663      4.91862664875034     -3.28090186608093
  O          -1.13456845599512      5.01380038166256     -1.24513122251339
  C          -1.21646117186146      6.43916409281083     -1.24568655867609
  C          -1.27536769260543      2.95138373799058     -2.39517774429069
  H          -0.18584595624736      2.94613777458065     -2.31778111270463
  O          -1.61712221539513      2.36195663974393     -3.63965410730175
  H          -1.07067934070438      3.49453290015442     -0.02315047105940
  H          -6.27910630508476      1.34859468529833     -0.36676852230259
  H          -7.11513841065393     -0.04183405748784     -1.06724010489581
  H          -7.04411793944264      1.49107771106158     -1.95703449929375
  H          -7.14292369308195     -1.19850114811073     -3.40936545940949
  H          -5.85077020172598     -2.36344848199314     -3.07841999438334
  H          -6.31139304807699     -2.00309015016895     -4.74716803515442
  H          -6.58814975387332      1.09822199309161     -4.41130006370990
  H          -5.82324723340602      0.25310604241318     -5.76381679460017
  H          -4.92033767244883      1.48170189312127     -4.86349540185938
  H          -3.03054248123412     -0.22145913703897     -4.40118390795355
  H          -3.95180834613831     -1.36949710814425     -5.38231288072154
  H          -3.44041694245098     -1.81430239505837     -3.74880636850523
  H          -4.58174119956268     -1.84903643123164     -0.86193274871301
  H          -3.87446728482168     -0.50218877286469      0.03668994594569
  H          -3.01068962305584     -1.19048106483352     -1.34997245667909
  H          -2.92712438991131      4.45138391576911      0.56492359253224
  H          -4.02679656499859      5.61464609418921     -0.18518669474910
  H          -2.77256329500827      4.94201313046614      2.96447508306515
  H          -3.82369559940710      4.76572520842180      4.37297518894997
  H          -4.22189752482897      5.95038847980396      3.11726754680081
  H          -6.99787615664054      1.59056646823559      2.17427670837524
  H          -7.47534342821431      2.95038522306416      1.14816309427879
  H          -8.43837374291626      2.53578135578191      2.57473408747360
  H          -7.58853808888924      3.00825647730486      4.89403036409239
  H          -5.97581819253357      3.68520170696253      5.15273415792960
  H          -6.15638764852101      2.02663786140211      4.55969111315878
  H          -6.67871222141535      5.65390026791920      3.66304369409368
  H          -8.25340087483384      4.90445457528021      3.36860147054360
  H          -7.22464682864090      5.36572184214218      2.00366437442335
  H          -3.80575030202937      1.71903734553003      3.59719468373931
  H          -2.95747750243366      2.03816765671818      2.07596381170707
  H          -4.51475981517326      1.19372787784788      2.05938896918156
  H          -2.25576935257808      6.77432874942592     -1.22995420440620
  H          -0.71545525978559      6.84227048251443     -2.13183162003494
  H          -0.70772860018177      6.78581090158846     -0.34707728986548
  H          -2.53746243114011      2.06074488995795     -3.56643251136991
