69
Coordinates from ORCA-job goat_0_68 E -1780.867741602460
  O          -1.37817328788003      2.56714742632482     -0.66126947184634
  C          -2.12968743980822      2.58108298097172     -1.86879665973909
  H          -1.97856161871999      1.61204077170123     -2.34901938195894
  C          -3.63470144097272      2.74114390416807     -1.60797540444499
  H          -3.92562675526882      2.06918138924755     -0.79769992365706
  O          -4.30217723023059      2.40259108584861     -2.82576011456962
  Si         -5.54686660277789      1.28087266732091     -2.94343223681616
  C          -6.39151362110438      1.71229942452121     -4.55065270927987
  C          -4.83506727513224     -0.46974789020865     -2.98832229587431
  C          -5.98319531799395     -1.47134239747022     -3.18840777029162
  C          -3.84443217098951     -0.59450102844266     -4.15474636737879
  C          -4.11359743121773     -0.79775079850250     -1.67288527106649
  C          -6.70001999240876      1.50008572094669     -1.48893295940307
  C          -4.03533635359179      4.16190942632052     -1.21698307405087
  H          -5.10565757942645      4.25238796591829     -1.41414389287304
  C          -3.85105729143342      4.48124086569745      0.26896244744357
  O          -4.84608700921795      3.77565790049068      0.99752954860585
  Si         -4.50045234878761      2.91023365438757      2.38705890597514
  C          -3.28854061870732      3.87823519686298      3.43768287455157
  C          -6.15809852865699      2.69879184343195      3.26336490446235
  C          -6.68018908913753      4.06890745159539      3.71881624873339
  C          -7.18089034864162      2.05792675798349      2.31510496670024
  C          -5.97077468349881      1.79328896887625      4.48968552626921
  C          -3.74810168210992      1.25869572442383      1.93079630550760
  O          -3.43892630606976      5.15319067553628     -2.06746440182207
  C          -2.05411508874015      5.05406491372864     -2.30470113665093
  H          -1.84781534943422      5.81609726070448     -3.06311825554746
  O          -1.28616696243347      5.30104152651535     -1.14800549386901
  C          -1.31751625698662      6.66077429709756     -0.71415514905649
  C          -1.64594658514669      3.67427153162144     -2.82602092367869
  H          -0.55570501415340      3.64428947940277     -2.88574995960506
  O          -2.14983044376240      3.48141352978826     -4.13809564616825
  H          -1.14264028449840      3.48079088124835     -0.44454401352106
  H          -7.21243659879252      1.02066829861305     -4.75878726085884
  H          -5.69148295335859      1.67293847749344     -5.38946311687897
  H          -6.80436444567334      2.72375669385747     -4.49666977648426
  H          -5.58514390944053     -2.49260277951644     -3.22579965425096
  H          -6.52147229871844     -1.29144613056984     -4.12370161555666
  H          -6.70561023287525     -1.42794872017396     -2.36770046935540
  H          -3.41467448681868     -1.60339973899459     -4.17709933556652
  H          -3.02022812077745      0.11858496706077     -4.06092108372765
  H          -4.33261743252471     -0.42066511222048     -5.11819012030234
  H          -3.73636530793593     -1.82730754533608     -1.70163533733205
  H          -4.78141029131849     -0.71326406772578     -0.81089938051982
  H          -3.25625375278044     -0.14143636232966     -1.50165753530171
  H          -7.55340079276309      0.82168595267073     -1.57883589330255
  H          -7.08318689043640      2.52399829780937     -1.45614255934904
  H          -6.20632025659865      1.29323596362997     -0.53702110289498
  H          -2.84971348285085      4.23146479720031      0.62127042650871
  H          -3.99900451938340      5.55648286010340      0.40571255229697
  H          -3.16756349938101      3.39988434673476      4.41415809931582
  H          -3.63276786863736      4.90310849662956      3.60087980670331
  H          -2.30321439464174      3.91918320322597      2.96454730509428
  H          -6.00162050922946      4.54081206231634      4.43540248209287
  H          -7.65537060130948      3.95635812854997      4.20825597253320
  H          -6.80718040206158      4.75095699779200      2.87284827690017
  H          -7.36085399841308      2.68363423273846      1.43717768134433
  H          -8.13782985105159      1.92143943111386      2.83388049130168
  H          -6.84958804419795      1.07537063775018      1.96580295155032
  H          -6.92275362244091      1.68319567026376      5.02302875055962
  H          -5.24317581673994      2.20762268269605      5.19451101244987
  H          -5.63297241475459      0.79264650623494      4.20435738102304
  H          -3.47784970095923      0.69887330189554      2.83109770307944
  H          -2.84083841679781      1.40606117192641      1.33780317322326
  H          -4.44301864933151      0.65054294354022      1.34503029652619
  H          -0.92064436889018      7.31312415350421     -1.49877746918768
  H          -0.68583881104708      6.72525951067071      0.17090836634101
  H          -2.33383294725652      6.97071287248999     -0.46135338239618
  H          -3.06709223087261      3.17576454029689     -4.04617685065808
