69
Coordinates from ORCA-job goat_0_100 E -1780.867837400624
  O          -1.25587413163230      3.05878765712477     -0.19811573940704
  C          -1.73346226384900      2.69581331243102     -1.48827178081340
  H          -1.30218160701740      1.72069537186225     -1.72551755923203
  C          -3.26248213093568      2.55051713179881     -1.51202601973032
  H          -3.57637778146493      1.96537219945558     -0.64606621528550
  O          -3.60995299676501      1.89133545246590     -2.73199088157542
  Si         -4.02611697128672      0.26747970905850     -2.85407573012071
  C          -3.05581581811616     -0.72727703526874     -1.60135829896412
  C          -5.88564012739682      0.08813110292355     -2.57719023858170
  C          -6.64153971204214      1.02172160417425     -3.53351354138629
  C          -6.30490555268917     -1.36458796851075     -2.84788197992849
  C          -6.24225467385247      0.45561125730264     -1.13040995784378
  C          -3.54052233924597     -0.19702006659586     -4.59537836923752
  C          -3.99721304974030      3.88672478570544     -1.47843046850163
  H          -5.00573480548457      3.69689211748709     -1.85267416948247
  C          -4.16369984370153      4.48645000022739     -0.07954543912860
  O          -5.05997989235442      3.66882927909544      0.65677946465254
  Si         -4.74315744350221      3.08805939278383      2.19320322226322
  C          -3.71330745871738      4.33603361963767      3.13727757980487
  C          -6.43875286656630      2.84776470560117      2.98729610120080
  C          -7.31061312043401      1.94650390695043      2.10193261103418
  C          -6.27228910741568      2.19208219540879      4.36597479467825
  C          -7.12565365993222      4.21056966403301      3.15406909791210
  C          -3.80959654372874      1.46908531690323      2.08671641967217
  O          -3.44989624566503      4.83470369155453     -2.40865796985170
  C          -2.05214243504761      5.01382477820762     -2.40652685234195
  H          -1.85607646752009      5.66074534363827     -3.26757169182910
  O          -1.58201382007622      5.62455365724846     -1.22544195952660
  C          -1.96850111184749      6.99202512754078     -1.08939406106424
  C          -1.28905973716033      3.69572332321972     -2.56045631718000
  H          -0.22419280924003      3.90637348353460     -2.43901153351593
  O          -1.47271670294796      3.17761922743464     -3.86828321435258
  H          -1.23543823490246      4.02532448592560     -0.14790054972348
  H          -3.23216424057682     -0.39108666607937     -0.57653316278648
  H          -1.98340760808111     -0.66250009977148     -1.80553846649509
  H          -3.34584333557740     -1.78046454027605     -1.66192673315119
  H          -6.37350914181709      2.06861055952039     -3.36456654195046
  H          -7.72273335929269      0.92237293040325     -3.37759820043577
  H          -6.43445941371773      0.78358633423175     -4.58114051818279
  H          -5.79109545940218     -2.06589863609444     -2.18326556828098
  H          -6.09615701922077     -1.66131357530895     -3.88005132801803
  H          -7.38279489337190     -1.47940831441630     -2.68077269498125
  H          -5.97058485412715      1.48686394670301     -0.88993983275373
  H          -5.74350849109958     -0.19976997239444     -0.41042162499684
  H          -7.32344352233838      0.35626652381263     -0.97446476057238
  H          -3.76284026515594     -1.24875481410486     -4.79585260318304
  H          -2.46647756667312     -0.04365682988545     -4.73624505151021
  H          -4.07234359147084      0.41065279723823     -5.33239449611802
  H          -3.21067743115149      4.59497922999766      0.43650290328359
  H          -4.60034006365083      5.48328362496781     -0.19364448194089
  H          -3.65449763433001      4.05105410689395      4.19195006041358
  H          -4.14523213566601      5.33881345511543      3.07937917206566
  H          -2.69173622448538      4.37877384668865      2.74873857876470
  H          -7.47233532461764      2.38926244452456      1.11581910930836
  H          -8.29155856407321      1.79754725495242      2.57010505220894
  H          -6.85824015226263      0.96093818170030      1.95731008848622
  H          -5.81855399997496      1.19970603457895      4.28910468004355
  H          -7.25208684155797      2.07324661467232      4.84436467460629
  H          -5.65048065633999      2.79775895408787      5.03253366767368
  H          -7.24789658726838      4.71844334177819      2.19277539325983
  H          -6.55666469591167      4.87043632193804      3.81576148325800
  H          -8.12240870496989      4.07867034859306      3.59271205834121
  H          -4.37061164732919      0.71878866111788      1.52308538190101
  H          -3.61844075626026      1.07251261777516      3.08838905052824
  H          -2.84484271221328      1.61852407829210      1.59396823076988
  H          -3.05493941632528      7.09222901513643     -1.03964125814129
  H          -1.58591574906665      7.57473325512260     -1.93376652478663
  H          -1.52589006692185      7.35519770251043     -0.16271422335236
  H          -2.32328689142204      2.70874294561841     -3.86561983588882
