69
Coordinates from ORCA-job goat_0_123 E -1780.867468016975
  O          -1.54959586404380      2.47457005321541      0.45984964513951
  C          -1.93468099006176      2.09403172535546     -0.85424182180268
  H          -1.72121380639381      1.02686314918302     -0.95188559313029
  C          -3.43925921353585      2.28307128607221     -1.09517014091274
  H          -3.98046311975123      1.90937404910648     -0.22100773848444
  O          -3.76796771602426      1.53376196806189     -2.26788971639320
  Si         -4.94312488740578      0.33500604292130     -2.22163326368683
  C          -6.58070826514836      1.11030608412580     -1.75833757046935
  C          -4.95126639994881     -0.38081100380885     -3.96380599635007
  C          -6.09246224454382     -1.40205621177536     -4.08181112579803
  C          -5.16525858049142      0.74299886187247     -4.98801908470713
  C          -3.61293067315099     -1.07825240512302     -4.24771497794068
  C          -4.46263740869937     -0.93405942976853     -0.93367168171442
  C          -3.85546122575884      3.73556398603519     -1.31861484042351
  H          -4.80296936910606      3.70703622921190     -1.86064255369976
  C          -4.14110045341002      4.49992652084380     -0.02489797163389
  O          -5.34872912254619      3.96533440034411      0.49510625460980
  Si         -5.92838777633988      4.25083431776652      2.03639639219971
  C          -7.78692481418161      4.32484454351586      1.85114090815984
  C          -5.42154997526417      2.82270253570819      3.16628007126180
  C          -3.89145391796116      2.73967769437247      3.25396144609992
  C          -5.99866622788699      3.04678214311240      4.57140788334201
  C          -5.96243026425868      1.50211436810123      2.59893406426205
  C          -5.25705167819873      5.88362858041364      2.65898341851669
  O          -2.97139271842339      4.44236129264774     -2.20019756624311
  C          -1.58800304660486      4.31484185552937     -1.97221821698239
  H          -1.11945118300812      4.82060505807875     -2.82258570286412
  O          -1.18024108109384      4.91827107273735     -0.76464107495008
  C          -1.26422063984258      6.34345577169878     -0.77462854630042
  C          -1.13840247663944      2.85262437310026     -1.91979373112649
  H          -0.07715110945712      2.83220904429030     -1.66218853941591
  O          -1.27896502899392      2.25887214594404     -3.20109139900916
  H          -1.36645553839098      3.42549230139858      0.45332054308850
  H          -6.90598605787515      1.83719455052805     -2.50737651197903
  H          -6.49934888937118      1.62545078797620     -0.79668287465976
  H          -7.35460884794452      0.34289971042442     -1.66440186868775
  H          -7.06886190627712     -0.93683708521633     -3.91689709310462
  H          -5.98079696408593     -2.21932581019156     -3.36235271619066
  H          -6.09865454920695     -1.84234535242542     -5.08609343461315
  H          -6.11077032979584      1.26808524897977     -4.82189911944790
  H          -5.19044481024348      0.32511010107678     -6.00173567092683
  H          -4.35788568665828      1.47955609860596     -4.94851624148080
  H          -2.76926628203796     -0.38846471270415     -4.15011546732615
  H          -3.60555369556546     -1.47300240334017     -5.27093523396710
  H          -3.44412644871006     -1.91722913935882     -3.56657873944596
  H          -5.17483315223040     -1.76465961640888     -0.93227767704391
  H          -4.46717492230255     -0.49176802980388      0.06702839540836
  H          -3.46519012892058     -1.33770967022675     -1.12563347359528
  H          -3.32814827661491      4.41362197840553      0.69820705972431
  H          -4.26992269402362      5.55854511475244     -0.27180404388811
  H          -8.06833968633161      5.18010528754177      1.22975971730869
  H          -8.27756423402347      4.43377402633751      2.82237140474446
  H          -8.17024483373387      3.41790651610122      1.37536476628672
  H          -3.45829023768319      3.65792130508439      3.66244940231998
  H          -3.43861620099810      2.55728211141273      2.27615138154958
  H          -3.59840900500903      1.91370377561918      3.91435606239674
  H          -5.71087817175390      2.21916330490690      5.23142629326477
  H          -7.09169014613915      3.09512306580096      4.55910596682809
  H          -5.62424659917007      3.97239245213721      5.01928609662061
  H          -7.05531754946868      1.50037995561856      2.54791550722093
  H          -5.65792299020764      0.66489981587899      3.23922469399548
  H          -5.57685705536482      1.30932568028476      1.59348212620940
  H          -5.52784987230520      6.69140704236718      1.97242163287693
  H          -4.16823970333048      5.86834028613788      2.75535492950469
  H          -5.68024597704317      6.11863699988850      3.63982861873940
  H          -2.29328277548220      6.67647436813110     -0.92557176758951
  H          -0.62806938891620      6.75030103972236     -1.56744883947025
  H          -0.90748931466927      6.68803545587193      0.19517615705652
  H          -2.19945573993966      1.95933329579461     -3.27732123127996
