69
Coordinates from ORCA-job goat_0_55 E -1780.868228363671
  O      -1.546941      1.122062     -2.044875
  C      -2.006982      2.455317     -2.164269
  H      -2.032098      2.758447     -3.219878
  C      -3.415216      2.587021     -1.600897
  H      -3.426484      2.155422     -0.594381
  O      -4.302997      1.908669     -2.464602
  Si     -5.322105      0.635554     -2.109202
  C      -7.000988      1.246866     -1.581630
  C      -5.426084     -0.302198     -3.742244
  C      -6.324387     -1.534190     -3.597887
  C      -6.005788      0.624446     -4.816913
  C      -4.026244     -0.742324     -4.179850
  C      -4.597534     -0.389472     -0.727521
  C      -3.831664      4.048491     -1.499030
  H      -3.877805      4.476707     -2.511058
  C      -5.190129      4.222259     -0.854120
  O      -5.354926      3.444130      0.309286
  Si     -4.803036      3.736227      1.852926
  C      -4.567912      5.566685      2.125583
  C      -6.143765      3.016938      2.964651
  C      -5.786522      3.240802      4.437263
  C      -7.482566      3.692633      2.654874
  C      -6.278476      1.514185      2.696571
  C      -3.183464      2.846577      2.124137
  O      -2.872754      4.763972     -0.728773
  C      -1.614175      4.775260     -1.363225
  H      -1.712724      5.172038     -2.383544
  O      -0.767937      5.670052     -0.713150
  C      -0.608003      5.474620      0.688267
  C      -1.034932      3.363471     -1.439587
  H      -0.886028      2.965458     -0.426840
  O       0.180894      3.390176     -2.158148
  H      -2.120525      0.567358     -2.586354
  H      -6.901696      1.846922     -0.674685
  H      -7.660250      0.404171     -1.358427
  H      -7.479741      1.857317     -2.349614
  H      -6.403546     -2.055417     -4.557747
  H      -7.336834     -1.263606     -3.289477
  H      -5.926042     -2.246459     -2.871515
  H      -7.031384      0.919288     -4.584687
  H      -6.022157      0.115488     -5.786551
  H      -5.404179      1.529112     -4.925525
  H      -3.382392      0.123307     -4.356750
  H      -4.078183     -1.299738     -5.121117
  H      -3.552253     -1.396193     -3.442149
  H      -5.159740     -1.319365     -0.612104
  H      -4.675515      0.153212      0.218172
  H      -3.546793     -0.640664     -0.882801
  H      -5.344456      5.285594     -0.646336
  H      -5.951303      3.907990     -1.569073
  H      -5.509885      6.118444      2.108586
  H      -3.915541      5.979495      1.353519
  H      -4.091577      5.743292      3.093162
  H      -4.840415      2.762532      4.702447
  H      -6.561709      2.813582      5.082528
  H      -5.709241      4.304103      4.677471
  H      -8.277827      3.260755      3.272092
  H      -7.760387      3.553363      1.608136
  H      -7.453295      4.764982      2.861945
  H      -6.514374      1.318792      1.647894
  H      -7.088755      1.092584      3.301324
  H      -5.364511      0.972083      2.950428
  H      -3.280714      1.768570      1.975976
  H      -2.802557      3.015607      3.134291
  H      -2.437476      3.217661      1.420045
  H      -0.054979      4.558550      0.913802
  H      -1.573184      5.448425      1.194311
  H      -0.038173      6.328764      1.046812
  H       0.696205      4.139411     -1.836002
69
Coordinates from ORCA-job goat_0_55 E -1780.869425134655
  O      -1.524118      1.189881     -2.262838
  C      -2.005899      2.526434     -2.283943
  H      -2.068854      2.888817     -3.319434
  C      -3.395596      2.621364     -1.659421
  H      -3.363473      2.156509     -0.670313
  O      -4.313736      1.955576     -2.503504
  Si     -5.326785      0.687256     -2.109007
  C      -7.016586      1.303530     -1.613512
  C      -5.418344     -0.321920     -3.701707
  C      -6.307167     -1.554383     -3.492404
  C      -6.010803      0.546018     -4.822599
  C      -4.011055     -0.774533     -4.113697
  C      -4.599356     -0.280744     -0.685647
  C      -3.813954      4.080939     -1.494630
  H      -3.884279      4.542934     -2.490583
  C      -5.164037      4.237912     -0.818060
  O      -5.327759      3.435714      0.332097
  Si     -4.821833      3.718052      1.894304
  C      -4.614003      5.549848      2.195026
  C      -6.194743      2.982676      2.959631
  C      -5.863508      3.175222      4.445133
  C      -7.524003      3.679668      2.638830
  C      -6.334600      1.483633      2.656618
  C      -3.207168      2.832065      2.215285
  O      -2.831834      4.773238     -0.724167
  C      -1.588468      4.809650     -1.391839
  H      -1.717601      5.243141     -2.393276
  O      -0.714907      5.677726     -0.734040
  C      -0.468185      5.401334      0.646052
  C      -1.014687      3.399049     -1.537534
  H      -0.852407      2.960535     -0.544863
  O       0.201207      3.444784     -2.265736
  H      -2.100391      0.662219     -2.827677
  H      -6.930825      1.929679     -0.722422
  H      -7.672561      0.460779     -1.374088
  H      -7.491352      1.889511     -2.404801
  H      -6.380379     -2.128152     -4.424421
  H      -7.323444     -1.275759     -3.197480
  H      -5.902690     -2.222202     -2.725623
  H      -7.038134      0.848242     -4.599541
  H      -6.029353     -0.015778     -5.764674
  H      -5.415661      1.449070     -4.984674
  H      -3.372566      0.084274     -4.342462
  H      -4.058984     -1.390813     -5.019841
  H      -3.529016     -1.374710     -3.334855
  H      -5.169194     -1.201309     -0.527539
  H      -4.663487      0.304580      0.236981
  H      -3.552460     -0.550574     -0.842710
  H      -5.316390      5.297321     -0.585156
  H      -5.934203      3.939825     -1.532984
  H      -5.561445      6.092240      2.137156
  H      -3.928963      5.977265      1.459089
  H      -4.188328      5.720200      3.188534
  H      -4.924783      2.683387      4.718223
  H      -6.655828      2.742246      5.068265
  H      -5.779802      4.234627      4.706976
  H      -8.334214      3.245389      3.237682
  H      -7.788162      3.562558      1.584083
  H      -7.485600      4.749918      2.863517
  H      -6.555789      1.310102      1.599405
  H      -7.156674      1.054468      3.243080
  H      -5.425353      0.930889      2.909851
  H      -3.292723      1.756089      2.040159
  H      -2.874934      2.982171      3.246946
  H      -2.431988      3.222875      1.554574
  H       0.092564      4.471184      0.780574
  H      -1.399548      5.348652      1.210994
  H       0.131086      6.232368      1.016728
  H       0.734954      4.160855     -1.898129
69
Coordinates from ORCA-job goat_0_55 E -1780.869667260966
  O      -1.498927      1.268890     -2.313774
  C      -2.012124      2.597960     -2.299720
  H      -2.064948      2.990317     -3.324898
  C      -3.411739      2.649878     -1.687658
  H      -3.376805      2.169862     -0.706375
  O      -4.310927      1.971980     -2.545034
  Si     -5.302283      0.688182     -2.137217
  C      -7.004167      1.281267     -1.643130
  C      -5.395518     -0.354544     -3.711205
  C      -6.243835     -1.607075     -3.445168
  C      -6.044112      0.465018     -4.840145
  C      -3.985427     -0.780784     -4.146988
  C      -4.547167     -0.251612     -0.706669
  C      -3.859745      4.101461     -1.501764
  H      -3.935911      4.582539     -2.488296
  C      -5.212764      4.223088     -0.824670
  O      -5.354378      3.395538      0.310536
  Si     -4.800275      3.646978      1.862044
  C      -4.454762      5.462886      2.148008
  C      -6.202642      3.023621      2.965969
  C      -5.809059      3.188781      4.441463
  C      -7.479508      3.832880      2.687624
  C      -6.476527      1.538947      2.673863
  C      -3.247283      2.644502      2.155076
  O      -2.896129      4.799617     -0.707631
  C      -1.641557      4.864358     -1.352686
  H      -1.758425      5.309283     -2.350109
  O      -0.791834      5.734300     -0.663027
  C      -0.540312      5.416269      0.711437
  C      -1.051316      3.460537     -1.501604
  H      -0.923417      3.008226     -0.510710
  O       0.197667      3.522515     -2.179031
  H      -2.048056      0.748704     -2.910892
  H      -6.930780      1.909386     -0.752469
  H      -7.646840      0.426774     -1.405780
  H      -7.485683      1.859116     -2.437643
  H      -6.321558     -2.210945     -4.358761
  H      -7.260932     -1.348039     -3.132160
  H      -5.801814     -2.238395     -2.666917
  H      -7.072361      0.748756     -4.593832
  H      -6.075620     -0.127515     -5.764089
  H      -5.479155      1.379151     -5.049054
  H      -3.384174      0.085627     -4.441308
  H      -4.041726     -1.445403     -5.018768
  H      -3.456009     -1.318844     -3.352859
  H      -5.117246     -1.167683     -0.520209
  H      -4.586159      0.352785      0.205312
  H      -3.505810     -0.531137     -0.888386
  H      -5.376569      5.275794     -0.568173
  H      -5.980765      3.928200     -1.544913
  H      -5.360435      6.072081      2.074059
  H      -3.731149      5.832185      1.415974
  H      -4.030573      5.609340      3.146715
  H      -4.906709      2.618309      4.685981
  H      -6.616439      2.826600      5.091528
  H      -5.624169      4.238168      4.695561
  H      -8.302141      3.470130      3.318042
  H      -7.791376      3.738956      1.642472
  H      -7.340258      4.897123      2.904914
  H      -6.754843      1.381685      1.627442
  H      -7.304965      1.178767      3.298428
  H      -5.603108      0.914991      2.888214
  H      -3.417418      1.578450      1.977987
  H      -2.894111      2.766724      3.184292
  H      -2.452666      2.978789      1.483799
  H       0.026921      4.485802      0.813284
  H      -1.471221      5.340536      1.276437
  H       0.056204      6.239635      1.105855
  H       0.720708      4.215340     -1.754634
69
Coordinates from ORCA-job goat_0_55 E -1780.869392271400
  O      -1.519691      1.203209     -2.270961
  C      -1.995281      2.547461     -2.265280
  H      -2.007604      2.944508     -3.289679
  C      -3.406620      2.633533     -1.688068
  H      -3.404676      2.156495     -0.704507
  O      -4.300327      1.970785     -2.564095
  Si     -5.312442      0.699846     -2.159181
  C      -7.003068      1.318805     -1.649578
  C      -5.447341     -0.340570     -3.733868
  C      -6.289067     -1.592031     -3.437207
  C      -6.129754      0.473716     -4.846143
  C      -4.052353     -0.770665     -4.211643
  C      -4.558136     -0.265110     -0.743164
  C      -3.823096      4.096940     -1.517433
  H      -3.869006      4.579044     -2.505087
  C      -5.183412      4.246048     -0.864928
  O      -5.328150      3.442623      0.286057
  Si     -4.817400      3.763454      1.840231
  C      -4.681378      5.609885      2.119122
  C      -6.149250      2.996873      2.945648
  C      -5.770090      3.201127      4.420844
  C      -7.503038      3.672379      2.673081
  C      -6.270718      1.491709      2.655540
  C      -3.162502      2.941013      2.144629
  O      -2.862016      4.772239     -0.699327
  C      -1.586191      4.798068     -1.303883
  H      -1.655192      5.245580     -2.304175
  O      -0.738907      5.643040     -0.581437
  C      -0.525969      5.293698      0.793848
  C      -1.038405      3.374759     -1.426909
  H      -0.968393      2.921735     -0.430873
  O       0.240385      3.391933     -2.052298
  H      -2.065917      0.702161     -2.886733
  H      -6.918416      1.922799     -0.743840
  H      -7.662655      0.471476     -1.434862
  H      -7.470529      1.925239     -2.431104
  H      -6.394452     -2.199445     -4.345371
  H      -7.295394     -1.330260     -3.093844
  H      -5.824125     -2.219298     -2.669432
  H      -7.148332      0.761617     -4.567593
  H      -6.192011     -0.125101     -5.764347
  H      -5.571215      1.386098     -5.079415
  H      -3.466766      0.091200     -4.547995
  H      -4.138612     -1.454730     -5.065344
  H      -3.490344     -1.285815     -3.425083
  H      -5.153187     -1.163303     -0.548535
  H      -4.556993      0.337233      0.169905
  H      -3.531203     -0.577515     -0.953204
  H      -5.343357      5.304599     -0.631760
  H      -5.943382      3.934782     -1.586657
  H      -5.647120      6.111810      2.008752
  H      -3.979384      6.053809      1.408622
  H      -4.312939      5.807044      3.131082
  H      -4.814602      2.723969      4.662524
  H      -6.535763      2.761187      5.073137
  H      -5.688823      4.263840      4.673322
  H      -8.280834      3.227123      3.307242
  H      -7.809238      3.548929      1.629242
  H      -7.471069      4.744927      2.890519
  H      -6.541317      1.304730      1.612274
  H      -7.049814      1.048707      3.289986
  H      -5.333938      0.963116      2.858793
  H      -3.213263      1.863544      1.964241
  H      -2.838630      3.099466      3.178328
  H      -2.401622      3.363066      1.481319
  H       0.014477      4.347388      0.889135
  H      -1.471485      5.233055      1.336685
  H       0.083787      6.093860      1.214148
  H       0.772398      4.052173     -1.589450
69
Coordinates from ORCA-job goat_0_55 E -1780.870209783681
  O      -1.555806      1.218772     -2.291438
  C      -2.017981      2.564482     -2.293598
  H      -2.060590      2.944622     -3.323159
  C      -3.411291      2.662360     -1.681340
  H      -3.388441      2.189963     -0.695544
  O      -4.322398      2.003130     -2.540133
  Si     -5.335742      0.735956     -2.127633
  C      -7.044751      1.353799     -1.686478
  C      -5.409660     -0.340262     -3.680441
  C      -6.247949     -1.593894     -3.389261
  C      -6.058473      0.444189     -4.830367
  C      -3.995866     -0.763118     -4.101014
  C      -4.618039     -0.187317     -0.666448
  C      -3.818802      4.125006     -1.506816
  H      -3.884845      4.602412     -2.495273
  C      -5.165606      4.279719     -0.827074
  O      -5.323232      3.443579      0.299609
  Si     -4.813110      3.698628      1.866273
  C      -4.595663      5.527195      2.199347
  C      -6.188827      2.962757      2.935714
  C      -5.824353      3.112792      4.419766
  C      -7.508294      3.697501      2.661141
  C      -6.367049      1.473769      2.605610
  C      -3.205382      2.787624      2.164957
  O      -2.834708      4.802730     -0.723085
  C      -1.582621      4.825876     -1.375634
  H      -1.693368      5.257664     -2.379225
  O      -0.715781      5.692298     -0.706094
  C      -0.457244      5.392557      0.670058
  C      -1.032866      3.404028     -1.503307
  H      -0.919068      2.961230     -0.506631
  O       0.211778      3.423816     -2.187788
  H      -2.130993      0.712892     -2.877143
  H      -6.993316      1.978752     -0.792846
  H      -7.705141      0.507802     -1.473666
  H      -7.490456      1.938285     -2.495500
  H      -6.318190     -2.215986     -4.289356
  H      -7.266536     -1.337601     -3.083658
  H      -5.801837     -2.204444     -2.598889
  H      -7.089097      0.723875     -4.595509
  H      -6.079490     -0.170173     -5.738721
  H      -5.502053      1.358136     -5.057804
  H      -3.404518      0.100266     -4.421410
  H      -4.044567     -1.454528     -4.950486
  H      -3.461800     -1.270248     -3.291087
  H      -5.208907     -1.086456     -0.468991
  H      -4.653858      0.435097      0.231393
  H      -3.581564     -0.490600     -0.834131
  H      -5.304810      5.333647     -0.564515
  H      -5.938887      4.006862     -1.548289
  H      -5.534628      6.076691      2.092169
  H      -3.865318      5.956845      1.510928
  H      -4.231532      5.678519      3.219841
  H      -4.894322      2.590413      4.662741
  H      -6.616693      2.688551      5.048258
  H      -5.704524      4.163280      4.701730
  H      -8.313156      3.266396      3.268845
  H      -7.800181      3.614302      1.610385
  H      -7.438695      4.760339      2.909947
  H      -6.627504      1.325193      1.554182
  H      -7.173678      1.047782      3.214755
  H      -5.457502      0.901896      2.811342
  H      -3.309725      1.718215      1.963845
  H      -2.879732      2.909009      3.202206
  H      -2.422162      3.180342      1.514468
  H       0.086926      4.450925      0.783520
  H      -1.383302      5.353546      1.244737
  H       0.164097      6.207054      1.039565
  H       0.758517      4.096871     -1.763589
69
Coordinates from ORCA-job goat_0_55 E -1780.870261956098
  O      -1.532234      1.231342     -2.326111
  C      -2.012882      2.570366     -2.303425
  H      -2.062857      2.967486     -3.326184
  C      -3.406811      2.639050     -1.686705
  H      -3.374922      2.154969     -0.707551
  O      -4.312626      1.980160     -2.551848
  Si     -5.306468      0.693013     -2.151975
  C      -7.010987      1.287448     -1.663189
  C      -5.403864     -0.343801     -3.730261
  C      -6.214110     -1.618447     -3.450198
  C      -6.094725      0.458767     -4.842615
  C      -3.995073     -0.733167     -4.197720
  C      -4.551553     -0.264665     -0.732248
  C      -3.835292      4.092909     -1.493771
  H      -3.906617      4.580478     -2.476969
  C      -5.184794      4.224898     -0.812206
  O      -5.323535      3.400462      0.325803
  Si     -4.809910      3.694423      1.884628
  C      -4.555091      5.528289      2.155942
  C      -6.200937      3.025029      2.978197
  C      -5.830045      3.212475      4.456502
  C      -7.502494      3.783126      2.682498
  C      -6.417174      1.531282      2.695856
  C      -3.220989      2.761429      2.214973
  O      -2.860671      4.773519     -0.700963
  C      -1.606814      4.822753     -1.350413
  H      -1.720114      5.270724     -2.346762
  O      -0.754095      5.687569     -0.662065
  C      -0.497514      5.363096      0.708806
  C      -1.037389      3.410458     -1.501627
  H      -0.916265      2.953333     -0.512383
  O       0.205349      3.457414     -2.188783
  H      -2.102398      0.728933     -2.919526
  H      -6.949183      1.880913     -0.748662
  H      -7.664713      0.431130     -1.471367
  H      -7.470470      1.898110     -2.444806
  H      -6.301200     -2.215944     -4.365611
  H      -7.227268     -1.387410     -3.107993
  H      -5.735172     -2.243889     -2.691145
  H      -7.124065      0.713621     -4.575235
  H      -6.127610     -0.131539     -5.766623
  H      -5.560237      1.388676     -5.058851
  H      -3.425887      0.147660     -4.511396
  H      -4.055335     -1.404022     -5.062998
  H      -3.432097     -1.252982     -3.415365
  H      -5.137603     -1.168491     -0.541575
  H      -4.562713      0.335095      0.181126
  H      -3.520215     -0.563356     -0.936123
  H      -5.343879      5.278355     -0.558922
  H      -5.955169      3.929014     -1.527976
  H      -5.479856      6.093679      2.012670
  H      -3.803231      5.917052      1.465343
  H      -4.204893      5.707600      3.176813
  H      -4.913088      2.674406      4.715158
  H      -6.632123      2.828224      5.098493
  H      -5.683477      4.268039      4.705556
  H      -8.317097      3.389811      3.303102
  H      -7.797610      3.675928      1.634655
  H      -7.406835      4.851074      2.899784
  H      -6.686540      1.356047      1.650738
  H      -7.231126      1.144756      3.321669
  H      -5.521070      0.943575      2.915948
  H      -3.347406      1.688493      2.047164
  H      -2.895269      2.908519      3.249006
  H      -2.428467      3.117540      1.554650
  H       0.055371      4.424387      0.805719
  H      -1.425905      5.303498      1.278788
  H       0.114705      6.176216      1.096932
  H       0.747475      4.126705     -1.752413
69
Coordinates from ORCA-job goat_0_55 E -1780.870385446175
  O      -1.532761      1.261183     -2.361611
  C      -2.012307      2.600485     -2.320858
  H      -2.060267      3.011266     -3.338326
  C      -3.406564      2.663411     -1.703644
  H      -3.372298      2.178831     -0.724906
  O      -4.315208      2.003482     -2.565318
  Si     -5.321768      0.732088     -2.143937
  C      -7.029757      1.353128     -1.700472
  C      -5.403249     -0.352383     -3.691255
  C      -6.215955     -1.618271     -3.378372
  C      -6.083479      0.413900     -4.835442
  C      -3.989885     -0.757440     -4.131622
  C      -4.593377     -0.190030     -0.686899
  C      -3.836998      4.115455     -1.506444
  H      -3.904223      4.610477     -2.486308
  C      -5.188506      4.239556     -0.828191
  O      -5.323793      3.397992      0.297186
  Si     -4.803393      3.676564      1.856590
  C      -4.552424      5.508486      2.145696
  C      -6.186034      2.992594      2.952537
  C      -5.799325      3.151397      4.430437
  C      -7.487166      3.761859      2.684068
  C      -6.412083      1.505097      2.644789
  C      -3.209901      2.743061      2.164204
  O      -2.866561      4.787898     -0.701545
  C      -1.606326      4.841186     -1.340029
  H      -1.709201      5.302863     -2.331278
  O      -0.759068      5.693431     -0.630430
  C      -0.512870      5.340924      0.735816
  C      -1.038558      3.429098     -1.504763
  H      -0.924268      2.960668     -0.520033
  O       0.208124      3.480363     -2.185432
  H      -2.102297      0.769239     -2.964228
  H      -6.982395      1.958622     -0.792572
  H      -7.697392      0.506452     -1.512902
  H      -7.463460      1.958057     -2.501196
  H      -6.297911     -2.242060     -4.276852
  H      -7.231140     -1.377169     -3.048696
  H      -5.741173     -2.221427     -2.598774
  H      -7.116256      0.674912     -4.587121
  H      -6.105134     -0.204762     -5.741273
  H      -5.548643      1.338322     -5.074611
  H      -3.416231      0.112574     -4.467129
  H      -4.042201     -1.455845     -4.975592
  H      -3.435511     -1.253547     -3.327586
  H      -5.196207     -1.077325     -0.472013
  H      -4.599261      0.438818      0.207154
  H      -3.566229     -0.512248     -0.876236
  H      -5.346890      5.289384     -0.559542
  H      -5.958420      3.953590     -1.548864
  H      -5.475679      6.073539      1.990449
  H      -3.788824      5.903307      1.471145
  H      -4.220753      5.679567      3.174240
  H      -4.882958      2.603425      4.670349
  H      -6.597661      2.760052      5.073158
  H      -5.644204      4.201556      4.697277
  H      -8.297982      3.358967      3.303886
  H      -7.792334      3.677604      1.636750
  H      -7.385054      4.824927      2.922423
  H      -6.695559      1.350503      1.599749
  H      -7.219554      1.110045      3.274026
  H      -5.515564      0.909652      2.842085
  H      -3.337187      1.672154      1.982983
  H      -2.879065      2.877039      3.198528
  H      -2.421094      3.108616      1.503337
  H       0.035129      4.397800      0.817687
  H      -1.445923      5.274115      1.298094
  H       0.100715      6.143557      1.143856
  H       0.754592      4.134981     -1.732238
69
Coordinates from ORCA-job goat_0_55 E -1780.870449680513
  O      -1.552544      1.242115     -2.340973
  C      -2.018421      2.586351     -2.311870
  H      -2.060467      2.990156     -3.332488
  C      -3.413113      2.665413     -1.698586
  H      -3.385038      2.183626     -0.717968
  O      -4.323256      2.009708     -2.562531
  Si     -5.333016      0.738929     -2.144577
  C      -7.045054      1.361305     -1.718584
  C      -5.403644     -0.350133     -3.689438
  C      -6.197618     -1.626678     -3.371689
  C      -6.097722      0.403974     -4.832992
  C      -3.986639     -0.735895     -4.134665
  C      -4.615743     -0.181560     -0.681123
  C      -3.830475      4.122333     -1.505521
  H      -3.894576      4.615264     -2.486619
  C      -5.179494      4.259154     -0.825705
  O      -5.319774      3.413999      0.296618
  Si     -4.805692      3.691309      1.858600
  C      -4.578965      5.524670      2.158275
  C      -6.180839      2.984821      2.949486
  C      -5.797729      3.138441      4.428742
  C      -7.490342      3.740611      2.684063
  C      -6.388523      1.496717      2.632390
  C      -3.202199      2.773893      2.162697
  O      -2.853820      4.789904     -0.704326
  C      -1.593783      4.829330     -1.344012
  H      -1.694522      5.284166     -2.338548
  O      -0.739669      5.681461     -0.642304
  C      -0.491207      5.339430      0.726051
  C      -1.038372      3.411525     -1.499923
  H      -0.928719      2.947845     -0.512497
  O       0.208437      3.448455     -2.180411
  H      -2.129362      0.750516     -2.936928
  H      -7.009588      1.957649     -0.804535
  H      -7.717923      0.514947     -1.549544
  H      -7.464714      1.974989     -2.520070
  H      -6.276485     -2.251339     -4.269716
  H      -7.213939     -1.399412     -3.036098
  H      -5.710066     -2.223301     -2.595165
  H      -7.133701      0.649534     -4.582752
  H      -6.111807     -0.215868     -5.738019
  H      -5.577639      1.336124     -5.074312
  H      -3.428964      0.140909     -4.478844
  H      -4.032393     -1.440072     -4.974122
  H      -3.420314     -1.218259     -3.330916
  H      -5.224056     -1.065008     -0.466327
  H      -4.621498      0.449466      0.211215
  H      -3.589559     -0.509250     -0.866644
  H      -5.327533      5.309620     -0.554030
  H      -5.952660      3.982954     -1.546105
  H      -5.505835      6.079650      1.989145
  H      -3.808803      5.930416      1.498660
  H      -4.267291      5.695259      3.193089
  H      -4.876271      2.598450      4.666590
  H      -6.592878      2.734864      5.067691
  H      -5.653969      4.188306      4.702515
  H      -8.297826      3.322978      3.298250
  H      -7.791889      3.661374      1.635358
  H      -7.401627      4.802678      2.931460
  H      -6.669288      1.345047      1.586325
  H      -7.191375      1.087950      3.258587
  H      -5.485014      0.910990      2.826773
  H      -3.319740      1.702247      1.979732
  H      -2.871803      2.908933      3.196931
  H      -2.417907      3.147532      1.501382
  H       0.049472      4.392950      0.815004
  H      -1.422403      5.285574      1.292089
  H       0.130293      6.140678      1.124289
  H       0.763727      4.094895     -1.726570
69
Coordinates from ORCA-job goat_0_55 E -1780.870497648202
  O      -1.547369      1.241602     -2.348659
  C      -2.014176      2.585000     -2.316689
  H      -2.059875      2.990293     -3.336635
  C      -3.406978      2.661190     -1.699485
  H      -3.375909      2.177725     -0.719781
  O      -4.318360      2.007077     -2.563221
  Si     -5.330810      0.737828     -2.145642
  C      -7.040245      1.368060     -1.721880
  C      -5.405554     -0.349183     -3.691885
  C      -6.191574     -1.630135     -3.372988
  C      -6.109354      0.404431     -4.829581
  C      -3.989849     -0.728040     -4.146428
  C      -4.616856     -0.188992     -0.685074
  C      -3.825704      4.116797     -1.501793
  H      -3.891431      4.611797     -2.481738
  C      -5.174403      4.250417     -0.819927
  O      -5.312990      3.404111      0.302346
  Si     -4.807955      3.692249      1.865651
  C      -4.592061      5.528181      2.155527
  C      -6.184204      2.986267      2.954941
  C      -5.807804      3.146274      4.434968
  C      -7.494500      3.737264      2.680926
  C      -6.386302      1.496416      2.643226
  C      -3.202498      2.782675      2.181756
  O      -2.848300      4.783635     -0.701387
  C      -1.590218      4.827061     -1.344844
  H      -1.695289      5.284395     -2.337814
  O      -0.735795      5.679217     -0.643969
  C      -0.481448      5.335442      0.722406
  C      -1.032324      3.410956     -1.507939
  H      -0.915740      2.944201     -0.522724
  O       0.209410      3.453180     -2.196110
  H      -2.128303      0.750068     -2.940775
  H      -7.007426      1.950927     -0.799159
  H      -7.721679      0.525196     -1.571062
  H      -7.447950      1.996597     -2.517879
  H      -6.277491     -2.249870     -4.273661
  H      -7.205267     -1.408810     -3.025838
  H      -5.693729     -2.229240     -2.605185
  H      -7.145898      0.641720     -4.574331
  H      -6.122698     -0.211423     -5.737192
  H      -5.596655      1.341097     -5.068900
  H      -3.438130      0.151936     -4.491755
  H      -4.037527     -1.430256     -4.987304
  H      -3.417134     -1.211139     -3.347698
  H      -5.233786     -1.065543     -0.467203
  H      -4.610610      0.441501      0.207279
  H      -3.595337     -0.527636     -0.876695
  H      -5.324428      5.300323     -0.547643
  H      -5.947859      3.973549     -1.539546
  H      -5.516681      6.078809      1.961934
  H      -3.809147      5.931079      1.509649
  H      -4.303369      5.707634      3.195403
  H      -4.886720      2.608645      4.679018
  H      -6.605092      2.743681      5.071725
  H      -5.667347      4.197223      4.705739
  H      -8.304270      3.318393      3.291070
  H      -7.789811      3.655019      1.630769
  H      -7.410501      4.799953      2.926815
  H      -6.662696      1.339543      1.596987
  H      -7.190279      1.087821      3.267930
  H      -5.482135      0.913968      2.843792
  H      -3.317456      1.709119      2.008933
  H      -2.874134      2.927978      3.215179
  H      -2.418240      3.151406      1.518312
  H       0.061175      4.389815      0.808238
  H      -1.410204      5.278994      1.291899
  H       0.140098      6.136971      1.119635
  H       0.770018      4.093174     -1.740072
69
Coordinates from ORCA-job goat_0_55 E -1780.870518327093
  O      -1.552942      1.247981     -2.367484
  C      -2.019963      2.590943     -2.325993
  H      -2.069497      3.002354     -3.343407
  C      -3.410302      2.662891     -1.703378
  H      -3.374879      2.175792     -0.725639
  O      -4.322852      2.010005     -2.566693
  Si     -5.333787      0.738712     -2.149666
  C      -7.046581      1.369766     -1.741862
  C      -5.397791     -0.353614     -3.692877
  C      -6.168066     -1.643143     -3.370442
  C      -6.111830      0.389586     -4.831208
  C      -3.978380     -0.717650     -4.148187
  C      -4.625882     -0.185266     -0.685039
  C      -3.829527      4.117392     -1.497850
  H      -3.897196      4.617005     -2.475364
  C      -5.176686      4.248312     -0.812083
  O      -5.312407      3.397466      0.307621
  Si     -4.807565      3.690800      1.870480
  C      -4.589328      5.527457      2.152131
  C      -6.184220      2.992643      2.963804
  C      -5.802333      3.145755      4.442984
  C      -7.489402      3.754567      2.695194
  C      -6.398974      1.505112      2.649103
  C      -3.204503      2.777875      2.188320
  O      -2.850343      4.780428     -0.696482
  C      -1.593604      4.828023     -1.342535
  H      -1.701024      5.291747     -2.332347
  O      -0.737949      5.675298     -0.637747
  C      -0.479627      5.321669      0.725044
  C      -1.035331      3.413370     -1.517066
  H      -0.913331      2.940124     -0.535495
  O       0.202376      3.460593     -2.211509
  H      -2.139224      0.759397     -2.956957
  H      -7.028033      1.935746     -0.808349
  H      -7.735502      0.528243     -1.619773
  H      -7.435868      2.014688     -2.534025
  H      -6.254141     -2.262133     -4.271658
  H      -7.181688     -1.433525     -3.015530
  H      -5.658176     -2.238062     -2.607326
  H      -7.151957      0.611533     -4.576731
  H      -6.115337     -0.225979     -5.739124
  H      -5.612741      1.333812     -5.070000
  H      -3.436702      0.167694     -4.495602
  H      -4.018929     -1.422131     -4.987620
  H      -3.400012     -1.193928     -3.349315
  H      -5.251528     -1.053989     -0.460745
  H      -4.609201      0.449374      0.204018
  H      -3.608752     -0.535812     -0.879341
  H      -5.325579      5.297122     -0.535279
  H      -5.952494      3.974932     -1.530461
  H      -5.506685      6.080369      1.932070
  H      -3.789268      5.922486      1.522514
  H      -4.325069      5.713086      3.197395
  H      -4.885582      2.599038      4.683221
  H      -6.601597      2.748582      5.080745
  H      -5.651948      4.194611      4.716496
  H      -8.301774      3.339237      3.304357
  H      -7.786790      3.679309      1.645040
  H      -7.396842      4.815506      2.945656
  H      -6.680722      1.352859      1.603630
  H      -7.203693      1.101051      3.275879
  H      -5.498776      0.914989      2.844949
  H      -3.326145      1.703242      2.026780
  H      -2.869970      2.931199      3.218635
  H      -2.421877      3.135809      1.517080
  H       0.062811      4.375133      0.802819
  H      -1.406660      5.261212      1.297140
  H       0.143507      6.119941      1.126439
  H       0.771509      4.086973     -1.747395
69
Coordinates from ORCA-job goat_0_55 E -1780.870525637695
  O      -1.542443      1.250402     -2.362207
  C      -2.012911      2.592371     -2.323948
  H      -2.061550      3.002020     -3.342164
  C      -3.404574      2.662657     -1.703744
  H      -3.370169      2.176514     -0.725491
  O      -4.315541      2.007891     -2.567155
  Si     -5.333047      0.742666     -2.147744
  C      -7.042475      1.386263     -1.746056
  C      -5.401798     -0.354235     -3.687739
  C      -6.173192     -1.641798     -3.360259
  C      -6.117743      0.387501     -4.826098
  C      -3.984119     -0.721672     -4.145952
  C      -4.632045     -0.181288     -0.680190
  C      -3.826849      4.116501     -1.499646
  H      -3.894764      4.615389     -2.477540
  C      -5.175024      4.244598     -0.815328
  O      -5.311013      3.391871      0.303195
  Si     -4.807859      3.686475      1.866685
  C      -4.593975      5.523616      2.148040
  C      -6.183102      2.985744      2.959905
  C      -5.800586      3.136746      4.439108
  C      -7.488915      3.747507      2.692889
  C      -6.396948      1.498339      2.643290
  C      -3.203403      2.776188      2.184715
  O      -2.849717      4.782204     -0.697763
  C      -1.592571      4.831941     -1.342733
  H      -1.700175      5.294151     -2.333246
  O      -0.739042      5.681784     -0.638261
  C      -0.480788      5.330571      0.725120
  C      -1.030961      3.418371     -1.515158
  H      -0.908580      2.946548     -0.532930
  O       0.207470      3.467233     -2.208391
  H      -2.128059      0.758655     -2.949622
  H      -7.025438      1.947430     -0.809538
  H      -7.740395      0.550775     -1.633685
  H      -7.420109      2.038897     -2.537648
  H      -6.264531     -2.262014     -4.260185
  H      -7.184958     -1.429908     -3.001116
  H      -5.661179     -2.236377     -2.598186
  H      -7.157316      0.610356     -4.569902
  H      -6.123288     -0.229579     -5.733051
  H      -5.618583      1.331079     -5.067605
  H      -3.442233      0.161681     -4.498182
  H      -4.027956     -1.429095     -4.982813
  H      -3.404262     -1.196039     -3.346956
  H      -5.267257     -1.041630     -0.450185
  H      -4.605060      0.457206      0.205978
  H      -3.619735     -0.544946     -0.875813
  H      -5.325577      5.292918     -0.537542
  H      -5.949783      3.971186     -1.534954
  H      -5.509569      6.075487      1.918096
  H      -3.788096      5.918663      1.525783
  H      -4.340122      5.711023      3.195619
  H      -4.883635      2.589663      4.678021
  H      -6.599534      2.738502      5.076706
  H      -5.650103      4.185225      4.714279
  H      -8.301195      3.330688      3.301248
  H      -7.786354      3.674146      1.642525
  H      -7.396707      4.808090      2.945254
  H      -6.679119      1.347070      1.597780
  H      -7.201107      1.092824      3.269961
  H      -5.496192      0.908596      2.837968
  H      -3.325466      1.700582      2.029599
  H      -2.864824      2.935028      3.212915
  H      -2.423322      3.130537      1.508473
  H       0.063952      4.385412      0.804541
  H      -1.407889      5.268383      1.297017
  H       0.140151      6.130864      1.126118
  H       0.778102      4.089166     -1.740140
69
Coordinates from ORCA-job goat_0_55 E -1780.870527663920
  O      -1.542980      1.250880     -2.361810
  C      -2.014146      2.592618     -2.323730
  H      -2.063609      3.001745     -3.342096
  C      -3.405475      2.662409     -1.702889
  H      -3.370544      2.176338     -0.724589
  O      -4.316217      2.006724     -2.565633
  Si     -5.333343      0.741184     -2.147324
  C      -7.043369      1.383357     -1.746115
  C      -5.400367     -0.354840     -3.687944
  C      -6.175774     -1.640630     -3.363325
  C      -6.111422      0.389473     -4.827751
  C      -3.982205     -0.725226     -4.142189
  C      -4.632289     -0.182442     -0.679726
  C      -3.828203      4.116192     -1.499570
  H      -3.896468      4.614409     -2.477761
  C      -5.176306      4.244621     -0.815476
  O      -5.312785      3.392986      0.303685
  Si     -4.807611      3.686517      1.866814
  C      -4.591473      5.523309      2.148781
  C      -6.182656      2.986372      2.960573
  C      -5.797927      3.134786      4.439455
  C      -7.487653      3.750497      2.696283
  C      -6.399366      1.499812      2.642064
  C      -3.203581      2.774919      2.183104
  O      -2.851183      4.782611     -0.698102
  C      -1.594431      4.832780     -1.343514
  H      -1.702469      5.294967     -2.333977
  O      -0.740946      5.682992     -0.639277
  C      -0.483511      5.332385      0.724390
  C      -1.032204      3.419412     -1.515728
  H      -0.908801      2.948135     -0.533399
  O       0.205814      3.468619     -2.209844
  H      -2.128819      0.758231     -2.948263
  H      -7.027233      1.944284     -0.809426
  H      -7.741396      0.547892     -1.634616
  H      -7.420609      2.036227     -2.537717
  H      -6.265190     -2.260884     -4.263370
  H      -7.188361     -1.426460     -3.007922
  H      -5.668077     -2.236090     -2.599041
  H      -7.150972      0.615081     -4.573966
  H      -6.116483     -0.227282     -5.734918
  H      -5.608985      1.331659     -5.067718
  H      -3.436518      0.157188     -4.490854
  H      -4.025216     -1.431053     -4.980408
  H      -3.406413     -1.202324     -3.341916
  H      -5.267243     -1.043045     -0.449890
  H      -4.605918      0.456120      0.206413
  H      -3.619802     -0.546006     -0.874479
  H      -5.326916      5.293188     -0.538635
  H      -5.950848      3.970536     -1.535035
  H      -5.507161      6.076488      1.922561
  H      -3.787462      5.917977      1.523831
  H      -4.333450      5.709978      3.195466
  H      -4.881320      2.586206      4.676211
  H      -6.596407      2.736761      5.077724
  H      -5.645550      4.182686      4.715778
  H      -8.299584      3.334601      3.305684
  H      -7.786907      3.678418      1.646363
  H      -7.393197      4.810723      2.949230
  H      -6.682794      1.350545      1.596593
  H      -7.203624      1.094819      3.268898
  H      -5.499377      0.908346      2.834984
  H      -3.327048      1.699039      2.031156
  H      -2.861494      2.936043      3.209753
  H      -2.425128      3.126850      1.503659
  H       0.062750      4.388160      0.804402
  H      -1.410981      5.268629      1.295536
  H       0.135620      6.133762      1.125957
  H       0.776450      4.090406     -1.741445
69
Coordinates from ORCA-job goat_0_55 E -1780.870531505375
  O      -1.543587      1.251549     -2.362005
  C      -2.015114      2.593214     -2.323890
  H      -2.065410      3.001915     -3.342362
  C      -3.406046      2.662649     -1.702269
  H      -3.370459      2.176475     -0.724029
  O      -4.316695      2.005983     -2.564178
  Si     -5.333704      0.740523     -2.146821
  C      -7.044532      1.381629     -1.747211
  C      -5.398924     -0.355580     -3.687446
  C      -6.174418     -1.641402     -3.363435
  C      -6.109176      0.388842     -4.827755
  C      -3.980245     -0.725346     -4.140423
  C      -4.632570     -0.181984     -0.678689
  C      -3.828930      4.116416     -1.499510
  H      -3.897207      4.614251     -2.477884
  C      -5.177148      4.245439     -0.815991
  O      -5.314814      3.394558      0.303463
  Si     -4.807930      3.686721      1.866480
  C      -4.590040      5.523192      2.149414
  C      -6.182947      2.986707      2.960382
  C      -5.795262      3.131168      4.438913
  C      -7.486883      3.754038      2.700029
  C      -6.403257      1.501304      2.639020
  C      -3.204140      2.774162      2.181252
  O      -2.851891      4.782949     -0.698072
  C      -1.595387      4.833561     -1.343765
  H      -1.703564      5.296405     -2.333876
  O      -0.741820      5.683516     -0.639039
  C      -0.484892      5.331977      0.724511
  C      -1.032925      3.420289     -1.516479
  H      -0.908344      2.949276     -0.534235
  O       0.204592      3.469825     -2.211816
  H      -2.130529      0.757956     -2.946569
  H      -7.030583      1.940847     -0.809482
  H      -7.743839      0.546814     -1.639445
  H      -7.419186      2.036451     -2.538497
  H      -6.261723     -2.262708     -4.262930
  H      -7.187790     -1.427371     -3.010253
  H      -5.668208     -2.235706     -2.597240
  H      -7.148719      0.614857     -4.574354
  H      -6.114114     -0.228256     -5.734697
  H      -5.606252      1.330701     -5.067870
  H      -3.434296      0.157248     -4.488191
  H      -4.022245     -1.430997     -4.978812
  H      -3.405091     -1.201855     -3.339374
  H      -5.268661     -1.041355     -0.447183
  H      -4.604496      0.457698      0.206601
  H      -3.620853     -0.547743     -0.873300
  H      -5.327523      5.294236     -0.539777
  H      -5.951278      3.971158     -1.535882
  H      -5.505303      6.077800      1.925060
  H      -3.786647      5.917384      1.523311
  H      -4.329889      5.709192      3.195692
  H      -4.879193      2.580377      4.672621
  H      -6.593219      2.733399      5.077957
  H      -5.640140      4.178196      4.717056
  H      -8.298394      3.338785      3.310391
  H      -7.788384      3.684421      1.650586
  H      -7.389632      4.813618      2.954567
  H      -6.688491      1.354834      1.593655
  H      -7.207423      1.096738      3.266220
  H      -5.504123      0.907677      2.829255
  H      -3.329548      1.697605      2.035889
  H      -2.856676      2.940540      3.205231
  H      -2.428441      3.121507      1.496264
  H       0.063816      4.389111      0.803848
  H      -1.412644      5.265018      1.294823
  H       0.131672      6.134522      1.127686
  H       0.776551      4.088690     -1.741180
69
Coordinates from ORCA-job goat_0_55 E -1780.870532682737
  O      -1.543004      1.252023     -2.362617
  C      -2.014591      2.593645     -2.324299
  H      -2.065381      3.002270     -3.342778
  C      -3.405301      2.662872     -1.702173
  H      -3.369233      2.176788     -0.723916
  O      -4.316061      2.005743     -2.563590
  Si     -5.333884      0.741172     -2.146230
  C      -7.044688      1.383268     -1.747957
  C      -5.399162     -0.355725     -3.686316
  C      -6.174345     -1.641469     -3.361350
  C      -6.109809      0.387927     -4.826885
  C      -3.980564     -0.725516     -4.139429
  C      -4.633454     -0.180769     -0.677403
  C      -3.828248      4.116579     -1.499577
  H      -3.896328      4.614390     -2.477980
  C      -5.176676      4.245697     -0.816528
  O      -5.314947      3.394975      0.302935
  Si     -4.808439      3.687046      1.866169
  C      -4.592058      5.523642      2.149511
  C      -6.183268      2.985483      2.959336
  C      -5.794678      3.127785      4.437874
  C      -7.487230      3.753304      2.700776
  C      -6.403908      1.500589      2.635984
  C      -3.203803      2.776094      2.181327
  O      -2.851248      4.782981     -0.698016
  C      -1.594752      4.833964     -1.343788
  H      -1.702998      5.297382     -2.333609
  O      -0.741271      5.683720     -0.638611
  C      -0.483926      5.331240      0.724633
  C      -1.032182      3.420788     -1.517272
  H      -0.906740      2.949674     -0.535214
  O       0.204849      3.470802     -2.213568
  H      -2.130998      0.758131     -2.945868
  H      -7.031825      1.941283     -0.809506
  H      -7.745602      0.549485     -1.642903
  H      -7.416768      2.039800     -2.539086
  H      -6.261280     -2.263645     -4.260271
  H      -7.187835     -1.427403     -3.008542
  H      -5.668128     -2.234933     -2.594505
  H      -7.149226      0.614177     -4.573206
  H      -6.115150     -0.229844     -5.733365
  H      -5.606927      1.329582     -5.067864
  H      -3.434756      0.156994     -4.487631
  H      -4.022696     -1.431496     -4.977510
  H      -3.405132     -1.201514     -3.338256
  H      -5.271221     -1.038440     -0.444162
  H      -4.603320      0.460014      0.206995
  H      -3.622682     -0.549079     -0.872146
  H      -5.327194      5.294539     -0.540516
  H      -5.950415      3.971266     -1.536777
  H      -5.507346      6.077903      1.924433
  H      -3.788347      5.918273      1.524071
  H      -4.332808      5.709777      3.195985
  H      -4.878529      2.576535      4.670185
  H      -6.592285      2.729293      5.076887
  H      -5.639139      4.174400      4.717346
  H      -8.298439      3.337127      3.310905
  H      -7.789224      3.685299      1.651369
  H      -7.389815      4.812478      2.956902
  H      -6.689660      1.355618      1.590555
  H      -7.207769      1.095274      3.263069
  H      -5.504714      0.906635      2.824892
  H      -3.329091      1.698842      2.041233
  H      -2.853644      2.947336      3.203579
  H      -2.430044      3.120737      1.492791
  H       0.066917      4.389537      0.803024
  H      -1.411642      5.261557      1.294647
  H       0.130707      6.134733      1.128863
  H       0.778195      4.086973     -1.741094
