69
Coordinates from ORCA-job goat_0_109 E -1780.867696035005
  O          -1.49534560040082      2.69638812781731      0.13422922366273
  C          -1.94674170533945      2.38896010421067     -1.17813350554758
  H          -1.50153125321406      1.42941397800395     -1.45189560534954
  C          -3.47174386076270      2.21979847048650     -1.24134000883064
  H          -3.78959513668107      1.61635594481833     -0.38563205328679
  O          -3.76669390775690      1.56337547219117     -2.47712516058052
  Si         -4.53498068444045      0.07009173950779     -2.49827145297264
  C          -6.21991315690335      0.24881778139533     -1.70683581474684
  C          -4.64245372666515     -0.38237463202913     -4.32358422474763
  C          -5.33153538773858      0.74828562407772     -5.10116503095961
  C          -3.23379805904309     -0.60517620133078     -4.89275346011673
  C          -5.46006575262146     -1.67425650236512     -4.47244384327847
  C          -3.50882851525986     -1.15184133080055     -1.52183097019268
  C          -4.24373710501777      3.53638656946357     -1.20411456667741
  H          -5.22562653765803      3.33420897628838     -1.63741399167183
  C          -4.50895459788579      4.05767809066993      0.20933578562324
  O          -5.48454395941907      3.20560378689160      0.78972905784100
  Si         -5.51331671976776      2.78510385571692      2.40710525515849
  C          -3.88701326943334      1.99047595273702      2.88302552689462
  C          -5.85962496805544      4.30616248071025      3.47918969851309
  C          -4.63454190757747      5.23070754558224      3.53716794802601
  C          -7.05034589568601      5.08186265305794      2.89864760699375
  C          -6.20038755830625      3.84397489301946      4.90443623728151
  C          -6.90422201670563      1.54384242052392      2.52211694813294
  O          -3.67946294250136      4.53516362491150     -2.06621893936030
  C          -2.28821249114490      4.73967815908557     -1.99311834707325
  H          -2.06792904585953      5.44181204147539     -2.80363198698919
  O          -1.88489190606446      5.28311092356613     -0.75588089453299
  C          -2.29664762968671      6.63537358340408     -0.55599238466860
  C          -1.49801123591846      3.44408450741919     -2.19360852179466
  H          -0.43909896226415      3.66488617239103     -2.04198742200315
  O          -1.65191840593275      2.98661314899127     -3.52802748170295
  H          -1.53133845407416      3.65766231333505      0.24433901341354
  H          -6.72667852854479     -0.71962379324319     -1.66267946666136
  H          -6.85317358428932      0.94327405054185     -2.26531176905212
  H          -6.12468237021062      0.62310416101855     -0.68326961214064
  H          -5.41401414501766      0.47722595918582     -6.16069147051898
  H          -4.76550481678137      1.68172803490218     -5.03666405803317
  H          -6.34218843438573      0.93894078604124     -4.72765337613896
  H          -3.29529134368530     -0.84211090207099     -5.96181479161530
  H          -2.72577693797677     -1.43726716978086     -4.39689539998789
  H          -2.60765607621347      0.28536947196419     -4.78454412710011
  H          -5.00805997131040     -2.50603062309841     -3.92299527061253
  H          -5.51259279984139     -1.96408983373317     -5.52870017822610
  H          -6.48506146179303     -1.54744676134956     -4.11160541945122
  H          -3.45940673334943     -0.86038637793036     -0.46820759292763
  H          -2.48815745033234     -1.21283056922967     -1.90800152263803
  H          -3.95474587583412     -2.14979669839113     -1.57004582983492
  H          -3.60094485745323      4.08824611172935      0.81356821079310
  H          -4.90356663792785      5.07561257739830      0.13411377824552
  H          -3.89337403377480      1.72253096248548      3.94394439103619
  H          -3.03583688748028      2.65221905375084      2.70687581927715
  H          -3.73091866870911      1.07643233647270      2.30219804210679
  H          -4.36425053310050      5.61490049737249      2.54973227650710
  H          -3.76097043807985      4.71929733214547      3.95149831533565
  H          -4.84924268409328      6.09454331991053      4.17846934749650
  H          -7.95046049675280      4.46175973543571      2.84500793079390
  H          -6.83487085711645      5.45027102591674      1.89145114350951
  H          -7.28109813482910      5.94822921550664      3.53084925042088
  H          -7.10393451431400      3.22801907273572      4.92471762841829
  H          -6.37576807196245      4.71449392077456      5.54823918806300
  H          -5.38543629695791      3.26361122134835      5.34877184515249
  H          -6.96901118169543      1.12382517310744      3.52959408522560
  H          -6.72801056419562      0.72161885162724      1.82244064036930
  H          -7.86823679191244      1.99881237163791      2.27906892190404
  H          -3.38476234380524      6.72475082484495     -0.58445666601379
  H          -1.85665963890894      7.27830834004044     -1.32522541513385
  H          -1.93189631561643      6.93517072384808      0.42565122584359
  H          -2.47986727596232      2.48066719186078     -3.56178630886890
