69
Coordinates from ORCA-job goat_0_32 E -1780.869867001202
  O          -3.48864995686003      3.14026202964893     -4.47898243769016
  C          -3.61432901420712      3.77409241227781     -3.21301696509530
  H          -4.62149620086721      4.20045033327473     -3.10584177445794
  C          -3.43057899916275      2.72475024025369     -2.12482641644463
  H          -2.47525605469457      2.21021965472840     -2.28657328919682
  O          -4.50289122486977      1.80719351979576     -2.12218303028467
  Si         -4.62911029216602      0.40143775676542     -3.02273325836288
  C          -2.96256426967698     -0.09369835263168     -3.71234461231178
  C          -5.26823194692531     -0.92064621960132     -1.82711838542663
  C          -5.76805547198584     -2.13234725612395     -2.62779536784129
  C          -4.14026208355241     -1.37308038366043     -0.88905859495237
  C          -6.42381307694531     -0.35667802274054     -0.98912167270104
  C          -5.86820599628443      0.67606316315066     -4.39639972393682
  C          -3.39005233405404      3.41620681583775     -0.75724650382467
  H          -4.35752412064554      3.90606526455381     -0.58410411935899
  C          -3.12068303461122      2.42874705217168      0.35875027984589
  O          -3.15718374405011      3.06310011582538      1.62545126032605
  Si         -4.24473072810465      2.69663577448941      2.83965469167929
  C          -3.41872623291907      3.30983687244796      4.39971620118528
  C          -5.88903141705186      3.59213356387340      2.55754398479325
  C          -6.66912299810862      2.94185880474919      1.40628085281849
  C          -6.73400049409323      3.50472532618098      3.83808736904877
  C          -5.62650212003267      5.06848185269719      2.22806038888693
  C          -4.50611291477458      0.84331041117415      2.91639594166934
  O          -2.35570166134833      4.39467175829788     -0.74354785313835
  C          -2.62491584069689      5.44735445370692     -1.65351133190242
  H          -3.61221094382375      5.88188395209217     -1.42499903900697
  O          -1.63112932838253      6.40872935912398     -1.53793906905202
  C          -1.73913583730247      7.19239666412566     -0.34832392301943
  C          -2.59858675483653      4.89772366111577     -3.07181521982871
  H          -1.59254942978143      4.50512530760505     -3.26464859364976
  O          -2.94170408601225      5.89328811640566     -4.02633182126924
  H          -3.62060260899926      3.81849235024408     -5.15240647041932
  H          -2.63049619219020      0.61220820618856     -4.47613302753730
  H          -3.03862303170053     -1.08558860760706     -4.16876532958828
  H          -2.20007115824786     -0.14260734609480     -2.93027916395896
  H          -4.98554608189762     -2.54514304301511     -3.27302172273248
  H          -6.62350621649194     -1.87428460632129     -3.25827052934649
  H          -6.08665007192345     -2.92868984550361     -1.94393452839270
  H          -3.32926296948628     -1.85698837020133     -1.44058536352991
  H          -4.52425117731192     -2.09611078286535     -0.15861648988446
  H          -3.71367751820247     -0.53465355236192     -0.33141520134709
  H          -6.82557046653846     -1.13583513499358     -0.32918742247646
  H          -7.24559525389275      0.00135994170685     -1.61769650212812
  H          -6.09190769542255      0.47484281156181     -0.36316885597159
  H          -5.93869991927605     -0.20666674660666     -5.03851321055931
  H          -5.55918408279732      1.52614416127465     -5.00860526644609
  H          -6.86426599401033      0.88205765404361     -3.99349624148196
  H          -3.85765124617286      1.62666820904485      0.28577145980913
  H          -2.12588457201207      1.99250506623146      0.21270879941559
  H          -3.27944648713181      4.39426688991435      4.37676949626751
  H          -2.43655136891081      2.84160363711443      4.51228679766918
  H          -4.01614778126659      3.06228306904008      5.28136915291021
  H          -6.93120850763123      1.90514363864280      1.63479192431949
  H          -6.10436580306790      2.94421525219603      0.47009678226049
  H          -7.60285538752393      3.48984426305903      1.22872704156342
  H          -7.70853859048360      3.98162268725902      3.67652559377324
  H          -6.25054509529985      4.01305415755501      4.67702741019139
  H          -6.91916829554571      2.46667044994897      4.13258277264406
  H          -5.04729591062596      5.17952551730286      1.30744737104149
  H          -5.07826399728185      5.57005398276484      3.03158507682467
  H          -6.57719672507336      5.59912024801570      2.09337021614146
  H          -5.18517344338260      0.59529121653990      3.73780124860362
  H          -3.55504623809827      0.33368514468123      3.09817814123471
  H          -4.93708948875541      0.44401272986306      1.99494299601314
  H          -2.72703693296035      7.66197765951693     -0.29001558440031
  H          -0.97102282347508      7.96269799179009     -0.40771625322762
  H          -1.57450515951548      6.57838782069030      0.54064267171382
  H          -2.23920703856840      6.55414914776851     -4.02831570646853
