69
Coordinates from ORCA-job goat_0_95 E -1780.865955476962
  O      -1.331228      2.430774     -0.791113
  C      -2.101061      2.475445     -1.980217
  H      -1.978852      1.515960     -2.487621
  C      -3.589290      2.650782     -1.663549
  H      -3.860834      1.957056     -0.862323
  O      -4.307477      2.377972     -2.867969
  Si     -5.703211      1.467230     -2.984333
  C      -6.455882      1.927060     -4.625254
  C      -5.262757     -0.371072     -2.938958
  C      -6.515341     -1.200222     -3.251935
  C      -4.184720     -0.665763     -3.988754
  C      -4.734009     -0.764383     -1.554057
  C      -6.828569      1.920273     -1.563880
  C      -3.932169      4.061773     -1.200983
  H      -5.012109      4.179830     -1.308419
  C      -3.629875      4.316095      0.276227
  O      -4.512796      3.496840      1.021784
  Si     -4.362484      3.279163      2.668039
  C      -4.587720      4.926085      3.524597
  C      -5.735969      2.064046      3.108898
  C      -7.086446      2.626887      2.648038
  C      -5.477228      0.730404      2.396474
  C      -5.776556      1.830961      4.624731
  C      -2.671445      2.589552      3.069167
  O      -3.385415      5.057363     -2.068573
  C      -2.025364      4.955538     -2.396972
  H      -1.872823      5.698961     -3.186534
  O      -1.196117      5.240979     -1.289794
  C      -1.271172      6.598413     -0.879405
  C      -1.626024      3.578426     -2.926495
  H      -0.535346      3.548190     -2.978930
  O      -2.121083      3.403022     -4.234633
  H      -0.996858      3.321548     -0.623076
  H      -5.788729      1.684115     -5.453754
  H      -6.662531      2.997809     -4.664914
  H      -7.397605      1.398046     -4.787591
  H      -6.897638     -0.991092     -4.253213
  H      -7.321575     -1.010819     -2.538445
  H      -6.280658     -2.269066     -3.206451
  H      -4.526326     -0.433292     -5.000002
  H      -3.916001     -1.727030     -3.968783
  H      -3.275901     -0.088772     -3.805003
  H      -3.801182     -0.247979     -1.314463
  H      -4.525572     -1.839376     -1.520951
  H      -5.454738     -0.544051     -0.762367
  H      -6.296870      1.891044     -0.609568
  H      -7.671999      1.228894     -1.501466
  H      -7.230617      2.929211     -1.686046
  H      -2.592297      4.088602      0.525010
  H      -3.814789      5.376381      0.485202
  H      -4.511424      4.821228      4.609308
  H      -5.562425      5.358658      3.290984
  H      -3.820750      5.639496      3.212265
  H      -7.889121      1.917339      2.878828
  H      -7.095504      2.810686      1.571888
  H      -7.325110      3.566878      3.151688
  H      -5.397953      0.866320      1.315078
  H      -6.298333      0.030805      2.589203
  H      -4.554188      0.258988      2.741865
  H      -6.569864      1.117451      4.871693
  H      -5.984646      2.752631      5.173721
  H      -4.837983      1.417323      5.001911
  H      -1.880005      3.313207      2.859679
  H      -2.461849      1.691464      2.485052
  H      -2.600946      2.332243      4.129361
  H      -0.593876      6.721367     -0.038475
  H      -2.282423      6.868385     -0.570971
  H      -0.963677      7.257257     -1.697063
  H      -3.051827      3.146066     -4.153427
69
Coordinates from ORCA-job goat_0_95 E -1780.866971392494
  O      -1.335522      2.406266     -0.794183
  C      -2.119341      2.468556     -1.980113
  H      -2.014992      1.507758     -2.490674
  C      -3.606950      2.665798     -1.661108
  H      -3.887955      1.980134     -0.858949
  O      -4.320275      2.384071     -2.865234
  Si     -5.708574      1.458229     -2.978744
  C      -6.467181      1.931142     -4.614233
  C      -5.251234     -0.377256     -2.954037
  C      -6.506268     -1.214881     -3.239434
  C      -4.199487     -0.659944     -4.035644
  C      -4.682447     -0.775179     -1.584547
  C      -6.838634      1.888281     -1.553335
  C      -3.946688      4.086959     -1.214487
  H      -5.023151      4.212933     -1.348219
  C      -3.677300      4.356976      0.268210
  O      -4.555532      3.526001      1.008979
  Si     -4.390761      3.307498      2.654370
  C      -4.628834      4.949955      3.517827
  C      -5.739183      2.069853      3.110238
  C      -7.106233      2.603937      2.658432
  C      -5.459421      0.731482      2.410721
  C      -5.759165      1.853477      4.629009
  C      -2.684806      2.639662      3.031723
  O      -3.366837      5.077250     -2.072570
  C      -2.000716      4.949589     -2.383614
  H      -1.819622      5.702882     -3.157632
  O      -1.166228      5.185858     -1.268254
  C      -1.183703      6.537974     -0.820533
  C      -1.636214      3.567455     -2.930528
  H      -0.547046      3.516417     -3.004339
  O      -2.163742      3.404892     -4.233915
  H      -0.992304      3.291104     -0.609329
  H      -5.798943      1.698829     -5.448122
  H      -6.680284      3.003749     -4.640436
  H      -7.407480      1.397395     -4.777062
  H      -6.919220     -0.999827     -4.229212
  H      -7.293549     -1.037871     -2.499919
  H      -6.259677     -2.283156     -3.209293
  H      -4.572096     -0.423101     -5.036928
  H      -3.925214     -1.722038     -4.028418
  H      -3.287853     -0.078742     -3.872349
  H      -3.750359     -0.247246     -1.361735
  H      -4.459274     -1.849123     -1.568185
  H      -5.388143     -0.572600     -0.773812
  H      -6.309345      1.848412     -0.598875
  H      -7.680206      1.191515     -1.501120
  H      -7.243615      2.898166     -1.666280
  H      -2.642065      4.154207      0.540067
  H      -3.887052      5.413542      0.467706
  H      -4.537179      4.841472      4.602531
  H      -5.614323      5.370341      3.298462
  H      -3.873893      5.673606      3.194861
  H      -7.893396      1.882233      2.908910
  H      -7.133779      2.772219      1.578932
  H      -7.354718      3.547760      3.153390
  H      -5.396347      0.851660      1.326205
  H      -6.263861      0.016910      2.623759
  H      -4.520881      0.285498      2.752986
  H      -6.535275      1.124627      4.893074
  H      -5.980256      2.779314      5.168693
  H      -4.804984      1.465896      4.999072
  H      -1.907886      3.377971      2.811555
  H      -2.471404      1.743025      2.442640
  H      -2.599032      2.380996      4.091412
  H      -0.499483      6.606684      0.024495
  H      -2.184047      6.840392     -0.502040
  H      -0.845846      7.205540     -1.620971
  H      -3.097847      3.162223     -4.135884
69
Coordinates from ORCA-job goat_0_95 E -1780.867377233488
  O      -1.396692      2.399591     -0.719111
  C      -2.151034      2.451114     -1.926907
  H      -2.046847      1.479835     -2.416656
  C      -3.643515      2.674157     -1.649021
  H      -3.955108      2.004706     -0.845388
  O      -4.332433      2.383118     -2.865493
  Si     -5.715190      1.446525     -2.994492
  C      -6.459022      1.940485     -4.632016
  C      -5.245823     -0.386312     -2.988238
  C      -6.503005     -1.229983     -3.250114
  C      -4.216816     -0.659773     -4.095225
  C      -4.644723     -0.787352     -1.632874
  C      -6.863735      1.853908     -1.575705
  C      -3.972624      4.106896     -1.232209
  H      -5.043667      4.245057     -1.395856
  C      -3.726704      4.399136      0.249447
  O      -4.601817      3.566191      0.994599
  Si     -4.403201      3.342015      2.636632
  C      -4.637211      4.978094      3.515083
  C      -5.724500      2.085488      3.119535
  C      -7.110988      2.598187      2.701456
  C      -5.441647      0.747060      2.419791
  C      -5.701140      1.876372      4.639937
  C      -2.680185      2.689960      2.967359
  O      -3.352936      5.080760     -2.085005
  C      -1.978218      4.925646     -2.354132
  H      -1.759211      5.676282     -3.120528
  O      -1.167169      5.139807     -1.219703
  C      -1.158771      6.490995     -0.760122
  C      -1.631709      3.530775     -2.883273
  H      -0.543384      3.459656     -2.948175
  O      -2.149960      3.360333     -4.193137
  H      -1.077910      3.290533     -0.517485
  H      -5.780944      1.721810     -5.462470
  H      -6.675964      3.013449     -4.642013
  H      -7.396127      1.404588     -4.809052
  H      -6.943755     -1.006482     -4.226661
  H      -7.270731     -1.066632     -2.486818
  H      -6.246335     -2.296725     -3.238249
  H      -4.615576     -0.421646     -5.086553
  H      -3.938018     -1.721377     -4.096633
  H      -3.304157     -0.074308     -3.950006
  H      -3.714045     -0.250447     -1.424759
  H      -4.410755     -1.859587     -1.630736
  H      -5.337375     -0.598052     -0.807211
  H      -6.350253      1.790133     -0.613919
  H      -7.710304      1.161174     -1.551061
  H      -7.258778      2.869208     -1.677480
  H      -2.690513      4.216791      0.536219
  H      -3.953307      5.454818      0.432603
  H      -4.513574      4.862971      4.596349
  H      -5.633985      5.388591      3.326950
  H      -3.898556      5.709764      3.171751
  H      -7.880681      1.867748      2.980843
  H      -7.173134      2.754930      1.621202
  H      -7.356656      3.543867      3.195217
  H      -5.413556      0.857557      1.332340
  H      -6.227348      0.020730      2.662778
  H      -4.485180      0.321422      2.738812
  H      -6.456109      1.133744      4.927859
  H      -5.924658      2.802215      5.179383
  H      -4.728467      1.510607      4.984828
  H      -1.920232      3.441189      2.730576
  H      -2.472802      1.797872      2.368639
  H      -2.567289      2.426298      4.023544
  H      -0.487653      6.531012      0.098148
  H      -2.158129      6.812590     -0.456057
  H      -0.787049      7.155329     -1.548258
  H      -3.086271      3.121201     -4.099120
69
Coordinates from ORCA-job goat_0_95 E -1780.867522678899
  O      -1.413029      2.382831     -0.699766
  C      -2.160093      2.438860     -1.910512
  H      -2.068774      1.461628     -2.390020
  C      -3.650704      2.689599     -1.644654
  H      -3.979917      2.033441     -0.836683
  O      -4.339462      2.397805     -2.861518
  Si     -5.728011      1.464882     -2.980326
  C      -6.464681      1.952849     -4.624039
  C      -5.264875     -0.368657     -2.955383
  C      -6.529432     -1.211608     -3.183240
  C      -4.254792     -0.662456     -4.074681
  C      -4.643664     -0.750506     -1.603702
  C      -6.878459      1.891375     -1.567780
  C      -3.963499      4.130397     -1.246310
  H      -5.028232      4.281714     -1.437249
  C      -3.747930      4.433827      0.237021
  O      -4.627612      3.594759      0.971373
  Si     -4.427908      3.359977      2.612996
  C      -4.722209      4.976890      3.509584
  C      -5.703030      2.050371      3.078045
  C      -7.106386      2.509789      2.655860
  C      -5.365455      0.727141      2.374469
  C      -5.677077      1.836069      4.598514
  C      -2.682100      2.766611      2.941417
  O      -3.311771      5.090359     -2.092971
  C      -1.936455      4.906595     -2.346968
  H      -1.696089      5.654618     -3.109268
  O      -1.131419      5.104832     -1.207294
  C      -1.099663      6.456024     -0.745906
  C      -1.615814      3.503169     -2.870064
  H      -0.529637      3.410753     -2.937532
  O      -2.137379      3.335777     -4.179885
  H      -1.104823      3.276394     -0.491666
  H      -5.784120      1.728482     -5.450099
  H      -6.678369      3.025895     -4.637405
  H      -7.402399      1.417953     -4.800646
  H      -6.991699     -0.993548     -4.150812
  H      -7.278335     -1.041887     -2.403455
  H      -6.273217     -2.278154     -3.170315
  H      -4.671191     -0.442025     -5.062265
  H      -3.977234     -1.723897     -4.060790
  H      -3.339639     -0.074979     -3.954793
  H      -3.708594     -0.213478     -1.419146
  H      -4.413594     -1.823168     -1.589526
  H      -5.323043     -0.545341     -0.770684
  H      -6.376613      1.811104     -0.600749
  H      -7.740201      1.218011     -1.554867
  H      -7.247750      2.915935     -1.671140
  H      -2.714925      4.268580      0.543336
  H      -3.991668      5.487599      0.409057
  H      -4.589674      4.853743      4.588571
  H      -5.734245      5.351373      3.330159
  H      -4.012371      5.737553      3.169407
  H      -7.848116      1.750843      2.934353
  H      -7.172327      2.661713      1.575049
  H      -7.388143      3.446094      3.147547
  H      -5.342326      0.840293      1.286934
  H      -6.121069     -0.030662      2.616049
  H      -4.392741      0.340977      2.693438
  H      -6.400783      1.061288      4.880297
  H      -5.941080      2.749807      5.139647
  H      -4.690898      1.511019      4.945009
  H      -1.952025      3.549804      2.716439
  H      -2.440944      1.890638      2.332996
  H      -2.564078      2.493949      3.994537
  H      -0.430441      6.479849      0.113766
  H      -2.094240      6.793046     -0.444466
  H      -0.712379      7.112352     -1.532328
  H      -3.074308      3.098740     -4.081003
69
Coordinates from ORCA-job goat_0_95 E -1780.867592078143
  O      -1.435231      2.367559     -0.691450
  C      -2.178388      2.426240     -1.902648
  H      -2.090155      1.447577     -2.379539
  C      -3.668186      2.685178     -1.641798
  H      -4.004855      2.029381     -0.836279
  O      -4.353222      2.402443     -2.864318
  Si     -5.733039      1.456087     -2.997973
  C      -6.461962      1.953314     -4.642919
  C      -5.251369     -0.372229     -2.984709
  C      -6.505534     -1.225801     -3.228976
  C      -4.229422     -0.645828     -4.097903
  C      -4.638782     -0.760120     -1.631186
  C      -6.897954      1.861214     -1.591169
  C      -3.973175      4.127245     -1.242336
  H      -5.035721      4.284808     -1.439721
  C      -3.759730      4.436092      0.240632
  O      -4.645206      3.610903      0.983888
  Si     -4.426064      3.373503      2.623984
  C      -4.698172      4.991747      3.525259
  C      -5.702893      2.072033      3.105805
  C      -7.109103      2.538888      2.703623
  C      -5.382865      0.747170      2.398913
  C      -5.656653      1.858441      4.626397
  C      -2.679160      2.770030      2.931990
  O      -3.313602      5.082680     -2.087588
  C      -1.939079      4.890873     -2.340020
  H      -1.695317      5.638438     -3.101780
  O      -1.136796      5.088512     -1.198725
  C      -1.108113      6.439971     -0.738231
  C      -1.624732      3.485798     -2.860886
  H      -0.539086      3.387000     -2.926390
  O      -2.142431      3.321670     -4.172452
  H      -1.140021      3.264733     -0.478573
  H      -5.770455      1.749765     -5.464449
  H      -6.690942      3.022662     -4.643373
  H      -7.389659      1.406790     -4.835070
  H      -6.968120     -0.998053     -4.193877
  H      -7.257410     -1.076878     -2.448405
  H      -6.236828     -2.289026     -3.232232
  H      -4.641753     -0.425869     -5.086787
  H      -3.937476     -1.702969     -4.087170
  H      -3.323718     -0.046273     -3.967736
  H      -3.711348     -0.215909     -1.433138
  H      -4.398364     -1.830237     -1.624822
  H      -5.327896     -0.569357     -0.803287
  H      -6.411201      1.756365     -0.619019
  H      -7.764641      1.194800     -1.605621
  H      -7.256969      2.890626     -1.679214
  H      -2.727502      4.269718      0.547919
  H      -3.996631      5.493073      0.403971
  H      -4.543904      4.868298      4.600974
  H      -5.711758      5.369785      3.366195
  H      -3.992269      5.748405      3.169283
  H      -7.851143      1.785605      2.995653
  H      -7.190461      2.687632      1.623823
  H      -7.377424      3.478164      3.196514
  H      -5.374218      0.860088      1.311439
  H      -6.139604     -0.005693      2.651334
  H      -4.408532      0.355209      2.704603
  H      -6.379137      1.086923      4.918407
  H      -5.909745      2.773288      5.170186
  H      -4.667418      1.529730      4.959427
  H      -1.948644      3.551357      2.703901
  H      -2.448272      1.896241      2.317572
  H      -2.552540      2.492260      3.982527
  H      -0.437202      6.465595      0.119346
  H      -2.103044      6.773254     -0.435368
  H      -0.724612      7.095470     -1.526573
  H      -3.078302      3.079225     -4.075896
69
Coordinates from ORCA-job goat_0_95 E -1780.867644724694
  O      -1.437250      2.367066     -0.689614
  C      -2.180545      2.424769     -1.900530
  H      -2.094241      1.444956     -2.375491
  C      -3.669400      2.687163     -1.639976
  H      -4.007543      2.033131     -0.833408
  O      -4.356509      2.407279     -2.862430
  Si     -5.736482      1.460270     -2.996114
  C      -6.461206      1.952876     -4.644241
  C      -5.257415     -0.368351     -2.974388
  C      -6.511299     -1.220178     -3.225516
  C      -4.228325     -0.645815     -4.079640
  C      -4.656326     -0.755543     -1.615343
  C      -6.904250      1.872920     -1.594497
  C      -3.969868      4.129943     -1.240899
  H      -5.032165      4.290131     -1.438083
  C      -3.754381      4.438743      0.241376
  O      -4.642919      3.618311      0.984707
  Si     -4.424173      3.375043      2.624711
  C      -4.708441      4.987769      3.531680
  C      -5.694981      2.064530      3.096924
  C      -7.101788      2.523683      2.688711
  C      -5.362690      0.744648      2.386795
  C      -5.656113      1.846030      4.617046
  C      -2.674603      2.781542      2.937629
  O      -3.308979      5.082562     -2.087243
  C      -1.936150      4.886865     -2.343004
  H      -1.692983      5.631437     -3.108080
  O      -1.133196      5.088478     -1.201975
  C      -1.107211      6.441690     -0.747586
  C      -1.624827      3.480543     -2.860911
  H      -0.539167      3.378563     -2.924103
  O      -2.141320      3.317612     -4.172477
  H      -1.144569      3.265201     -0.477421
  H      -5.764849      1.752750     -5.462497
  H      -6.694863      3.021137     -4.645540
  H      -7.385332      1.402259     -4.841083
  H      -6.969130     -0.991873     -4.192492
  H      -7.266693     -1.070246     -2.448486
  H      -6.244384     -2.283833     -3.227518
  H      -4.634293     -0.430470     -5.072197
  H      -3.935218     -1.702481     -4.062511
  H      -3.324298     -0.044862     -3.946519
  H      -3.727432     -0.216080     -1.411704
  H      -4.421291     -1.826778     -1.604047
  H      -5.350163     -0.559114     -0.792917
  H      -6.427940      1.751968     -0.619129
  H      -7.781709      1.221064     -1.622628
  H      -7.245602      2.908780     -1.677190
  H      -2.721891      4.269192      0.547452
  H      -3.987187      5.497078      0.402827
  H      -4.548878      4.862713      4.606404
  H      -5.725622      5.357547      3.377031
  H      -4.010220      5.751448      3.175490
  H      -7.840876      1.765213      2.974632
  H      -7.177792      2.674944      1.608911
  H      -7.379102      3.459794      3.182599
  H      -5.347135      0.863526      1.300066
  H      -6.116808     -0.013735      2.630300
  H      -4.388371      0.356083      2.696854
  H      -6.375514      1.068991      4.901856
  H      -5.918674      2.757051      5.162726
  H      -4.667283      1.521796      4.955365
  H      -1.947918      3.569923      2.721979
  H      -2.433234      1.915076      2.316783
  H      -2.552579      2.495675      3.986481
  H      -0.433468      6.474160      0.107465
  H      -2.101959      6.773949     -0.443373
  H      -0.729031      7.094537     -1.540814
  H      -3.077101      3.074559     -4.077224
69
Coordinates from ORCA-job goat_0_95 E -1780.867678234700
  O      -1.447297      2.363094     -0.681747
  C      -2.190289      2.420526     -1.893164
  H      -2.108604      1.438623     -2.364728
  C      -3.677802      2.691561     -1.635173
  H      -4.021173      2.040997     -0.827876
  O      -4.364876      2.414847     -2.858401
  Si     -5.741376      1.462195     -2.994561
  C      -6.463007      1.952310     -4.644680
  C      -5.259058     -0.365263     -2.969139
  C      -6.512340     -1.218801     -3.218353
  C      -4.230765     -0.642451     -4.075082
  C      -4.656655     -0.751261     -1.610180
  C      -6.913954      1.875397     -1.597927
  C      -3.970345      4.136835     -1.238908
  H      -5.031702      4.302199     -1.437294
  C      -3.753933      4.447096      0.242865
  O      -4.646533      3.633620      0.987266
  Si     -4.424502      3.380981      2.626194
  C      -4.717634      4.986656      3.542398
  C      -5.688416      2.060931      3.089247
  C      -7.096067      2.511162      2.674029
  C      -5.342066      0.745600      2.377226
  C      -5.657504      1.838999      4.608909
  C      -2.672006      2.796261      2.938609
  O      -3.303325      5.083895     -2.086346
  C      -1.932187      4.879382     -2.343144
  H      -1.685270      5.618910     -3.111905
  O      -1.127793      5.081943     -1.202133
  C      -1.096464      6.437146     -0.754471
  C      -1.628161      3.469989     -2.856492
  H      -0.542845      3.360879     -2.915821
  O      -2.143321      3.308450     -4.168215
  H      -1.152753      3.260893     -0.470679
  H      -5.759598      1.762766     -5.459667
  H      -6.706954      3.018399     -4.642795
  H      -7.380454      1.393755     -4.849641
  H      -6.973107     -0.991492     -4.184157
  H      -7.266085     -1.069574     -2.439326
  H      -6.244448     -2.282261     -3.220467
  H      -4.639142     -0.431688     -5.067795
  H      -3.933457     -1.697977     -4.055278
  H      -3.328736     -0.037847     -3.945874
  H      -3.726704     -0.212822     -1.407233
  H      -4.422409     -1.822735     -1.597910
  H      -5.349467     -0.553883     -0.787236
  H      -6.452706      1.727618     -0.619202
  H      -7.804581      1.242709     -1.648903
  H      -7.233045      2.919366     -1.667337
  H      -2.721940      4.273477      0.549128
  H      -3.981086      5.507223      0.401053
  H      -4.545928      4.859109      4.615047
  H      -5.739702      5.347345      3.398781
  H      -4.030001      5.758418      3.182616
  H      -7.831712      1.747140      2.954139
  H      -7.166587      2.664316      1.594113
  H      -7.383257      3.444199      3.168231
  H      -5.317731      0.869681      1.291213
  H      -6.093376     -0.018681      2.610997
  H      -4.368000      0.361193      2.693526
  H      -6.373230      1.055943      4.886955
  H      -5.930760      2.746558      5.155249
  H      -4.668861      1.520655      4.953476
  H      -1.949491      3.592739      2.738762
  H      -2.420572      1.940303      2.306946
  H      -2.553815      2.497076      3.984221
  H      -0.418493      6.473107      0.097219
  H      -2.088781      6.774288     -0.447588
  H      -0.720971      7.085268     -1.553076
  H      -3.079951      3.068323     -4.074545
69
Coordinates from ORCA-job goat_0_95 E -1780.867695645441
  O      -1.452072      2.357727     -0.681748
  C      -2.197087      2.417924     -1.892102
  H      -2.119458      1.435759     -2.363772
  C      -3.683462      2.694672     -1.632822
  H      -4.029548      2.045728     -0.825334
  O      -4.371936      2.420576     -2.855593
  Si     -5.744096      1.461550     -2.992414
  C      -6.467002      1.950671     -4.642102
  C      -5.256839     -0.364559     -2.967996
  C      -6.510202     -1.220491     -3.209113
  C      -4.235176     -0.639732     -4.080759
  C      -4.645068     -0.749988     -1.613162
  C      -6.918628      1.871422     -1.596956
  C      -3.970840      4.141493     -1.237343
  H      -5.031829      4.310101     -1.435072
  C      -3.752880      4.452217      0.244342
  O      -4.649415      3.645017      0.990085
  Si     -4.425666      3.385694      2.628033
  C      -4.720880      4.987473      3.550150
  C      -5.687558      2.061899      3.085389
  C      -7.094381      2.507621      2.662220
  C      -5.332505      0.747823      2.374986
  C      -5.664700      1.840379      4.605024
  C      -2.672714      2.803062      2.939511
  O      -3.300515      5.085900     -2.085163
  C      -1.930523      4.876177     -2.342656
  H      -1.680493      5.613647     -3.112265
  O      -1.124325      5.076082     -1.201839
  C      -1.087739      6.431153     -0.754508
  C      -1.631665      3.465457     -2.855966
  H      -0.546713      3.351848     -2.913733
  O      -2.147483      3.306128     -4.167413
  H      -1.151707      3.253603     -0.471058
  H      -5.758766      1.773036     -5.455768
  H      -6.721920      3.014332     -4.635685
  H      -7.377967      1.383985     -4.853365
  H      -6.977939     -0.994782     -4.171953
  H      -7.259090     -1.071959     -2.425126
  H      -6.240680     -2.283584     -3.212031
  H      -4.651011     -0.431071     -5.070902
  H      -3.934450     -1.694403     -4.062307
  H      -3.333802     -0.032488     -3.958755
  H      -3.714857     -0.210135     -1.415036
  H      -4.408542     -1.821055     -1.603269
  H      -5.333155     -0.555174     -0.785619
  H      -6.469122      1.698056     -0.617100
  H      -7.820000      1.255820     -1.667528
  H      -7.219258      2.921796     -1.651143
  H      -2.721743      4.273849      0.550807
  H      -3.974039      5.513914      0.400684
  H      -4.538141      4.859115      4.620967
  H      -5.746223      5.342908      3.416656
  H      -4.040774      5.763833      3.185644
  H      -7.829278      1.741449      2.938533
  H      -7.159307      2.660529      1.581934
  H      -7.387376      3.439874      3.154660
  H      -5.299663      0.873236      1.289277
  H      -6.083527     -0.018841      2.601884
  H      -4.359872      0.365457      2.698301
  H      -6.379148      1.054577      4.879049
  H      -5.944928      2.747029      5.149464
  H      -4.676969      1.525889      4.955965
  H      -1.951257      3.603696      2.752439
  H      -2.415626      1.955008      2.299431
  H      -2.558747      2.492564      3.982386
  H      -0.405561      6.466139      0.093989
  H      -2.077695      6.771312     -0.442885
  H      -0.714794      7.078882     -1.554776
  H      -3.084828      3.068786     -4.073712
69
Coordinates from ORCA-job goat_0_95 E -1780.867707409662
  O      -1.454109      2.355542     -0.682378
  C      -2.199863      2.417458     -1.892285
  H      -2.124031      1.435556     -2.364720
  C      -3.685680      2.696587     -1.631865
  H      -4.032830      2.048408     -0.824203
  O      -4.375259      2.423146     -2.854000
  Si     -5.744420      1.460122     -2.990019
  C      -6.470767      1.949898     -4.637904
  C      -5.253591     -0.365158     -2.969260
  C      -6.507944     -1.222622     -3.199814
  C      -4.241169     -0.638604     -4.091039
  C      -4.629598     -0.750497     -1.620158
  C      -6.918209      1.865630     -1.592702
  C      -3.970771      4.143975     -1.236522
  H      -5.031667      4.313950     -1.433340
  C      -3.752051      4.454243      0.245298
  O      -4.651512      3.650274      0.991232
  Si     -4.427999      3.387940      2.628546
  C      -4.722168      4.988526      3.553101
  C      -5.690343      2.063844      3.083932
  C      -7.096070      2.508013      2.655196
  C      -5.331696      0.748932      2.376644
  C      -5.672450      1.844810      4.603847
  C      -2.675679      2.804023      2.938982
  O      -3.299286      5.087787     -2.084369
  C      -1.929711      4.876115     -2.341886
  H      -1.678001      5.613243     -3.111235
  O      -1.121806      5.073381     -1.201948
  C      -1.079986      6.427914     -0.753647
  C      -1.633367      3.464897     -2.856060
  H      -0.548641      3.349605     -2.914072
  O      -2.150369      3.306118     -4.167193
  H      -1.149161      3.249934     -0.472160
  H      -5.760467      1.781600     -5.451806
  H      -6.733855      3.011621     -4.627279
  H      -7.377245      1.377344     -4.852643
  H      -6.983746     -0.997998     -4.158990
  H      -7.250653     -1.074459     -2.409897
  H      -6.237213     -2.285423     -3.204320
  H      -4.665755     -0.429666     -5.077391
  H      -3.939304     -1.693042     -4.076019
  H      -3.339080     -0.030714     -3.976507
  H      -3.699229     -0.208580     -1.428942
  H      -4.390324     -1.821010     -1.613798
  H      -5.311283     -0.558759     -0.786529
  H      -6.474481      1.675025     -0.613450
  H      -7.825958      1.260796     -1.674526
  H      -7.207986      2.919586     -1.635118
  H      -2.721822      4.272095      0.552391
  H      -3.969447      5.516689      0.401557
  H      -4.532529      4.860459      4.622799
  H      -5.749170      5.341688      3.426127
  H      -4.046124      5.766699      3.184800
  H      -7.831411      1.741885      2.930511
  H      -7.157602      2.659176      1.574507
  H      -7.390992      3.441024      3.145148
  H      -5.293770      0.872677      1.290865
  H      -6.083405     -0.017810      2.600986
  H      -4.360303      0.367615      2.704961
  H      -6.386559      1.058341      4.876954
  H      -5.955921      2.752119      5.145563
  H      -4.685309      1.532831      4.958840
  H      -1.953788      3.605942      2.759182
  H      -2.416594      1.960169      2.294215
  H      -2.564756      2.486554      3.980163
  H      -0.394956      6.460203      0.092729
  H      -2.067908      6.770710     -0.438254
  H      -0.707725      7.075824     -1.554113
  H      -3.088284      3.071412     -4.072753
69
Coordinates from ORCA-job goat_0_95 E -1780.867710948621
  O      -1.454132      2.352622     -0.685963
  C      -2.200656      2.417250     -1.895126
  H      -2.126212      1.436238     -2.369612
  C      -3.685963      2.697477     -1.632453
  H      -4.032781      2.049303     -0.824610
  O      -4.377605      2.424734     -2.853575
  Si     -5.744435      1.458778     -2.987760
  C      -6.475503      1.949474     -4.633275
  C      -5.249944     -0.365623     -2.971311
  C      -6.504772     -1.225007     -3.192024
  C      -4.245983     -0.636872     -4.101251
  C      -4.614486     -0.750473     -1.627569
  C      -6.916143      1.858999     -1.586964
  C      -3.969613      4.144832     -1.236056
  H      -5.030573      4.315786     -1.431467
  C      -3.749549      4.453903      0.245824
  O      -4.651931      3.652372      0.991415
  Si     -4.430235      3.389436      2.628492
  C      -4.722801      4.990188      3.553399
  C      -5.694273      2.066685      3.083452
  C      -7.098809      2.510859      2.650679
  C      -5.334692      0.750199      2.379549
  C      -5.679690      1.850685      4.603797
  C      -2.679018      2.803009      2.939185
  O      -3.298294      5.088957     -2.083771
  C      -1.928972      4.876666     -2.341423
  H      -1.676356      5.615058     -3.109281
  O      -1.120400      5.070528     -1.201845
  C      -1.075540      6.423829     -0.750378
  C      -1.634288      3.465810     -2.857948
  H      -0.549765      3.350046     -2.917822
  O      -2.153185      3.308028     -4.168628
  H      -1.145241      3.245650     -0.475861
  H      -5.764139      1.790074     -5.448004
  H      -6.746559      3.009154     -4.618517
  H      -7.377737      1.371126     -4.850352
  H      -6.988258     -1.001032     -4.147536
  H      -7.241599     -1.078096     -2.396467
  H      -6.232249     -2.287327     -3.198907
  H      -4.678393     -0.427255     -5.083994
  H      -3.943052     -1.691039     -4.089710
  H      -3.343478     -0.028285     -3.992867
  H      -3.684499     -0.205773     -1.443015
  H      -4.371948     -1.820252     -1.624438
  H      -5.290323     -0.561807     -0.788434
  H      -6.475173      1.654790     -0.609193
  H      -7.828263      1.261824     -1.676105
  H      -7.198565      2.915286     -1.618904
  H      -2.720198      4.267690      0.553221
  H      -3.963508      5.516876      0.402934
  H      -4.528895      4.863084      4.622450
  H      -5.750697      5.342207      3.430517
  H      -4.049111      5.768920      3.182013
  H      -7.835168      1.745813      2.926249
  H      -7.158102      2.659754      1.569599
  H      -7.393746      3.445232      3.138035
  H      -5.293659      0.871313      1.293541
  H      -6.087584     -0.015515      2.603353
  H      -4.364403      0.369220      2.711469
  H      -6.393975      1.064550      4.877230
  H      -5.964487      2.759208      5.142770
  H      -4.693046      1.540222      4.961525
  H      -1.956051      3.604976      2.764196
  H      -2.419183      1.961411      2.291895
  H      -2.570981      2.481040      3.979330
  H      -0.389058      6.452638      0.094943
  H      -2.062360      6.767322     -0.432206
  H      -0.703344      7.073340     -1.549523
  H      -3.091525      3.075492     -4.072957
69
Coordinates from ORCA-job goat_0_95 E -1780.867713237626
  O      -1.454437      2.351522     -0.686980
  C      -2.200811      2.417109     -1.896037
  H      -2.126961      1.436492     -2.371436
  C      -3.685868      2.697847     -1.632444
  H      -4.032304      2.049777     -0.824319
  O      -4.378889      2.425537     -2.852991
  Si     -5.744433      1.458053     -2.985996
  C      -6.479068      1.950148     -4.629555
  C      -5.247398     -0.365734     -2.973246
  C      -6.502179     -1.226641     -3.188187
  C      -4.248539     -0.634923     -4.108141
  C      -4.604847     -0.750547     -1.632850
  C      -6.914377      1.853598     -1.582197
  C      -3.968475      4.145119     -1.235381
  H      -5.029464      4.316813     -1.429924
  C      -3.747459      4.453120      0.246514
  O      -4.651864      3.652841      0.991438
  Si     -4.431968      3.390126      2.628483
  C      -4.723684      4.991098      3.553381
  C      -5.697411      2.068602      3.083353
  C      -7.101238      2.513367      2.648903
  C      -5.338157      0.751145      2.381212
  C      -5.684219      1.854220      4.603982
  C      -2.681479      2.801781      2.939857
  O      -3.297431      5.089221     -2.083407
  C      -1.928227      4.876571     -2.341592
  H      -1.675725      5.615483     -3.109036
  O      -1.119054      5.069375     -1.202572
  C      -1.071790      6.422539     -0.750974
  C      -1.634563      3.465784     -2.858733
  H      -0.550155      3.349898     -2.920210
  O      -2.154575      3.308080     -4.169107
  H      -1.144087      3.244198     -0.477433
  H      -5.766884      1.797846     -5.444887
  H      -6.756440      3.008116     -4.611311
  H      -7.377861      1.367200     -4.848560
  H      -6.990802     -1.002437     -4.141045
  H      -7.235120     -1.081528     -2.388793
  H      -6.228090     -2.288531     -3.197664
  H      -4.685704     -0.424792     -5.088628
  H      -3.944503     -1.688775     -4.098927
  H      -3.346192     -0.025478     -4.003144
  H      -3.675151     -0.204082     -1.452459
  H      -4.360268     -1.819842     -1.631840
  H      -5.277018     -0.563789     -0.790348
  H      -6.474483      1.640212     -0.605900
  H      -7.829037      1.261012     -1.675707
  H      -7.192427      2.911234     -1.606428
  H      -2.718718      4.264010      0.554085
  H      -3.959332      5.516327      0.404568
  H      -4.527797      4.864547      4.622120
  H      -5.752023      5.342465      3.432481
  H      -4.051186      5.770070      3.180405
  H      -7.838359      1.749212      2.924855
  H      -7.159605      2.660985      1.567623
  H      -7.395616      3.448590      3.134933
  H      -5.296090      0.870746      1.295065
  H      -6.091883     -0.013676      2.605240
  H      -4.368435      0.370029      2.714566
  H      -6.398780      1.068520      4.877770
  H      -5.969223      2.763482      5.141566
  H      -4.697868      1.544181      4.962840
  H      -1.957733      3.603612      2.767672
  H      -2.421386      1.961352      2.291194
  H      -2.575219      2.477222      3.979387
  H      -0.384783      6.449981      0.093935
  H      -2.057877      6.767360     -0.432107
  H      -0.698904      7.071488     -1.550207
  H      -3.093227      3.077125     -4.072766
69
Coordinates from ORCA-job goat_0_95 E -1780.867711000656
  O      -1.453115      2.350370     -0.689302
  C      -2.199989      2.417041     -1.897930
  H      -2.126482      1.436954     -2.374512
  C      -3.684887      2.697525     -1.632918
  H      -4.030251      2.049113     -0.824584
  O      -4.379414      2.425729     -2.852774
  Si     -5.744351      1.457508     -2.984592
  C      -6.482124      1.950907     -4.626405
  C      -5.245541     -0.365842     -2.974770
  C      -6.499936     -1.228038     -3.186656
  C      -4.249451     -0.633170     -4.112464
  C      -4.598849     -0.750782     -1.636311
  C      -6.912422      1.849270     -1.578056
  C      -3.967207      4.144579     -1.234936
  H      -5.028333      4.316511     -1.428553
  C      -3.745107      4.451615      0.246922
  O      -4.650782      3.652041      0.991300
  Si     -4.432701      3.390347      2.628554
  C      -4.723528      4.991938      3.552712
  C      -5.699962      2.070566      3.083533
  C      -7.103069      2.516750      2.648277
  C      -5.342052      0.752285      2.382359
  C      -5.687637      1.857095      4.604356
  C      -2.682983      2.799960      2.941352
  O      -3.297041      5.088938     -2.083279
  C      -1.927864      4.876590     -2.342179
  H      -1.675930      5.616319     -3.109039
  O      -1.118780      5.068570     -1.203073
  C      -1.071407      6.421493     -0.750705
  C      -1.634526      3.466249     -2.860318
  H      -0.550173      3.350684     -2.923397
  O      -2.155654      3.309146     -4.170358
  H      -1.142060      3.242860     -0.479969
  H      -5.769377      1.804341     -5.442287
  H      -6.764720      3.007414     -4.605291
  H      -7.378056      1.364114     -4.846803
  H      -6.991913     -1.003317     -4.137668
  H      -7.230449     -1.084799     -2.384735
  H      -6.224523     -2.289557     -3.198422
  H      -4.689361     -0.422829     -5.091670
  H      -3.944174     -1.686660     -4.104698
  H      -3.347620     -0.022686     -4.009213
  H      -3.669293     -0.203306     -1.458387
  H      -4.353080     -1.819780     -1.636565
  H      -5.268848     -0.565135     -0.791860
  H      -6.472432      1.629634     -0.603177
  H      -7.828592      1.259412     -1.673943
  H      -7.187848      2.907694     -1.596511
  H      -2.716700      4.260423      0.554309
  H      -3.955518      5.514965      0.405853
  H      -4.527343      4.865850      4.621433
  H      -5.751851      5.343410      3.432107
  H      -4.051035      5.770581      3.179089
  H      -7.841200      1.753639      2.924385
  H      -7.160791      2.663721      1.566869
  H      -7.396499      3.452605      3.133613
  H      -5.299673      0.871135      1.296141
  H      -6.096768     -0.011459      2.606728
  H      -4.372856      0.370276      2.716186
  H      -6.403097      1.072289      4.878293
  H      -5.971930      2.766979      5.141239
  H      -4.701778      1.546240      4.963809
  H      -1.958285      3.601199      2.770505
  H      -2.423179      1.959729      2.292311
  H      -2.577978      2.474398      3.980684
  H      -0.384881      6.448258      0.094589
  H      -2.057625      6.766267     -0.432246
  H      -0.697868      7.070580     -1.549499
  H      -3.094411      3.078868     -4.073495
69
Coordinates from ORCA-job goat_0_95 E -1780.867718311346
  O      -1.452472      2.350356     -0.689493
  C      -2.199483      2.416959     -1.898066
  H      -2.126059      1.436876     -2.374700
  C      -3.684338      2.697396     -1.632794
  H      -4.029242      2.048987     -0.824261
  O      -4.379320      2.425563     -2.852369
  Si     -5.744411      1.457471     -2.983616
  C      -6.483433      1.951707     -4.624645
  C      -5.245217     -0.365787     -2.974981
  C      -6.499383     -1.228511     -3.185935
  C      -4.249952     -0.632370     -4.113544
  C      -4.597168     -0.750828     -1.637124
  C      -6.911506      1.847788     -1.575875
  C      -3.966512      4.144498     -1.234772
  H      -5.027642      4.316528     -1.428274
  C      -3.744237      4.451211      0.247080
  O      -4.650267      3.651597      0.991008
  Si     -4.433119      3.390477      2.628461
  C      -4.724384      4.992129      3.552355
  C      -5.700826      2.070996      3.083013
  C      -7.103803      2.517712      2.647934
  C      -5.343385      0.752844      2.381383
  C      -5.688578      1.857012      4.603794
  C      -2.683491      2.799842      2.942236
  O      -3.296509      5.088726     -2.083349
  C      -1.927295      4.876309     -2.342594
  H      -1.675708      5.616035     -3.109559
  O      -1.118194      5.068442     -1.203457
  C      -1.070662      6.421622     -0.751672
  C      -1.634193      3.465980     -2.860639
  H      -0.549865      3.350349     -2.924236
  O      -2.155687      3.308999     -4.170549
  H      -1.141948      3.243076     -0.480235
  H      -5.770282      1.807766     -5.440654
  H      -6.768470      3.007522     -4.602166
  H      -7.377988      1.363096     -4.845774
  H      -6.992802     -1.003405     -4.136109
  H      -7.228880     -1.086246     -2.382903
  H      -6.223434     -2.289879     -3.198823
  H      -4.690844     -0.422262     -5.092374
  H      -3.943879     -1.685629     -4.106083
  H      -3.348543     -0.021173     -4.010979
  H      -3.667436     -0.203331     -1.460161
  H      -4.351323     -1.819806     -1.637676
  H      -5.266328     -0.565261     -0.792013
  H      -6.471085      1.625976     -0.601682
  H      -7.828096      1.258681     -1.672339
  H      -7.186133      2.906449     -1.592084
  H      -2.715920      4.259471      0.554465
  H      -3.954346      5.514565      0.406349
  H      -4.528956      4.865897      4.621193
  H      -5.752630      5.343562      3.431021
  H      -4.051618      5.770784      3.179253
  H      -7.842154      1.754675      2.923677
  H      -7.161398      2.665056      1.566555
  H      -7.397123      3.453420      3.133601
  H      -5.301399      0.872180      1.295208
  H      -6.098196     -0.010813      2.605751
  H      -4.374172      0.370429      2.714704
  H      -6.404428      1.072417      4.877352
  H      -5.972520      2.766784      5.141044
  H      -4.702917      1.545448      4.963161
  H      -1.958693      3.601039      2.771571
  H      -2.423693      1.959618      2.293151
  H      -2.578623      2.474260      3.981558
  H      -0.384839      6.448556      0.094178
  H      -2.057037      6.766902     -0.434309
  H      -0.696230      7.070004     -1.550615
  H      -3.094456      3.078865     -4.073610
