69
Coordinates from ORCA-job goat_0_118 E -1780.867482333477
  O          -1.50152440781365      2.65037945283629      0.31086535094073
  C          -1.93383030352007      2.22739399668096     -0.97527148974252
  H          -1.66140177606218      1.17365571745798     -1.07181623578569
  C          -3.45830874465632      2.32053749448288     -1.13540785281060
  H          -3.92695782641192      1.92651963221042     -0.22878082921302
  O          -3.80156485198262      1.53504254218774     -2.27977511667896
  Si         -4.91080565317013      0.27964116254244     -2.16567844208166
  C          -6.56306753300942      0.97466609516029     -1.63299332174071
  C          -4.96285164992686     -0.45588386003395     -3.89888822960461
  C          -6.04788042717101     -1.54160336269025     -3.95298195768022
  C          -5.29081736847492      0.64261439117341     -4.92051211595795
  C          -3.60169564169739     -1.07836355413335     -4.24226715094188
  C          -4.30734994814323     -0.94752864120583     -0.88902031193494
  C          -3.97471264738555      3.74124197038713     -1.35344758849135
  H          -4.94737707034273      3.64745944157175     -1.84072907310861
  C          -4.23369227368597      4.50783797575714     -0.05541942310368
  O          -5.38492563588628      3.92021075742620      0.53109798197599
  Si         -5.90184326887870      4.19846140297229      2.09582780820795
  C          -7.76852572949876      4.17818131124240      2.00287631227789
  C          -5.26959401388858      2.81152489880218      3.21361569559259
  C          -5.78522653360685      3.02466228027634      4.64403784363010
  C          -5.77243824115758      1.45936568860053      2.68722464736919
  C          -3.73470685564786      2.80442362765692      3.22349523129539
  C          -5.28264002081674      5.87046151960641      2.66623634678710
  O          -3.18557996763862      4.48473024355137     -2.29323490369040
  C          -1.78686457120706      4.44678757851739     -2.13927315738814
  H          -1.39668807906525      4.96653304238744     -3.02020265594743
  O          -1.35422231517315      5.09389967673561     -0.96340075536183
  C          -1.51924931684814      6.51176323560220     -0.99097257975380
  C          -1.24456458167653      3.01610137247559     -2.09231945384470
  H          -0.17192506143688      3.06541316540982     -1.89231165196981
  O          -1.41603931018495      2.39392625560929     -3.35632351203896
  H          -1.37662453746659      3.61033353666857      0.28335151802322
  H          -6.46635004339976      1.49691131830669     -0.67672154778453
  H          -7.29232780479670      0.16956907393136     -1.50370790404659
  H          -6.95708079864941      1.68106413674336     -2.36849647953426
  H          -7.04001677456202     -1.13087022414297     -3.74326762149330
  H          -5.85505444960753     -2.34445895636704     -3.23447803469046
  H          -6.07819713760492     -1.99118438196589     -4.95270897705588
  H          -5.33814212015831      0.21333855422440     -5.92866913345886
  H          -4.52811708691881      1.42630365795633     -4.92471370711699
  H          -6.25738908060997      1.11200839398279     -4.71394869976843
  H          -2.79589455229968     -0.33996389920593     -4.19221932118085
  H          -3.62115397082496     -1.48355972732637     -5.26123892671195
  H          -3.35099306585651     -1.89834105461661     -3.56316251986340
  H          -4.28852917875281     -0.49372412494742      0.10640993795905
  H          -3.30069227218406     -1.30363132089325     -1.12256750922359
  H          -4.97612786391407     -1.81248848323282     -0.84609978514456
  H          -3.38230776121942      4.47099761462646      0.62650203531249
  H          -4.42789130914020      5.55544350254503     -0.30620779684546
  H          -8.12368555861014      5.01273514832428      1.39121523262191
  H          -8.21538764337784      4.27048755669364      2.99672136928920
  H          -8.12848032978671      3.24888389056551      1.55262506846201
  H          -5.43544128485633      3.97313997616787      5.06306689419854
  H          -5.42345708344736      2.22067170830383      5.29682625952888
  H          -6.87854634455436      3.01887624519590      4.68726180792070
  H          -6.86507543507779      1.40341978091828      2.69218972418706
  H          -5.39478618285154      0.64554010043417      3.31863658836640
  H          -5.42979061355963      1.27451412884664      1.66483094775210
  H          -3.36765593338892      2.00219638347471      3.87609789647055
  H          -3.32671747922348      3.74784158176499      3.59914919808095
  H          -3.32464977018984      2.63187824494745      2.22526379913657
  H          -4.19099774737325      5.91102223030936      2.70776744321422
  H          -5.66770783989600      6.09743197258179      3.66455831792193
  H          -5.62769419289906      6.65465991599045      1.98564339627819
  H          -2.57108837126588      6.78432550594078     -1.10120018128874
  H          -0.94208767056865      6.93955795202965     -1.81718807620674
  H          -1.14100688653240      6.89275070925356     -0.04318776449704
  H          -2.31914169850872      2.03787236071313     -3.37862316801769
