69
Coordinates from ORCA-job goat_0_63 E -1780.867874021644
  O          -1.32073738679936      2.32877379252649      0.38072691433654
  C          -1.65303296020234      1.94552900735752     -0.94835335708358
  H          -1.45912227318840      0.87321192584929     -1.02771715187971
  C          -3.13955621716293      2.17697245796571     -1.25484350698760
  H          -3.73919653723508      1.79877394962449     -0.42408282849318
  O          -3.43638321459919      1.48142788265837     -2.46763838135517
  Si         -4.25508496931172      0.01810655847566     -2.57558958157762
  C          -3.98884386994937     -0.97400918373765     -1.01247332753877
  C          -6.08786395890206      0.37288850934986     -2.86190717731490
  C          -6.24863019777577      1.30022526639243     -4.07508836887933
  C          -6.83121941485573     -0.94460267185990     -3.12657147389008
  C          -6.68855646890728      1.05443382386137     -1.62504348421669
  C          -3.48483268461442     -0.83698358913553     -4.04556731490786
  C          -3.49440474640808      3.64657989210439     -1.46685189073385
  H          -4.43492167538124      3.65698756860145     -2.02244050381246
  C          -3.74303537755234      4.43363905133032     -0.17898330398302
  O          -4.84841020870271      3.84000432528106      0.48228468868180
  Si         -5.12731248613823      4.08246714741987      2.11355771882445
  C          -5.66991320481857      5.85201364846551      2.39095166337322
  C          -6.47896645147466      2.84564208580703      2.55783177188193
  C          -5.93957363804802      1.41786917611844      2.38671169964049
  C          -6.90529375738911      3.05698832725471      4.01783885789116
  C          -7.69515263778777      3.04501382396822      1.64220681737859
  C          -3.55343922883512      3.75589560987377      3.07508094269653
  O          -2.56650694822142      4.31956617780236     -2.33129489329062
  C          -1.19124472270417      4.14535869703887     -2.07522750769789
  H          -0.69185657871855      4.61629194697946     -2.92814771649370
  O          -0.77499170476184      4.75725501932931     -0.87461842037446
  C          -0.83790396402049      6.18298115841652     -0.90310633700475
  C          -0.78841763212459      2.67147056743255     -1.98416079829968
  H           0.25810804921925      2.62729067446507     -1.67445265033932
  O          -0.88015870028162      2.06292679128212     -3.26233253225660
  H          -1.06987237879135      3.26363220938983      0.37025297030016
  H          -4.36863492692016     -0.46421638471057     -0.12368828230032
  H          -2.92516912083746     -1.18031273946690     -0.86334192796802
  H          -4.50816301232294     -1.93352652850378     -1.09502703707340
  H          -7.31090845641382      1.51409866296355     -4.24538228544331
  H          -5.85155513154706      0.84605832353882     -4.98792203386583
  H          -5.73538522620174      2.25356767068753     -3.91990344403797
  H          -7.89863980786967     -0.74733388262074     -3.28375704654944
  H          -6.74377448327315     -1.63674784899139     -2.28328641751390
  H          -6.45262942907687     -1.44972612520544     -4.02007775308564
  H          -6.63016737056897      0.41423281618810     -0.74052819667457
  H          -7.74708787278648      1.28399642385263     -1.79913582828380
  H          -6.18223912263442      1.99546665151195     -1.39237589585758
  H          -2.41923065692969     -1.00507200682762     -3.86341884271217
  H          -3.58547284759332     -0.23368933205128     -4.95195666228056
  H          -3.95641784821152     -1.80661772750740     -4.22732883613295
  H          -2.86480163020317      4.44735982706265      0.46661678082992
  H          -3.97544811587356      5.46770014111295     -0.45652276553410
  H          -4.90527720735613      6.54208387156521      2.02024849068676
  H          -5.81261208875685      6.05321306925515      3.45667723802062
  H          -6.60684689057318      6.07118558753240      1.87166403055372
  H          -5.58929060635020      1.23957743384788      1.36633223497072
  H          -6.72949467796254      0.68794152532943      2.60258231382638
  H          -5.10769106542090      1.21888064551429      3.06871106847904
  H          -7.67798147931216      2.32830824950406      4.29168788390171
  H          -7.32109351622970      4.05654055779136      4.17652208565048
  H          -6.06711887079915      2.92536777692917      4.70900728331295
  H          -7.43565449304492      2.89338902813181      0.59173025841032
  H          -8.11770317088334      4.04913864290440      1.74573630061278
  H          -8.48163904121915      2.32564317083075      1.90199870245623
  H          -3.12057317653306      2.78787094057934      2.81047813153583
  H          -3.76232427632389      3.75670772196283      4.14906191711732
  H          -2.80386794506270      4.52912390635192      2.88348206755997
  H          -0.21174305979432      6.56936612075418     -1.71411761986197
  H          -0.45667162945821      6.53564297787225      0.05444849491980
  H          -1.86446552935729      6.53022666269525     -1.03882237857956
  H          -1.81105800985391      1.81554253192622     -3.38738352568345
