69
Coordinates from ORCA-job goat_0_128 E -1780.866510349425
  O          -2.67561511788539      2.69345850569361     -4.23621253461549
  C          -3.04537369822568      3.38982704398181     -3.05474963492368
  H          -3.71625707607377      4.22405322994791     -3.30382952744459
  C          -3.79990805282198      2.43521212573618     -2.14218285691988
  H          -3.18113111144357      1.54708038695706     -1.97516937100804
  O          -5.04977259874353      2.09630935328256     -2.69720533137315
  Si         -5.53949551172107      0.81519713930600     -3.65103975629583
  C          -5.39381528738739      1.25198100434720     -5.46397389941617
  C          -4.62275616354131     -0.80228457913364     -3.27372715123791
  C          -4.58623477483925     -1.08229120819407     -1.76472025844418
  C          -5.41088524131892     -1.93448543282940     -3.95909374317613
  C          -3.19318076667166     -0.80585912192658     -3.83421131895964
  C          -7.35298800829731      0.65239212498229     -3.21327132682542
  C          -4.06259754557084      3.11847448647866     -0.79204750768033
  H          -4.73349474808956      3.97232018007976     -0.96185757063173
  C          -4.71203239342185      2.16789934326291      0.19810856971216
  O          -5.40370155767566      2.83263526313539      1.23845278660000
  Si         -4.73755372921673      3.60199921038562      2.56130610188138
  C          -4.56791672001522      5.42969014328578      2.18728337817714
  C          -5.99100996141755      3.34576349518701      3.95489787190707
  C          -6.03378784763606      1.86290283177514      4.34892641356731
  C          -5.57533269415110      4.18330440290139      5.17325181907098
  C          -7.38934716884515      3.78317358832313      3.49638039782791
  C          -3.09198984332614      2.83202210393540      3.01111939964557
  O          -2.83638024527535      3.57226357788511     -0.22002306825038
  C          -2.19206440911477      4.55392308891402     -1.01561160751997
  H          -2.86545167287606      5.41635348003267     -1.14945826911277
  O          -1.01443284500995      4.94095891129402     -0.39080675561199
  C          -1.19888399219713      5.80093987157625      0.73329677377946
  C          -1.81588529893815      3.94716272054435     -2.35887409332446
  H          -1.10577326586705      3.13213828070295     -2.17150161602580
  O          -1.24800929747721      4.91804324417282     -3.22754972156057
  H          -2.16911761550000      3.30794288857324     -4.78126493302893
  H          -5.92701920512015      2.18714901063423     -5.66192558681609
  H          -5.84500096269404      0.47008428674035     -6.08231282064715
  H          -4.35352347268177      1.38328030323349     -5.76402107299300
  H          -5.58583998028250     -1.05279870566642     -1.32070049799452
  H          -3.96013737492813     -0.36601218504626     -1.22829093532715
  H          -4.17150442037415     -2.08130663447824     -1.58200053746083
  H          -4.89191291844876     -2.88816598463262     -3.80552653954561
  H          -5.49895915494784     -1.77630179056590     -5.03836310293554
  H          -6.41893623756731     -2.03455702911140     -3.54785397482558
  H          -2.72010011120341     -1.77541268767453     -3.63434092631116
  H          -2.56788209790024     -0.03092048171650     -3.38573783648083
  H          -3.18757050190681     -0.65069861638101     -4.91671720852275
  H          -7.84084441237094      1.62774781022179     -3.30393967876447
  H          -7.48806036377099      0.30074157026565     -2.18657506349773
  H          -7.86257657683211     -0.04338198792299     -3.88508021201838
  H          -5.44308735988574      1.55948520320477     -0.33562261894780
  H          -3.93912233650125      1.50286555037284      0.60120072098819
  H          -4.08982161756738      5.57732713305742      1.21712407680938
  H          -3.96394474902052      5.93556521864597      2.94619434419889
  H          -5.54949634470081      5.91107682655474      2.15913955919560
  H          -6.29705048744305      1.22902015332517      3.49656973359100
  H          -6.78575182933766      1.70100704116753      5.13119073644975
  H          -5.07065853373365      1.52156651908015      4.73916798590933
  H          -6.28460947652560      4.02966216867391      5.99583205755634
  H          -5.56286052168034      5.25258529336632      4.94192274288032
  H          -4.58156946570309      3.90461368382183      5.53762607832985
  H          -8.11264906629503      3.63989752025132      4.30880894064505
  H          -7.72952739782407      3.19841346603418      2.63742278472104
  H          -7.41287738415497      4.84060585904881      3.21640152928692
  H          -3.18240955752375      1.74782835907921      3.12266609785364
  H          -2.73683042627650      3.24004267526565      3.96225841810313
  H          -2.34068435288288      3.03691823434067      2.24677852604765
  H          -0.20936091353892      6.15399379617973      1.02239979069589
  H          -1.65332426441673      5.26346611876893      1.56824498628742
  H          -1.82861149695197      6.65524676285670      0.46336248479668
  H          -0.39886834641435      5.18447382440785     -2.85598471003941
