69
Coordinates from ORCA-job goat_0_98 E -1780.867742775887
  O          -1.37880151424564      2.57128740034998     -0.68262531242874
  C          -2.13609599883074      2.55150922277847     -1.88639158647318
  H          -1.98322050744314      1.57119162174383     -2.34271991706581
  C          -3.64064023107739      2.71214465912116     -1.62273486960124
  H          -3.92532762914656      2.06001047615905     -0.79410213340063
  O          -4.31193766157948      2.34016641336377     -2.82856508032507
  Si         -5.55491583683914      1.21383438296102     -2.91270163013632
  C          -6.39965062021437      1.59655101837789     -4.53210975589431
  C          -4.84140144006811     -0.53668722102056     -2.90521329021972
  C          -3.85343648096697     -0.69674411237801     -4.06958360852637
  C          -4.11640830048090     -0.82355640563742     -1.58206641436908
  C          -5.98913830296131     -1.54495584021829     -3.07172415280144
  C          -6.70813974146035      1.47410984152087     -1.46498298540194
  C          -4.04525149212627      4.14091235994616     -1.26629630523502
  H          -5.11674902038253      4.22251978951874     -1.46081961470947
  C          -3.85500225396092      4.49822266553687      0.21003027240177
  O          -4.84505983753827      3.80795056641647      0.96024781421420
  Si         -4.48653104161716      2.99359953980552      2.37723051013447
  C          -3.29415967254289      4.01692306815127      3.39737100409622
  C          -6.14010693745714      2.77925866912839      3.26035466252305
  C          -6.68930495492699      4.15305237538892      3.67046766373904
  C          -7.15018841066712      2.08648897115784      2.33547320009612
  C          -5.93331543606844      1.91909949796019      4.51603990285452
  C          -3.70391991054588      1.34296535517990      1.97141996672334
  O          -3.45662403221337      5.11250522523672     -2.14459677203436
  C          -2.07266491253445      5.01257276233491     -2.38614573185537
  H          -1.87317850469126      5.75589341540308     -3.16470384961048
  O          -1.30040393543026      5.29177787556513     -1.23955733392087
  C          -1.33557299436458      6.66179766011102     -0.83977961968262
  C          -1.66145372192609      3.62155878794634     -2.87376609256880
  H          -0.57142387799735      3.59447190788379     -2.93864051971176
  O          -2.17111142989158      3.39292167586365     -4.17790708492792
  H          -1.14471609471164      3.49092392708386     -0.49104683589428
  H          -5.69794834968958      1.53639479761218     -5.36832559291900
  H          -6.81635038108887      2.60756467516352     -4.50709182966468
  H          -7.21757585944969      0.89628457947983     -4.72230037666366
  H          -3.42249687910312     -1.70534449808212     -4.06140410967236
  H          -3.02994401131743      0.01991575828738     -4.00003091391373
  H          -4.34424774797655     -0.55361632440952     -5.03672001972488
  H          -4.78096259857556     -0.71003017185910     -0.72082377694454
  H          -3.25718171344798     -0.16383624395791     -1.43516166177658
  H          -3.74124626126219     -1.85424771128094     -1.57907708219444
  H          -6.53020712320142     -1.39331881479876     -4.01040365361241
  H          -6.70931925365233     -1.47783230381361     -2.25064236694594
  H          -5.59003350427594     -2.56642661710778     -3.07998036292576
  H          -7.09038776290555      2.49887967252568     -1.46032228742710
  H          -6.21442343676766      1.29292960498627     -0.50784304331457
  H          -7.56225868718115      0.79440323516337     -1.53600029188073
  H          -2.85137799651282      4.25916833097696      0.56340526713491
  H          -4.00486171707693      5.57617503779515      0.32085315404762
  H          -2.30919929274858      4.06184599402762      2.92390845078246
  H          -3.16548446343253      3.57235727036637      4.38871321650025
  H          -3.65818972939333      5.03966225892014      3.52771771659024
  H          -7.66147167668541      4.03727785973736      4.16512443269048
  H          -6.83087628319049      4.80348846120280      2.80223739997022
  H          -6.01959122582855      4.66235779917247      4.36951998926952
  H          -8.10352518846254      1.94764465225607      2.86022829173957
  H          -6.79899740903680      1.09991267203324      2.01843331039540
  H          -7.34413462520415      2.67876327125632      1.43755034056738
  H          -6.88283108125916      1.80579907655218      5.05308143620004
  H          -5.21523269723939      2.37271811564993      5.20618611110353
  H          -5.57346653383345      0.91728842474980      4.26368962686445
  H          -3.41745459764814      0.81710345488832      2.88700087662108
  H          -2.80364555469055      1.48874620067278      1.36748974229355
  H          -4.39033972989363      0.70313724895782      1.40979349748520
  H          -0.70669476264785      6.74946531746469      0.04527797781785
  H          -2.35321793185100      6.97583782026453     -0.59771018244459
  H          -0.93759290117038      7.29511221553659     -1.63929432662335
  H          -3.08653831539072      3.08575137686971     -4.07297353941335
