69
Coordinates from ORCA-job goat_0_111 E -1780.867256559599
  O          -1.61191834693291      2.62308713377713     -0.49139750895707
  C          -2.22467728218563      2.65494995134715     -1.77344433339248
  H          -1.89402002883172      1.76078366028285     -2.30632562418461
  C          -3.75765167934177      2.59829072821277     -1.68571459345709
  H          -4.03991337203053      1.83621807886309     -0.95507600299451
  O          -4.22988448778891      2.26398323805899     -2.99295552675635
  Si         -5.31242206875305      1.01798655301054     -3.30508561996141
  C          -5.92559580784948      1.38233291763510     -5.02946677085495
  C          -4.42340362675195     -0.64930344690093     -3.22748559632416
  C          -5.42825444317633     -1.76348516439924     -3.56074771490387
  C          -3.28232486076256     -0.67462337157464     -4.25476619256100
  C          -3.84673051595216     -0.90463629107897     -1.82678414799774
  C          -6.70658280069259      1.09318107182359     -2.06109571444476
  C          -4.39678160621710      3.91849288559230     -1.25915146783091
  H          -5.43559214454017      3.88864603239310     -1.59393148221449
  C          -4.45178984786705      4.11286982867221      0.25814016058632
  O          -5.44204074745777      3.22777894235139      0.75904757150954
  Si         -5.31767177656995      2.41289210937075      2.21315274131547
  C          -3.77498338317314      1.35334154979462      2.21437607554554
  C          -5.29998067666797      3.63602701125466      3.65835527989668
  C          -3.96354766426130      4.38916041696116      3.73256122475124
  C          -6.44030712725384      4.64950082418239      3.48492870245362
  C          -5.50520691603802      2.86144247990116      4.96956180917479
  C          -6.84445374379330      1.33763404737774      2.25876294175120
  O          -3.84252452431500      5.05160380265347     -1.94326953224097
  C          -2.43895699499209      5.14687561776631     -2.00202534920275
  H          -2.24552299438495      5.99986858224684     -2.66026103591379
  O          -1.85818914888911      5.36817535379213     -0.73602165687492
  C          -2.11654683771705      6.66621547074050     -0.20054406944988
  C          -1.79290566685994      3.88451385183224     -2.57766877878953
  H          -0.70859306990913      3.99727430439632     -2.50978244738642
  O          -2.12334698980159      3.75341036630131     -3.95130184773350
  H          -1.55221735956906      3.53315288802572     -0.16642456962402
  H          -6.61476627110192      0.60608101007460     -5.37307078806820
  H          -5.09642499056037      1.44094597832819     -5.73951252767603
  H          -6.45643798636696      2.33860693482465     -5.04347499186386
  H          -4.92257352205293     -2.73660014187921     -3.54964418264464
  H          -5.86867638010196     -1.63095203071442     -4.55350209352352
  H          -6.24280029460910     -1.80576286130004     -2.83158259858628
  H          -2.74802412352602     -1.63088949951685     -4.19905627345633
  H          -2.55774620603477      0.12449695759419     -4.07228811997009
  H          -3.65730419968393     -0.56323161091624     -5.27630419983596
  H          -3.06622289814123     -0.18419989319110     -1.56890165557422
  H          -3.39418122193475     -1.90304290565453     -1.78850193371397
  H          -4.61865709235165     -0.86115796812790     -1.05245676550270
  H          -7.20712853539604      2.06444805292184     -2.11030626938803
  H          -6.35371799376033      0.94560980323622     -1.03786238435202
  H          -7.44778127535077      0.31865777559241     -2.27823940972578
  H          -3.48510701386726      3.93200911000120      0.72999622644922
  H          -4.74379471316480      5.14713232810713      0.46378615869015
  H          -3.82889701622908      0.61153051603368      1.41161725475245
  H          -3.68285281472917      0.81945019019659      3.16508230352456
  H          -2.86750483019971      1.94353782309125      2.06823094871783
  H          -3.96930302743273      5.07294547863159      4.59045988139257
  H          -3.78118742771215      4.98922639818708      2.83700600275787
  H          -3.11944463749037      3.70515854729238      3.85925511907746
  H          -6.45766526242057      5.34608361841849      4.33219001179946
  H          -7.41650479892470      4.15694752798373      3.44053989789531
  H          -6.31754064379962      5.23718760704491      2.57053640299526
  H          -6.47326892007480      2.35308230061030      4.99203572891698
  H          -5.47191920488716      3.55222791106982      5.82090656479717
  H          -4.72477519312067      2.10941988232315      5.12400099613577
  H          -6.87325012380774      0.69068426900002      1.37737139279649
  H          -7.75778849599316      1.93848892186095      2.27205129928184
  H          -6.84281678397066      0.69882133444039      3.14622925109133
  H          -1.69368658832564      7.43312236678471     -0.85760471221556
  H          -1.63082783558015      6.70923698159972      0.77350508776929
  H          -3.18860154922112      6.83809723129190     -0.08211406504253
  H          -2.99144145674861      3.32056848009528     -3.99457640063447
