69
Coordinates from ORCA-job goat_0_35 E -1780.869714628175
  O      -1.612853      0.935761     -2.039654
  C      -2.023241      2.290151     -2.036193
  H      -2.001274      2.604524     -3.084159
  C      -3.450137      2.435416     -1.519430
  H      -3.501455      2.002423     -0.511484
  O      -4.337457      1.805374     -2.404432
  Si     -5.285821      0.460374     -2.144693
  C      -6.920455      0.968341     -1.400736
  C      -5.499322     -0.261576     -3.869569
  C      -5.925352      0.854267     -4.830042
  C      -4.163436     -0.840940     -4.345583
  C      -6.566358     -1.360203     -3.868630
  C      -4.450117     -0.725833     -0.970038
  C      -3.850386      3.904288     -1.414586
  H      -3.881955      4.327789     -2.429159
  C      -5.209332      4.073157     -0.772157
  O      -5.322481      3.352147      0.431992
  Si     -4.784467      3.758758      1.953927
  C      -4.822254      5.611506      2.168035
  C      -5.994384      2.865254      3.090629
  C      -5.697828      3.197157      4.556673
  C      -7.427958      3.285466      2.754000
  C      -5.861540      1.352998      2.875399
  C      -3.045502      3.146264      2.254352
  O      -2.915639      4.618726     -0.617620
  C      -1.614071      4.593195     -1.155728
  H      -1.624769      5.052483     -2.160523
  O      -0.769062      5.295847     -0.309420
  C      -1.028517      6.692014     -0.272509
  C      -1.078606      3.171745     -1.237160
  H      -1.024254      2.795714     -0.203667
  O       0.192255      3.159485     -1.847770
  H      -1.439394      0.663964     -1.130525
  H      -7.511199      1.583749     -2.082670
  H      -6.745650      1.542596     -0.487536
  H      -7.515830      0.090559     -1.137534
  H      -6.033790      0.453879     -5.843654
  H      -5.182185      1.652024     -4.860580
  H      -6.885727      1.291435     -4.545114
  H      -4.246490     -1.172763     -5.386286
  H      -3.862984     -1.704097     -3.747589
  H      -3.363874     -0.099443     -4.289831
  H      -6.670302     -1.780917     -4.874718
  H      -7.544374     -0.974318     -3.570868
  H      -6.305850     -2.182219     -3.196408
  H      -3.451371     -0.993982     -1.315322
  H      -5.040716     -1.641270     -0.880211
  H      -4.372867     -0.297566      0.032802
  H      -5.392001      5.140495     -0.615341
  H      -5.967761      3.696632     -1.458357
  H      -5.817099      6.033774      2.014777
  H      -4.136488      6.073473      1.454539
  H      -4.487589      5.886134      3.170992
  H      -5.814410      4.264657      4.760846
  H      -4.684549      2.904767      4.843727
  H      -6.392398      2.658826      5.210932
  H      -7.584933      4.354966      2.914588
  H      -8.138385      2.748953      3.392445
  H      -7.672071      3.056609      1.714953
  H      -6.597284      0.818571      3.486150
  H      -4.871512      0.988496      3.159667
  H      -6.040367      1.083372      1.831594
  H      -2.934954      2.094595      1.979196
  H      -2.773667      3.243543      3.308199
  H      -2.337823      3.734187      1.669839
  H      -0.920013      7.131040     -1.269089
  H      -0.294878      7.130678      0.398531
  H      -2.032537      6.893474      0.103482
  H       0.756189      3.764662     -1.351733
69
Coordinates from ORCA-job goat_0_35 E -1780.871078659108
  O      -1.580821      1.043033     -2.253379
  C      -2.021255      2.389618     -2.166563
  H      -2.051729      2.755197     -3.198586
  C      -3.428756      2.484061     -1.579962
  H      -3.425197      2.010605     -0.591661
  O      -4.345574      1.859665     -2.446014
  Si     -5.274014      0.507788     -2.146282
  C      -6.929944      1.012424     -1.442668
  C      -5.463063     -0.300694     -3.838930
  C      -5.960618      0.741243     -4.852500
  C      -4.103515     -0.842813     -4.302097
  C      -6.471789     -1.453352     -3.763787
  C      -4.426944     -0.612810     -0.914074
  C      -3.845898      3.945494     -1.399615
  H      -3.917534      4.410771     -2.394112
  C      -5.191042      4.083100     -0.710011
  O      -5.300475      3.310812      0.466885
  Si     -4.765278      3.651880      2.007158
  C      -4.649589      5.500544      2.248645
  C      -6.081736      2.861591      3.105787
  C      -5.780475      3.146921      4.582725
  C      -7.462717      3.430152      2.752325
  C      -6.091508      1.342871      2.872642
  C      -3.098446      2.877498      2.353118
  O      -2.886751      4.642298     -0.612164
  C      -1.609897      4.663845     -1.212354
  H      -1.678245      5.155007     -2.198972
  O      -0.734339      5.358895     -0.385416
  C      -0.996564      6.758347     -0.316884
  C      -1.055387      3.252371     -1.369558
  H      -0.949923      2.832794     -0.358065
  O       0.193412      3.282181     -2.035059
  H      -1.384596      0.726709     -1.362910
  H      -7.519757      1.596014     -2.155408
  H      -6.779195      1.618857     -0.545629
  H      -7.514676      0.130883     -1.162372
  H      -6.074219      0.278021     -5.840536
  H      -5.255873      1.570482     -4.948077
  H      -6.933798      1.152850     -4.566763
  H      -4.186089     -1.248234     -5.318134
  H      -3.747808     -1.648098     -3.652458
  H      -3.341797     -0.058147     -4.314491
  H      -6.563852     -1.937190     -4.744121
  H      -7.466254     -1.101200     -3.474219
  H      -6.161746     -2.219944     -3.046202
  H      -3.419895     -0.879631     -1.239665
  H      -5.005563     -1.533822     -0.789157
  H      -4.360939     -0.135553      0.068624
  H      -5.367857      5.144220     -0.502700
  H      -5.966311      3.742675     -1.399641
  H      -5.601653      6.007580      2.070542
  H      -3.904062      5.913905      1.563459
  H      -4.327223      5.731046      3.268475
  H      -5.793006      4.219937      4.797558
  H      -4.805016      2.752576      4.883148
  H      -6.537945      2.673385      5.219653
  H      -7.510802      4.510763      2.919987
  H      -8.234415      2.964047      3.377671
  H      -7.715993      3.236280      1.706715
  H      -6.883264      0.874338      3.470566
  H      -5.142648      0.882261      3.162838
  H      -6.281668      1.100579      1.822775
  H      -3.073707      1.824608      2.058270
  H      -2.861449      2.930676      3.420470
  H      -2.318156      3.408204      1.806739
  H      -0.941033      7.209649     -1.314085
  H      -0.227876      7.192446      0.321624
  H      -1.981356      6.952780      0.114640
  H       0.771947      3.870322     -1.533795
69
Coordinates from ORCA-job goat_0_35 E -1780.871827812834
  O      -1.588493      1.086741     -2.306155
  C      -2.021679      2.436273     -2.190262
  H      -2.044153      2.828356     -3.213048
  C      -3.430921      2.529996     -1.604155
  H      -3.429988      2.041732     -0.624245
  O      -4.354141      1.914174     -2.475436
  Si     -5.302053      0.582518     -2.139361
  C      -6.979749      1.127885     -1.515771
  C      -5.457861     -0.326071     -3.787615
  C      -5.973754      0.638388     -4.868701
  C      -4.086329     -0.875182     -4.210886
  C      -6.444737     -1.493063     -3.639417
  C      -4.495017     -0.474527     -0.823665
  C      -3.833472      3.994689     -1.403534
  H      -3.888175      4.485341     -2.386999
  C      -5.186595      4.138567     -0.730119
  O      -5.316899      3.334690      0.422694
  Si     -4.774611      3.631653      1.969622
  C      -4.671119      5.474345      2.273968
  C      -6.074948      2.800087      3.062089
  C      -5.737307      3.022009      4.543745
  C      -7.459637      3.396513      2.766571
  C      -6.101770      1.291176      2.765772
  C      -3.098351      2.851317      2.262764
  O      -2.870597      4.657189     -0.587383
  C      -1.591922      4.684642     -1.187240
  H      -1.657561      5.191301     -2.165237
  O      -0.712462      5.364384     -0.349034
  C      -0.945399      6.773271     -0.295170
  C      -1.049791      3.269348     -1.366710
  H      -0.951610      2.824074     -0.366052
  O       0.205638      3.297879     -2.028734
  H      -1.432312      0.741532     -1.418170
  H      -7.533491      1.694878     -2.270796
  H      -6.857377      1.759200     -0.631639
  H      -7.584399      0.259169     -1.235063
  H      -6.083892      0.107061     -5.823176
  H      -5.282566      1.471653     -5.024771
  H      -6.952023      1.054764     -4.605882
  H      -4.162663     -1.363240     -5.191384
  H      -3.712378     -1.617826     -3.498547
  H      -3.340907     -0.078278     -4.290656
  H      -6.521640     -2.045473     -4.584884
  H      -7.447891     -1.141684     -3.377610
  H      -6.123220     -2.200632     -2.867430
  H      -3.479823     -0.764796     -1.104520
  H      -5.084580     -1.384090     -0.666543
  H      -4.450205      0.058910      0.131620
  H      -5.345733      5.196810     -0.493254
  H      -5.960034      3.829802     -1.438342
  H      -5.630956      5.976210      2.119283
  H      -3.935042      5.921025      1.599067
  H      -4.347136      5.669931      3.301422
  H      -5.732004      4.086196      4.801493
  H      -4.758763      2.606579      4.804792
  H      -6.485660      2.530783      5.179244
  H      -7.489860      4.471285      2.975670
  H      -8.220189      2.914772      3.395011
  H      -7.743904      3.246580      1.720743
  H      -6.878077      0.802106      3.369048
  H      -5.146001      0.815115      3.006656
  H      -6.323927      1.092405      1.712292
  H      -3.077378      1.808173      1.933064
  H      -2.847725      2.872881      3.328518
  H      -2.325262      3.399003      1.717806
  H      -0.881718      7.210795     -1.298531
  H      -0.164985      7.197717      0.337686
  H      -1.925560      6.993451      0.136789
  H       0.789582      3.863150     -1.507341
69
Coordinates from ORCA-job goat_0_35 E -1780.872137859363
  O      -1.582870      1.132387     -2.344778
  C      -2.026083      2.476735     -2.209933
  H      -2.052114      2.883350     -3.226354
  C      -3.434132      2.552358     -1.618663
  H      -3.427601      2.050286     -0.646368
  O      -4.355688      1.941778     -2.498239
  Si     -5.306282      0.612628     -2.149189
  C      -7.003605      1.162446     -1.580427
  C      -5.435782     -0.348934     -3.771380
  C      -5.949504      0.573578     -4.887305
  C      -4.060438     -0.905095     -4.167970
  C      -6.418801     -1.515701     -3.589856
  C      -4.520070     -0.407010     -0.789545
  C      -3.840810      4.011743     -1.396862
  H      -3.890996      4.523019     -2.369663
  C      -5.195784      4.145601     -0.727926
  O      -5.328033      3.321104      0.409958
  Si     -4.765869      3.594441      1.954433
  C      -4.611697      5.432687      2.272962
  C      -6.076541      2.794681      3.060742
  C      -5.697435      2.975696      4.537974
  C      -7.440497      3.453190      2.807131
  C      -6.173558      1.295015      2.739951
  C      -3.108639      2.761477      2.215863
  O      -2.880525      4.655917     -0.562880
  C      -1.606248      4.708714     -1.170690
  H      -1.683755      5.230800     -2.139034
  O      -0.732759      5.384508     -0.324740
  C      -0.970012      6.793121     -0.272258
  C      -1.055287      3.301604     -1.375315
  H      -0.945072      2.837614     -0.385208
  O       0.195101      3.351323     -2.047395
  H      -1.456543      0.769195     -1.459345
  H      -7.528522      1.731892     -2.353120
  H      -6.910318      1.788596     -0.690224
  H      -7.618051      0.293155     -1.326055
  H      -6.048059      0.009986     -5.823562
  H      -5.263374      1.406351     -5.066709
  H      -6.932097      0.990884     -4.646028
  H      -4.133208     -1.440676     -5.123166
  H      -3.680739     -1.608446     -3.420558
  H      -3.322459     -0.107375     -4.285579
  H      -6.485725     -2.100578     -4.515491
  H      -7.425258     -1.161039     -3.347554
  H      -6.099464     -2.193553     -2.791651
  H      -3.497858     -0.700827     -1.040131
  H      -5.108861     -1.314166     -0.622750
  H      -4.497152      0.151433      0.150880
  H      -5.352165      5.199204     -0.471635
  H      -5.966716      3.850715     -1.443583
  H      -5.560315      5.957007      2.127131
  H      -3.868979      5.869027      1.599611
  H      -4.281243      5.608953      3.301216
  H      -5.636782      4.033657      4.812089
  H      -4.734093      2.511602      4.769983
  H      -6.453708      2.509210      5.181615
  H      -7.419747      4.523796      3.034114
  H      -8.205995      2.992980      3.444595
  H      -7.754287      3.334606      1.765954
  H      -6.949405      0.826807      3.359095
  H      -5.230416      0.778092      2.941824
  H      -6.434513      1.124902      1.691217
  H      -3.127856      1.720066      1.881563
  H      -2.841691      2.771815      3.277155
  H      -2.327869      3.284250      1.658635
  H      -0.916894      7.226350     -1.277076
  H      -0.185570      7.220497      0.351989
  H      -1.946756      7.009366      0.168487
  H       0.778913      3.906815     -1.516010
69
Coordinates from ORCA-job goat_0_35 E -1780.872214200619
  O      -1.568839      1.183615     -2.410443
  C      -2.016026      2.524015     -2.256543
  H      -2.056837      2.940186     -3.268020
  C      -3.415350      2.588174     -1.644989
  H      -3.394377      2.077046     -0.678146
  O      -4.347569      1.984471     -2.519373
  Si     -5.321682      0.679677     -2.133552
  C      -7.031323      1.271041     -1.645401
  C      -5.428893     -0.366425     -3.705473
  C      -5.905261      0.500929     -4.878573
  C      -4.058377     -0.965438     -4.045938
  C      -6.435992     -1.505541     -3.480772
  C      -4.581401     -0.280852     -0.704920
  C      -3.820559      4.042039     -1.400869
  H      -3.870522      4.571846     -2.363441
  C      -5.174741      4.166794     -0.729594
  O      -5.317085      3.311563      0.385407
  Si     -4.766610      3.554445      1.940181
  C      -4.621632      5.385439      2.306328
  C      -6.081281      2.732913      3.026897
  C      -5.691191      2.859339      4.506533
  C      -7.436945      3.416770      2.803201
  C      -6.200595      1.247385      2.658307
  C      -3.111498      2.710985      2.184472
  O      -2.853347      4.665353     -0.559361
  C      -1.588904      4.741203     -1.187055
  H      -1.687714      5.280581     -2.143550
  O      -0.710574      5.408809     -0.341634
  C      -0.948855      6.816567     -0.279070
  C      -1.034023      3.342888     -1.427205
  H      -0.897473      2.861351     -0.449399
  O       0.200439      3.413621     -2.126223
  H      -1.468375      0.802319     -1.529337
  H      -7.509986      1.837270     -2.448964
  H      -6.965501      1.906611     -0.759985
  H      -7.670548      0.415822     -1.407747
  H      -5.988558     -0.109087     -5.786133
  H      -5.204925      1.315188     -5.084879
  H      -6.887676      0.940636     -4.683315
  H      -4.128528     -1.564446     -4.962304
  H      -3.696881     -1.620019     -3.247584
  H      -3.308761     -0.187458     -4.207351
  H      -6.493969     -2.137844     -4.374588
  H      -7.440526     -1.123025     -3.279427
  H      -6.144118     -2.144407     -2.641642
  H      -3.555729     -0.596457     -0.910524
  H      -5.183201     -1.173778     -0.514073
  H      -4.580409      0.320867      0.207789
  H      -5.326025      5.213881     -0.446844
  H      -5.944240      3.894891     -1.454580
  H      -5.570936      5.906756      2.157185
  H      -3.870388      5.843513      1.659412
  H      -4.313682      5.534267      3.345357
  H      -5.609016      3.906268      4.813978
  H      -4.735990      2.370063      4.717595
  H      -6.452730      2.386924      5.138604
  H      -7.401602      4.477189      3.069407
  H      -8.205886      2.942820      3.425320
  H      -7.755092      3.341635      1.759586
  H      -6.971111      0.767440      3.274076
  H      -5.260189      0.714072      2.826472
  H      -6.479253      1.116205      1.609286
  H      -3.138585      1.676160      1.831399
  H      -2.844127      2.701861      3.245087
  H      -2.329582      3.238203      1.635073
  H      -0.918517      7.251900     -1.283059
  H      -0.152329      7.242487      0.329256
  H      -1.916069      7.027260      0.183748
  H       0.792916      3.958836     -1.594116
69
Coordinates from ORCA-job goat_0_35 E -1780.872292107605
  O      -1.570458      1.166942     -2.409446
  C      -2.021487      2.505423     -2.252720
  H      -2.065539      2.922303     -3.263827
  C      -3.420057      2.562910     -1.639815
  H      -3.396377      2.047407     -0.675143
  O      -4.348114      1.960717     -2.519208
  Si     -5.304655      0.636079     -2.155915
  C      -7.012044      1.197660     -1.627736
  C      -5.425131     -0.363380     -3.756460
  C      -5.916508      0.538463     -4.897017
  C      -4.055868     -0.944967     -4.129387
  C      -6.424654     -1.513604     -3.558250
  C      -4.533116     -0.360866     -0.770086
  C      -3.830853      4.014102     -1.388526
  H      -3.884407      4.545029     -2.350357
  C      -5.183827      4.133890     -0.713901
  O      -5.315359      3.293108      0.413839
  Si     -4.767335      3.573144      1.963835
  C      -4.619589      5.411938      2.283947
  C      -6.085103      2.785000      3.070840
  C      -5.695378      2.948394      4.546648
  C      -7.437938      3.467625      2.828077
  C      -6.210714      1.290683      2.742932
  C      -3.114872      2.732421      2.231142
  O      -2.863717      4.640142     -0.548862
  C      -1.600053      4.722348     -1.178111
  H      -1.702843      5.264945     -2.132590
  O      -0.722393      5.389357     -0.331982
  C      -0.966019      6.795144     -0.258399
  C      -1.040721      3.327561     -1.425289
  H      -0.899385      2.844487     -0.448564
  O       0.190935      3.405131     -2.127118
  H      -1.475873      0.780705     -1.529728
  H      -7.502398      1.790830     -2.404379
  H      -6.941266      1.799339     -0.719375
  H      -7.643362      0.330014     -1.415661
  H      -6.002879     -0.042035     -5.823604
  H      -5.222696      1.363214     -5.081729
  H      -6.900388      0.965129     -4.680685
  H      -4.133103     -1.516222     -5.062679
  H      -3.682357     -1.621854     -3.355389
  H      -3.311577     -0.158421     -4.274253
  H      -6.487430     -2.117167     -4.471559
  H      -7.429188     -1.143198     -3.336409
  H      -6.121997     -2.178162     -2.743105
  H      -3.507515     -0.658864     -1.000841
  H      -5.122463     -1.266462     -0.599748
  H      -4.525957      0.210070      0.161673
  H      -5.344656      5.182975     -0.444144
  H      -5.952941      3.844895     -1.432602
  H      -5.566869      5.931032      2.115387
  H      -3.862831      5.852070      1.631109
  H      -4.318576      5.586087      3.321105
  H      -5.607737      4.002541      4.826754
  H      -4.743335      2.459125      4.771697
  H      -6.460315      2.497034      5.190010
  H      -7.400700      4.533592      3.070973
  H      -8.210347      3.009736      3.457951
  H      -7.752839      3.369979      1.785359
  H      -6.980893      0.830269      3.373876
  H      -5.271990      0.757943      2.922235
  H      -6.493982      1.132567      1.699096
  H      -3.147235      1.687313      1.910547
  H      -2.844016      2.754773      3.290702
  H      -2.332591      3.239927      1.663863
  H      -0.941740      7.238261     -1.259266
  H      -0.169020      7.220458      0.349868
  H      -1.932306      6.998247      0.209670
  H       0.783786      3.950329     -1.595308
69
Coordinates from ORCA-job goat_0_35 E -1780.872342736284
  O      -1.574087      1.169954     -2.390780
  C      -2.026848      2.509134     -2.244242
  H      -2.068160      2.919018     -3.258572
  C      -3.427762      2.569556     -1.636891
  H      -3.406498      2.059597     -0.668620
  O      -4.352706      1.961719     -2.514879
  Si     -5.312104      0.639648     -2.150210
  C      -7.021343      1.207067     -1.636302
  C      -5.418736     -0.365790     -3.747520
  C      -5.896754      0.534142     -4.896224
  C      -4.045017     -0.948927     -4.103352
  C      -6.420035     -1.515527     -3.558145
  C      -4.550693     -0.350552     -0.754947
  C      -3.842005      4.021598     -1.392867
  H      -3.898923      4.547356     -2.357537
  C      -5.193411      4.138217     -0.715861
  O      -5.320050      3.290522      0.407060
  Si     -4.758605      3.557696      1.954612
  C      -4.585725      5.392857      2.279581
  C      -6.079036      2.781631      3.065962
  C      -5.679863      2.935020      4.540395
  C      -7.425521      3.480605      2.832357
  C      -6.223711      1.289604      2.732898
  C      -3.115273      2.695892      2.207541
  O      -2.877120      4.656099     -0.557048
  C      -1.611169      4.734326     -1.182386
  H      -1.711039      5.271401     -2.140541
  O      -0.735464      5.405885     -0.337761
  C      -0.981956      6.811050     -0.264502
  C      -1.049962      3.338340     -1.419768
  H      -0.912803      2.862452     -0.438467
  O       0.184466      3.411776     -2.116618
  H      -1.484368      0.787207     -1.508998
  H      -7.504658      1.798520     -2.418926
  H      -6.955993      1.812862     -0.729792
  H      -7.656585      0.342014     -1.424234
  H      -5.972170     -0.048172     -5.822983
  H      -5.200548      1.358404     -5.074099
  H      -6.883349      0.961526     -4.692702
  H      -4.110864     -1.520244     -5.037651
  H      -3.681279     -1.626349     -3.324830
  H      -3.298016     -0.162744     -4.238848
  H      -6.470795     -2.121861     -4.470750
  H      -7.427703     -1.145094     -3.350440
  H      -6.127389     -2.178023     -2.737368
  H      -3.522999     -0.647869     -0.976828
  H      -5.140084     -1.256971     -0.586526
  H      -4.552686      0.222873      0.175889
  H      -5.353990      5.186059     -0.440641
  H      -5.964524      3.853136     -1.434461
  H      -5.526598      5.925078      2.115064
  H      -3.824300      5.825365      1.626156
  H      -4.279475      5.559912      3.316534
  H      -5.578240      3.986991      4.824474
  H      -4.732732      2.433109      4.759020
  H      -6.447187      2.490229      5.185908
  H      -7.376584      4.544604      3.082868
  H      -8.201109      3.026442      3.461444
  H      -7.744790      3.393255      1.789866
  H      -6.996388      0.835513      3.365793
  H      -5.290695      0.744589      2.905669
  H      -6.514188      1.138856      1.689365
  H      -3.165474      1.650699      1.889119
  H      -2.831976      2.715672      3.264178
  H      -2.332275      3.192336      1.630892
  H      -0.957000      7.255106     -1.265317
  H      -0.186731      7.238459      0.345241
  H      -1.949590      7.012781      0.201916
  H       0.776088      3.959975     -1.586410
69
Coordinates from ORCA-job goat_0_35 E -1780.872368874793
  O      -1.575921      1.166583     -2.390857
  C      -2.025665      2.507225     -2.248413
  H      -2.067577      2.913356     -3.264361
  C      -3.425604      2.572947     -1.639471
  H      -3.403918      2.065242     -0.669878
  O      -4.353553      1.965510     -2.514082
  Si     -5.321995      0.651047     -2.144542
  C      -7.030727      1.233442     -1.647412
  C      -5.422015     -0.365563     -3.735011
  C      -5.884600      0.530174     -4.893811
  C      -4.047827     -0.958017     -4.074619
  C      -6.430317     -1.509284     -3.548375
  C      -4.574007     -0.332490     -0.738167
  C      -3.836412      4.026420     -1.396035
  H      -3.894712      4.550931     -2.361376
  C      -5.186292      4.144659     -0.715912
  O      -5.313085      3.292549      0.403952
  Si     -4.760188      3.561819      1.954813
  C      -4.614787      5.397438      2.288129
  C      -6.072871      2.764304      3.059538
  C      -5.676797      2.911229      4.535513
  C      -7.426529      3.450769      2.829012
  C      -6.201966      1.272959      2.715878
  C      -3.106577      2.720597      2.207229
  O      -2.868451      4.660573     -0.563669
  C      -1.603322      4.734632     -1.191512
  H      -1.704079      5.271325     -2.149933
  O      -0.724034      5.404299     -0.349486
  C      -0.968071      6.809479     -0.272347
  C      -1.045473      3.337100     -1.428861
  H      -0.906994      2.863172     -0.446667
  O       0.187097      3.406701     -2.128900
  H      -1.497997      0.781844     -1.508821
  H      -7.499665      1.830511     -2.434604
  H      -6.970126      1.837519     -0.739386
  H      -7.676411      0.374158     -1.442869
  H      -5.953671     -0.056848     -5.818227
  H      -5.182659      1.350081     -5.069220
  H      -6.871169      0.963461     -4.702547
  H      -4.107628     -1.533817     -5.006639
  H      -3.694991     -1.633522     -3.289326
  H      -3.295143     -0.176525     -4.206340
  H      -6.473543     -2.121632     -4.457525
  H      -7.438789     -1.133380     -3.354467
  H      -6.149438     -2.167725     -2.720163
  H      -3.545481     -0.633769     -0.950621
  H      -5.166755     -1.237083     -0.570384
  H      -4.582758      0.244922      0.190295
  H      -5.344865      5.191885     -0.437169
  H      -5.959128      3.863684     -1.434433
  H      -5.561142      5.917230      2.114967
  H      -3.851766      5.843514      1.645749
  H      -4.323195      5.564045      3.329458
  H      -5.585026      3.961946      4.827564
  H      -4.725562      2.416003      4.751900
  H      -6.440970      2.454840      5.176838
  H      -7.390883      4.512363      3.091970
  H      -8.199304      2.980646      3.449944
  H      -7.741278      3.371342      1.784409
  H      -6.969448      0.806087      3.345952
  H      -5.263395      0.736085      2.884104
  H      -6.491654      1.126556      1.671349
  H      -3.146753      1.673673      1.892991
  H      -2.818946      2.747273      3.262610
  H      -2.331333      3.223865      1.625834
  H      -0.946925      7.256060     -1.272287
  H      -0.169538      7.234767      0.334743
  H      -1.933400      7.012129      0.198639
  H       0.782840      3.952297     -1.600698
69
Coordinates from ORCA-job goat_0_35 E -1780.872384133233
  O      -1.570270      1.180558     -2.412107
  C      -2.024597      2.518842     -2.262753
  H      -2.072083      2.928597     -3.276955
  C      -3.422054      2.576893     -1.647653
  H      -3.394454      2.064901     -0.680594
  O      -4.351895      1.970151     -2.520479
  Si     -5.321378      0.657407     -2.145637
  C      -7.031780      1.244355     -1.660064
  C      -5.417002     -0.370877     -3.729076
  C      -5.875367      0.517029     -4.895491
  C      -4.041984     -0.966220     -4.060205
  C      -6.426144     -1.513112     -3.538266
  C      -4.576284     -0.316743     -0.731475
  C      -3.836424      4.027679     -1.395078
  H      -3.898055      4.557659     -2.357186
  C      -5.185681      4.139030     -0.711714
  O      -5.310428      3.280041      0.403439
  Si     -4.758326      3.548420      1.955303
  C      -4.601696      5.383471      2.286425
  C      -6.076999      2.763867      3.062329
  C      -5.674634      2.903036      4.537341
  C      -7.422906      3.467166      2.837252
  C      -6.225781      1.274842      2.717172
  C      -3.111349      2.694508      2.207279
  O      -2.867563      4.658933     -0.561550
  C      -1.605514      4.742256     -1.194759
  H      -1.713222      5.285177     -2.148885
  O      -0.725319      5.409660     -0.352201
  C      -0.974889      6.813146     -0.264455
  C      -1.043367      3.348498     -1.444052
  H      -0.896875      2.869253     -0.465748
  O       0.184412      3.427534     -2.151405
  H      -1.503785      0.787503     -1.532803
  H      -7.490929      1.846259     -2.449274
  H      -6.977298      1.844574     -0.749212
  H      -7.682525      0.386804     -1.464588
  H      -5.941196     -0.075951     -5.816263
  H      -5.172779      1.335782     -5.073768
  H      -6.862511      0.951605     -4.710501
  H      -4.099258     -1.548709     -4.988188
  H      -3.691969     -1.636259     -3.269043
  H      -3.288464     -0.186220     -4.194613
  H      -6.465142     -2.132233     -4.442957
  H      -7.435575     -1.136095     -3.351711
  H      -6.148797     -2.165337     -2.704042
  H      -3.547040     -0.618822     -0.939537
  H      -5.168522     -1.221139     -0.561010
  H      -4.587938      0.265390      0.193774
  H      -5.345639      5.184172     -0.426344
  H      -5.959139      3.861443     -1.430799
  H      -5.543084      5.908948      2.103666
  H      -3.829844      5.824092      1.651206
  H      -4.319503      5.549082      3.330494
  H      -5.567208      3.951765      4.830981
  H      -4.729895      2.394024      4.750035
  H      -6.443247      2.456325      5.180115
  H      -7.374603      4.526747      3.105817
  H      -8.200286      3.002728      3.456636
  H      -7.740094      3.396784      1.792727
  H      -6.994242      0.815987      3.351838
  H      -5.292542      0.726506      2.877841
  H      -6.524379      1.133613      1.674690
  H      -3.164300      1.645219      1.902738
  H      -2.816717      2.727930      3.260423
  H      -2.334907      3.184839      1.616534
  H      -0.963243      7.266078     -1.261637
  H      -0.173700      7.238148      0.339205
  H      -1.937502      7.008660      0.214978
  H       0.782553      3.969411     -1.622205
69
Coordinates from ORCA-job goat_0_35 E -1780.872391181833
  O      -1.569898      1.179021     -2.413582
  C      -2.024822      2.517018     -2.262970
  H      -2.072763      2.927550     -3.276811
  C      -3.422086      2.574033     -1.647297
  H      -3.393950      2.061390     -0.680548
  O      -4.351955      1.967271     -2.519996
  Si     -5.320718      0.653446     -2.147539
  C      -7.030609      1.239296     -1.659372
  C      -5.416975     -0.370866     -3.733527
  C      -5.876133      0.519721     -4.897555
  C      -4.041518     -0.964589     -4.066249
  C      -6.425474     -1.514035     -3.545423
  C      -4.573744     -0.324147     -0.736975
  C      -3.836599      4.024847     -1.394218
  H      -3.898879      4.554753     -2.356307
  C      -5.185674      4.136282     -0.710255
  O      -5.309393      3.278506      0.405916
  Si     -4.758836      3.551550      1.957693
  C      -4.605161      5.387704      2.283985
  C      -6.076728      2.767851      3.066196
  C      -5.673394      2.908575      4.540812
  C      -7.422835      3.470871      2.841270
  C      -6.225521      1.278417      2.722848
  C      -3.110704      2.700706      2.211810
  O      -2.867822      4.656498     -0.560942
  C      -1.605989      4.740029     -1.194221
  H      -1.713685      5.283271     -2.148153
  O      -0.725481      5.407223     -0.351575
  C      -0.976576      6.810282     -0.261762
  C      -1.043694      3.346251     -1.443742
  H      -0.897345      2.866768     -0.465623
  O       0.184101      3.425645     -2.151062
  H      -1.506718      0.784002     -1.534934
  H      -7.489320      1.844169     -2.446587
  H      -6.975784      1.836713     -0.746738
  H      -7.682257      0.381802     -1.466694
  H      -5.943329     -0.071320     -5.819422
  H      -5.173507      1.338649     -5.074850
  H      -6.862845      0.954288     -4.710263
  H      -4.097902     -1.542449     -4.997173
  H      -3.692646     -1.638670     -3.278038
  H      -3.287679     -0.184177     -4.196068
  H      -6.464409     -2.131244     -4.451378
  H      -7.435039     -1.137838     -3.357729
  H      -6.147721     -2.167859     -2.712589
  H      -3.544874     -0.625629     -0.947806
  H      -5.165544     -1.229119     -0.568130
  H      -4.583431      0.255395      0.189813
  H      -5.345583      5.181644     -0.425704
  H      -5.959533      3.857965     -1.428562
  H      -5.546253      5.911849      2.095959
  H      -3.831265      5.827393      1.650656
  H      -4.327234      5.556668      3.328666
  H      -5.565743      3.957588      4.833324
  H      -4.728434      2.399847      4.753241
  H      -6.441446      2.462469      5.184639
  H      -7.374441      4.530551      3.109324
  H      -8.199842      3.006639      3.461259
  H      -7.740683      3.399855      1.796985
  H      -6.993761      0.820385      3.358347
  H      -5.292198      0.730368      2.883979
  H      -6.524378      1.135715      1.680669
  H      -3.163405      1.649499      1.913883
  H      -2.813136      2.740939      3.263870
  H      -2.336287      3.188138      1.616056
  H      -0.965987      7.264628     -1.258320
  H      -0.175444      7.235309      0.341951
  H      -1.939063      7.004343      0.218441
  H       0.782823      3.965972     -1.620944
69
Coordinates from ORCA-job goat_0_35 E -1780.872391833994
  O      -1.569981      1.179745     -2.415637
  C      -2.025512      2.517474     -2.263656
  H      -2.074193      2.928768     -3.277131
  C      -3.422406      2.573566     -1.646997
  H      -3.393421      2.060652     -0.680369
  O      -4.352538      1.966292     -2.518943
  Si     -5.321319      0.652361     -2.147778
  C      -7.031412      1.238413     -1.661048
  C      -5.415812     -0.371510     -3.734219
  C      -5.873423      0.519100     -4.898786
  C      -4.039625     -0.965024     -4.064699
  C      -6.424542     -1.514678     -3.547720
  C      -4.574803     -0.325678     -0.737431
  C      -3.837058      4.024432     -1.393954
  H      -3.900354      4.553996     -2.356151
  C      -5.185716      4.135940     -0.709086
  O      -5.308636      3.277573      0.406674
  Si     -4.758859      3.551776      1.958704
  C      -4.605434      5.388281      2.283322
  C      -6.076648      2.768571      3.067612
  C      -5.670739      2.906165      4.541839
  C      -7.421710      3.474643      2.845917
  C      -6.228614      1.279965      2.722188
  C      -3.110591      2.701305      2.212640
  O      -2.868176      4.656810     -0.561396
  C      -1.606712      4.740312     -1.195043
  H      -1.714461      5.283315     -2.149084
  O      -0.725692      5.407906     -0.352859
  C      -0.978366      6.810627     -0.262036
  C      -1.044334      3.346397     -1.444120
  H      -0.898089      2.867020     -0.466012
  O       0.183467      3.425812     -2.151546
  H      -1.510778      0.782534     -1.537705
  H      -7.488373      1.844139     -2.448682
  H      -6.977478      1.835698     -0.748293
  H      -7.684559      0.381769     -1.469800
  H      -5.941247     -0.072448     -5.820241
  H      -5.169885      1.337177     -5.076359
  H      -6.859617      0.954928     -4.711636
  H      -4.093543     -1.539594     -4.997818
  H      -3.694234     -1.642252     -3.277671
  H      -3.284614     -0.184986     -4.189587
  H      -6.462348     -2.132198     -4.453466
  H      -7.434290     -1.138241     -3.361375
  H      -6.148102     -2.168164     -2.714170
  H      -3.546155     -0.627459     -0.949208
  H      -5.166705     -1.230578     -0.568733
  H      -4.583163      0.253533      0.189543
  H      -5.344571      5.181266     -0.423826
  H      -5.960356      3.858633     -1.426905
  H      -5.545048      5.913077      2.089829
  H      -3.828066      5.826735      1.653391
  H      -4.332579      5.558510      3.329141
  H      -5.560436      3.954506      4.835796
  H      -4.726378      2.395290      4.751784
  H      -6.438552      2.460594      5.186290
  H      -7.370657      4.533671      3.115990
  H      -8.198674      3.010717      3.466190
  H      -7.741475      3.406277      1.802030
  H      -6.997169      0.822635      3.357792
  H      -5.296154      0.730019      2.881839
  H      -6.528589      1.139077      1.680090
  H      -3.164878      1.648424      1.920953
  H      -2.808526      2.747541      3.263155
  H      -2.338370      3.184954      1.610965
  H      -0.968718      7.265596     -1.258336
  H      -0.177360      7.236144      0.341511
  H      -1.940790      7.003564      0.218663
  H       0.782984      3.964199     -1.620374
69
Coordinates from ORCA-job goat_0_35 E -1780.872400213745
  O      -1.569104      1.180837     -2.416798
  C      -2.025078      2.518345     -2.264090
  H      -2.074327      2.930007     -3.277382
  C      -3.421716      2.573825     -1.646800
  H      -3.392182      2.061022     -0.680124
  O      -4.352012      1.966121     -2.518179
  Si     -5.321306      0.652740     -2.147178
  C      -7.031271      1.239916     -1.661415
  C      -5.415577     -0.371778     -3.733272
  C      -5.870542      0.518702     -4.898930
  C      -4.039934     -0.967710     -4.061670
  C      -6.426410     -1.513149     -3.547043
  C      -4.575519     -0.325230     -0.736346
  C      -3.836829      4.024519     -1.394047
  H      -3.900620      4.553785     -2.356376
  C      -5.185374      4.135649     -0.708927
  O      -5.307774      3.276798      0.406480
  Si     -4.759001      3.551225      1.958876
  C      -4.606406      5.387877      2.283291
  C      -6.076789      2.767247      3.067193
  C      -5.669616      2.902062      4.541335
  C      -7.421320      3.474949      2.847645
  C      -6.230194      1.279376      2.719410
  C      -3.110303      2.701658      2.213032
  O      -2.867982      4.657477     -0.561877
  C      -1.606731      4.741225     -1.195787
  H      -1.714641      5.283920     -2.149974
  O      -0.725743      5.409486     -0.353933
  C      -0.979343      6.812078     -0.263430
  C      -1.043941      3.347427     -1.444572
  H      -0.897409      2.868196     -0.466457
  O       0.183742      3.427154     -2.152243
  H      -1.511531      0.782654     -1.539192
  H      -7.487452      1.845052     -2.449994
  H      -6.977218      1.838488     -0.749483
  H      -7.685388      0.384213     -1.469443
  H      -5.939270     -0.073734     -5.819744
  H      -5.165132      1.335042     -5.077042
  H      -6.855867      0.956898     -4.712681
  H      -4.093136     -1.540964     -4.995658
  H      -3.697932     -1.646772     -3.274754
  H      -3.282919     -0.189227     -4.184063
  H      -6.464356     -2.131430     -4.452252
  H      -7.435667     -1.134741     -3.362059
  H      -6.152057     -2.166315     -2.712545
  H      -3.547261     -0.628046     -0.948677
  H      -5.168092     -1.229511     -0.566835
  H      -4.582522      0.254497      0.190305
  H      -5.344005      5.180911     -0.423304
  H      -5.960213      3.858584     -1.426629
  H      -5.545141      5.912942      2.086331
  H      -3.826817      5.825868      1.655745
  H      -4.336990      5.558618      3.329913
  H      -5.557942      3.949847      4.836794
  H      -4.725585      2.389928      4.749653
  H      -6.437372      2.456334      5.185733
  H      -7.368885      4.533520      3.119233
  H      -8.198214      3.010869      3.467889
  H      -7.742105      3.408528      1.803935
  H      -6.998980      0.821795      3.354553
  H      -5.298130      0.728463      2.878029
  H      -6.530539      1.140293      1.677176
  H      -3.164715      1.647843      1.924817
  H      -2.806079      2.751471      3.262750
  H      -2.339456      3.183666      1.608249
  H      -0.969755      7.266809     -1.259839
  H      -0.178725      7.238208      0.340197
  H      -1.941991      7.004518      0.217011
  H       0.783532      3.964735     -1.620570
69
Coordinates from ORCA-job goat_0_35 E -1780.872393620959
  O      -1.570558      1.182445     -2.419093
  C      -2.026210      2.519923     -2.265352
  H      -2.076292      2.932082     -3.278406
  C      -3.422295      2.575328     -1.646864
  H      -3.391921      2.062586     -0.680182
  O      -4.353113      1.967338     -2.517473
  Si     -5.321779      0.653715     -2.146353
  C      -7.032593      1.240129     -1.662460
  C      -5.414211     -0.372371     -3.731582
  C      -5.866289      0.517120     -4.899077
  C      -4.038728     -0.970259     -4.056900
  C      -6.426674     -1.512378     -3.545495
  C      -4.576208     -0.322757     -0.734215
  C      -3.837240      4.025965     -1.393938
  H      -3.901337      4.555291     -2.356220
  C      -5.185425      4.137323     -0.708230
  O      -5.307813      3.277493      0.406398
  Si     -4.759155      3.550199      1.959124
  C      -4.605297      5.386531      2.284989
  C      -6.077428      2.765881      3.066598
  C      -5.668609      2.896524      4.540672
  C      -7.420829      3.476539      2.849914
  C      -6.233700      1.279122      2.715431
  C      -3.110779      2.699682      2.212394
  O      -2.867798      4.658663     -0.562228
  C      -1.606947      4.742455     -1.196950
  H      -1.715352      5.285184     -2.151061
  O      -0.725543      5.410802     -0.355569
  C      -0.978962      6.813476     -0.265461
  C      -1.044345      3.348722     -1.446312
  H      -0.896974      2.869256     -0.468440
  O       0.182793      3.428575     -2.154971
  H      -1.513573      0.783449     -1.541808
  H      -7.488734      1.843389     -2.452532
  H      -6.979370      1.840626     -0.751746
  H      -7.686386      0.384499     -1.469204
  H      -5.934658     -0.076620     -5.819087
  H      -5.159427      1.332129     -5.077480
  H      -6.851240      0.957040     -4.714889
  H      -4.090648     -1.543426     -4.991018
  H      -3.699686     -1.649880     -3.269193
  H      -3.280253     -0.192910     -4.177620
  H      -6.463648     -2.132018     -4.449821
  H      -7.435810     -1.132493     -3.362999
  H      -6.154663     -2.164537     -2.709439
  H      -3.547819     -0.625407     -0.946278
  H      -5.168455     -1.227058     -0.563756
  H      -4.583325      0.257911      0.191860
  H      -5.343181      5.182475     -0.421718
  H      -5.960704      3.861339     -1.425855
  H      -5.542799      5.912973      2.085880
  H      -3.823597      5.823717      1.659474
  H      -4.338216      5.556539      3.332326
  H      -5.554479      3.943439      4.838310
  H      -4.725428      2.382014      4.746927
  H      -6.436708      2.451014      5.184807
  H      -7.366084      4.534447      3.123640
  H      -8.197987      3.012617      3.469934
  H      -7.742765      3.413045      1.806362
  H      -7.002830      0.821434      3.350082
  H      -5.302448      0.726298      2.872175
  H      -6.535002      1.142956      1.673095
  H      -3.166111      1.645385      1.926148
  H      -2.804763      2.751358      3.261494
  H      -2.340741      3.180285      1.605433
  H      -0.969237      7.267881     -1.262012
  H      -0.178347      7.239658      0.338125
  H      -1.941635      7.006074      0.214877
  H       0.783204      3.965384     -1.623223
