69
Coordinates from ORCA-job goat_0_50 E -1780.867731629550
  O          -1.38539487634431      2.70425254145145     -0.65951442922510
  C          -2.13139110534645      2.63914785162893     -1.86878759152266
  H          -1.93055540156498      1.66276854160091     -2.31482395470798
  C          -3.64394809889548      2.73320596692631     -1.61794962023886
  H          -3.90463762770549      2.07558072112126     -0.78570102181443
  O          -4.28755994624599      2.32004973420398     -2.82536810499638
  Si         -5.47873610856635      1.13948923194437     -2.90975537961300
  C          -6.32978597800133      1.47450964081942     -4.53649495641098
  C          -4.68823611183096     -0.57752430077758     -2.88636068669923
  C          -5.78878787492283     -1.63646328582629     -3.05740758092483
  C          -3.68355443347598     -0.70027026704193     -4.04096297382736
  C          -3.96359490067898     -0.82491543353920     -1.55514634315600
  C          -6.65204543655495      1.35625547246079     -1.47088916168744
  C          -4.11675637669989      4.14518226529908     -1.27850214962008
  H          -5.18921087261399      4.17591550867196     -1.48232764292454
  C          -3.95511628703004      4.52516093802652      0.19559639458959
  O          -4.92060343850559      3.80021689950809      0.94509675261343
  Si         -4.53816605005842      3.01338131929139      2.37140546329233
  C          -3.39721493136125      4.09366612307325      3.39152817507092
  C          -6.18759793555200      2.73588927652481      3.24440221618742
  C          -5.95277379566938      1.90009018892148      4.51164325715307
  C          -6.80063961998264      4.08832377025042      3.63451545970274
  C          -7.15845541270202      1.98840000670349      2.32017005191111
  C          -3.68267050040529      1.39436660535024      1.98526538728090
  O          -3.56592842158353      5.13448721323738     -2.16157904130875
  C          -2.17683997044351      5.09590339030986     -2.39128359593805
  H          -2.00527324666746      5.84039631573017     -3.17535118509263
  O          -1.42753306965924      5.42074494760625     -1.24155035080372
  C          -1.52809375918835      6.79135044891208     -0.85514596740564
  C          -1.69827009167645      3.72082149169130     -2.86256436884529
  H          -0.60764106003624      3.74339326782886     -2.91879401507251
  O          -2.18612455699773      3.45720068008655     -4.16833238426619
  H          -1.19089720146168      3.63488698386026     -0.47706839394864
  H          -6.78481778985295      2.46910797582036     -4.52183604837243
  H          -7.11957504167512      0.74189522743522     -4.72384737942598
  H          -5.62254904001938      1.43420997337051     -5.36924025218825
  H          -6.32814273718010     -1.51316147889113     -4.00117770701524
  H          -6.51793888923427     -1.59723524915643     -2.24250246186863
  H          -5.34472174832097     -2.63924378811794     -3.05715685089299
  H          -3.20874054243601     -1.68885398447077     -4.02301947989872
  H          -2.89292798154678      0.05228346322081     -3.96877019714152
  H          -4.17148737981135     -0.58431112689253     -5.01319667457514
  H          -4.64007478996906     -0.73445127011703     -0.70047196802850
  H          -3.13445304427920     -0.12835194725909     -1.40506887259380
  H          -3.54476103172449     -1.83860142121867     -1.54206678806632
  H          -7.08854789034102      2.35908799997676     -1.48080105547894
  H          -6.15471766673513      1.21343460311819     -0.50907637960956
  H          -7.46807985587363      0.63088720924154     -1.53761783401136
  H          -2.94510379623632      4.33354308970657      0.55923400389431
  H          -4.15242306789080      5.59665049044504      0.29405564813772
  H          -3.25327137311821      3.65944821217858      4.38537704814904
  H          -3.80622101590677      5.10006272969745      3.51542498387227
  H          -2.41317668935377      4.17945070475326      2.92175005037101
  H          -5.54630475769830      0.91262376328357      4.27396022866385
  H          -6.90076923113842      1.75032962038930      5.04245300522321
  H          -5.26175708951690      2.39359704656631      5.20203675153415
  H          -7.77018318116185      3.93481295981842      4.12405490788820
  H          -6.96489902346584      4.72175377378578      2.75774158653226
  H          -6.15945468641161      4.63523712053761      4.33195298430410
  H          -6.76106773241987      1.01518783479387      2.01669785974311
  H          -7.37204476910396      2.56156444393452      1.41429182773647
  H          -8.10862519808841      1.81255886221372      2.83961469636478
  H          -4.33514286603631      0.72209260082385      1.42110614170815
  H          -3.38398781554825      0.88777289265438      2.90781064078339
  H          -2.78267750736069      1.57391774851860      1.38999808707173
  H          -2.55978339592359      7.05894853341917     -0.61674286000670
  H          -1.15978762618738      7.43516277886197     -1.66050512257549
  H          -0.90493711277399      6.91733279805291      0.02934692787097
  H          -3.08797219723027      3.11100159364939     -4.06781154585034
