69
Coordinates from ORCA-job goat_0_2 E -1780.873574211600
  O          -1.14529495780739      1.00879736234616     -1.80265702010168
  C          -1.60969281290032      2.34656538636812     -1.93432568546113
  H          -1.49818631419006      2.68106176155335     -2.97525831914672
  C          -3.08523473161326      2.38355955318259     -1.56960937867717
  H          -3.20740644983167      1.96751329205329     -0.56573283207481
  O          -3.85941403713955      1.66981178465920     -2.50972257255656
  Si         -4.31776646717926      0.06498184898907     -2.38460508710543
  C          -4.05895077765676     -0.54829206483001     -0.63601857591813
  C          -6.14925922695625      0.00165228304210     -2.85680729836309
  C          -6.38887561314520      0.82762258391898     -4.12844710701041
  C          -6.55672403388048     -1.45632286873136     -3.11712721836015
  C          -7.00920998765280      0.56533085274601     -1.71729218670502
  C          -3.31154529078692     -0.94602519740560     -3.59523197598140
  C          -3.57588362466830      3.83255965049814     -1.54872455407565
  H          -3.49132744752446      4.25437760146720     -2.56128249857601
  C          -5.02474740338750      3.94830265535306     -1.11472667717055
  O          -5.30791721087616      3.22014387209800      0.06255060151277
  Si         -5.04077774551602      3.70494194478962      1.63695892177027
  C          -5.02535168885979      5.57298726914912      1.75078874408766
  C          -6.49036895122157      2.96844707910409      2.60453560927927
  C          -6.47796550181609      1.43865085418080      2.46978105436042
  C          -6.37610062927986      3.34614990428532      4.08822853211640
  C          -7.81323101475322      3.51098180245728      2.04595000304993
  C          -3.42344375134672      3.00061472250730      2.26471877140492
  O          -2.78385656116039      4.59735492417998     -0.64331058258553
  C          -1.42808716540337      4.67095290736785     -1.04700431088761
  H          -1.37266145573534      5.10920721023944     -2.05755152075090
  O          -0.73393923740521      5.45656368442229     -0.13618132941205
  C          -1.03001095951270      6.84934006810695     -0.24545999468044
  C          -0.81357060254996      3.27910781640869     -1.03556172725590
  H          -0.84512705010829      2.90192109132063     -0.00618866668560
  O           0.52150166644343      3.29593450732271     -1.52368010252959
  H          -0.20367329339177      1.01220609952843     -2.01322431948286
  H          -4.55674674617767      0.09332209806623      0.09587642688253
  H          -2.99467973706002     -0.59122419962441     -0.39236187877913
  H          -4.47279450514847     -1.55666633206328     -0.53712700191111
  H          -6.14815088310210      1.88218869038102     -3.96927764793025
  H          -7.44281917209751      0.76259298975423     -4.42643149629672
  H          -5.78490273382574      0.46581598791086     -4.96673544631500
  H          -6.36289103981457     -2.09328578034484     -2.24768923674548
  H          -6.02037834050204     -1.87922221255440     -3.97111884231312
  H          -7.63012751156675     -1.51318443017533     -3.33608567894440
  H          -6.71759355937713      1.58454954383289     -1.45195890541417
  H          -6.92929002859444     -0.04801993564484     -0.81516216940580
  H          -8.06501424165501      0.58184229967190     -2.01563000869908
  H          -2.24691653467239     -0.80370957977338     -3.39736632108863
  H          -3.51540361099706     -0.64506686895174     -4.62715313032659
  H          -3.54355103799791     -2.01088908350059     -3.50150904138294
  H          -5.26494243353273      5.00970908701596     -0.99057348746258
  H          -5.65398080666663      3.54791579982682     -1.91249358841225
  H          -4.18078028040137      5.98350093325207      1.19232805623517
  H          -4.92369435262588      5.88054029138700      2.79582050729913
  H          -5.94667122104140      6.01145880719752      1.35741626840069
  H          -7.32488710761583      1.00532019776236      3.01644349640566
  H          -5.56124142146801      1.00440355210897      2.87996398752693
  H          -6.56002787846041      1.12779811050120      1.42458607948448
  H          -5.45246422331443      2.96526472103991      4.53410193374366
  H          -7.21578261243558      2.91932344338256      4.65051151561941
  H          -6.39897359824722      4.43061704545412      4.23262497495143
  H          -8.65992697089043      3.07757977988221      2.59275483257619
  H          -7.93303698308941      3.25959612028345      0.98821527848904
  H          -7.87733865328338      4.59892235308786      2.14472405186280
  H          -2.58199914876935      3.47659013678019      1.75743050507068
  H          -3.36831579090033      1.92316876835919      2.08420348592021
  H          -3.31879603858586      3.17015652846172      3.34056286488151
  H          -0.36600563658764      7.36734894287442      0.44576310502985
  H          -2.06954458637348      7.05075558992585      0.02567751947034
  H          -0.84332394170411      7.20011404769899     -1.26621316481877
  H           1.06193372739567      3.77948030405436     -0.88793848963093
