69
Coordinates from ORCA-job goat_0_53 E -1780.865991940385
  O      -1.473478      2.807969     -0.610156
  C      -2.201910      2.637764     -1.816008
  H      -1.975963      1.641161     -2.201769
  C      -3.713990      2.713890     -1.571839
  H      -3.965535      2.090659     -0.709556
  O      -4.351821      2.239144     -2.754362
  Si     -5.526598      1.061536     -2.895833
  C      -6.214307      1.380957     -4.596987
  C      -4.753327     -0.659048     -2.772506
  C      -5.827658     -1.723831     -3.037249
  C      -3.641744     -0.796800     -3.820468
  C      -4.167999     -0.877681     -1.371086
  C      -6.805064      1.307919     -1.557084
  C      -4.198663      4.134166     -1.294945
  H      -5.274508      4.136057     -1.482118
  C      -4.022917      4.597135      0.151882
  O      -4.894682      3.839015      0.967183
  Si     -4.428934      3.078450      2.375345
  C      -3.279650      4.188990      3.348727
  C      -6.048707      2.777345      3.285259
  C      -7.011882      2.033566      2.352460
  C      -5.805916      1.938942      4.545896
  C      -6.659179      4.129734      3.671468
  C      -3.528908      1.486494      1.999564
  O      -3.675238      5.083145     -2.230669
  C      -2.297173      5.050768     -2.491652
  H      -2.157354      5.735096     -3.334089
  O      -1.529302      5.481722     -1.384645
  C      -1.642741      6.873337     -1.127092
  C      -1.793279      3.660896     -2.877723
  H      -0.703531      3.703034     -2.930438
  O      -2.259997      3.317199     -4.162512
  H      -1.221749      3.739961     -0.542978
  H      -6.989900      0.664500     -4.871920
  H      -5.427635      1.335303     -5.353219
  H      -6.648666      2.382008     -4.634788
  H      -6.628644     -1.692638     -2.294801
  H      -5.383394     -2.723509     -2.993633
  H      -6.279509     -1.612975     -4.025914
  H      -2.870988     -0.031763     -3.701910
  H      -4.035095     -0.715768     -4.836510
  H      -3.157367     -1.774998     -3.734173
  H      -4.933461     -0.796275     -0.594330
  H      -3.373718     -0.163158     -1.138681
  H      -3.732784     -1.879575     -1.296094
  H      -7.393926      2.206773     -1.751321
  H      -6.348151      1.419000     -0.571048
  H      -7.493303      0.461137     -1.509452
  H      -2.987890      4.509382      0.486404
  H      -4.307630      5.653715      0.196459
  H      -2.285137      4.215906      2.897938
  H      -3.160796      3.806029      4.365424
  H      -3.652813      5.212374      3.418718
  H      -7.205787      2.608874      1.445568
  H      -7.968485      1.860016      2.855678
  H      -6.616563      1.057983      2.055379
  H      -6.749634      1.769904      5.074948
  H      -5.127278      2.435296      5.244674
  H      -5.385553      0.958864      4.307215
  H      -7.626358      3.984137      4.163098
  H      -6.820665      4.755208      2.790830
  H      -6.017812      4.680733      4.363932
  H      -3.145831      1.046184      2.923519
  H      -2.674636      1.679899      1.345662
  H      -4.169033      0.745031      1.515650
  H      -1.068435      7.084405     -0.228465
  H      -2.683293      7.161299     -0.970250
  H      -1.231764      7.445483     -1.963880
  H      -3.169524      2.998133     -4.060768
69
Coordinates from ORCA-job goat_0_53 E -1780.866853875927
  O      -1.394368      2.779778     -0.693558
  C      -2.157891      2.633875     -1.883874
  H      -1.942480      1.643746     -2.293175
  C      -3.665491      2.705759     -1.598472
  H      -3.893962      2.074926     -0.737192
  O      -4.335413      2.238750     -2.765702
  Si     -5.509564      1.053106     -2.851064
  C      -6.324860      1.389283     -4.493439
  C      -4.712446     -0.660524     -2.809807
  C      -5.796180     -1.732436     -2.995739
  C      -3.687797     -0.779462     -3.946423
  C      -4.010091     -0.886207     -1.463796
  C      -6.690947      1.268319     -1.419209
  C      -4.158576      4.119795     -1.300436
  H      -5.236138      4.117806     -1.482420
  C      -3.981921      4.566457      0.153386
  O      -4.887865      3.828155      0.956096
  Si     -4.469671      3.076474      2.385534
  C      -3.321983      4.182399      3.367724
  C      -6.113799      2.811236      3.267963
  C      -7.072025      2.048631      2.341120
  C      -5.896750      1.999910      4.550918
  C      -6.724517      4.175017      3.619733
  C      -3.594236      1.459964      2.052443
  O      -3.648769      5.086267     -2.229873
  C      -2.271521      5.063037     -2.509162
  H      -2.142542      5.770842     -3.334398
  O      -1.488151      5.461161     -1.402149
  C      -1.613056      6.843225     -1.080368
  C      -1.775514      3.679490     -2.935826
  H      -0.686690      3.724306     -3.016606
  O      -2.282325      3.350847     -4.215179
  H      -1.157945      3.713478     -0.598621
  H      -7.112309      0.665188     -4.718440
  H      -5.593860      1.359584     -5.306348
  H      -6.773496      2.387207     -4.484130
  H      -6.536048     -1.709645     -2.190158
  H      -5.340168     -2.730112     -2.994114
  H      -6.326441     -1.616626     -3.945752
  H      -2.911987     -0.011537     -3.878286
  H      -4.163490     -0.686842     -4.927409
  H      -3.194233     -1.758378     -3.910733
  H      -4.709148     -0.814269     -0.625154
  H      -3.204141     -0.166323     -1.294632
  H      -3.563217     -1.887700     -1.435083
  H      -7.284730      2.178355     -1.546974
  H      -6.163815      1.346534     -0.464483
  H      -7.381839      0.423479     -1.350082
  H      -2.953767      4.452166      0.497170
  H      -4.237811      5.629640      0.203935
  H      -2.319720      4.196389      2.929042
  H      -3.224029      3.805543      4.390759
  H      -3.687715      5.211165      3.422256
  H      -7.257018      2.601324      1.416751
  H      -8.035933      1.890704      2.840672
  H      -6.676287      1.064459      2.071379
  H      -6.851472      1.852153      5.070630
  H      -5.220945      2.507935      5.246097
  H      -5.481152      1.010220      4.338788
  H      -7.700525      4.041305      4.102281
  H      -6.873512      4.786412      2.725001
  H      -6.088451      4.736187      4.310753
  H      -3.249586      1.020031      2.993823
  H      -2.717596      1.628033      1.421175
  H      -4.238893      0.730370      1.554917
  H      -1.012351      7.022482     -0.189308
  H      -2.653424      7.108625     -0.876883
  H      -1.235944      7.458216     -1.904714
  H      -3.184618      3.015926     -4.087218
69
Coordinates from ORCA-job goat_0_53 E -1780.867320230176
  O      -1.413928      2.760012     -0.676198
  C      -2.156731      2.625269     -1.882962
  H      -1.936590      1.636520     -2.292652
  C      -3.668380      2.700524     -1.622306
  H      -3.910802      2.067211     -0.766698
  O      -4.320962      2.240230     -2.804163
  Si     -5.507165      1.061944     -2.880452
  C      -6.330079      1.376117     -4.525640
  C      -4.718482     -0.654964     -2.817335
  C      -5.809833     -1.721592     -2.990006
  C      -3.691760     -0.795656     -3.950769
  C      -4.018368     -0.869566     -1.467652
  C      -6.686351      1.306972     -1.450012
  C      -4.161813      4.114933     -1.324289
  H      -5.238293      4.117524     -1.512374
  C      -3.983439      4.557191      0.131242
  O      -4.897744      3.824926      0.934506
  Si     -4.472358      3.086051      2.370515
  C      -3.325605      4.211363      3.333590
  C      -6.105944      2.809537      3.275438
  C      -7.069631      2.006563      2.387441
  C      -5.849080      2.028050      4.570614
  C      -6.741813      4.165484      3.617898
  C      -3.590011      1.470699      2.038804
  O      -3.641606      5.083334     -2.248909
  C      -2.255956      5.062606     -2.498007
  H      -2.107926      5.779350     -3.312582
  O      -1.496205      5.444343     -1.371489
  C      -1.637716      6.821263     -1.017464
  C      -1.753180      3.678697     -2.921218
  H      -0.663000      3.722978     -2.985006
  O      -2.244037      3.350118     -4.212201
  H      -1.215129      3.698749     -0.545739
  H      -7.121193      0.648196     -4.730394
  H      -5.602115      1.326178     -5.341240
  H      -6.777900      2.375677     -4.529933
  H      -6.551757     -1.676990     -2.186261
  H      -5.359878     -2.723009     -2.970686
  H      -6.336095     -1.613656     -3.944056
  H      -2.906343     -0.036245     -3.883168
  H      -4.164339     -0.704331     -4.934274
  H      -3.210840     -1.781503     -3.903714
  H      -4.717174     -0.775654     -0.630989
  H      -3.204640     -0.155701     -1.310651
  H      -3.583404     -1.877014     -1.426265
  H      -7.245575      2.240632     -1.572327
  H      -6.159478      1.355678     -0.493867
  H      -7.408131      0.486535     -1.394064
  H      -2.956676      4.429556      0.475602
  H      -4.227135      5.622369      0.188585
  H      -2.332971      4.247286      2.872539
  H      -3.202283      3.834347      4.354635
  H      -3.713370      5.232661      3.394675
  H      -7.290813      2.531967      1.454419
  H      -8.018179      1.841001      2.915814
  H      -6.658426      1.025158      2.130646
  H      -6.791951      1.875638      5.112137
  H      -5.166350      2.563161      5.239244
  H      -5.419897      1.041397      4.368038
  H      -7.704471      4.014967      4.124424
  H      -6.926633      4.760493      2.717668
  H      -6.103044      4.751795      4.286202
  H      -3.246075      1.031180      2.981439
  H      -2.713581      1.641443      1.406173
  H      -4.235315      0.743302      1.538436
  H      -1.038451      6.983249     -0.120808
  H      -2.681396      7.069427     -0.806897
  H      -1.266596      7.459086     -1.827784
  H      -3.142769      3.000554     -4.093262
69
Coordinates from ORCA-job goat_0_53 E -1780.867547737061
  O      -1.396133      2.752782     -0.687746
  C      -2.146919      2.627441     -1.890196
  H      -1.930956      1.639313     -2.301905
  C      -3.657822      2.705338     -1.626580
  H      -3.898698      2.072533     -0.769547
  O      -4.310148      2.243369     -2.809899
  Si     -5.500991      1.064576     -2.861123
  C      -6.364986      1.371396     -4.487533
  C      -4.709605     -0.651625     -2.813498
  C      -5.803882     -1.717403     -2.976544
  C      -3.696345     -0.787933     -3.959541
  C      -3.993533     -0.873986     -1.473083
  C      -6.650816      1.314342     -1.406762
  C      -4.151929      4.120024     -1.329621
  H      -5.226765      4.123411     -1.523705
  C      -3.983514      4.557825      0.127933
  O      -4.910794      3.826593      0.917952
  Si     -4.491812      3.088309      2.357504
  C      -3.350869      4.218405      3.323089
  C      -6.124780      2.804170      3.262547
  C      -7.089861      1.998680      2.379868
  C      -5.855803      2.020757      4.555822
  C      -6.766432      4.154678      3.613899
  C      -3.607928      1.473294      2.021635
  O      -3.627780      5.089439     -2.252757
  C      -2.240362      5.065783     -2.500453
  H      -2.091706      5.784043     -3.313262
  O      -1.476598      5.442252     -1.376402
  C      -1.605047      6.821622     -1.023779
  C      -1.742691      3.681521     -2.926264
  H      -0.653312      3.722227     -2.995907
  O      -2.241710      3.356497     -4.216129
  H      -1.215193      3.693059     -0.543620
  H      -7.158407      0.639599     -4.664477
  H      -5.658077      1.315794     -5.320380
  H      -6.815798      2.368680     -4.485596
  H      -6.537248     -1.671248     -2.165577
  H      -5.354459     -2.718301     -2.962258
  H      -6.338853     -1.606861     -3.924853
  H      -2.907826     -0.032190     -3.892810
  H      -4.179079     -0.687313     -4.936568
  H      -3.219346     -1.775485     -3.923642
  H      -4.681409     -0.779682     -0.627838
  H      -3.174840     -0.164557     -1.324652
  H      -3.563332     -1.883053     -1.442178
  H      -7.179820      2.267984     -1.499961
  H      -6.109164      1.322096     -0.458221
  H      -7.398112      0.516928     -1.361376
  H      -2.962403      4.419114      0.483142
  H      -4.220683      5.623777      0.190779
  H      -2.364966      4.274733      2.851605
  H      -3.212866      3.833040      4.338290
  H      -3.754840      5.232155      3.396626
  H      -7.324672      2.525915      1.451215
  H      -8.031206      1.825517      2.916972
  H      -6.673785      1.021774      2.115049
  H      -6.794286      1.865149      5.102439
  H      -5.170041      2.557106      5.219514
  H      -5.424996      1.036402      4.348143
  H      -7.723076      3.994919      4.127364
  H      -6.963301      4.751879      2.718235
  H      -6.125855      4.742321      4.278766
  H      -3.273473      1.025423      2.962854
  H      -2.727132      1.647177      1.396225
  H      -4.252937      0.754321      1.509466
  H      -0.992462      6.978880     -0.136323
  H      -2.643175      7.076256     -0.799882
  H      -1.240451      7.453002     -1.840917
  H      -3.137060      3.001626     -4.089608
69
Coordinates from ORCA-job goat_0_53 E -1780.867662263023
  O      -1.389449      2.742465     -0.702485
  C      -2.147260      2.628623     -1.901044
  H      -1.934621      1.642298     -2.318210
  C      -3.657959      2.706482     -1.635540
  H      -3.897600      2.070056     -0.780985
  O      -4.307423      2.247245     -2.823205
  Si     -5.501123      1.067451     -2.866069
  C      -6.365196      1.356667     -4.495783
  C      -4.708059     -0.647201     -2.802985
  C      -5.801022     -1.714241     -2.971999
  C      -3.684108     -0.786798     -3.938717
  C      -4.004321     -0.865126     -1.455072
  C      -6.657152      1.329618     -1.419037
  C      -4.151293      4.120381     -1.333583
  H      -5.225760      4.126153     -1.528095
  C      -3.982258      4.552153      0.125085
  O      -4.916592      3.825290      0.911308
  Si     -4.495068      3.088834      2.352424
  C      -3.356227      4.222845      3.316318
  C      -6.123218      2.801254      3.263678
  C      -7.093151      2.000180      2.384810
  C      -5.842911      2.012482      4.552628
  C      -6.762430      4.149519      3.624860
  C      -3.611914      1.474404      2.008427
  O      -3.626313      5.091416     -2.253538
  C      -2.238640      5.067657     -2.497793
  H      -2.088881      5.791095     -3.305576
  O      -1.480046      5.437527     -1.368758
  C      -1.607925      6.815234     -1.012817
  C      -1.742734      3.686412     -2.931643
  H      -0.653830      3.725586     -3.003481
  O      -2.243653      3.371737     -4.222601
  H      -1.217103      3.682328     -0.547368
  H      -7.157983      0.622006     -4.658891
  H      -5.660359      1.288710     -5.328753
  H      -6.816037      2.352873     -4.506509
  H      -6.544934     -1.660828     -2.171556
  H      -5.352460     -2.714303     -2.943204
  H      -6.322750     -1.611521     -3.927836
  H      -2.895301     -0.032972     -3.863473
  H      -4.156094     -0.685777     -4.920309
  H      -3.210026     -1.774776     -3.896740
  H      -4.698958     -0.766900     -0.615974
  H      -3.185662     -0.156617     -1.302407
  H      -3.576042     -1.873952     -1.417464
  H      -7.151296      2.302009     -1.499942
  H      -6.127828      1.298684     -0.464626
  H      -7.431632      0.557872     -1.400016
  H      -2.963091      4.401782      0.481911
  H      -4.209919      5.619923      0.192883
  H      -2.378657      4.298253      2.832185
  H      -3.199371      3.830114      4.325112
  H      -3.774541      5.229120      3.403685
  H      -7.336771      2.533822      1.462517
  H      -8.028804      1.822873      2.928859
  H      -6.678113      1.026007      2.109453
  H      -6.776508      1.856539      5.105955
  H      -5.151319      2.545404      5.212170
  H      -5.415625      1.028708      4.337951
  H      -7.714222      3.986497      4.144644
  H      -6.966660      4.749707      2.733437
  H      -6.117671      4.735040      4.286841
  H      -3.282717      1.016949      2.946009
  H      -2.729219      1.650862      1.387275
  H      -4.258799      0.763686      1.487193
  H      -0.988939      6.970543     -0.130410
  H      -2.644669      7.067139     -0.781561
  H      -1.250217      7.446696     -1.832103
  H      -3.136726      3.011407     -4.095500
69
Coordinates from ORCA-job goat_0_53 E -1780.867706349310
  O      -1.389621      2.741255     -0.700034
  C      -2.149774      2.628032     -1.896886
  H      -1.941223      1.639782     -2.311858
  C      -3.660290      2.710209     -1.632033
  H      -3.901447      2.075013     -0.776962
  O      -4.309856      2.250158     -2.819672
  Si     -5.500604      1.065279     -2.852313
  C      -6.383246      1.353991     -4.471666
  C      -4.699474     -0.645926     -2.801674
  C      -5.791565     -1.716949     -2.951807
  C      -3.695475     -0.781738     -3.955314
  C      -3.970242     -0.861743     -1.466990
  C      -6.645400      1.318634     -1.395580
  C      -4.148442      4.125525     -1.331437
  H      -5.223147      4.135607     -1.524682
  C      -3.975950      4.553655      0.127267
  O      -4.918275      3.833167      0.909699
  Si     -4.501784      3.091846      2.350532
  C      -3.367704      4.221733      3.324538
  C      -6.132357      2.802512      3.254709
  C      -7.101959      2.013911      2.365113
  C      -5.858124      2.001427      4.537493
  C      -6.766661      4.150322      3.624824
  C      -3.619884      1.478590      1.997679
  O      -3.620643      5.093454     -2.251969
  C      -2.233599      5.065001     -2.496965
  H      -2.082456      5.786467     -3.306338
  O      -1.475282      5.436258     -1.367840
  C      -1.592499      6.816919     -1.023148
  C      -1.742649      3.682086     -2.929886
  H      -0.653515      3.716949     -3.002078
  O      -2.244014      3.370650     -4.220309
  H      -1.216585      3.681048     -0.545273
  H      -7.176764      0.617588     -4.622314
  H      -5.689818      1.285964     -5.313995
  H      -6.835574      2.349379     -4.478430
  H      -6.524362     -1.663650     -2.141146
  H      -5.339749     -2.715497     -2.925990
  H      -6.327071     -1.619621     -3.900392
  H      -2.907309     -0.026424     -3.893026
  H      -4.184356     -0.680412     -4.928470
  H      -3.218540     -1.768601     -3.923351
  H      -4.648592     -0.767000     -0.614297
  H      -3.151122     -0.150626     -1.329067
  H      -3.537296     -1.868753     -1.438206
  H      -7.119808      2.302274     -1.452793
  H      -6.115777      1.253539     -0.442931
  H      -7.435063      0.562117     -1.393815
  H      -2.958277      4.391623      0.484290
  H      -4.192780      5.623576      0.197139
  H      -2.392046      4.309459      2.838866
  H      -3.204703      3.819979      4.328629
  H      -3.793322      5.223801      3.422807
  H      -7.341643      2.560023      1.449210
  H      -8.039416      1.832777      2.904625
  H      -6.689438      1.041894      2.078711
  H      -6.793609      1.846021      5.087681
  H      -5.165421      2.524833      5.203324
  H      -5.436177      1.017090      4.315701
  H      -7.721573      3.987306      4.138665
  H      -6.963648      4.758574      2.737322
  H      -6.123068      4.727604      4.294853
  H      -3.298463      1.009022      2.931755
  H      -2.732593      1.658052      1.384005
  H      -4.266652      0.776493      1.464419
  H      -0.968362      6.976333     -0.145226
  H      -2.626712      7.077557     -0.790008
  H      -1.234608      7.438721     -1.849749
  H      -3.137701      3.011471     -4.093978
69
Coordinates from ORCA-job goat_0_53 E -1780.867730295267
  O      -1.387241      2.741535     -0.711619
  C      -2.151170      2.630653     -1.906158
  H      -1.942829      1.644016     -2.325448
  C      -3.661638      2.709309     -1.637117
  H      -3.900465      2.069779     -0.784665
  O      -4.312658      2.253361     -2.825424
  Si     -5.501173      1.065690     -2.860657
  C      -6.372215      1.346789     -4.487085
  C      -4.697876     -0.644025     -2.796943
  C      -5.788315     -1.716482     -2.947295
  C      -3.688181     -0.784535     -3.945065
  C      -3.975445     -0.853391     -1.457850
  C      -6.658846      1.321418     -1.415613
  C      -4.150675      4.122765     -1.329450
  H      -5.226197      4.132761     -1.518815
  C      -3.973905      4.544819      0.131140
  O      -4.917360      3.826868      0.914764
  Si     -4.499646      3.085816      2.355855
  C      -3.362705      4.213439      3.328520
  C      -6.129382      2.803048      3.262484
  C      -7.102373      2.017822      2.373334
  C      -5.858250      2.002269      4.545511
  C      -6.758108      4.154142      3.630496
  C      -3.622521      1.471041      1.999762
  O      -3.626701      5.094528     -2.247496
  C      -2.240610      5.069520     -2.496904
  H      -2.092602      5.793632     -3.304565
  O      -1.480506      5.439251     -1.367849
  C      -1.594652      6.819768     -1.023121
  C      -1.748637      3.689046     -2.936870
  H      -0.659408      3.725522     -3.010497
  O      -2.251398      3.383483     -4.227409
  H      -1.211086      3.680701     -0.556056
  H      -7.165492      0.609677     -4.637669
  H      -5.674782      1.274102     -5.325821
  H      -6.824153      2.342525     -4.502727
  H      -6.526209     -1.659628     -2.141340
  H      -5.336331     -2.714999     -2.913153
  H      -6.318516     -1.625189     -3.899648
  H      -2.901008     -0.027853     -3.883363
  H      -4.172165     -0.688803     -4.921385
  H      -3.209927     -1.770733     -3.906284
  H      -4.657431     -0.755440     -0.608368
  H      -3.157157     -0.141705     -1.318635
  H      -3.541962     -1.860204     -1.422173
  H      -7.118882      2.312271     -1.468110
  H      -6.143779      1.237775     -0.456365
  H      -7.458713      0.575668     -1.433172
  H      -2.956019      4.377713      0.484956
  H      -4.185296      5.615663      0.203932
  H      -2.388639      4.303836      2.839547
  H      -3.194468      3.809586      4.331115
  H      -3.789095      5.214893      3.430864
  H      -7.339726      2.565746      1.457916
  H      -8.040830      1.839640      2.912665
  H      -6.694132      1.044160      2.086375
  H      -6.794195      1.852200      5.096991
  H      -5.162546      2.522776      5.210757
  H      -5.441720      1.015265      4.324740
  H      -7.715520      3.996440      4.141873
  H      -6.949407      4.762406      2.741563
  H      -6.114137      4.729207      4.302110
  H      -3.302820      0.995998      2.931869
  H      -2.734302      1.648596      1.386733
  H      -4.272226      0.773329      1.464168
  H      -0.966012      6.980263     -0.148326
  H      -2.627720      7.081840     -0.785169
  H      -1.240528      7.441746     -1.851570
  H      -3.144540      3.022483     -4.102830
69
Coordinates from ORCA-job goat_0_53 E -1780.867741749976
  O      -1.385970      2.741212     -0.713985
  C      -2.150487      2.630816     -1.908208
  H      -1.943056      1.644466     -2.328677
  C      -3.660761      2.710165     -1.637210
  H      -3.899145      2.071190     -0.784122
  O      -4.314473      2.253968     -2.823562
  Si     -5.500061      1.063633     -2.855415
  C      -6.378991      1.346715     -4.477053
  C      -4.693939     -0.645089     -2.798001
  C      -5.784578     -1.718236     -2.940314
  C      -3.692997     -0.784540     -3.953927
  C      -3.961257     -0.854694     -1.464728
  C      -6.651854      1.313733     -1.405041
  C      -4.149303      4.123863     -1.329374
  H      -5.225118      4.134302     -1.517154
  C      -3.970562      4.545483      0.131363
  O      -4.915842      3.829605      0.914518
  Si     -4.500817      3.086009      2.355082
  C      -3.362520      4.209595      3.330411
  C      -6.132641      2.806640      3.259139
  C      -7.105851      2.023638      2.367432
  C      -5.867143      2.005263      4.542449
  C      -6.759387      4.159348      3.625532
  C      -3.626702      1.470379      1.996919
  O      -3.625951      5.095851     -2.247236
  C      -2.240006      5.070782     -2.496789
  H      -2.091022      5.795801     -3.303394
  O      -1.479971      5.438158     -1.366808
  C      -1.594991      6.817659     -1.018119
  C      -1.748577      3.690287     -2.938508
  H      -0.659281      3.726454     -3.012218
  O      -2.252732      3.385312     -4.228609
  H      -1.205704      3.679755     -0.559404
  H      -7.172623      0.609146     -4.624940
  H      -5.686388      1.276566     -5.320096
  H      -6.832297      2.342102     -4.488737
  H      -6.515655     -1.663344     -2.127944
  H      -5.331608     -2.716676     -2.911544
  H      -6.323315     -1.625998     -3.887958
  H      -2.906562     -0.026288     -3.899297
  H      -4.184794     -0.690448     -4.926613
  H      -3.212435     -1.769897     -3.918443
  H      -4.636366     -0.756568     -0.609758
  H      -3.141567     -0.143530     -1.331570
  H      -3.527932     -1.861877     -1.432224
  H      -7.108476      2.306747     -1.448374
  H      -6.135238      1.220362     -0.447363
  H      -7.454419      0.570836     -1.426764
  H      -2.952969      4.375664      0.484543
  H      -4.178907      5.616992      0.204102
  H      -2.387443      4.299033      2.842886
  H      -3.195883      3.803850      4.332672
  H      -3.786779      5.211941      3.434100
  H      -7.340375      2.572569      1.451763
  H      -8.045904      1.846567      2.904658
  H      -6.699029      1.049231      2.080786
  H      -6.804808      1.857388      5.091938
  H      -5.171664      2.523917      5.209572
  H      -5.452464      1.017108      4.322622
  H      -7.719654      4.004170      4.132631
  H      -6.945055      4.768730      2.736046
  H      -6.116850      4.732263      4.300473
  H      -3.309216      0.991413      2.927957
  H      -2.737104      1.647108      1.385469
  H      -4.277322      0.775578      1.458554
  H      -0.965352      6.977014     -0.143640
  H      -2.628092      7.078271     -0.777708
  H      -1.242836      7.443168     -1.844915
  H      -3.146092      3.024980     -4.103913
69
Coordinates from ORCA-job goat_0_53 E -1780.867742072367
  O      -1.388647      2.740863     -0.713172
  C      -2.151907      2.630669     -1.908207
  H      -1.944603      1.644541     -2.329188
  C      -3.662041      2.710883     -1.637343
  H      -3.900993      2.072342     -0.784080
  O      -4.316781      2.255216     -2.823234
  Si     -5.499751      1.062807     -2.855154
  C      -6.380909      1.346407     -4.475477
  C      -4.691599     -0.645092     -2.799565
  C      -5.782022     -1.718904     -2.938509
  C      -3.693970     -0.784056     -3.958373
  C      -3.954874     -0.854033     -1.468499
  C      -6.650444      1.309094     -1.403337
  C      -4.149599      4.124949     -1.329015
  H      -5.225429      4.136045     -1.516403
  C      -3.970531      4.545935      0.132119
  O      -4.916064      3.830259      0.915168
  Si     -4.501668      3.085514      2.355260
  C      -3.361572      4.207062      3.330593
  C      -6.134015      2.808295      3.259598
  C      -7.107562      2.023956      2.369009
  C      -5.869936      2.009126      4.544357
  C      -6.760585      4.161969      3.623276
  C      -3.629449      1.469286      1.996153
  O      -3.625865      5.097260     -2.246589
  C      -2.239931      5.071407     -2.496464
  H      -2.090267      5.796270     -3.303051
  O      -1.478427      5.437753     -1.367199
  C      -1.591585      6.817277     -1.017624
  C      -1.749308      3.690444     -2.938127
  H      -0.659986      3.726042     -3.011431
  O      -2.253788      3.385116     -4.228220
  H      -1.206372      3.679134     -0.559242
  H      -7.174012      0.608220     -4.623468
  H      -5.689752      1.278446     -5.319907
  H      -6.835797      2.341164     -4.485162
  H      -6.509641     -1.665611     -2.122912
  H      -5.328266     -2.717109     -2.913068
  H      -6.325055     -1.625730     -3.883659
  H      -2.908648     -0.024335     -3.907107
  H      -4.189002     -0.691908     -4.929641
  H      -3.211484     -1.768523     -3.923348
  H      -4.627203     -0.754808     -0.611455
  H      -3.134323     -0.143259     -1.338301
  H      -3.522130     -1.861526     -1.436465
  H      -7.105464      2.303067     -1.441635
  H      -6.134372      1.210029     -0.445953
  H      -7.454228      0.567544     -1.428940
  H      -2.952981      4.375439      0.485054
  H      -4.178395      5.617469      0.205263
  H      -2.386149      4.295144      2.843447
  H      -3.195783      3.800774      4.332829
  H      -3.783932      5.210218      3.434747
  H      -7.341895      2.570924      1.452103
  H      -8.047734      1.848116      2.906451
  H      -6.700951      1.048787      2.084564
  H      -6.807889      1.862163      5.093615
  H      -5.174702      2.528785      5.211013
  H      -5.455026      1.020565      4.326440
  H      -7.721693      4.008112      4.129201
  H      -6.944668      4.770391      2.732788
  H      -6.118490      4.735300      4.298361
  H      -3.312688      0.988440      2.926519
  H      -2.739464      1.645446      1.385072
  H      -4.280696      0.775870      1.456688
  H      -0.960738      6.975578     -0.143770
  H      -2.623967      7.079079     -0.775524
  H      -1.239807      7.443323     -1.844189
  H      -3.147656      3.026188     -4.103725
69
Coordinates from ORCA-job goat_0_53 E -1780.867738954144
  O      -1.390191      2.739208     -0.713736
  C      -2.153187      2.630493     -1.909055
  H      -1.946301      1.644777     -2.331099
  C      -3.663107      2.711639     -1.637789
  H      -3.902261      2.073441     -0.784294
  O      -4.319131      2.256658     -2.823268
  Si     -5.499554      1.062111     -2.854687
  C      -6.383219      1.345181     -4.473782
  C      -4.689138     -0.644811     -2.800465
  C      -5.778880     -1.719583     -2.937968
  C      -3.693205     -0.782489     -3.960858
  C      -3.950206     -0.853498     -1.470596
  C      -6.649185      1.305252     -1.401394
  C      -4.149670      4.126013     -1.328945
  H      -5.225466      4.137772     -1.516377
  C      -3.970653      4.546571      0.132310
  O      -4.916544      3.830966      0.914978
  Si     -4.502761      3.085195      2.354667
  C      -3.360559      4.204731      3.329756
  C      -6.135308      2.810204      3.259694
  C      -7.109702      2.025424      2.370401
  C      -5.871608      2.012379      4.545396
  C      -6.760788      4.164779      3.621937
  C      -3.633021      1.467924      1.994760
  O      -3.625413      5.098541     -2.246152
  C      -2.239559      5.071743     -2.496116
  H      -2.089356      5.796933     -3.302308
  O      -1.477215      5.436657     -1.367064
  C      -1.589725      6.815768     -1.015731
  C      -1.750001      3.690632     -2.938304
  H      -0.660728      3.725620     -3.011903
  O      -2.255140      3.385604     -4.228336
  H      -1.206257      3.677140     -0.559839
  H      -7.175401      0.606003     -4.621484
  H      -5.693382      1.279218     -5.319405
  H      -6.839979      2.339069     -4.481762
  H      -6.504227     -1.668153     -2.120275
  H      -5.324037     -2.717299     -2.915308
  H      -6.324645     -1.625541     -3.881423
  H      -2.909175     -0.021353     -3.911162
  H      -4.190102     -0.691585     -4.931261
  H      -3.208913     -1.766041     -3.926241
  H      -4.621040     -0.754049     -0.612437
  H      -3.129413     -0.142753     -1.341893
  H      -3.517513     -1.860979     -1.439150
  H      -7.102235      2.300241     -1.434960
  H      -6.133468      1.200620     -0.444428
  H      -7.454449      0.565428     -1.430568
  H      -2.953233      4.375546      0.485371
  H      -4.178363      5.618092      0.205795
  H      -2.385181      4.291685      2.842441
  H      -3.195148      3.797691      4.331726
  H      -3.781224      5.208497      3.434787
  H      -7.344073      2.570985      1.452683
  H      -8.049705      1.851126      2.908518
  H      -6.703783      1.049535      2.087453
  H      -6.809495      1.866104      5.094810
  H      -5.176198      2.532594      5.211391
  H      -5.456729      1.023571      4.328549
  H      -7.721852      4.012166      4.128196
  H      -6.944628      4.772504      2.730974
  H      -6.117892      4.738196      4.296188
  H      -3.317419      0.985288      2.924540
  H      -2.742538      1.643303      1.384198
  H      -4.285064      0.776212      1.454067
  H      -0.957847      6.972729     -0.142420
  H      -2.621670      7.077538     -0.771979
  H      -1.238741      7.442756     -1.841863
  H      -3.149359      3.027693     -4.103542
69
Coordinates from ORCA-job goat_0_53 E -1780.867744076262
  O      -1.392176      2.738269     -0.712902
  C      -2.154705      2.630236     -1.908612
  H      -1.947947      1.644603     -2.330889
  C      -3.664565      2.712163     -1.637677
  H      -3.904186      2.074247     -0.784102
  O      -4.321021      2.257752     -2.823184
  Si     -5.499690      1.061739     -2.855039
  C      -6.383607      1.344186     -4.474147
  C      -4.687813     -0.644513     -2.800946
  C      -5.776837     -1.720045     -2.938890
  C      -3.691673     -0.781146     -3.961293
  C      -3.948909     -0.853113     -1.471017
  C      -6.649899      1.302992     -1.401716
  C      -4.150245      4.126832     -1.328821
  H      -5.225972      4.139144     -1.516634
  C      -3.971385      4.547423      0.132336
  O      -4.917021      3.831547      0.915073
  Si     -4.503175      3.085221      2.354397
  C      -3.359499      4.203605      3.329122
  C      -6.135526      2.811310      3.260201
  C      -7.110742      2.026971      2.371587
  C      -5.871407      2.013455      4.545899
  C      -6.759846      4.166286      3.622774
  C      -3.634991      1.467229      1.994027
  O      -3.625242      5.099131     -2.245940
  C      -2.239448      5.071396     -2.495898
  H      -2.088938      5.796442     -3.302188
  O      -1.476761      5.436022     -1.367008
  C      -1.588770      6.815110     -1.015553
  C      -1.750699      3.690026     -2.937763
  H      -0.661433      3.724465     -3.011503
  O      -2.255832      3.384959     -4.227838
  H      -1.207390      3.676074     -0.559262
  H      -7.174885      0.604229     -4.622473
  H      -5.693659      1.279637     -5.319759
  H      -6.841625      2.337477     -4.481395
  H      -6.501812     -1.669742     -2.120829
  H      -5.321141     -2.717355     -2.917226
  H      -6.323006     -1.625757     -3.882053
  H      -2.908440     -0.019238     -3.911477
  H      -4.188698     -0.690659     -4.931643
  H      -3.206443     -1.764205     -3.926706
  H      -4.619786     -0.753933     -0.612888
  H      -3.128353     -0.142127     -1.342259
  H      -3.515898     -1.860421     -1.439748
  H      -7.102229      2.298337     -1.433127
  H      -6.134783      1.195669     -0.444733
  H      -7.455681      0.563831     -1.433147
  H      -2.953918      4.376692      0.485429
  H      -4.179612      5.618834      0.205844
  H      -2.384214      4.289671      2.841548
  H      -3.194292      3.796106      4.330919
  H      -3.779032      5.207765      3.434692
  H      -7.345165      2.572260      1.453734
  H      -8.050578      1.853660      2.910255
  H      -6.705537      1.050719      2.088905
  H      -6.809099      1.867222      5.095579
  H      -5.175710      2.533626      5.211578
  H      -5.456634      1.024654      4.328917
  H      -7.720352      4.014233      4.130193
  H      -6.944423      4.773966      2.731967
  H      -6.115729      4.739431      4.296067
  H      -3.320027      0.983759      2.923543
  H      -2.744254      1.642209      1.383726
  H      -4.287476      0.776429      1.452706
  H      -0.956580      6.971647     -0.142427
  H      -2.620537      7.077150     -0.771491
  H      -1.237783      7.441862     -1.841832
  H      -3.150421      3.027956     -4.103021
