69
Coordinates from ORCA-job goat_0_25 E -1780.869636453128
  O      -1.165355      1.011757     -1.816044
  C      -1.648471      2.336701     -1.961566
  H      -1.545856      2.669996     -3.002764
  C      -3.116829      2.415468     -1.566648
  H      -3.227854      1.996160     -0.561054
  O      -3.910527      1.718343     -2.498980
  Si     -4.456402      0.143605     -2.425567
  C      -4.226601     -0.544509     -0.710181
  C      -6.273890      0.202153     -2.928944
  C      -6.448689      1.180703     -4.094113
  C      -6.771756     -1.181238     -3.358883
  C      -7.108217      0.682656     -1.735508
  C      -3.450794     -0.852740     -3.653841
  C      -3.585631      3.863983     -1.525466
  H      -3.506745      4.296907     -2.534163
  C      -5.020893      3.994522     -1.063626
  O      -5.288922      3.252652      0.102602
  Si     -4.910582      3.631102      1.682071
  C      -4.862309      5.481943      1.914663
  C      -6.295723      2.828574      2.677959
  C      -7.637661      3.447719      2.278259
  C      -6.333413      1.329276      2.365295
  C      -6.067104      3.030372      4.178908
  C      -3.257214      2.911236      2.162435
  O      -2.771459      4.594012     -0.617993
  C      -1.419229      4.634242     -1.016855
  H      -1.346016      5.126732     -2.003241
  O      -0.698761      5.343685     -0.068683
  C      -1.002496      6.730242     -0.038195
  C      -0.807832      3.242273     -1.087193
  H      -0.789544      2.833568     -0.069187
  O       0.491166      3.317652     -1.635312
  H      -1.466609      0.499133     -2.572376
  H      -4.717438      0.070124      0.047325
  H      -3.163165     -0.609051     -0.469424
  H      -4.645046     -1.552546     -0.648160
  H      -5.875377      0.869994     -4.971518
  H      -6.124374      2.184987     -3.818624
  H      -7.502222      1.232960     -4.388769
  H      -6.277149     -1.525380     -4.269084
  H      -7.846121     -1.142937     -3.566660
  H      -6.617933     -1.934324     -2.581286
  H      -8.147543      0.843278     -2.042541
  H      -6.731339      1.620552     -1.319882
  H      -7.115181     -0.058840     -0.932799
  H      -3.192207     -0.244186     -4.523548
  H      -3.990893     -1.730878     -4.010838
  H      -2.524989     -1.221592     -3.203958
  H      -5.246905      5.056379     -0.919875
  H      -5.672635      3.618544     -1.853001
  H      -4.069444      5.905269      1.295496
  H      -4.631221      5.719965      2.955957
  H      -5.804368      5.969636      1.656994
  H      -7.820613      3.329138      1.208149
  H      -7.678991      4.512670      2.518990
  H      -8.458391      2.957474      2.813472
  H      -7.149440      0.845791      2.913815
  H      -5.404081      0.830960      2.652876
  H      -6.502073      1.158347      1.299980
  H      -5.131940      2.574294      4.511534
  H      -6.878930      2.565935      4.749401
  H      -6.043053      4.089607      4.447367
  H      -3.182491      1.850823      1.909270
  H      -3.085280      3.013203      3.236553
  H      -2.460523      3.447414      1.645661
  H      -0.363572      7.177275      0.719053
  H      -2.048058      6.897580      0.224857
  H      -0.794490      7.192901     -1.008252
  H       1.020537      3.871366     -1.050381
69
Coordinates from ORCA-job goat_0_25 E -1780.870736650772
  O      -1.062549      1.097085     -2.025862
  C      -1.601078      2.412172     -2.081355
  H      -1.555958      2.793404     -3.110082
  C      -3.054446      2.433194     -1.616240
  H      -3.108325      1.984599     -0.620538
  O      -3.875580      1.734451     -2.525726
  Si     -4.437768      0.167167     -2.405228
  C      -4.205610     -0.468490     -0.667143
  C      -6.262956      0.231995     -2.888488
  C      -6.436813      1.115232     -4.132451
  C      -6.796110     -1.173659     -3.193969
  C      -7.067868      0.831083     -1.725189
  C      -3.460038     -0.885165     -3.612383
  C      -3.556594      3.871581     -1.514441
  H      -3.518428      4.335233     -2.511793
  C      -4.987310      3.963408     -1.014266
  O      -5.247734      3.183481      0.133754
  Si     -4.914826      3.532008      1.730738
  C      -4.805959      5.379675      1.985269
  C      -6.373655      2.781634      2.665931
  C      -7.676700      3.449392      2.205875
  C      -6.450943      1.276753      2.367681
  C      -6.202010      2.992511      4.175382
  C      -3.316701      2.733022      2.277701
  O      -2.724558      4.597996     -0.615820
  C      -1.390090      4.686781     -1.071600
  H      -1.374421      5.198492     -2.049756
  O      -0.643856      5.401164     -0.141558
  C      -0.955125      6.790941     -0.099683
  C      -0.749553      3.308264     -1.202035
  H      -0.689896      2.867890     -0.198240
  O       0.538881      3.423373     -1.780746
  H      -1.364606      0.617016     -2.803903
  H      -4.680049      0.180580      0.072976
  H      -3.141197     -0.544737     -0.430025
  H      -4.644140     -1.466776     -0.570514
  H      -5.871173      0.725977     -4.985613
  H      -6.102975      2.138420     -3.945825
  H      -7.493554      1.149883     -4.424864
  H      -6.322345     -1.603287     -4.080335
  H      -7.875301     -1.130200     -3.386133
  H      -6.639840     -1.862880     -2.357308
  H      -8.111707      0.982073     -2.027155
  H      -6.667666      1.796062     -1.401451
  H      -7.068209      0.164481     -0.857871
  H      -3.222246     -0.315550     -4.515784
  H      -4.012578     -1.777580     -3.916502
  H      -2.521270     -1.233727     -3.169789
  H      -5.225319      5.018212     -0.836024
  H      -5.645727      3.604858     -1.808394
  H      -3.968381      5.780613      1.409318
  H      -4.620168      5.599448      3.041227
  H      -5.716977      5.903353      1.684671
  H      -7.824642      3.328415      1.128870
  H      -7.685530      4.519432      2.434306
  H      -8.536448      2.996177      2.715050
  H      -7.303405      0.828896      2.893870
  H      -5.548687      0.751194      2.695074
  H      -6.585520      1.092667      1.298866
  H      -5.298675      2.504595      4.552912
  H      -7.056732      2.566255      4.715245
  H      -6.146289      4.054824      4.433366
  H      -3.282134      1.671614      2.015917
  H      -3.192936      2.817194      3.361781
  H      -2.471718      3.233665      1.802727
  H      -0.285227      7.243464      0.630844
  H      -1.990934      6.953860      0.207391
  H      -0.790146      7.252317     -1.080099
  H       1.073868      3.968136     -1.190598
69
Coordinates from ORCA-job goat_0_25 E -1780.871330256070
  O      -1.101836      1.094516     -2.071510
  C      -1.631880      2.416742     -2.084155
  H      -1.583521      2.825709     -3.101895
  C      -3.085566      2.438315     -1.616314
  H      -3.139594      1.974410     -0.627764
  O      -3.903992      1.747716     -2.537361
  Si     -4.445657      0.170082     -2.431058
  C      -4.226472     -0.469239     -0.689889
  C      -6.267992      0.195958     -2.937276
  C      -6.454497      1.096403     -4.169398
  C      -6.748857     -1.222880     -3.273613
  C      -7.111400      0.736820     -1.771551
  C      -3.439841     -0.865341     -3.631662
  C      -3.570946      3.884849     -1.494815
  H      -3.521908      4.364638     -2.483928
  C      -5.001017      3.999175     -0.999268
  O      -5.269217      3.215488      0.144306
  Si     -4.916150      3.560972      1.737277
  C      -4.799937      5.410306      1.991526
  C      -6.361793      2.814488      2.701539
  C      -7.677198      3.460425      2.239198
  C      -6.426710      1.299275      2.447623
  C      -6.177716      3.068416      4.204506
  C      -3.309742      2.751461      2.249993
  O      -2.730460      4.585565     -0.580068
  C      -1.394612      4.668157     -1.035742
  H      -1.374288      5.185149     -2.010164
  O      -0.641532      5.370636     -0.099743
  C      -0.918253      6.771509     -0.076529
  C      -0.773972      3.280408     -1.175973
  H      -0.734492      2.822710     -0.178330
  O       0.528891      3.379102     -1.732691
  H      -1.393939      0.648764     -2.873753
  H      -4.720606      0.170912      0.045254
  H      -3.164161     -0.532103     -0.436452
  H      -4.653556     -1.474158     -0.604859
  H      -5.852836      0.749177     -5.017149
  H      -6.172430      2.131312     -3.957117
  H      -7.505917      1.087831     -4.484867
  H      -6.248793     -1.620993     -4.161167
  H      -7.827650     -1.213287     -3.476974
  H      -6.575666     -1.920193     -2.446043
  H      -8.154246      0.865367     -2.089484
  H      -6.746331      1.700154     -1.409958
  H      -7.106852      0.043990     -0.924819
  H      -3.227474     -0.299795     -4.544950
  H      -3.967883     -1.778899     -3.919547
  H      -2.485683     -1.173605     -3.191239
  H      -5.216675      5.056943     -0.809382
  H      -5.664859      3.659317     -1.797838
  H      -3.967907      5.813329      1.407706
  H      -4.607547      5.629323      3.047076
  H      -5.714512      5.932474      1.696962
  H      -7.840757      3.309202      1.167537
  H      -7.689931      4.537322      2.436265
  H      -8.526172      3.015834      2.774780
  H      -7.268899      0.859686      2.998221
  H      -5.514426      0.793566      2.780116
  H      -6.569291      1.078148      1.386813
  H      -5.266097      2.598163      4.586573
  H      -7.024808      2.650733      4.764031
  H      -6.126624      4.138515      4.432076
  H      -3.292765      1.689825      1.986190
  H      -3.164478      2.834895      3.331965
  H      -2.468578      3.242184      1.753795
  H      -0.235984      7.216167      0.648948
  H      -1.950458      6.964488      0.228271
  H      -0.741027      7.213797     -1.063947
  H       1.062813      3.905288     -1.124345
69
Coordinates from ORCA-job goat_0_25 E -1780.871565108099
  O      -1.096210      1.091173     -2.066894
  C      -1.622692      2.414318     -2.067398
  H      -1.558526      2.837364     -3.078228
  C      -3.082645      2.428787     -1.620720
  H      -3.150957      1.957960     -0.635794
  O      -3.887052      1.745177     -2.558976
  Si     -4.444034      0.171750     -2.449158
  C      -4.216860     -0.470079     -0.708198
  C      -6.272148      0.217656     -2.935727
  C      -6.457948      1.094085     -4.183836
  C      -6.774560     -1.202231     -3.236619
  C      -7.098162      0.795089     -1.775501
  C      -3.468590     -0.880717     -3.660719
  C      -3.568951      3.873478     -1.496866
  H      -3.503312      4.363790     -2.479715
  C      -5.004604      3.983528     -1.022870
  O      -5.271198      3.202223      0.121777
  Si     -4.920034      3.569716      1.709856
  C      -4.844152      5.424724      1.947244
  C      -6.342435      2.803432      2.696083
  C      -7.675443      3.412945      2.236651
  C      -6.378334      1.284284      2.468788
  C      -6.150185      3.084450      4.193679
  C      -3.290746      2.795868      2.210375
  O      -2.742987      4.560859     -0.558711
  C      -1.401089      4.649773     -0.994811
  H      -1.367095      5.171650     -1.965810
  O      -0.667239      5.348688     -0.042424
  C      -0.936948      6.751740     -0.035245
  C      -0.780621      3.262504     -1.130278
  H      -0.763821      2.795952     -0.136352
  O       0.534019      3.362938     -1.658852
  H      -1.362827      0.667421     -2.889142
  H      -4.690546      0.180731      0.030222
  H      -3.153874     -0.554103     -0.464457
  H      -4.663332     -1.465715     -0.618939
  H      -5.862872      0.725922     -5.026672
  H      -6.167620      2.130813     -3.992808
  H      -7.510697      1.087254     -4.493271
  H      -6.291224     -1.624835     -4.121591
  H      -7.855298     -1.183282     -3.424761
  H      -6.597066     -1.883357     -2.397206
  H      -8.143284      0.921104     -2.085104
  H      -6.723433      1.766076     -1.444680
  H      -7.086524      0.125954     -0.910248
  H      -3.285210     -0.330803     -4.589534
  H      -4.003876     -1.798966     -3.916173
  H      -2.501771     -1.177128     -3.242280
  H      -5.225064      5.040568     -0.836894
  H      -5.657883      3.635395     -1.826563
  H      -4.024118      5.844030      1.358792
  H      -4.658461      5.657514      3.000409
  H      -5.772231      5.919559      1.648109
  H      -7.849192      3.237837      1.170776
  H      -7.706632      4.492915      2.411714
  H      -8.507860      2.962683      2.792200
  H      -7.202069      0.837803      3.040328
  H      -5.450298      0.804925      2.795184
  H      -6.532337      1.039995      1.414369
  H      -5.223656      2.642911      4.573450
  H      -6.981179      2.654565      4.766917
  H      -6.123509      4.158196      4.404637
  H      -3.262528      1.731372      1.960612
  H      -3.132833      2.896987      3.288569
  H      -2.464066      3.290242      1.693196
  H      -0.262337      7.197752      0.695413
  H      -1.972182      6.951155      0.254058
  H      -0.743859      7.182599     -1.023885
  H       1.052144      3.886645     -1.035543
69
Coordinates from ORCA-job goat_0_25 E -1780.871704864460
  O      -1.100519      1.096278     -2.082163
  C      -1.619281      2.421729     -2.079159
  H      -1.560527      2.845048     -3.090016
  C      -3.076148      2.437866     -1.623873
  H      -3.139293      1.966326     -0.639067
  O      -3.885346      1.757428     -2.560413
  Si     -4.439841      0.182467     -2.444012
  C      -4.201497     -0.457593     -0.703080
  C      -6.271248      0.220574     -2.920071
  C      -6.466385      1.092586     -4.168183
  C      -6.765952     -1.203196     -3.215819
  C      -7.098198      0.794588     -1.759998
  C      -3.474411     -0.872006     -3.661126
  C      -3.558648      3.881900     -1.494398
  H      -3.496923      4.375496     -2.475788
  C      -4.990559      3.991973     -1.011727
  O      -5.255877      3.197746      0.125320
  Si     -4.920949      3.559035      1.718820
  C      -4.844219      5.413337      1.965872
  C      -6.358206      2.796574      2.686514
  C      -7.682700      3.410809      2.212393
  C      -6.398237      1.279260      2.457185
  C      -6.181256      3.074225      4.186493
  C      -3.302537      2.771787      2.236537
  O      -2.725173      4.563642     -0.559926
  C      -1.387016      4.653118     -1.007624
  H      -1.361496      5.174763     -1.978905
  O      -0.648211      5.352551     -0.061060
  C      -0.913716      6.756096     -0.061073
  C      -0.769234      3.265854     -1.146382
  H      -0.746260      2.799148     -0.153337
  O       0.540204      3.366308     -1.685882
  H      -1.364350      0.680036     -2.908813
  H      -4.669067      0.195727      0.036901
  H      -3.137855     -0.544736     -0.465145
  H      -4.650467     -1.451354     -0.610749
  H      -5.871006      0.728130     -5.011649
  H      -6.182842      2.131034     -3.978141
  H      -7.519596      1.079127     -4.474145
  H      -6.285915     -1.624084     -4.102874
  H      -7.847401     -1.191486     -3.396517
  H      -6.578305     -1.881074     -2.376663
  H      -8.146103      0.903376     -2.065066
  H      -6.735964      1.773269     -1.438937
  H      -7.072134      0.132505     -0.889837
  H      -3.325276     -0.336147     -4.603620
  H      -3.999954     -1.803253     -3.885339
  H      -2.492734     -1.141675     -3.261466
  H      -5.207733      5.047465     -0.815201
  H      -5.646924      3.653860     -1.816454
  H      -4.014327      5.835203      1.394613
  H      -4.679102      5.641144      3.022952
  H      -5.766945      5.908637      1.651828
  H      -7.845967      3.234720      1.145535
  H      -7.710473      4.490920      2.384852
  H      -8.522282      2.965385      2.760095
  H      -7.229964      0.836247      3.018783
  H      -5.476032      0.795969      2.792919
  H      -6.541354      1.036559      1.400620
  H      -5.258498      2.632820      4.574508
  H      -7.017415      2.642067      4.749453
  H      -6.158344      4.146905      4.400343
  H      -3.281216      1.708032      1.983458
  H      -3.157767      2.867410      3.316776
  H      -2.466561      3.259782      1.731659
  H      -0.230247      7.204614      0.658635
  H      -1.944975      6.959140      0.238241
  H      -0.730391      7.178150     -1.054673
  H       1.059987      3.895469     -1.068976
69
Coordinates from ORCA-job goat_0_25 E -1780.871785590435
  O      -1.095343      1.103345     -2.087222
  C      -1.615424      2.428385     -2.083203
  H      -1.558445      2.852900     -3.093489
  C      -3.073059      2.439218     -1.628130
  H      -3.134583      1.965563     -0.644698
  O      -3.880275      1.760348     -2.568249
  Si     -4.438166      0.185790     -2.445508
  C      -4.205769     -0.450474     -0.701873
  C      -6.268583      0.222492     -2.925755
  C      -6.459885      1.093207     -4.174810
  C      -6.758390     -1.203135     -3.222588
  C      -7.102758      0.794517     -1.770979
  C      -3.478365     -0.876678     -3.658921
  C      -3.561134      3.880349     -1.492130
  H      -3.504407      4.378275     -2.471633
  C      -4.991131      3.981922     -1.001660
  O      -5.246019      3.179361      0.132615
  Si     -4.912397      3.543606      1.726131
  C      -4.820653      5.398185      1.968284
  C      -6.359953      2.800347      2.693258
  C      -7.677192      3.420236      2.207917
  C      -6.410854      1.282046      2.476222
  C      -6.186899      3.088736      4.191602
  C      -3.305387      2.736359      2.249864
  O      -2.726718      4.561510     -0.558297
  C      -1.389892      4.658508     -1.010345
  H      -1.371427      5.180027     -1.981805
  O      -0.652748      5.362702     -0.066600
  C      -0.923127      6.765340     -0.068734
  C      -0.766496      3.274218     -1.151255
  H      -0.740605      2.807118     -0.158740
  O       0.541097      3.380568     -1.693587
  H      -1.343130      0.694321     -2.922323
  H      -4.671014      0.208787      0.034594
  H      -3.143853     -0.545170     -0.460417
  H      -4.662820     -1.440444     -0.608804
  H      -5.860589      0.730447     -5.016074
  H      -6.178397      2.131774     -3.982408
  H      -7.511954      1.079927     -4.484700
  H      -6.276042     -1.622795     -4.108882
  H      -7.839530     -1.194239     -3.404923
  H      -6.570463     -1.880241     -2.382913
  H      -8.150684      0.892421     -2.079655
  H      -6.749837      1.778198     -1.454330
  H      -7.073466      0.137148     -0.897371
  H      -3.364311     -0.363119     -4.618289
  H      -3.990794     -1.823567     -3.844153
  H      -2.482362     -1.115082     -3.275947
  H      -5.212311      5.035236     -0.798612
  H      -5.650413      3.645025     -1.804467
  H      -3.982058      5.813657      1.405056
  H      -4.667263      5.628150      3.026515
  H      -5.737350      5.896959      1.642166
  H      -7.837620      3.233452      1.142476
  H      -7.696997      4.502440      2.368040
  H      -8.522356      2.987492      2.757161
  H      -7.250607      0.850392      3.034660
  H      -5.495199      0.793775      2.822627
  H      -6.547378      1.031956      1.420519
  H      -5.266149      2.648693      4.585652
  H      -7.025549      2.661608      4.754705
  H      -6.163482      4.162800      4.397960
  H      -3.301643      1.671631      1.999624
  H      -3.161588      2.832364      3.330166
  H      -2.461535      3.209398      1.744973
  H      -0.233999      7.218971      0.642286
  H      -1.952123      6.964448      0.240810
  H      -0.751934      7.183978     -1.065835
  H       1.056623      3.919930     -1.081610
69
Coordinates from ORCA-job goat_0_25 E -1780.871856260632
  O      -1.085680      1.087431     -2.084546
  C      -1.600296      2.415223     -2.082962
  H      -1.538437      2.840259     -3.092598
  C      -3.060834      2.428995     -1.634565
  H      -3.127349      1.951546     -0.653725
  O      -3.866120      1.758486     -2.583747
  Si     -4.435208      0.186173     -2.460614
  C      -4.185317     -0.466880     -0.725494
  C      -6.271753      0.234857     -2.917609
  C      -6.473788      1.122227     -4.153281
  C      -6.764969     -1.187080     -3.228908
  C      -7.096767      0.791653     -1.749835
  C      -3.509248     -0.878022     -3.696332
  C      -3.547957      3.869923     -1.490408
  H      -3.490769      4.372417     -2.467550
  C      -4.977653      3.969695     -0.995801
  O      -5.226739      3.166602      0.140368
  Si     -4.919487      3.557721      1.733806
  C      -4.872972      5.416414      1.957001
  C      -6.362522      2.799083      2.695619
  C      -7.686323      3.383897      2.185743
  C      -6.380176      1.277108      2.499874
  C      -6.212637      3.112109      4.191480
  C      -3.304442      2.782227      2.281362
  O      -2.711316      4.545933     -0.554576
  C      -1.373763      4.643764     -1.007163
  H      -1.357827      5.165219     -1.978764
  O      -0.635897      5.348632     -0.064976
  C      -0.903709      6.751844     -0.066112
  C      -0.751117      3.259359     -1.149868
  H      -0.727943      2.791376     -0.157595
  O       0.557161      3.364319     -1.690524
  H      -1.302213      0.690411     -2.933963
  H      -4.629524      0.195063      0.021404
  H      -3.122466     -0.582842     -0.498451
  H      -4.659620     -1.449133     -0.635181
  H      -5.884511      0.770600     -5.006309
  H      -6.186985      2.157070     -3.948275
  H      -7.529359      1.118247     -4.452136
  H      -6.293559     -1.594407     -4.126830
  H      -7.848406     -1.175109     -3.398508
  H      -6.568293     -1.876000     -2.400687
  H      -8.149620      0.879289     -2.045303
  H      -6.750928      1.778251     -1.434325
  H      -7.049921      0.131308     -0.879085
  H      -3.472125     -0.394747     -4.677020
  H      -4.000064     -1.846950     -3.816096
  H      -2.484988     -1.070097     -3.366009
  H      -5.202059      5.022360     -0.793290
  H      -5.638774      3.630032     -1.796013
  H      -4.033438      5.849031      1.408670
  H      -4.752468      5.661462      3.016179
  H      -5.795916      5.885065      1.604196
  H      -7.830600      3.173872      1.122131
  H      -7.730244      4.468410      2.325257
  H      -8.529009      2.943880      2.733393
  H      -7.220534      0.836376      3.050597
  H      -5.460925      0.811020      2.867185
  H      -6.495074      1.010129      1.445715
  H      -5.282960      2.705234      4.600162
  H      -7.043615      2.666479      4.752126
  H      -6.224356      4.189016      4.384067
  H      -3.286829      1.714709      2.043567
  H      -3.170861      2.891881      3.361711
  H      -2.462649      3.260149      1.777443
  H      -0.203981      7.206245      0.634371
  H      -1.928165      6.952132      0.257728
  H      -0.746195      7.168074     -1.066632
  H       1.067930      3.916589     -1.085525
69
Coordinates from ORCA-job goat_0_25 E -1780.871914674039
  O      -1.075908      1.087012     -2.065125
  C      -1.595860      2.413038     -2.074231
  H      -1.529530      2.833116     -3.085686
  C      -3.058823      2.424789     -1.633963
  H      -3.129389      1.947444     -0.652942
  O      -3.859196      1.753243     -2.586751
  Si     -4.436617      0.183912     -2.460703
  C      -4.193230     -0.468834     -0.725242
  C      -6.272112      0.237308     -2.922858
  C      -6.469930      1.134456     -4.152792
  C      -6.763934     -1.181974     -3.248282
  C      -7.102865      0.784674     -1.754419
  C      -3.515838     -0.886522     -3.693484
  C      -3.551348      3.864630     -1.492330
  H      -3.496537      4.365484     -2.470459
  C      -4.980813      3.957740     -0.996577
  O      -5.221845      3.153353      0.140304
  Si     -4.911043      3.550758      1.731905
  C      -4.856920      5.409877      1.945389
  C      -6.355930      2.803591      2.699588
  C      -7.677947      3.393419      2.189758
  C      -6.381641      1.280652      2.507611
  C      -6.202642      3.120135      4.194225
  C      -3.298799      2.769811      2.278614
  O      -2.719837      4.547311     -0.556668
  C      -1.381564      4.647958     -1.005636
  H      -1.364859      5.166371     -1.979059
  O      -0.647570      5.357612     -0.064262
  C      -0.923595      6.759015     -0.063531
  C      -0.753740      3.265298     -1.141946
  H      -0.733134      2.801054     -0.147349
  O       0.556457      3.371823     -1.677184
  H      -1.265457      0.690465     -2.921091
  H      -4.633553      0.197493      0.020129
  H      -3.131811     -0.593732     -0.495979
  H      -4.676598     -1.446799     -0.635316
  H      -5.878975      0.788778     -5.007167
  H      -6.182454      2.167453     -3.939376
  H      -7.524683      1.133984     -4.454934
  H      -6.287390     -1.582152     -4.146809
  H      -7.846509     -1.168169     -3.424468
  H      -6.573224     -1.877937     -2.424430
  H      -8.155763      0.867293     -2.051645
  H      -6.763887      1.772313     -1.435218
  H      -7.054521      0.121770     -0.885607
  H      -3.514936     -0.428246     -4.686735
  H      -3.987608     -1.869215     -3.774636
  H      -2.479546     -1.048106     -3.385272
  H      -5.209764      5.009282     -0.793535
  H      -5.642555      3.615551     -1.795313
  H      -4.014686      5.838207      1.397460
  H      -4.739220      5.659951      3.003788
  H      -5.778080      5.878713      1.587888
  H      -7.824536      3.179782      1.127044
  H      -7.717026      4.478601      2.325454
  H      -8.522351      2.959401      2.739755
  H      -7.225172      0.845482      3.058115
  H      -5.465711      0.809782      2.877162
  H      -6.497339      1.012209      1.453867
  H      -5.272866      2.712724      4.602453
  H      -7.033243      2.677414      4.757975
  H      -6.212053      4.197654      4.383860
  H      -3.288868      1.700965      2.046344
  H      -3.159653      2.883820      3.357872
  H      -2.455822      3.240347      1.768931
  H      -0.223109      7.217508      0.633683
  H      -1.947629      6.953700      0.265306
  H      -0.773443      7.177235     -1.064530
  H       1.061414      3.934536     -1.076980
69
Coordinates from ORCA-job goat_0_25 E -1780.871958647928
  O      -1.072150      1.084878     -2.049874
  C      -1.595434      2.409616     -2.067470
  H      -1.526271      2.824371     -3.080920
  C      -3.058553      2.421695     -1.631203
  H      -3.131440      1.944848     -0.649797
  O      -3.856441      1.747901     -2.583593
  Si     -4.439347      0.181540     -2.456558
  C      -4.202299     -0.468734     -0.720315
  C      -6.273407      0.237041     -2.925718
  C      -6.468840      1.145551     -4.148322
  C      -6.762072     -1.179207     -3.267613
  C      -7.109297      0.772670     -1.754799
  C      -3.515868     -0.892455     -3.683434
  C      -3.553381      3.861686     -1.494859
  H      -3.499367      4.358512     -2.475062
  C      -4.983723      3.952365     -1.001248
  O      -5.222984      3.150453      0.137227
  Si     -4.907160      3.549784      1.727522
  C      -4.848071      5.408622      1.936115
  C      -6.350565      2.806515      2.700236
  C      -7.672608      3.404314      2.198331
  C      -6.383948      1.283960      2.501645
  C      -6.190229      3.116504      4.195344
  C      -3.293673      2.769576      2.269260
  O      -2.726230      4.551214     -0.560114
  C      -1.387422      4.650647     -1.005366
  H      -1.367314      5.167136     -1.979932
  O      -0.654467      5.361527     -0.063747
  C      -0.936373      6.761454     -0.058817
  C      -0.757932      3.268136     -1.136220
  H      -0.739326      2.807046     -0.139776
  O       0.553945      3.373717     -1.667293
  H      -1.241063      0.687724     -2.909872
  H      -4.642042      0.199865      0.023351
  H      -3.141711     -0.596954     -0.488480
  H      -4.689704     -1.444734     -0.629968
  H      -5.875121      0.807501     -5.003945
  H      -6.183563      2.177280     -3.926285
  H      -7.522531      1.144749     -4.454159
  H      -6.276596     -1.571204     -4.165074
  H      -7.842997     -1.164269     -3.454056
  H      -6.579226     -1.882685     -2.448307
  H      -8.161711      0.855060     -2.053980
  H      -6.774127      1.758807     -1.426753
  H      -7.062019      0.102940     -0.891199
  H      -3.542291     -0.455998     -4.686194
  H      -3.967277     -1.887037     -3.735032
  H      -2.470693     -1.026057     -3.392042
  H      -5.214541      5.003959     -0.800432
  H      -5.644849      3.607819     -1.799609
  H      -4.005999      5.833817      1.385426
  H      -4.726689      5.660734      2.993759
  H      -5.768779      5.879743      1.580402
  H      -7.824013      3.196899      1.134982
  H      -7.707322      4.488766      2.340428
  H      -8.516880      2.970597      2.748799
  H      -7.226849      0.850101      3.054241
  H      -5.468741      0.807135      2.865196
  H      -6.506640      1.020950      1.447362
  H      -5.261504      2.701992      4.599039
  H      -7.021379      2.677404      4.761094
  H      -6.191528      4.193546      4.388335
  H      -3.284088      1.699959      2.040500
  H      -3.147507      2.886954      3.347259
  H      -2.453131      3.238899      1.753608
  H      -0.237046      7.220893      0.639024
  H      -1.960777      6.952520      0.271050
  H      -0.788575      7.184064     -1.058470
  H       1.056597      3.940988     -1.069668
69
Coordinates from ORCA-job goat_0_25 E -1780.871978089271
  O      -1.066808      1.079515     -2.039931
  C      -1.590580      2.403889     -2.063134
  H      -1.519449      2.814529     -3.078012
  C      -3.053862      2.416995     -1.629167
  H      -3.128569      1.940344     -0.647764
  O      -3.850805      1.742617     -2.581572
  Si     -4.440934      0.179850     -2.454908
  C      -4.203366     -0.472061     -0.719786
  C      -6.275606      0.242413     -2.921787
  C      -6.472222      1.162037     -4.135930
  C      -6.765769     -1.169893     -3.276686
  C      -7.109077      0.768347     -1.744585
  C      -3.523946     -0.898260     -3.682761
  C      -3.548869      3.857399     -1.496450
  H      -3.494422      4.351159     -2.478155
  C      -4.980316      3.948164     -1.005707
  O      -5.221235      3.150370      0.135061
  Si     -4.909916      3.554368      1.725128
  C      -4.862220      5.413704      1.929714
  C      -6.349687      2.803176      2.697136
  C      -7.674441      3.397052      2.197302
  C      -6.377014      1.280944      2.494491
  C      -6.190268      3.110028      4.192855
  C      -3.291133      2.788143      2.269890
  O      -2.723852      4.550982     -0.562801
  C      -1.384918      4.648627     -1.006302
  H      -1.362245      5.163145     -1.981873
  O      -0.652227      5.360977     -0.065041
  C      -0.936222      6.760343     -0.061138
  C      -0.755406      3.265729     -1.132448
  H      -0.738323      2.807119     -0.134872
  O       0.557610      3.370068     -1.661028
  H      -1.219217      0.683941     -2.903573
  H      -4.637253      0.198247      0.025746
  H      -3.142794     -0.606132     -0.491038
  H      -4.696002     -1.445334     -0.628331
  H      -5.879865      0.830488     -4.995092
  H      -6.186428      2.191866     -3.906440
  H      -7.526231      1.162864     -4.440496
  H      -6.276840     -1.555300     -4.175176
  H      -7.845865     -1.151740     -3.467285
  H      -6.587036     -1.880400     -2.462579
  H      -8.161744      0.855650     -2.041410
  H      -6.771662      1.750673     -1.407424
  H      -7.062005      0.090129     -0.887691
  H      -3.575746     -0.478676     -4.691772
  H      -3.961323     -1.900234     -3.710244
  H      -2.471571     -1.012369     -3.410524
  H      -5.212249      5.000367     -0.809040
  H      -5.639591      3.600248     -1.804075
  H      -4.021419      5.842226      1.379796
  H      -4.743572      5.668490      2.987087
  H      -5.784430      5.880143      1.571833
  H      -7.824840      3.194014      1.132983
  H      -7.714097      4.480582      2.344683
  H      -8.516782      2.956925      2.745545
  H      -7.216401      0.842214      3.048563
  H      -5.458773      0.807339      2.854517
  H      -6.501926      1.020139      1.440017
  H      -5.261378      2.695397      4.596061
  H      -7.021243      2.669652      4.757692
  H      -6.191684      4.186763      4.387722
  H      -3.271641      1.717717      2.045558
  H      -3.144637      2.911179      3.347214
  H      -2.454809      3.262494      1.751968
  H      -0.238242      7.221056      0.637188
  H      -1.961157      6.951063      0.267153
  H      -0.787729      7.183011     -1.060688
  H       1.059120      3.939099     -1.064227
69
Coordinates from ORCA-job goat_0_25 E -1780.871996267936
  O      -1.069543      1.078629     -2.036184
  C      -1.591286      2.403706     -2.061804
  H      -1.520852      2.811332     -3.077823
  C      -3.053914      2.418335     -1.626544
  H      -3.128014      1.942648     -0.644689
  O      -3.850986      1.742041     -2.577051
  Si     -4.442162      0.180828     -2.449817
  C      -4.208371     -0.466999     -0.712558
  C      -6.275773      0.243155     -2.920998
  C      -6.471102      1.163416     -4.134615
  C      -6.764088     -1.169039     -3.278458
  C      -7.110651      0.767653     -1.744113
  C      -3.521748     -0.901219     -3.671877
  C      -3.548259      3.859106     -1.496797
  H      -3.493799      4.350486     -2.479709
  C      -4.980096      3.951883     -1.007301
  O      -5.224457      3.155422      0.133411
  Si     -4.911743      3.554118      1.724271
  C      -4.861624      5.412859      1.934265
  C      -6.351155      2.799672      2.694260
  C      -7.675404      3.400699      2.201941
  C      -6.382722      1.279098      2.481331
  C      -6.187075      3.095778      4.191608
  C      -3.292098      2.788170      2.266404
  O      -2.722744      4.554592     -0.565156
  C      -1.384205      4.650384     -1.009470
  H      -1.360757      5.163289     -1.985783
  O      -0.650711      5.364307     -0.069377
  C      -0.934680      6.763681     -0.069128
  C      -0.755380      3.266941     -1.132909
  H      -0.737597      2.810170     -0.134692
  O       0.557385      3.370245     -1.662686
  H      -1.216393      0.683915     -2.901142
  H      -4.642915      0.204696      0.031289
  H      -3.147970     -0.600395     -0.482406
  H      -4.700851     -1.440131     -0.619044
  H      -5.876536      0.832616     -4.992570
  H      -6.187365      2.193583     -3.904855
  H      -7.524516      1.161914     -4.441084
  H      -6.269829     -1.554087     -4.174169
  H      -7.843116     -1.151382     -3.474589
  H      -6.588556     -1.879512     -2.463670
  H      -8.162171      0.860027     -2.043368
  H      -6.770325      1.747246     -1.401541
  H      -7.068153      0.085478     -0.890166
  H      -3.583990     -0.493525     -4.685238
  H      -3.948970     -1.907840     -3.686408
  H      -2.466460     -1.001435     -3.405822
  H      -5.210484      5.004697     -0.811768
  H      -5.638574      3.604164     -1.806256
  H      -4.020353      5.840478      1.384333
  H      -4.739992      5.664077      2.992161
  H      -5.782583      5.883907      1.579417
  H      -7.828302      3.208500      1.136022
  H      -7.712159      4.482832      2.359929
  H      -8.517517      2.957111      2.747647
  H      -7.219649      0.838549      3.037612
  H      -5.463186      0.801742      2.833016
  H      -6.514040      1.025463      1.425940
  H      -5.260563      2.671757      4.590393
  H      -7.020363      2.658219      4.755068
  H      -6.179843      4.171241      4.393298
  H      -3.269855      1.718010      2.041093
  H      -3.144203      2.910822      3.343564
  H      -2.457447      3.264597      1.747823
  H      -0.238770      7.225687      0.630358
  H      -1.960566      6.955390      0.255501
  H      -0.783065      7.184251     -1.069066
  H       1.060081      3.937560     -1.065295
69
Coordinates from ORCA-job goat_0_25 E -1780.871999499620
  O      -1.068258      1.077362     -2.032172
  C      -1.588974      2.402869     -2.060029
  H      -1.518398      2.808833     -3.076625
  C      -3.052231      2.417755     -1.625559
  H      -3.126715      1.942752     -0.643531
  O      -3.848654      1.741011     -2.576520
  Si     -4.442027      0.180990     -2.449136
  C      -4.208724     -0.467063     -0.711475
  C      -6.275652      0.246147     -2.919554
  C      -6.470388      1.167791     -4.131946
  C      -6.765020     -1.165430     -3.278334
  C      -7.109424      0.769796     -1.741743
  C      -3.525401     -0.904477     -3.671052
  C      -3.546933      3.858285     -1.496730
  H      -3.492303      4.349156     -2.479916
  C      -4.978863      3.951442     -1.007566
  O      -5.224175      3.155763      0.133540
  Si     -4.913061      3.553896      1.724664
  C      -4.864758      5.412794      1.935888
  C      -6.352420      2.796891      2.692609
  C      -7.676629      3.397976      2.200841
  C      -6.382847      1.276764      2.477838
  C      -6.188467      3.091053      4.190417
  C      -3.292901      2.790169      2.268932
  O      -2.721197      4.554162     -0.565768
  C      -1.382799      4.650482     -1.010759
  H      -1.360053      5.161967     -1.987769
  O      -0.650167      5.366923     -0.071764
  C      -0.934287      6.766336     -0.076105
  C      -0.753156      3.267326     -1.132333
  H      -0.734786      2.811872     -0.133668
  O       0.559290      3.371052     -1.663028
  H      -1.209441      0.684039     -2.898661
  H      -4.641168      0.205611      0.032713
  H      -3.148372     -0.602529     -0.482323
  H      -4.702804     -1.439280     -0.617173
  H      -5.876197      0.837616     -4.990361
  H      -6.185756      2.197438     -3.900929
  H      -7.523947      1.167706     -4.437887
  H      -6.270862     -1.550001     -4.174294
  H      -7.844012     -1.146942     -3.474343
  H      -6.589451     -1.876578     -2.464166
  H      -8.160509      0.866225     -2.041206
  H      -6.766117      1.747146     -1.395830
  H      -7.069097      0.084786     -0.889962
  H      -3.596224     -0.503446     -4.686485
  H      -3.948899     -1.912715     -3.676702
  H      -2.468097     -0.998549     -3.411364
  H      -5.209421      5.004400     -0.812993
  H      -5.636673      3.602696     -1.806587
  H      -4.022527      5.840543      1.387449
  H      -4.744642      5.663424      2.994067
  H      -5.784960      5.884260      1.579745
  H      -7.828709      3.208576      1.134324
  H      -7.714084      4.479694      2.361564
  H      -8.518640      2.952301      2.744981
  H      -7.218800      0.834842      3.034441
  H      -5.462380      0.800075      2.828048
  H      -6.514355      1.024175      1.422238
  H      -5.262733      2.665128      4.588829
  H      -7.022695      2.653904      4.752797
  H      -6.179947      4.166194      4.393727
  H      -3.268523      1.719781      2.045017
  H      -3.146356      2.914631      3.346046
  H      -2.458737      3.267245      1.750418
  H      -0.239896      7.230465      0.623441
  H      -1.960898      6.958343      0.246028
  H      -0.780835      7.183733     -1.077046
  H       1.061988      3.938028     -1.065252
69
Coordinates from ORCA-job goat_0_25 E -1780.872002053076
  O      -1.069915      1.076873     -2.029041
  C      -1.589464      2.402928     -2.058437
  H      -1.518699      2.807935     -3.075395
  C      -3.053199      2.418554     -1.624705
  H      -3.128095      1.944310     -0.642367
  O      -3.849048      1.741416     -2.575934
  Si     -4.441647      0.181227     -2.448880
  C      -4.209006     -0.466912     -0.710784
  C      -6.275028      0.246211     -2.919860
  C      -6.469207      1.167316     -4.132667
  C      -6.764223     -1.165704     -3.277980
  C      -7.109128      0.770214     -1.742509
  C      -3.525150     -0.905038     -3.670228
  C      -3.547807      3.859029     -1.496546
  H      -3.492760      4.349787     -2.479779
  C      -4.979698      3.952866     -1.007507
  O      -5.225726      3.157311      0.133579
  Si     -4.913309      3.553381      1.724738
  C      -4.862676      5.412188      1.938014
  C      -6.352927      2.796344      2.692132
  C      -7.676716      3.399297      2.201817
  C      -6.384712      1.276532      2.475869
  C      -6.187619      3.088702      4.190240
  C      -3.293651      2.787944      2.268652
  O      -2.721658      4.554462     -0.565676
  C      -1.383176      4.651079     -1.011039
  H      -1.361089      5.161726     -1.988483
  O      -0.651109      5.368808     -0.072698
  C      -0.934564      6.768437     -0.079853
  C      -0.753247      3.268009     -1.131863
  H      -0.734302      2.813336     -0.132873
  O       0.558850      3.371589     -1.663562
  H      -1.209054      0.683932     -2.896047
  H      -4.642144      0.205494      0.033262
  H      -3.148586     -0.601582     -0.481396
  H      -4.702136     -1.439608     -0.616567
  H      -5.874524      0.837219     -4.990739
  H      -6.184678      2.196993     -3.901467
  H      -7.522682      1.167618     -4.438956
  H      -6.270707     -1.550411     -4.174232
  H      -7.843389     -1.147595     -3.473118
  H      -6.587652     -1.876437     -2.463663
  H      -8.159742      0.868852     -2.042917
  H      -6.764307      1.746445     -1.394885
  H      -7.070666      0.084098     -0.891504
  H      -3.597196     -0.505462     -4.686129
  H      -3.948023     -1.913511     -3.674208
  H      -2.467619     -0.997584     -3.410806
  H      -5.209968      5.005884     -0.813001
  H      -5.637402      3.604095     -1.806635
  H      -4.019582      5.838604      1.389738
  H      -4.741758      5.661598      2.996375
  H      -5.781939      5.885776      1.582327
  H      -7.829260      3.211814      1.135019
  H      -7.713077      4.480815      2.364241
  H      -8.518929      2.953479      2.745553
  H      -7.220628      0.834614      3.032515
  H      -5.464296      0.798831      2.824903
  H      -6.516609      1.025096      1.420033
  H      -5.262572      2.660359      4.587566
  H      -7.022534      2.652424      4.752352
  H      -6.177182      4.163538      4.395058
  H      -3.270169      1.717476      2.045103
  H      -3.147324      2.912851      3.345741
  H      -2.459229      3.264315      1.749937
  H      -0.241465      7.233399      0.620415
  H      -1.961803      6.960889      0.240042
  H      -0.778958      7.183957     -1.081225
  H       1.062336      3.937177     -1.065102
69
Coordinates from ORCA-job goat_0_25 E -1780.872001976179
  O      -1.070774      1.076827     -2.027953
  C      -1.590076      2.403037     -2.057881
  H      -1.519203      2.807796     -3.074941
  C      -3.053979      2.418871     -1.624576
  H      -3.129094      1.944853     -0.642121
  O      -3.849586      1.741673     -2.575938
  Si     -4.441313      0.181145     -2.449049
  C      -4.208804     -0.467236     -0.710876
  C      -6.274633      0.245634     -2.920189
  C      -6.468813      1.166788     -4.132999
  C      -6.763541     -1.166431     -3.278299
  C      -7.109046      0.769396     -1.742934
  C      -3.524744     -0.905097     -3.670293
  C      -3.548530      3.859352     -1.496480
  H      -3.493182      4.350301     -2.479594
  C      -4.980448      3.953406     -1.007596
  O      -5.226743      3.157991      0.133549
  Si     -4.913185      3.553232      1.724562
  C      -4.860751      5.411999      1.938388
  C      -6.352973      2.796867      2.692168
  C      -7.676511      3.400959      2.202565
  C      -6.385943      1.277120      2.475504
  C      -6.186869      3.088620      4.190362
  C      -3.293945      2.786516      2.268177
  O      -2.722342      4.554340     -0.565272
  C      -1.383798      4.651402     -1.010760
  H      -1.362234      5.161982     -1.988264
  O      -0.651971      5.369252     -0.072534
  C      -0.935193      6.768974     -0.079998
  C      -0.753684      3.268434     -1.131812
  H      -0.734255      2.813887     -0.132740
  O       0.558178      3.372001     -1.664084
  H      -1.207319      0.684619     -2.895708
  H      -4.642704      0.204762      0.033101
  H      -3.148317     -0.601062     -0.481276
  H      -4.701088     -1.440383     -0.616969
  H      -5.873682      0.837312     -4.990992
  H      -6.184768      2.196514     -3.901284
  H      -7.522192      1.167046     -4.439655
  H      -6.270722     -1.550759     -4.175108
  H      -7.842895     -1.148653     -3.472555
  H      -6.586149     -1.877249     -2.464228
  H      -8.159502      0.868723     -2.043664
  H      -6.763875      1.745207     -1.394447
  H      -7.071152      0.082740     -0.892319
  H      -3.597716     -0.506336     -4.686431
  H      -3.947094     -1.913803     -3.673053
  H      -2.467060     -0.996642     -3.411109
  H      -5.210702      5.006423     -0.813100
  H      -5.638162      3.604629     -1.806742
  H      -4.017177      5.837292      1.389935
  H      -4.739241      5.661107      2.996750
  H      -5.779516      5.886688      1.582888
  H      -7.829526      3.213802      1.135764
  H      -7.712003      4.482483      2.365193
  H      -8.518921      2.955703      2.746471
  H      -7.222215      0.835599      3.031931
  H      -5.465911      0.798528      2.824346
  H      -6.517870      1.026137      1.419555
  H      -5.262112      2.659166      4.587154
  H      -7.022025      2.652827      4.752542
  H      -6.175537      4.163343      4.395719
  H      -3.271630      1.715886      2.045337
  H      -3.147562      2.912108      3.345185
  H      -2.459214      3.261936      1.749048
  H      -0.242644      7.233846      0.620880
  H      -1.962692      6.961399      0.239107
  H      -0.778667      7.184374     -1.081268
  H       1.062389      3.936412     -1.065128
