69
Coordinates from ORCA-job goat_0_96 E -1780.868329730508
  O          -1.57272730441904      1.50906179106424     -2.89201174058682
  C          -2.02016523236584      2.81425478359536     -2.54251355576802
  H          -2.03296528808498      3.45752452075938     -3.43160332493302
  C          -3.42860066846856      2.77010012165193     -1.95259794231487
  H          -3.44401988221909      2.02560700245665     -1.15426036367056
  O          -4.37183069681310      2.46870681684734     -2.96235688810270
  Si         -5.11112780016628      1.06656786568887     -3.48238816014043
  C          -3.93158721583984      0.00396514797025     -4.48294669558381
  C          -5.88084171214610      0.02493955825421     -2.09911779345480
  C          -7.06719052563349      0.76638551511081     -1.46635009865996
  C          -6.39749195868612     -1.27546174035979     -2.74182290978941
  C          -4.86652510895398     -0.34505429535911     -1.00682482514922
  C          -6.43918005188011      1.71710871522659     -4.62797960851033
  C          -3.80831791348650      4.13013276523138     -1.36045375988094
  H          -3.87526287286931      4.86298112349726     -2.17831279669103
  C          -5.14205069111605      4.10656724856378     -0.63816337426394
  O          -5.20219261284573      3.10678407155306      0.35840332445586
  Si         -4.64751340615929      3.21427705426543      1.92928241084490
  C          -4.49801760212446      5.00507325707088      2.45371007278296
  C          -5.95468417507575      2.32400754408184      2.97060546198053
  C          -5.57372591904135      2.39811283019966      4.45640879348130
  C          -7.32146460128420      2.99233747758244      2.76649168154002
  C          -6.04979332104340      0.85118819680201      2.54848511746336
  C          -3.00124059530101      2.33538880737102      2.07955518552875
  O          -2.82378145171986      4.54403043165384     -0.41901104979586
  C          -1.55264790310620      4.71794860841512     -1.01185860714249
  H          -1.62893861588258      5.45269446010785     -1.83093641919387
  O          -0.66375123176487      5.16312843876136     -0.04094654005128
  C          -0.84402206624422      6.53510284709833      0.31185278934907
  C          -1.03137765099035      3.39024070952993     -1.54502644966785
  H          -0.92852327371288      2.70049871044242     -0.69711022715746
  O           0.21484868950552      3.57597842637529     -2.19881836211284
  H          -1.94359438566348      1.28385514116109     -3.75079706582980
  H          -3.22142028601318     -0.54821235895831     -3.86208438325722
  H          -3.37624151429622      0.61550373648636     -5.20278726390187
  H          -4.50643103230859     -0.72667267091935     -5.05949617863955
  H          -7.84346678263620      0.98355833701553     -2.20559694902759
  H          -6.75523232306859      1.70558169687407     -1.00437105951911
  H          -7.52013553638885      0.14526819312908     -0.68357676305130
  H          -6.92875021619348     -1.86955366777624     -1.98866557512366
  H          -5.57949333446117     -1.88773381808821     -3.13096120066134
  H          -7.09537406016296     -1.08118325411442     -3.56231781367160
  H          -5.30771830345518     -1.08656894812362     -0.32917186181362
  H          -4.59013692890323      0.52039334933372     -0.40244749125630
  H          -3.95377011163752     -0.78156438785197     -1.42493299989203
  H          -7.05459900007354      0.90319314542679     -5.02113724829944
  H          -5.98098451139215      2.23458892964442     -5.47619952560854
  H          -7.09365133460795      2.42380236786231     -4.11115439215537
  H          -5.32423166296207      5.09907267137986     -0.21264456621722
  H          -5.92728624455755      3.90015580627090     -1.36943789316217
  H          -4.17963989017299      5.06004006148632      3.49890636849560
  H          -5.45136938788312      5.53318086732198      2.36338174565902
  H          -3.75581774585879      5.52420572632787      1.84402679111002
  H          -4.60626078554451      1.92576771957977      4.65188216648455
  H          -6.32468788330567      1.87690308431756      5.06294195971834
  H          -5.52238287124531      3.43202682933521      4.81047453211615
  H          -7.30998672745406      4.04050524729510      3.08044078444187
  H          -8.08664816728178      2.47656748323416      3.36000435075999
  H          -7.62978931081372      2.95663439705054      1.71769347392580
  H          -6.33018415137949      0.75294880497708      1.49701770182669
  H          -6.81078210624405      0.33608821648923      3.14821957751891
  H          -5.10100525577512      0.32603786929614      2.69431554013656
  H          -2.22067248295082      2.90390905041863      1.57031363713484
  H          -3.05116923506334      1.34064965677083      1.62721110825065
  H          -2.71613156793490      2.21688583468713      3.12916609137556
  H          -0.04828840572947      6.78682873617161      1.01215510965045
  H          -1.81420747697972      6.69213164597301      0.78986651980225
  H          -0.76583854490033      7.17097000138914     -0.57649149289683
  H           0.81893037523840      3.95966563761695     -1.55116914922790
