69
Coordinates from ORCA-job goat_0_54 E -1780.867764884564
  O          -1.37978081418662      2.58762632553027     -0.43886306384037
  C          -2.03527214514206      2.51239570308089     -1.69887550135855
  H          -1.84311380612016      1.51498037049291     -2.09994326701062
  C          -3.55673577024359      2.67453916242725     -1.56593482989371
  H          -3.90657225286433      2.05340672262670     -0.73868965364863
  O          -4.12647658455442      2.25123363833388     -2.80666886426750
  Si         -5.35933556152259      1.11915897445984     -2.94596925683501
  C          -6.09239803515356      1.45567091132187     -4.62885594467314
  C          -4.64239681323918     -0.62677173472956     -2.84285197832550
  C          -4.01929536989087     -0.87720825092099     -1.46170851410170
  C          -5.77000988464362     -1.64551597819976     -3.07111812401255
  C          -3.56802454470360     -0.80882666886872     -3.92457654532156
  C          -6.60941058863224      1.41193682774726     -1.58770921015916
  C          -3.99368406651492      4.11388962862548     -1.30209702286444
  H          -5.04572027278138      4.18040540033286     -1.58760333793291
  C          -3.92759322690111      4.53410650651235      0.16846330761378
  O          -4.96242783703862      3.85736434329999      0.86808684311161
  Si         -4.70618848175878      3.08486765432550      2.32992517502203
  C          -3.57182788017235      4.12729433111247      3.39596857463113
  C          -6.41760838622251      2.91405692047720      3.10628064770771
  C          -7.36936084941997      2.19841262910563      2.13757516406856
  C          -6.30822490061811      2.09571877128029      4.40141448068156
  C          -6.97885898441498      4.30566867448204      3.43080210516008
  C          -3.91842872457661      1.41429624060943      2.02912012763366
  O          -3.33719693719841      5.05327658371540     -2.16735050646545
  C          -1.93771649036405      4.95141839436111     -2.29183860981414
  H          -1.67749635294977      5.66378202753253     -3.08129745840423
  O          -1.26099235004667      5.28093872430729     -1.09917608123292
  C          -1.33260148592908      6.66550109497485     -0.75866487645343
  C          -1.48448472803501      3.54414421768483     -2.68754001218000
  H          -0.39273475749116      3.52102107678149     -2.66150627517159
  O          -1.88527403683726      3.25985269268877     -4.01828096712253
  H          -1.16346917439711      3.51587875298561     -0.26908293243878
  H          -6.51093279068401      2.46581611757633     -4.65883496685210
  H          -6.89453557839893      0.74803163130462     -4.85544916985324
  H          -5.33534358242341      1.37599541042969     -5.41361093224883
  H          -3.18403287537118     -0.20130916181982     -1.25993230753437
  H          -3.63069527842590     -1.90158105878143     -1.40895730630296
  H          -4.75162085754174     -0.75871887110351     -0.65799361219826
  H          -6.23632365706728     -1.52261690673051     -4.05308746981416
  H          -6.55250998960516     -1.55988838128868     -2.31104322473122
  H          -5.36826977121621     -2.66474581538176     -3.01988919858354
  H          -3.98380393307055     -0.68917935449373     -4.92938302722601
  H          -3.13704083820917     -1.81546170534379     -3.86099038710838
  H          -2.75331187540170     -0.08801927856969     -3.80887258742073
  H          -6.99601552195550      2.43387444616441     -1.63679744966269
  H          -6.18035400751734      1.25979832538745     -0.59500400086980
  H          -7.45316126585730      0.72455071800185     -1.69787635840412
  H          -2.95142760657589      4.33090218201435      0.60925385103103
  H          -4.10337078435187      5.61265356980132      0.22057079844390
  H          -3.92389166183036      5.16044718381883      3.46040724306019
  H          -2.55372823867338      4.13646252828738      2.99624358187021
  H          -3.52601338946045      3.71917560509287      4.41000444456177
  H          -8.35959638860035      2.09055953984326      2.59727434471464
  H          -7.01050825757327      1.19644494011883      1.88379334646345
  H          -7.49012505574306      2.75819335338515      1.20658865940989
  H          -7.29438468607982      2.00891998222037      4.87343486978275
  H          -5.63566223444779      2.56642295659054      5.12519064249131
  H          -5.94231756713297      1.08296568191377      4.20852656092811
  H          -6.35189791152627      4.83448078731384      4.15470003668823
  H          -7.98276741265139      4.21511136447888      3.86351461904426
  H          -7.05637430478114      4.92608985672060      2.53301981941548
  H          -4.56818846475476      0.76811071642264      1.43225370599166
  H          -3.71128819909178      0.90992978640131      2.97764373758711
  H          -2.97184116927686      1.53320482008962      1.49415063690903
  H          -0.77380662411991      6.79303986807617      0.16761416041932
  H          -2.36717717698083      6.98144926264429     -0.60807582306820
  H          -0.87721366024725      7.26956967740968     -1.55015760165271
  H          -2.80491535879030      2.95040967350777     -3.97570313738274
