69
Coordinates from ORCA-job goat_0_15 E -1780.872000750163
  O          -1.45375528470319      1.30124049107205     -2.57759495489085
  C          -2.02559327274221      2.58475255824467     -2.36137760457869
  H          -2.20770694901383      3.08078335756141     -3.32537001024033
  C          -3.35847993700054      2.41516710120256     -1.64944030120717
  H          -3.19230400465588      1.84484622704520     -0.73142899043727
  O          -4.27750115824720      1.76149585149534     -2.50014784126841
  Si         -5.05905563338888      0.31940784586600     -2.16719064218067
  C          -6.79684104508245      0.66806310979946     -1.56346184431410
  C          -5.11664357128036     -0.61411410149433     -3.80960657950876
  C          -6.00110878915659     -1.86132365702382     -3.66572848674569
  C          -5.70171458515518      0.29439217572772     -4.90090934453087
  C          -3.70027030696230     -1.04417923514968     -4.21552235228300
  C          -4.12720269965738     -0.63967232815693     -0.85845475565187
  C          -3.91270400725161      3.79055299941098     -1.26612861050717
  H          -4.10384088288679      4.36643968459543     -2.18347616956502
  C          -5.21158694692729      3.69837731375910     -0.49458795854493
  O          -5.06715038802762      2.80503754100885      0.59501067340877
  Si         -5.96217418370462      2.89180037005180      2.00171348208121
  C          -6.02865535726716      1.13240829190861      2.62801297765042
  C          -5.08818300896383      4.02316391737950      3.23955645473061
  C          -3.70977005562340      3.43949419763214      3.58203001692373
  C          -4.90053883814571      5.42561975394579      2.64232999056410
  C          -5.93023625058792      4.12728760655579      4.51951205404920
  C          -7.68112592530643      3.52177978159209      1.60739860547614
  O          -2.96360016997547      4.48073123999446     -0.45526880980796
  C          -1.76840491477943      4.76033117158262     -1.16342044550598
  H          -2.00845237004493      5.34557542289998     -2.06674434693735
  O          -0.91377645787493      5.47305003081724     -0.33361741333366
  C          -1.31895294017800      6.82720126174939     -0.12947651965648
  C          -1.08555090047336      3.45372158978400     -1.53988734252902
  H          -0.82619734130667      2.92833101832572     -0.61249752416809
  O           0.07421192991748      3.67754643010263     -2.33105183550246
  H          -0.58180589647424      1.44358820936133     -2.96610292531589
  H          -6.76588142365764      1.20431558775196     -0.61287277131029
  H          -7.33884956214466     -0.26879977806988     -1.40411240896948
  H          -7.36087389828280      1.26856975045407     -2.28268085315771
  H          -7.03751488068410     -1.59822090014027     -3.43631696004706
  H          -5.63899030422703     -2.52838850889378     -2.87687911886826
  H          -6.00247933493834     -2.42916831444165     -4.60421564948809
  H          -5.08407423312886      1.18353410536105     -5.05399813153548
  H          -6.71504967046495      0.62483243778780     -4.65210697242252
  H          -5.75367391044837     -0.24758538467633     -5.85337425343002
  H          -3.02590813051184     -0.18727479857530     -4.28910309857203
  H          -3.72453797562522     -1.54562916501761     -5.19107731631983
  H          -3.27172331813814     -1.74491221630358     -3.49249655856957
  H          -4.56035004741942     -1.63985393366041     -0.76047836578947
  H          -4.20225248218854     -0.14739569327506      0.11506481804290
  H          -3.07000910036262     -0.74794082807847     -1.11205229461159
  H          -5.48485147344005      4.70456337707183     -0.16162013739808
  H          -5.99394467768463      3.34076247498341     -1.16999705210043
  H          -6.59837856533636      0.50845332067452      1.93314286488869
  H          -6.51063266083779      1.07917167614145      3.60825248777687
  H          -5.02406513907632      0.71033442054543      2.71806766213066
  H          -3.18103443967902      4.10498864369550      4.27562799976368
  H          -3.08895055128828      3.32829147456247      2.68772240107206
  H          -3.79331148245300      2.45961320763067      4.06113834950176
  H          -4.25845991834915      5.40269077420197      1.75783316925738
  H          -4.42646391561276      6.08483670508978      3.38029570716464
  H          -5.85561186111018      5.87937169684434      2.35987267260970
  H          -6.90916995386146      4.57470900733075      4.32294673360955
  H          -5.41820372603296      4.75933821365736      5.25547653251740
  H          -6.09247756194488      3.14797848466716      4.98031553829346
  H          -7.66898184330971      4.55771745987077      1.25830796085402
  H          -8.31818898896985      3.47210301658961      2.49512075693827
  H          -8.13902616943790      2.90442684898200      0.82854372223723
  H          -0.53385306052383      7.30574598567306      0.45502251207389
  H          -2.26340145461947      6.87484534175501      0.41863802754750
  H          -1.42674289493056      7.34232894251465     -1.09013196412234
  H           0.73943070364895      4.09435929864845     -1.77098661523986
