69
Coordinates from ORCA-job goat_0_41 E -1780.869085026938
  O          -1.61237819039576      2.24979517488662     -3.73473568379253
  C          -2.26760605808617      3.04791889290713     -2.75852623210801
  H          -2.95367108542650      3.75266081137466     -3.24870184526788
  C          -3.09258364704165      2.13819748727598     -1.85978028136299
  H          -2.43924524653234      1.36066571932864     -1.44392164513764
  O          -4.16585779814880      1.56526396524598     -2.57362873416209
  Si         -4.13817475143469      0.18189483345646     -3.51584869172341
  C          -2.64307288510683     -0.86482467635135     -3.10747160150006
  C          -5.73173475318983     -0.75338974529431     -3.09957768712258
  C          -5.59956831278984     -1.44855091957859     -1.73727262854833
  C          -6.91818303271036      0.21986916275208     -3.05821064011417
  C          -5.98902151700291     -1.81748980577130     -4.17732650400060
  C          -4.14728661813178      0.67336342072385     -5.32068894066749
  C          -3.68119911456598      2.96334338975116     -0.70716451801268
  H          -4.37788601505937      3.70144122741269     -1.12908136006261
  C          -4.42823534533287      2.08806439242809      0.28259627448936
  O          -5.38737320695173      2.79667189886099      1.04500078694536
  Si         -5.09418711521442      3.85323358509680      2.30324133937098
  C          -5.00261017111657      5.60103223390804      1.63553391659009
  C          -6.59641729913100      3.67889967823062      3.43959619523119
  C          -6.60041145051948      2.28693851126835      4.08662822752789
  C          -6.52906616593602      4.74997219670920      4.53817914986792
  C          -7.89173934729205      3.86182926373881      2.63594511790536
  C          -3.52651540075406      3.37814642255249      3.20820540443275
  O          -2.63853235724709      3.63219408154380      0.00195591225656
  C          -1.94134433996140      4.56745494540212     -0.80396012291375
  H          -2.64970270783379      5.31975085309776     -1.18829021777108
  O          -0.94941701614520      5.17016828768000     -0.04177008152911
  C          -1.43055782350640      6.14410822730679      0.88420247068352
  C          -1.25488085305046      3.83847857816403     -1.94924534028465
  H          -0.52007891170118      3.14860157397236     -1.51595147801472
  O          -0.62454852320725      4.74923367059757     -2.83964092855915
  H          -1.10258749141725      2.84685335727598     -4.29553919613201
  H          -1.72399693736408     -0.38215438890843     -3.44507409550888
  H          -2.72885529939387     -1.83414795016149     -3.60845745334564
  H          -2.56364456499268     -1.04974703990241     -2.03266534142380
  H          -4.81388396334259     -2.20916454332150     -1.74994030323954
  H          -6.54146909204945     -1.94624816212029     -1.47527383441930
  H          -5.36686429261061     -0.73918369925345     -0.93818883797486
  H          -6.79626439258591      0.96412362275220     -2.26668785270537
  H          -7.84863626031958     -0.32878800133288     -2.86589735671790
  H          -7.03802593760856      0.75278691257748     -4.00695118240496
  H          -5.14595686048626     -2.50946079536212     -4.27473561194866
  H          -6.16838627756715     -1.36476519963159     -5.15637440973170
  H          -6.87466487709985     -2.40987830734966     -3.91658286894323
  H          -3.30620346745372      1.33753122385695     -5.52932049415571
  H          -5.07408758484042      1.19228213867671     -5.58282277815482
  H          -4.06069063742309     -0.20816872499008     -5.96266843213602
  H          -4.96655315302216      1.32360699956226     -0.27711877025982
  H          -3.69676890230546      1.59243462882258      0.93179782251100
  H          -4.63534789631610      6.29644149273389      2.39591138048808
  H          -5.98967421127576      5.94321696988389      1.31187855536733
  H          -4.32968570583641      5.64850281671127      0.77746489748626
  H          -5.72133296999250      2.13419719656387      4.71934641228026
  H          -6.61577939184959      1.49442653967624      3.33215510906824
  H          -7.48959892447209      2.16589668795313      4.71769274038138
  H          -5.61782656932084      4.65967421563788      5.13782313448541
  H          -7.38396821919823      4.64804288491674      5.21792335861402
  H          -6.55806651398810      5.75994640042050      4.11843723085897
  H          -8.76105213269554      3.76710742148580      3.29855733030040
  H          -7.98499774890480      3.10723147286357      1.85018969088931
  H          -7.94163327240386      4.84815741856359      2.16500373644676
  H          -3.55073903789325      2.32770509204062      3.51158172404009
  H          -3.41775338741526      3.98726577107833      4.11064407498552
  H          -2.64772989604072      3.53417448731022      2.58031275147806
  H          -0.55383862922441      6.63731417826460      1.30308996660602
  H          -2.00350513581578      5.67402089994326      1.68631222265893
  H          -2.05715859617840      6.88234225831343      0.37274487291361
  H           0.09515524122838      5.17709639577122     -2.36089781530295
