69
Coordinates from ORCA-job goat_0_78 E -1780.868540419796
  O          -1.24937789956876      2.49172928299458     -0.04061346111130
  C          -1.87368450897445      2.16758279140799     -1.27645950383158
  H          -1.67555284321399      1.10999004688029     -1.46709038129647
  C          -3.39621381942736      2.34555468280579     -1.21489703083006
  H          -3.76377504813045      1.90433116224820     -0.28412762740264
  O          -3.93356198574806      1.67232895458089     -2.35626576960734
  Si         -5.12701164606730      0.50113643008440     -2.21143422914391
  C          -6.67868675290796      1.29702237865393     -1.53719316661688
  C          -5.35705424566193     -0.14979601559857     -3.96414829975099
  C          -5.64233469475512      1.01634394218157     -4.92164080418478
  C          -4.08652092700847     -0.88126341697605     -4.42095498281095
  C          -6.54220874504167     -1.12669055735493     -3.98420285875169
  C          -4.53462380873585     -0.82729572796729     -1.03483874352622
  C          -3.84872187086935      3.80307502661976     -1.25948201040064
  H          -4.88935430969335      3.79331823248739     -1.59118876265353
  C          -3.84421420017648      4.50024057803141      0.10182798357682
  O          -4.81235923499659      3.84469382606004      0.90579801326696
  Si         -4.76391440099000      3.89363666425761      2.57537477838644
  C          -5.12709726721850      5.63668548139569      3.15287608570198
  C          -6.09034510318023      2.67139717184594      3.12604999176402
  C          -6.20628475330681      2.70068930958910      4.65708745856066
  C          -7.44369280579320      3.05187186255251      2.50878623278190
  C          -5.70553298031455      1.25574711083937      2.67201612270831
  C          -3.06416448263535      3.38366356725985      3.17400884857162
  O          -3.16650016672686      4.56492107353769     -2.26587021461698
  C          -1.76437683620240      4.44456215837405     -2.33482132903529
  H          -1.48609319050908      4.98866165971822     -3.24314255531136
  O          -1.11359778236385      5.00553098870173     -1.21658780802341
  C          -1.21580586839915      6.42749980191014     -1.14341534518527
  C          -1.30135609631977      2.98894267601348     -2.43602929593578
  H          -0.21038579950476      2.97793682051620     -2.38283335418913
  O          -1.67236211155430      2.44882517299029     -3.69459544026411
  H          -1.05039764913896      3.43912078658863     -0.04506320236444
  H          -7.44380967458622      0.54143593649957     -1.33635682254958
  H          -7.09131302553392      2.02797297642258     -2.23768114166705
  H          -6.46169411301766      1.81213739744755     -0.59697796996993
  H          -4.80869712419355      1.72350909894833     -4.95121121290761
  H          -6.54280586486675      1.56710691862864     -4.63337036647376
  H          -5.79669798010075      0.63572074682610     -5.93860598444155
  H          -4.20959447330507     -1.23872546196216     -5.45050024850651
  H          -3.87279845378174     -1.74966857338573     -3.79118190024563
  H          -3.21209434915154     -0.22397102650406     -4.39864237877810
  H          -6.67752104367878     -1.53079834438496     -4.99457215659550
  H          -7.47570821553587     -0.63455943993707     -3.69541510207855
  H          -6.38199953070402     -1.97232460352159     -3.30794971703560
  H          -5.25280226952233     -1.65210738659544     -1.00085354182576
  H          -4.43381178058469     -0.43396324801609     -0.01922503277280
  H          -3.56648622826189     -1.22886703881470     -1.34516232869713
  H          -2.86114795738137      4.47456829034863      0.57436112346824
  H          -4.12303024080951      5.54847705542126     -0.04980968377360
  H          -4.39677448196447      6.33294997312683      2.72840036656068
  H          -5.06247071626030      5.70836861026401      4.24248460156756
  H          -6.12497241149001      5.96169247559615      2.84602983268721
  H          -6.96811193859492      1.98490840523399      4.98905518019468
  H          -6.49960083173182      3.68979247310501      5.02164512640869
  H          -5.26322004755143      2.42789978192262      5.14058642302728
  H          -7.40617123087104      3.03189777053874      1.41636961435992
  H          -7.76266200330010      4.05173746729210      2.81845805441964
  H          -8.21544609780382      2.34222535360052      2.83164591951108
  H          -4.76699111548832      0.92755416266243      3.12831375331328
  H          -5.59008703515534      1.19936181086078      1.58612074753190
  H          -6.48540013187902      0.54164574044569      2.96394983379452
  H          -2.76130407685108      2.42427269656598      2.74690089248068
  H          -3.06277075464370      3.28985542024668      4.26411338208565
  H          -2.31100830230544      4.12993672207453      2.90513150735388
  H          -0.65271384751716      6.74025478965958     -0.26500264006255
  H          -2.25630616949721      6.74399827290635     -1.04301940583836
  H          -0.78105812210474      6.88070442995365     -2.04041486511428
  H          -2.58891441483925      2.13861645329346     -3.61058314790500
