69
Coordinates from ORCA-job goat_0_46 E -1780.866407100739
  O      -1.360208      2.594676      0.127175
  C      -1.902252      2.224946     -1.130431
  H      -1.670329      1.168838     -1.290343
  C      -3.427602      2.375967     -1.137162
  H      -3.828077      1.937423     -0.217624
  O      -3.921671      1.692687     -2.288359
  Si     -4.925301      0.358470     -2.214643
  C      -6.537013      0.860529     -1.421083
  C      -5.114099     -0.151682     -4.013969
  C      -6.138477     -1.285091     -4.131803
  C      -5.591126      1.051381     -4.835410
  C      -3.766092     -0.627905     -4.567112
  C      -4.133331     -0.971863     -1.169829
  C      -3.888679      3.827747     -1.207225
  H      -4.920427      3.810629     -1.565340
  C      -3.924400      4.538874      0.143201
  O      -4.939626      3.943080      0.925232
  Si     -4.765613      3.390847      2.486176
  C      -3.688570      4.562412      3.465009
  C      -6.530604      3.336525      3.136099
  C      -7.080437      4.763516      3.227414
  C      -7.405613      2.532494      2.168607
  C      -6.572406      2.682298      4.519923
  C      -3.958521      1.706989      2.505776
  O      -3.181646      4.584869     -2.194261
  C      -1.784001      4.479760     -2.218760
  H      -1.484537      5.005605     -3.129408
  O      -1.178440      5.082086     -1.091871
  C      -1.258846      6.499955     -1.096330
  C      -1.296042      3.033542     -2.278655
  H      -0.209473      3.040303     -2.174762
  O      -1.599989      2.476630     -3.537594
  H      -1.087650      3.521338      0.073924
  H      -7.153851     -0.010485     -1.187502
  H      -7.117695      1.529100     -2.059558
  H      -6.344297      1.386581     -0.481496
  H      -6.247176     -1.583132     -5.179865
  H      -7.124420     -0.979989     -3.773268
  H      -5.831247     -2.171335     -3.570856
  H      -4.888970      1.884645     -4.771298
  H      -6.569353      1.407591     -4.503785
  H      -5.681895      0.771550     -5.890216
  H      -3.407061     -1.520222     -4.049622
  H      -2.995609      0.141835     -4.485553
  H      -3.866525     -0.880570     -5.628018
  H      -3.954029     -0.614266     -0.152280
  H      -3.179455     -1.307262     -1.580478
  H      -4.793132     -1.839944     -1.092638
  H      -2.956952      4.511310      0.645456
  H      -4.176653      5.587269     -0.038362
  H      -2.639095      4.456193      3.180856
  H      -3.757394      4.332234      4.531267
  H      -3.978253      5.605530      3.325955
  H      -8.123181      4.745464      3.562360
  H      -7.052211      5.260360      2.255272
  H      -6.516533      5.370547      3.939617
  H      -7.401996      2.976482      1.171608
  H      -8.441420      2.514884      2.524844
  H      -7.071541      1.494952      2.083599
  H      -6.212622      1.651241      4.491168
  H      -7.601769      2.661292      4.893121
  H      -5.971900      3.231176      5.249687
  H      -2.988742      1.754309      2.002515
  H      -4.568586      0.945720      2.012312
  H      -3.780818      1.379795      3.533625
  H      -2.294073      6.839260     -1.166387
  H      -0.689172      6.906193     -1.936941
  H      -0.821989      6.851529     -0.164683
  H      -2.534448      2.217897     -3.513059
69
Coordinates from ORCA-job goat_0_46 E -1780.867370010410
  O      -1.266426      2.582792      0.052734
  C      -1.842953      2.244132     -1.202181
  H      -1.606818      1.194625     -1.397855
  C      -3.371975      2.381126     -1.171316
  H      -3.746961      1.922888     -0.253440
  O      -3.884160      1.706976     -2.320208
  Si     -4.890347      0.375076     -2.213366
  C      -6.486694      0.897012     -1.397465
  C      -5.122539     -0.170059     -3.999649
  C      -6.174824     -1.285110     -4.060743
  C      -5.595444      1.022043     -4.844967
  C      -3.796363     -0.698180     -4.565295
  C      -4.078575     -0.939498     -1.162136
  C      -3.857821      3.827751     -1.209086
  H      -4.891306      3.799122     -1.562541
  C      -3.900850      4.516995      0.157561
  O      -4.940605      3.927628      0.918048
  Si     -4.793736      3.362022      2.478684
  C      -3.696086      4.507441      3.469096
  C      -6.563195      3.342002      3.125638
  C      -7.091208      4.781345      3.207627
  C      -7.453023      2.533484      2.170010
  C      -6.606664      2.703301      4.519408
  C      -4.031082      1.655622      2.494720
  O      -3.171893      4.616073     -2.191242
  C      -1.769876      4.531726     -2.235354
  H      -1.486405      5.089530     -3.133749
  O      -1.155744      5.102044     -1.097600
  C      -1.276014      6.519900     -1.031805
  C      -1.268301      3.090335     -2.342384
  H      -0.178634      3.106433     -2.263761
  O      -1.597626      2.555216     -3.610290
  H      -1.018263      3.518113      0.029007
  H      -7.108422      0.030310     -1.155490
  H      -7.069586      1.570996     -2.031161
  H      -6.274217      1.420799     -0.460070
  H      -6.313284     -1.613885     -5.097863
  H      -7.146527     -0.945968     -3.689005
  H      -5.873996     -2.159880     -3.475538
  H      -4.869082      1.839118     -4.830555
  H      -6.553655      1.415151     -4.491734
  H      -5.730406      0.710768     -5.887980
  H      -3.448811     -1.582587     -4.023732
  H      -3.004561      0.054623     -4.523694
  H      -3.925936     -0.983759     -5.616338
  H      -3.888060     -0.565682     -0.150826
  H      -3.127106     -1.274385     -1.583114
  H      -4.734641     -1.810509     -1.068769
  H      -2.942055      4.465598      0.674471
  H      -4.132187      5.573860     -0.009758
  H      -2.647530      4.389700      3.179333
  H      -3.768526      4.266773      4.534450
  H      -3.972657      5.557249      3.340610
  H      -8.133544      4.782182      3.549688
  H      -7.060423      5.272509      2.230622
  H      -6.511763      5.385934      3.911765
  H      -7.454770      2.965542      1.166273
  H      -8.487453      2.525948      2.535638
  H      -7.124031      1.492599      2.091437
  H      -6.262785      1.664846      4.499187
  H      -7.635009      2.703912      4.901293
  H      -5.988539      3.250519      5.238234
  H      -3.051390      1.680516      2.009570
  H      -4.652933      0.917606      1.979532
  H      -3.885156      1.313685      3.524184
  H      -2.323957      6.829236     -1.046304
  H      -0.749368      6.982865     -1.873445
  H      -0.815600      6.839269     -0.097455
  H      -2.524783      2.270246     -3.565597
69
Coordinates from ORCA-job goat_0_46 E -1780.867805598416
  O      -1.286616      2.582839      0.069212
  C      -1.847526      2.253004     -1.197214
  H      -1.611690      1.204186     -1.395123
  C      -3.375629      2.393913     -1.189699
  H      -3.763718      1.933086     -0.279078
  O      -3.869490      1.722886     -2.349554
  Si     -4.893422      0.402627     -2.230245
  C      -6.493605      0.963451     -1.443367
  C      -5.122752     -0.186416     -4.004945
  C      -6.201955     -1.279809     -4.030390
  C      -5.566996      0.987897     -4.891650
  C      -3.805366     -0.765704     -4.543519
  C      -4.101246     -0.895982     -1.142486
  C      -3.856913      3.841724     -1.226662
  H      -4.887815      3.817088     -1.587258
  C      -3.900276      4.524823      0.144465
  O      -4.950947      3.938382      0.895875
  Si     -4.794506      3.362373      2.453874
  C      -3.692502      4.510977      3.440112
  C      -6.556409      3.325472      3.128562
  C      -7.098424      4.760508      3.223951
  C      -7.457972      2.501252      2.195552
  C      -6.559386      2.687664      4.525830
  C      -4.027178      1.655347      2.446091
  O      -3.161180      4.630836     -2.204385
  C      -1.755473      4.548370     -2.224049
  H      -1.455082      5.111435     -3.114239
  O      -1.160465      5.107653     -1.073114
  C      -1.296032      6.526585     -0.983941
  C      -1.252691      3.105056     -2.324418
  H      -0.164079      3.121261     -2.230160
  O      -1.561019      2.567495     -3.601907
  H      -1.075477      3.528002      0.069387
  H      -7.137361      0.108667     -1.214460
  H      -7.048821      1.648925     -2.090596
  H      -6.285221      1.481438     -0.502006
  H      -6.341807     -1.646289     -5.055197
  H      -7.167399     -0.902961     -3.677236
  H      -5.924918     -2.136310     -3.406304
  H      -4.815311      1.782673     -4.914342
  H      -6.509357      1.423295     -4.543266
  H      -5.723208      0.640799     -5.921041
  H      -3.484003     -1.638294     -3.966740
  H      -2.995645     -0.029736     -4.520059
  H      -3.935397     -1.084994     -5.585456
  H      -3.934824     -0.505318     -0.132976
  H      -3.139340     -1.231337     -1.540394
  H      -4.757544     -1.768091     -1.055850
  H      -2.945893      4.454557      0.669253
  H      -4.119557      5.585628     -0.014686
  H      -2.648870      4.418342      3.122402
  H      -3.738623      4.252266      4.503181
  H      -3.992831      5.557472      3.333383
  H      -8.132471      4.749454      3.591980
  H      -7.095790      5.255491      2.247519
  H      -6.506666      5.370121      3.914272
  H      -7.497591      2.932919      1.191612
  H      -8.481362      2.472788      2.591639
  H      -7.108432      1.467835      2.104293
  H      -6.205869      1.651910      4.497458
  H      -7.578100      2.680075      4.934250
  H      -5.925658      3.241273      5.226863
  H      -3.042471      1.687536      1.970163
  H      -4.643898      0.928547      1.909235
  H      -3.894225      1.296267      3.471779
  H      -2.347913      6.822361     -0.983471
  H      -0.780986      7.008034     -1.822927
  H      -0.832640      6.832804     -0.045845
  H      -2.481323      2.259185     -3.567980
69
Coordinates from ORCA-job goat_0_46 E -1780.867954493711
  O      -1.263981      2.562219      0.069124
  C      -1.830806      2.241201     -1.196451
  H      -1.599486      1.192326     -1.396819
  C      -3.358303      2.387033     -1.190427
  H      -3.748934      1.923653     -0.281790
  O      -3.848527      1.721444     -2.356114
  Si     -4.866534      0.394836     -2.229044
  C      -6.447017      0.940389     -1.390813
  C      -5.147521     -0.172225     -4.003899
  C      -6.220978     -1.272268     -4.004488
  C      -5.628094      1.008194     -4.861178
  C      -3.844706     -0.734388     -4.592063
  C      -4.035787     -0.916577     -1.184947
  C      -3.837537      3.835149     -1.225665
  H      -4.866346      3.812450     -1.591587
  C      -3.888954      4.515019      0.146503
  O      -4.953892      3.935542      0.884997
  Si     -4.811314      3.376946      2.452317
  C      -3.733565      4.550752      3.437870
  C      -6.579067      3.326369      3.113174
  C      -7.140361      4.754214      3.190806
  C      -7.464331      2.480594      2.185655
  C      -6.580727      2.703306      4.517580
  C      -4.028936      1.675661      2.468645
  O      -3.137413      4.624135     -2.201520
  C      -1.730838      4.537489     -2.218145
  H      -1.428297      5.101191     -3.106667
  O      -1.134731      5.092285     -1.066969
  C      -1.259083      6.513083     -0.979149
  C      -1.232148      3.093236     -2.320313
  H      -0.143865      3.105533     -2.227033
  O      -1.541749      2.559063     -3.599788
  H      -1.068485      3.510515      0.077790
  H      -7.089873      0.081331     -1.177138
  H      -7.010153      1.647776     -2.005893
  H      -6.215693      1.426586     -0.438272
  H      -6.388741     -1.632859     -5.026571
  H      -7.176869     -0.903154     -3.620207
  H      -5.920713     -2.130107     -3.393826
  H      -4.878779      1.803711     -4.906321
  H      -6.555572      1.438651     -4.470625
  H      -5.824782      0.669969     -5.886071
  H      -3.499131     -1.610959     -4.036438
  H      -3.041028      0.008570     -4.583811
  H      -4.005683     -1.041111     -5.632948
  H      -3.858652     -0.546652     -0.170417
  H      -3.076371     -1.225143     -1.608503
  H      -4.676701     -1.800619     -1.110277
  H      -2.942795      4.434007      0.682851
  H      -4.098725      5.577148     -0.011102
  H      -2.688692      4.480554      3.120566
  H      -3.775995      4.294823      4.501156
  H      -4.057465      5.589283      3.326161
  H      -8.175468      4.732876      3.553940
  H      -7.138851      5.240077      2.210274
  H      -6.559634      5.377595      3.877537
  H      -7.508694      2.902452      1.177819
  H      -8.487454      2.439182      2.579798
  H      -7.097016      1.452926      2.103809
  H      -6.216404      1.671573      4.501436
  H      -7.600510      2.689664      4.921544
  H      -5.955597      3.270782      5.214432
  H      -3.033275      1.712386      2.017047
  H      -4.627673      0.944646      1.917923
  H      -3.920414      1.321273      3.498409
  H      -2.308105      6.816264     -0.969507
  H      -0.747971      6.987051     -1.823773
  H      -0.784894      6.814900     -0.045760
  H      -2.458470      2.241791     -3.562871
69
Coordinates from ORCA-job goat_0_46 E -1780.868011536385
  O      -1.258537      2.554530      0.066664
  C      -1.830342      2.241689     -1.197978
  H      -1.604349      1.192018     -1.399800
  C      -3.357493      2.393324     -1.192321
  H      -3.749632      1.930312     -0.283430
  O      -3.848421      1.729780     -2.360201
  Si     -4.863511      0.399706     -2.223640
  C      -6.441476      0.943203     -1.379058
  C      -5.154071     -0.173891     -3.994523
  C      -6.221517     -1.279385     -3.983125
  C      -5.646596      1.000521     -4.851540
  C      -3.853045     -0.729750     -4.590852
  C      -4.019131     -0.906043     -1.182794
  C      -3.832574      3.842441     -1.227551
  H      -4.860942      3.824413     -1.594963
  C      -3.883920      4.517914      0.145220
  O      -4.957773      3.942881      0.875128
  Si     -4.816174      3.378471      2.441644
  C      -3.740455      4.550751      3.431845
  C      -6.583119      3.323993      3.104270
  C      -7.146148      4.749583      3.189808
  C      -7.469567      2.483234      2.175242
  C      -6.581264      2.694141      4.505418
  C      -4.034671      1.676358      2.446318
  O      -3.127801      4.629765     -2.200493
  C      -1.721918      4.538037     -2.212535
  H      -1.415991      5.103946     -3.098125
  O      -1.130540      5.088390     -1.057305
  C      -1.246159      6.509610     -0.971387
  C      -1.228210      3.093129     -2.319245
  H      -0.140095      3.100052     -2.226791
  O      -1.541611      2.566514     -3.599887
  H      -1.068788      3.503683      0.081076
  H      -7.087922      0.084216     -1.177909
  H      -6.999506      1.660099     -1.986855
  H      -6.209379      1.416280     -0.420725
  H      -6.391490     -1.646776     -5.001944
  H      -7.177187     -0.912706     -3.597362
  H      -5.914254     -2.131840     -3.369170
  H      -4.899851      1.797316     -4.906631
  H      -6.571134      1.430275     -4.454276
  H      -5.850833      0.657860     -5.873031
  H      -3.498130     -1.602437     -4.035572
  H      -3.054859      0.018504     -4.590046
  H      -4.019585     -1.039758     -5.629419
  H      -3.851731     -0.539416     -0.165621
  H      -3.054175     -1.196601     -1.605477
  H      -4.647162     -1.799524     -1.116604
  H      -2.941539      4.424755      0.685730
  H      -4.083889      5.582291     -0.007613
  H      -2.698206      4.494783      3.105054
  H      -3.771420      4.283903      4.492342
  H      -4.076297      5.586326      3.332180
  H      -8.180638      4.724569      3.553264
  H      -7.145792      5.240635      2.212292
  H      -6.566222      5.369699      3.879634
  H      -7.517498      2.911075      1.170392
  H      -8.491105      2.438795      2.572067
  H      -7.101821      1.456548      2.086447
  H      -6.219358      1.662205      4.483191
  H      -7.599779      2.680543      4.911367
  H      -5.953986      3.257168      5.203334
  H      -3.035887      1.715183      2.002254
  H      -4.631537      0.953684      1.882618
  H      -3.934668      1.311053      3.472745
  H      -2.293156      6.819163     -0.959946
  H      -0.734380      6.977350     -1.818422
  H      -0.767168      6.809020     -0.040250
  H      -2.457778      2.248051     -3.559168
69
Coordinates from ORCA-job goat_0_46 E -1780.868044072608
  O      -1.264545      2.540492      0.063383
  C      -1.839354      2.233561     -1.200977
  H      -1.618776      1.182903     -1.404339
  C      -3.366028      2.391181     -1.194388
  H      -3.759638      1.926328     -0.287220
  O      -3.859097      1.733820     -2.365678
  Si     -4.868051      0.397561     -2.230005
  C      -6.448944      0.930905     -1.385509
  C      -5.154614     -0.174123     -4.001596
  C      -6.212339     -1.288562     -3.994577
  C      -5.656084      0.998691     -4.855301
  C      -3.848845     -0.716746     -4.599315
  C      -4.013850     -0.905032     -1.193214
  C      -3.834735      3.842241     -1.224403
  H      -4.864279      3.830937     -1.588835
  C      -3.878555      4.512915      0.150652
  O      -4.956886      3.944861      0.880388
  Si     -4.814298      3.387168      2.450107
  C      -3.746051      4.568279      3.437384
  C      -6.581311      3.329086      3.110774
  C      -7.150296      4.752407      3.188746
  C      -7.463341      2.481836      2.183921
  C      -6.579567      2.705593      4.514507
  C      -4.027112      1.687929      2.458989
  O      -3.128025      4.628205     -2.196033
  C      -1.722944      4.531183     -2.208674
  H      -1.415521      5.098721     -3.092748
  O      -1.131730      5.077498     -1.051148
  C      -1.236154      6.499160     -0.967160
  C      -1.234909      3.084993     -2.320892
  H      -0.146685      3.086766     -2.228638
  O      -1.551652      2.566085     -3.602968
  H      -1.074602      3.489633      0.081476
  H      -7.096188      0.069314     -1.198817
  H      -7.003339      1.655017     -1.987977
  H      -6.222576      1.392715     -0.420569
  H      -6.376542     -1.654930     -5.014739
  H      -7.172134     -0.930847     -3.610874
  H      -5.899336     -2.140342     -3.382753
  H      -4.915471      1.801441     -4.906651
  H      -6.584612      1.420262     -4.458720
  H      -5.855074      0.658133     -5.878498
  H      -3.485912     -1.587993     -4.046951
  H      -3.057751      0.038793     -4.596307
  H      -4.012315     -1.024978     -5.638853
  H      -3.858562     -0.544992     -0.171773
  H      -3.042181     -1.177423     -1.612493
  H      -4.629290     -1.807916     -1.138427
  H      -2.935970      4.409361      0.689262
  H      -4.068950      5.579722      0.002547
  H      -2.704521      4.523471      3.106902
  H      -3.769795      4.301172      4.497917
  H      -4.093405      5.600043      3.338187
  H      -8.186032      4.724461      3.548357
  H      -7.148584      5.239184      2.209137
  H      -6.576097      5.377935      3.878431
  H      -7.509533      2.905098      1.177134
  H      -8.485937      2.437450      2.578087
  H      -7.094235      1.455137      2.101320
  H      -6.216302      1.674124      4.497500
  H      -7.598803      2.692139      4.918730
  H      -5.954987      3.273069      5.211187
  H      -3.026483      1.728718      2.019327
  H      -4.620610      0.964844      1.892204
  H      -3.930434      1.322224      3.485524
  H      -2.280741      6.817100     -0.953983
  H      -0.723072      6.961194     -1.816584
  H      -0.751819      6.796744     -0.038248
  H      -2.468750      2.249688     -3.561282
69
Coordinates from ORCA-job goat_0_46 E -1780.868063149970
  O      -1.260116      2.537249      0.055072
  C      -1.839816      2.234023     -1.207886
  H      -1.622549      1.183120     -1.413755
  C      -3.366459      2.394381     -1.196186
  H      -3.758370      1.928834     -0.288604
  O      -3.864781      1.739261     -2.366627
  Si     -4.867055      0.397798     -2.225686
  C      -6.446364      0.924501     -1.375400
  C      -5.157256     -0.175635     -3.995832
  C      -6.211184     -1.293480     -3.987558
  C      -5.663990      0.995890     -4.848633
  C      -3.851158     -0.714792     -4.596482
  C      -4.001272     -0.899952     -1.192627
  C      -3.833154      3.846138     -1.222633
  H      -4.863523      3.837323     -1.584879
  C      -3.874391      4.511990      0.154924
  O      -4.956997      3.946610      0.880673
  Si     -4.816631      3.386094      2.450013
  C      -3.749434      4.564270      3.441143
  C      -6.584523      3.329815      3.107263
  C      -7.151068      4.754231      3.187214
  C      -7.466317      2.487027      2.175671
  C      -6.587742      2.702805      4.509329
  C      -4.031908      1.686078      2.453868
  O      -3.126930      4.633458     -2.193190
  C      -1.722074      4.534130     -2.209646
  H      -1.415631      5.103541     -3.092931
  O      -1.127224      5.076679     -1.051864
  C      -1.223728      6.498613     -0.967002
  C      -1.237544      3.087109     -2.328080
  H      -0.148942      3.085991     -2.238646
  O      -1.560072      2.573697     -3.610537
  H      -1.067860      3.485949      0.075007
  H      -7.092679      0.061131     -1.193295
  H      -7.001846      1.651635     -1.973483
  H      -6.219920      1.381683     -0.408106
  H      -6.375552     -1.659841     -5.007880
  H      -7.171902     -0.939208     -3.602669
  H      -5.894514     -2.145080     -3.377254
  H      -4.926181      1.801382     -4.900301
  H      -6.593852      1.414293     -4.451683
  H      -5.862184      0.655324     -5.872116
  H      -3.483974     -1.584794     -4.044812
  H      -3.062155      0.042925     -4.596384
  H      -4.016350     -1.024273     -5.635500
  H      -3.849968     -0.542749     -0.169509
  H      -3.026633     -1.160217     -1.612973
  H      -4.607072     -1.809585     -1.141041
  H      -2.932822      4.400696      0.693927
  H      -4.057929      5.580742      0.011433
  H      -2.708085      4.523975      3.109127
  H      -3.770424      4.292709      4.500684
  H      -4.099953      5.595482      3.346369
  H      -8.188411      4.727191      3.542592
  H      -7.144844      5.243512      2.208766
  H      -6.578876      5.377126      3.881021
  H      -7.508845      2.913701      1.170117
  H      -8.490295      2.444160      2.566803
  H      -7.100180      1.459361      2.091084
  H      -6.227580      1.670159      4.490699
  H      -7.608198      2.691251      4.910995
  H      -5.963635      3.266887      5.209312
  H      -3.031097      1.726211      2.014385
  H      -4.627262      0.966927      1.883975
  H      -3.935812      1.315576      3.478809
  H      -2.266594      6.822309     -0.949201
  H      -0.712182      6.958747     -1.818614
  H      -0.733358      6.794102     -0.040449
  H      -2.477934      2.259411     -3.566358
69
Coordinates from ORCA-job goat_0_46 E -1780.868068659172
  O      -1.259833      2.532192      0.050004
  C      -1.841633      2.231788     -1.212740
  H      -1.625906      1.181158     -1.421336
  C      -3.368225      2.393865     -1.198146
  H      -3.759578      1.927479     -0.290800
  O      -3.869720      1.741254     -2.368541
  Si     -4.867710      0.396522     -2.227073
  C      -6.446884      0.918880     -1.374802
  C      -5.157866     -0.176566     -3.997311
  C      -6.211442     -1.294728     -3.990986
  C      -5.664338      0.995483     -4.849921
  C      -3.851236     -0.715643     -4.597451
  C      -3.996974     -0.899358     -1.196040
  C      -3.833306      3.846319     -1.221286
  H      -4.864400      3.839205     -1.581498
  C      -3.871316      4.509737      0.157966
  O      -4.955421      3.946671      0.883282
  Si     -4.815828      3.388270      2.453601
  C      -3.751067      4.568378      3.444453
  C      -6.584438      3.332059      3.108463
  C      -7.151804      4.756652      3.184884
  C      -7.464334      2.487210      2.176439
  C      -6.590089      2.707448      4.511576
  C      -4.029771      1.689160      2.458754
  O      -3.128085      4.634697     -2.191523
  C      -1.723300      4.534504     -2.209703
  H      -1.416754      5.105826     -3.091716
  O      -1.126966      5.073468     -1.050969
  C      -1.223040      6.495103     -0.961562
  C      -1.240250      3.087074     -2.332055
  H      -0.151520      3.084816     -2.243469
  O      -1.564921      2.576422     -3.615150
  H      -1.064720      3.480285      0.071306
  H      -7.092515      0.054444     -1.194977
  H      -7.003125      1.647114     -1.971101
  H      -6.221196      1.374269     -0.406450
  H      -6.375228     -1.659871     -5.011941
  H      -7.172637     -0.941448     -3.606139
  H      -5.894741     -2.147191     -3.381752
  H      -4.927137      1.801694     -4.900234
  H      -6.595115      1.412887     -4.453874
  H      -5.861277      0.655547     -5.873948
  H      -3.484290     -1.585819     -4.045819
  H      -3.061826      0.041763     -4.597253
  H      -4.016109     -1.025157     -5.636608
  H      -3.848253     -0.544500     -0.171675
  H      -3.020533     -1.153375     -1.616268
  H      -4.597793     -1.812521     -1.147098
  H      -2.929671      4.394043      0.696075
  H      -4.050623      5.579622      0.016841
  H      -2.709382      4.530369      3.112895
  H      -3.771573      4.297367      4.504226
  H      -4.103755      5.598882      3.349041
  H      -8.190137      4.729663      3.537601
  H      -7.143411      5.244371      2.205593
  H      -6.581825      5.381056      3.879196
  H      -7.505002      2.912345      1.170116
  H      -8.489165      2.444657      2.565585
  H      -7.097866      1.459451      2.094242
  H      -6.229143      1.674922      4.495426
  H      -7.611328      2.695830      4.911496
  H      -5.967658      3.273152      5.211860
  H      -3.029721      1.729352      2.017452
  H      -4.625831      0.969396      1.890304
  H      -3.931604      1.318932      3.483663
  H      -2.265909      6.818866     -0.939436
  H      -0.714217      6.958526     -1.813157
  H      -0.729833      6.788279     -0.035670
  H      -2.483055      2.263067     -3.570904
69
Coordinates from ORCA-job goat_0_46 E -1780.868070311998
  O      -1.260307      2.529920      0.047396
  C      -1.843352      2.230941     -1.215150
  H      -1.628526      1.180488     -1.425319
  C      -3.369747      2.394459     -1.198820
  H      -3.760876      1.928047     -0.291359
  O      -3.873437      1.743403     -2.369028
  Si     -4.868223      0.396396     -2.227481
  C      -6.447608      0.915909     -1.374242
  C      -5.158092     -0.176916     -3.997767
  C      -6.211570     -1.295156     -3.992130
  C      -5.664338      0.995119     -4.850614
  C      -3.851062     -0.716009     -4.597224
  C      -3.994565     -0.898159     -1.197365
  C      -3.833251      3.847523     -1.220064
  H      -4.864705      3.841590     -1.579230
  C      -3.869604      4.509304      0.160204
  O      -4.954692      3.947322      0.884810
  Si     -4.815902      3.389491      2.455435
  C      -3.752815      4.570469      3.446789
  C      -6.585064      3.332452      3.108828
  C      -7.153328      4.756872      3.183899
  C      -7.463628      2.486421      2.176458
  C      -6.591663      2.708621      4.512280
  C      -4.028535      1.691106      2.460478
  O      -3.128422      4.636369     -2.190350
  C      -1.723681      4.534799     -2.210307
  H      -1.417286      5.106464     -3.092145
  O      -1.124749      5.071821     -1.052073
  C      -1.219131      6.493469     -0.960670
  C      -1.242285      3.086872     -2.334207
  H      -0.153485      3.083554     -2.246573
  O      -1.568547      2.577134     -3.617432
  H      -1.063306      3.477608      0.068913
  H      -7.092419      0.050777     -1.194779
  H      -7.004839      1.643929     -1.969974
  H      -6.222310      1.371152     -0.405763
  H      -6.375137     -1.660040     -5.013210
  H      -7.172902     -0.942240     -3.607250
  H      -5.894861     -2.147681     -3.382921
  H      -4.927482      1.801621     -4.900799
  H      -6.595404      1.412104     -4.454689
  H      -5.861249      0.654994     -5.874597
  H      -3.484661     -1.586326     -4.045446
  H      -3.061297      0.041099     -4.596526
  H      -4.015457     -1.025390     -5.636514
  H      -3.847281     -0.544499     -0.172355
  H      -3.017122     -1.148803     -1.617380
  H      -4.592488     -1.813333     -1.149962
  H      -2.928115      4.390728      0.698025
  H      -4.046488      5.579788      0.020627
  H      -2.710852      4.533766      3.115915
  H      -3.773654      4.299530      4.506597
  H      -4.106502      5.600651      3.351272
  H      -8.192056      4.729425      3.535436
  H      -7.144096      5.244160      2.204387
  H      -6.584432      5.381925      3.878511
  H      -7.503797      2.911001      1.169877
  H      -8.488715      2.443231      2.564851
  H      -7.096150      1.458966      2.095056
  H      -6.229138      1.676591      4.497070
  H      -7.613249      2.695759      4.911267
  H      -5.970581      3.275506      5.212845
  H      -3.029398      1.731849      2.017133
  H      -4.625137      0.970862      1.893134
  H      -3.928194      1.320712      3.485125
  H      -2.261561      6.818333     -0.935350
  H      -0.712020      6.957806     -1.812801
  H      -0.723380      6.785097     -0.035616
  H      -2.486955      2.264865     -3.573177
69
Coordinates from ORCA-job goat_0_46 E -1780.868070331245
  O      -1.260916      2.526247      0.045413
  C      -1.845106      2.229473     -1.217137
  H      -1.631365      1.179174     -1.429064
  C      -3.371243      2.394917     -1.199503
  H      -3.762428      1.928720     -0.291912
  O      -3.877016      1.745489     -2.369646
  Si     -4.868679      0.396287     -2.228288
  C      -6.448263      0.912897     -1.373720
  C      -5.158803     -0.176979     -3.998642
  C      -6.212309     -1.295149     -3.992961
  C      -5.665117      0.995041     -4.851417
  C      -3.851751     -0.716066     -4.598052
  C      -3.992124     -0.897390     -1.199572
  C      -3.832843      3.848661     -1.219211
  H      -4.864516      3.844205     -1.577764
  C      -3.867684      4.509116      0.161707
  O      -4.953732      3.948222      0.885675
  Si     -4.815818      3.391833      2.456914
  C      -3.755485      4.575093      3.448413
  C      -6.585562      3.332656      3.108761
  C      -7.155902      4.756300      3.182445
  C      -7.462137      2.484680      2.176337
  C      -6.592261      2.709691      4.512590
  C      -4.025769      1.694728      2.462954
  O      -3.127764      4.637639     -2.189282
  C      -1.723190      4.534285     -2.210093
  H      -1.416452      5.106470     -3.091465
  O      -1.122699      5.069117     -1.051735
  C      -1.215890      6.490700     -0.958017
  C      -1.243703      3.085907     -2.335554
  H      -0.154866      3.081203     -2.248844
  O      -1.571420      2.577468     -3.619011
  H      -1.061877      3.473479      0.067406
  H      -7.092080      0.047069     -1.194126
  H      -7.006763      1.640447     -1.968842
  H      -6.222910      1.368163     -0.405277
  H      -6.376035     -1.660071     -5.013958
  H      -7.173524     -0.942274     -3.607808
  H      -5.895526     -2.147491     -3.383537
  H      -4.928349      1.801526     -4.902106
  H      -6.595958      1.411959     -4.454855
  H      -5.862878      0.654669     -5.875129
  H      -3.485868     -1.586740     -4.046519
  H      -3.061665      0.040700     -4.596708
  H      -4.015999     -1.024839     -5.637526
  H      -3.845946     -0.545096     -0.173955
  H      -3.013921     -1.145017     -1.619613
  H      -4.587556     -1.814264     -1.153887
  H      -2.926400      4.387928      0.699350
  H      -4.042511      5.580062      0.023328
  H      -2.713195      4.540173      3.118467
  H      -3.776839      4.304772      4.508356
  H      -4.110813      5.604637      3.352175
  H      -8.194848      4.727565      3.533159
  H      -7.146504      5.243072      2.202700
  H      -6.588324      5.382475      3.877099
  H      -7.502419      2.908545      1.169466
  H      -8.487303      2.439973      2.564239
  H      -7.092672      1.457886      2.095750
  H      -6.227091      1.678575      4.498342
  H      -7.614117      2.694561      4.910680
  H      -5.973056      3.278437      5.213292
  H      -3.027442      1.736670      2.017899
  H      -4.622037      0.973224      1.896819
  H      -3.923397      1.324829      3.487547
  H      -2.257993      6.816345     -0.930394
  H      -0.709809      6.956006     -1.810193
  H      -0.718488      6.780472     -0.033281
  H      -2.490235      2.266550     -3.574715
