69
Coordinates from ORCA-job goat_0_21 E -1780.873580789883
  O          -1.18269064577516      0.94058227789301     -1.81705097096208
  C          -1.57242805114532      2.30776814304584     -1.85647904491599
  H          -1.41389295042627      2.71384793351864     -2.86535999718071
  C          -3.05390372569399      2.39652849081745     -1.52690132947738
  H          -3.22734273522941      1.90919424316585     -0.56329925281540
  O          -3.83630448597183      1.80442061656241     -2.54127650421837
  Si         -4.38351108885114      0.22348085387842     -2.56648844801479
  C          -4.22359549395792     -0.55003275868740     -0.87037666957587
  C          -6.19875543943150      0.30605421710568     -3.09688258054063
  C          -7.06779574706973      0.79824549167891     -1.93127266344262
  C          -6.35162753028383      1.26782166231286     -4.28372851929728
  C          -6.67168914372275     -1.09332656483651     -3.51784607312551
  C          -3.39232217769599     -0.73613787071811     -3.82988947101020
  C          -3.46967926756768      3.86361331581708     -1.40268873653580
  H          -3.33616768261019      4.35701008725868     -2.37683298797008
  C          -4.92255826490886      4.02124363190407     -0.99584614385151
  O          -5.27493628370656      3.21894055120766      0.11263740220904
  Si         -5.03376855819945      3.56792317053443      1.72675992413802
  C          -4.93240119947309      5.41894350391873      1.98310061554776
  C          -6.54603439474101      2.83310600359010      2.59437342712385
  C          -6.46191585885025      3.09411854494999      4.10494355815935
  C          -7.82374684408953      3.47896856932114      2.04058322455846
  C          -6.60009406182685      1.31854739812851      2.34557916210331
  C          -3.47173551118944      2.73765526569917      2.34034496448406
  O          -2.66469404438470      4.51363089709283     -0.42222694674906
  C          -1.29677253689093      4.54549123042777     -0.78898911529113
  H          -1.19289022238003      5.05409694992560     -1.76211012483333
  O          -0.58664122236581      5.22300602125852      0.19335539696478
  C          -0.80784430401159      6.63377220561034      0.18424565449656
  C          -0.75512060124322      3.12573416789092     -0.86933576460129
  H          -0.83525254173505      2.67456246273902      0.12714836363792
  O           0.59214193093719      3.10769752210263     -1.32242608352617
  H          -0.23654212464772      0.90848812239591     -2.00352238426394
  H          -4.70019396980507      0.06269974926862     -0.10056605237100
  H          -3.17434183586304     -0.69183770740934     -0.60068280511840
  H          -4.71168845152577     -1.52976705061294     -0.87116589258217
  H          -8.10875834648333      0.91125336824760     -2.25931243866771
  H          -6.72844427327291      1.76397034152336     -1.54792056621655
  H          -7.05817629852976      0.08899869415050     -1.09855684164997
  H          -5.73268759777141      0.96428548850697     -5.13421581148751
  H          -6.07016771856871      2.28767137347002     -4.00830751694118
  H          -7.39521636906962      1.28482047479756     -4.62211092417641
  H          -6.54371003033539     -1.82465009579668     -2.71288186627857
  H          -6.12705561042418     -1.45692684509218     -4.39355323512517
  H          -7.73781516558375     -1.06769041318560     -3.77492162086472
  H          -2.32865852980208     -0.66842024901987     -3.59135575823055
  H          -3.54752301072381     -0.33833875990332     -4.83722126478359
  H          -3.68168479297591     -1.79100884098890     -3.83443034084887
  H          -5.11179534245014      5.08086331047963     -0.79344023635578
  H          -5.54882486186892      3.71832764818612     -1.83770077176633
  H          -5.81741764314917      5.93058125736017      1.59474315192128
  H          -4.05031114241083      5.82566927376544      1.48274837971298
  H          -4.85227841997418      5.64420331687242      3.05068262767837
  H          -5.57054188211916      2.63877721240669      4.54672107147761
  H          -7.33684490450484      2.66627747149174      4.60979870437883
  H          -6.44111813954873      4.16473458897318      4.33041407203922
  H          -7.83854381394584      4.55926520810499      2.21457514050187
  H          -8.70654072983718      3.05152320224976      2.53218394043010
  H          -7.92329156933171      3.30815222877423      0.96486333296815
  H          -6.65844698165220      1.08890859539773      1.27788149656708
  H          -7.48568399656107      0.88838984996212      2.82992015300814
  H          -5.72027530284327      0.81097860139784      2.75230518905622
  H          -3.46408741587878      1.67512136448627      2.08065359192677
  H          -3.39036940805735      2.82182460544503      3.42823461597904
  H          -2.59362471986503      3.20656518644977      1.89197679059336
  H          -0.58344478917371      7.04872311749978     -0.80430476140482
  H          -0.13135892356872      7.06307554770362      0.92254412596306
  H          -1.84049817306244      6.86980154737249      0.45365966124494
  H           1.13877294967806      3.51379101015476     -0.63953927180168
