69
Coordinates from ORCA-job goat_0_110
  O          -1.34793776095172      2.20474394550222     -0.44182035510810
  C          -1.98899696547938      2.23766700959538     -1.71347283347571
  H          -1.90673571104976      1.23574483703213     -2.14337702520473
  C          -3.48325515755741      2.56799725182513     -1.58576275264544
  H          -3.90715382602823      1.97120841982084     -0.77566963693264
  O          -4.08565079892985      2.24355605685423     -2.83616268034055
  Si         -5.48972780537429      1.35491011717407     -3.04160903934763
  C          -6.02001963537722      1.76650947527520     -4.78359421921225
  C          -5.11413568452844     -0.48806981845293     -2.85045290679019
  C          -4.61882810632961     -0.79217586142969     -1.42904200734693
  C          -6.39279822636367     -1.29451837534752     -3.12205576174552
  C          -4.03249011112548     -0.90171263341565     -3.85933220735817
  C          -6.74676764818732      1.92018819104564     -1.77594039453073
  C          -3.76577194296211      4.03864565676747     -1.28416908337059
  H          -4.80232459008137      4.22327185915154     -1.57704786446376
  C          -3.67265383851371      4.39630557612357      0.20213630254131
  O          -4.67509288482635      3.64842639538813      0.87483557999827
  Si         -4.74327029108515      3.57738645369038      2.54065694487206
  C          -5.11671238089197      5.28282061251358      3.21791461365886
  C          -6.12128156201151      2.34236264181204      2.91345391996516
  C          -5.75286532419146      0.96792114543633      2.33167799699964
  C          -6.30426309187724      2.21488419648092      4.43120097394262
  C          -7.43985272121616      2.82177511896074      2.28528783885987
  C          -3.08964257834790      2.99522729452991      3.19954519547643
  O          -2.99887563467351      4.92726897234716     -2.11246981120072
  C          -1.61634904090331      4.67218180670119     -2.23381641649748
  H          -1.27062524415099      5.37321188376561     -3.00045670147817
  O          -0.91108372389887      4.88633451475299     -1.03109583051168
  C          -0.85471282204910      6.25733689313839     -0.62805437240426
  C          -1.31645152928021      3.23258058741183     -2.66652731572251
  H          -0.23320279858530      3.08975607068431     -2.63225791634550
  O          -1.73468040604984      3.02382403491334     -4.00879587906150
  H          -1.01594425243838      3.09334331195062     -0.24651623031535
  H          -6.23086210800184      2.83882412431030     -4.86399317364888
  H          -6.92469988650726      1.21985841985839     -5.06950976796282
  H          -5.23151725432081      1.51780382991094     -5.50091279941367
  H          -4.45397175309469     -1.87216652976363     -1.31308822078277
  H          -5.34508563985542     -0.48248982780515     -0.67052796969792
  H          -3.66910763301646     -0.29220000596788     -1.21426581938487
  H          -6.78160321338922     -1.11223128099083     -4.12953588750491
  H          -7.18412011340025     -1.05465346916867     -2.40411624090156
  H          -6.18095402629618     -2.36897833595854     -3.03579471023083
  H          -4.36505880245967     -0.74944113535790     -4.89161312953998
  H          -3.79369030452054     -1.96704484287285     -3.73945619445137
  H          -3.10757987907406     -0.33362779627903     -3.71424977809022
  H          -6.31369655451402      1.94516258261261     -0.77263922875284
  H          -7.61346507809140      1.25292160465850     -1.75038197293043
  H          -7.09702227221824      2.93093855850447     -2.01233930599287
  H          -2.69150437409340      4.17015443846928      0.61642141522820
  H          -3.85249534483395      5.47078884525098      0.31009169857255
  H          -5.24320674442302      5.25154615435130      4.30553703583061
  H          -6.03115089576101      5.69566208648557      2.77977549025418
  H          -4.29308142068253      5.97063782143049      2.99587667515013
  H          -6.55642927828695      0.24595128838845      2.53143124470340
  H          -4.83418639161881      0.57537757853318      2.78074776250729
  H          -5.60706537123236      1.01330604169366      1.24841245867475
  H          -7.10508310870484      1.49677869145577      4.65345103015407
  H          -6.58044954881816      3.17179637948019      4.88712299271007
  H          -5.39189863985784      1.85787451501249      4.92069942925716
  H          -8.23993987406061      2.09684948180640      2.48927437529042
  H          -7.35420634779146      2.92861119515885      1.19931652040761
  H          -7.75200891563536      3.78714681757239      2.69751359546781
  H          -2.76765821533463      2.07018205211693      2.71007569035587
  H          -3.15107106942720      2.80772075755454      4.27700687406247
  H          -2.31610886743741      3.75348908028478      3.03499270842362
  H          -0.31787129135775      6.84949636195001     -1.37839729692799
  H          -0.31416066421396      6.28901392288267      0.31918555370900
  H          -1.85810469081946      6.66891241466160     -0.48778061008058
  H          -2.68489029153235      2.82072447777058     -3.98158046936881
