69
Coordinates from ORCA-job goat_0_71 E -1780.867008999478
  O          -1.71476421766209      1.85589679633263     -0.08689830907479
  C          -2.15195906677140      1.98725376192958     -1.43315538279247
  H          -2.15327451557654      0.98471318038458     -1.86576436977040
  C          -3.58485175156936      2.53235807670727     -1.52112003797126
  H          -4.20113479688846      2.01909687539374     -0.77940279189592
  O          -4.04725446091848      2.27343381247551     -2.84908302441689
  Si         -5.48086645303955      1.47344488720459     -3.20371254665399
  C          -5.83303879908882      1.94667471548959     -4.97437258395903
  C          -5.24100636200843     -0.39354826713549     -3.02520413128666
  C          -4.93166277023328     -0.76914368427692     -1.56854081545462
  C          -6.53252574039749     -1.10593685741407     -3.45696878965069
  C          -4.08500162933250     -0.85415919009494     -3.92465943422344
  C          -6.82980106780714      2.08935705201708     -2.06280907823063
  C          -3.68811622016616      4.03433067130279     -1.25894754030314
  H          -4.62028381752449      4.36580523351469     -1.72113961329681
  C          -3.80417364262319      4.39930248121498      0.22196941585881
  O          -5.07348282739337      3.93320696729179      0.65136387995552
  Si         -5.59344399997621      3.92784095598549      2.23949766273608
  C          -7.44196824847632      4.18225262524067      2.13404184183875
  C          -5.18773810412374      2.25996957091555      3.03246523681408
  C          -3.66829525277963      2.04412375108691      3.06971098083596
  C          -5.73851799195372      2.22595707215042      4.46557776979692
  C          -5.83261460690050      1.13314174828576      2.21246888521687
  C          -4.77519858614141      5.33682130169515      3.16103107265885
  O          -2.67465748641797      4.79138693119057     -1.93594324094727
  C          -1.34766487135754      4.33105541262079     -1.83987518174175
  H          -0.78218255707993      4.97200767888508     -2.52395211418442
  O          -0.82839813101784      4.43959722459159     -0.53313230749316
  C          -0.62095914253359      5.78551296663211     -0.10465670606574
  C          -1.20650747899586      2.86561230252355     -2.25667897010379
  H          -0.17463030964755      2.55852462140863     -2.07231009865104
  O          -1.45029114081890      2.73042593413410     -3.64816169103728
  H          -1.33004802073912      2.70148119973848      0.18628375980801
  H          -6.74674606365391      1.46480672380237     -5.33295876149294
  H          -5.01222990861697      1.65565265725071     -5.63522967027682
  H          -5.96724979838429      3.02948164254584     -5.05185968796095
  H          -3.99594425638588     -0.32426256625822     -1.21972367754448
  H          -4.82883647404333     -1.85753146278169     -1.47926189492802
  H          -5.72954324698345     -0.45510902478788     -0.88949081072500
  H          -6.78822932223518     -0.88796069613622     -4.49804819813843
  H          -7.38262712999271     -0.81747039787261     -2.83135865894867
  H          -6.40769704033687     -2.19174521306169     -3.36609607935890
  H          -3.93171711106404     -1.93481040114974     -3.81626993250318
  H          -3.14725438594507     -0.35526907460078     -3.66351650886239
  H          -4.29124331572225     -0.65267433321944     -4.97995039920695
  H          -7.78392528250058      1.62634257116992     -2.33125682930065
  H          -6.94129680003459      3.17337597814146     -2.15687363743858
  H          -6.62591551492826      1.85890230002373     -1.01446353769689
  H          -3.00214246595851      3.96545783870262      0.82090107612144
  H          -3.74738379435837      5.48897863950231      0.31083962169280
  H          -7.90589815140632      3.42396720594508      1.49708537293052
  H          -7.66096286614327      5.16537517395725      1.70718375622582
  H          -7.90795347564028      4.12906793812489      3.12182759115794
  H          -3.16075619852282      2.82635787419482      3.64227964294106
  H          -3.23869665026107      2.02345423365706      2.06490059321714
  H          -3.43872711654440      1.08293944030297      3.54666724490698
  H          -6.82447731669129      2.35765230484560      4.48697417819394
  H          -5.29103640816500      3.00559153522869      5.08965146653946
  H          -5.51231981630415      1.25874084883412      4.93099081014976
  H          -5.59263744961828      0.15898994813539      2.65633352047709
  H          -5.46685626915395      1.12876785159289      1.18167585516816
  H          -6.92246861588062      1.22512873523474      2.18360033107170
  H          -3.68824985194400      5.22491899449660      3.19679071402118
  H          -5.14406273418983      5.38559483005736      4.18958185711398
  H          -5.00401922854905      6.29020513901752      2.67523735017952
  H          -0.20787368981550      5.73679427570536      0.90205044330667
  H          -1.55965376993590      6.34348129705587     -0.08821788448465
  H           0.08974660900061      6.28498013932490     -0.77117487484132
  H          -2.41196100112985      2.65963932359590     -3.76278206802097
