69
Coordinates from ORCA-job goat_0_89 E -1780.867481810448
  O          -1.39872728519478      3.14165756510448     -0.09916144425671
  C          -1.89896865224084      2.68690698095244     -1.34941006094164
  H          -1.37459234998581      1.75723196726180     -1.58315024738942
  C          -3.39811793640584      2.36339953758967     -1.28840683255642
  H          -3.59450931064505      1.79970506232512     -0.37158462233685
  O          -3.69842959337508      1.58298284630582     -2.44838516592022
  Si         -4.42245277381014      0.07445337477019     -2.31097551582958
  C          -6.10418883307728      0.28208782126467     -1.52085427340064
  C          -4.52687154616605     -0.55643361389452     -4.08255253811071
  C          -5.26258067986274      0.46907706180522     -4.95732074479941
  C          -3.11384563839860     -0.77822024621624     -4.64125361688240
  C          -5.29585498526941     -1.88586676422860     -4.10014718553236
  C          -3.35150747758652     -1.01333002142920     -1.22930408434800
  C          -4.30061320123872      3.59519963040360     -1.29090610089212
  H          -5.27842938250840      3.26068057228499     -1.64399157391996
  C          -4.54133261464442      4.19463300189774      0.09654959238890
  O          -5.32683282891306      3.25976541287608      0.81696085469368
  Si         -5.14187191466439      2.87120096194923      2.43104687843801
  C          -3.35250744361376      3.05957999659529      2.94551443131827
  C          -6.25763285372092      3.99102049290985      3.46677562257338
  C          -6.02825379651919      3.71459387547695      4.95934522637050
  C          -5.93223373608720      5.46135268568634      3.16639815274818
  C          -7.72783271672055      3.72056192013302      3.11781818784031
  C          -5.67105420398320      1.08320362691026      2.55256722958713
  O          -3.89932981355108      4.57848092515269     -2.25570125219415
  C          -2.53435666302448      4.92055284862631     -2.30493414810781
  H          -2.44422784875656      5.57259788871174     -3.17971324464828
  O          -2.10305855518534      5.60088214117006     -1.14738109073166
  C          -2.65460978620000      6.91046689000087     -1.00865797610261
  C          -1.63013421695231      3.69627280086127     -2.46932234109866
  H          -0.59209759793522      4.03150232164786     -2.41293416663007
  O          -1.82367261091781      3.12110207377097     -3.75224571269443
  H          -1.53617528631013      4.09909510691273     -0.05307157587546
  H          -6.57321950324566     -0.69191024208264     -1.35329727458695
  H          -6.77005485882952      0.88198290778214     -2.14698388394575
  H          -6.00794654802395      0.78021131090793     -0.55166740133319
  H          -4.73285460680624      1.42549715114249     -4.98461451439120
  H          -6.27849640503298      0.65510448198292     -4.59605876629069
  H          -5.33826244458561      0.09682538316423     -5.98622544065843
  H          -2.56876115245260     -1.53588279835224     -4.07086657288040
  H          -2.52519145771991      0.14392232855654     -4.62738183833899
  H          -3.17199441105298     -1.12203769162963     -5.68112410247093
  H          -5.35001759227945     -2.27334978905936     -5.12458889195209
  H          -6.32064009945153     -1.76469493931657     -3.73647758178093
  H          -4.80553621411140     -2.64625322806324     -3.48422037236477
  H          -3.32907435859174     -0.63743350335300     -0.20195686292193
  H          -2.32467026346549     -1.05632246608862     -1.60149336020702
  H          -3.74956813059666     -2.03206836434361     -1.20082110936804
  H          -3.61126392975136      4.41665050562021      0.62155969728522
  H          -5.09557311334583      5.12993650295662     -0.02720323779387
  H          -2.69367015461913      2.53714434486088      2.24696131453192
  H          -3.21233116467388      2.62363173432978      3.93918456737348
  H          -3.03879436939982      4.10580464877357      2.99085025630653
  H          -4.99968662642194      3.93853288571558      5.25748321627535
  H          -6.23417378642988      2.67038256050259      5.21521065371324
  H          -6.69392283639229      4.34161239227311      5.56526538053580
  H          -6.55834527949999      6.11874037981158      3.78223340367512
  H          -6.12389900480644      5.70878029428133      2.11827444183248
  H          -4.88688305107924      5.70052035303932      3.38484352152234
  H          -7.92272156032112      3.87881169427994      2.05248613098906
  H          -8.38107418746733      4.39803929427792      3.68158047997619
  H          -8.01915311670641      2.69563491589515      3.36559214109299
  H          -6.66506816755900      0.93477643804657      2.12234534207119
  H          -5.69696225753164      0.75179670114299      3.59470586744547
  H          -4.96602476562446      0.44652797899872      2.00926636575756
  H          -2.22737023643084      7.33906203534723     -0.10295733952169
  H          -3.74231099364994      6.87273455794442     -0.91802837793878
  H          -2.38057807929030      7.52536787988934     -1.87217279464560
  H          -2.59216118928819      2.53113456517695     -3.68735376775146
