69
Coordinates from ORCA-job goat_0_43 E -1780.866572569262
  O      -1.368988      2.926260      0.228864
  C      -1.628673      2.475992     -1.092911
  H      -1.211772      1.470727     -1.183987
  C      -3.137590      2.391205     -1.353659
  H      -3.609997      1.882153     -0.508204
  O      -3.343896      1.682297     -2.575173
  Si     -3.830305      0.088763     -2.691759
  C      -2.991984     -0.890669     -1.340515
  C      -5.708809     -0.010082     -2.533545
  C      -6.141930      0.372275     -1.112855
  C      -6.365631      0.953150     -3.529307
  C      -6.167823     -1.442001     -2.837941
  C      -3.262210     -0.457747     -4.376957
  C      -3.784636      3.759197     -1.508918
  H      -4.749444      3.594515     -1.992601
  C      -4.079781      4.474237     -0.189892
  O      -5.098341      3.762617      0.486889
  Si     -5.035070      3.310051      2.091600
  C      -4.082323      4.590594      3.067884
  C      -6.838952      3.229597      2.642096
  C      -7.626150      2.342836      1.668997
  C      -6.940282      2.644420      4.056223
  C      -7.443408      4.639093      2.631745
  C      -4.201649      1.645082      2.246673
  O      -3.066524      4.584317     -2.432235
  C      -1.679573      4.705837     -2.255069
  H      -1.331051      5.223896     -3.153787
  O      -1.350001      5.457130     -1.104448
  C      -1.719245      6.824330     -1.221191
  C      -0.960800      3.361764     -2.145010
  H       0.068959      3.559515     -1.839963
  O      -0.912523      2.733197     -3.406948
  H      -1.216719      3.880018      0.195498
  H      -3.177391     -0.464637     -0.352017
  H      -1.911510     -0.919253     -1.496024
  H      -3.351484     -1.921323     -1.328377
  H      -5.706117     -0.294236     -0.362665
  H      -7.232118      0.305117     -1.021113
  H      -5.858841      1.398726     -0.861514
  H      -7.456241      0.888899     -3.449171
  H      -6.095819      0.719371     -4.562140
  H      -6.075410      1.987632     -3.333627
  H      -5.709944     -2.172571     -2.166078
  H      -5.927389     -1.732876     -3.862934
  H      -7.253637     -1.521981     -2.719707
  H      -3.516382     -1.502225     -4.565103
  H      -2.178984     -0.357336     -4.464721
  H      -3.721990      0.145924     -5.160583
  H      -3.186361      4.567932      0.425807
  H      -4.432152      5.483009     -0.426633
  H      -3.015586      4.569626      2.836852
  H      -4.182386      4.407708      4.140131
  H      -4.456024      5.596255      2.866852
  H      -7.595447      2.748433      0.655868
  H      -8.674994      2.281697      1.981010
  H      -7.231148      1.323631      1.636201
  H      -6.567751      1.618317      4.099069
  H      -7.986482      2.626645      4.380184
  H      -6.384119      3.237176      4.787568
  H      -7.348609      5.103390      1.647305
  H      -6.963188      5.292077      3.364914
  H      -8.509704      4.592921      2.879870
  H      -4.726357      0.884944      1.662550
  H      -4.182632      1.313209      3.287213
  H      -3.168255      1.700018      1.895244
  H      -1.442399      7.317393     -0.293071
  H      -2.792143      6.931275     -1.389823
  H      -1.180618      7.286808     -2.053219
  H      -1.788426      2.349346     -3.563753
69
Coordinates from ORCA-job goat_0_43 E -1780.867417655261
  O      -1.291405      2.908614      0.166758
  C      -1.611041      2.484563     -1.153848
  H      -1.200284      1.479613     -1.279179
  C      -3.130370      2.404016     -1.365302
  H      -3.576994      1.890524     -0.511787
  O      -3.355665      1.686552     -2.578833
  Si     -3.828059      0.084438     -2.675152
  C      -3.018905     -0.870893     -1.286597
  C      -5.710827     -0.029427     -2.572331
  C      -6.195549      0.398049     -1.180524
  C      -6.346459      0.888028     -3.626351
  C      -6.144388     -1.478795     -2.835059
  C      -3.206785     -0.483950     -4.336540
  C      -3.795154      3.770837     -1.508876
  H      -4.759674      3.597973     -1.991558
  C      -4.103631      4.479946     -0.186961
  O      -5.116369      3.753078      0.486673
  Si     -5.042648      3.298006      2.091242
  C      -4.057739      4.564375      3.055113
  C      -6.839782      3.245395      2.667684
  C      -7.659347      2.354892      1.722042
  C      -6.918655      2.677833      4.090830
  C      -7.424634      4.664809      2.653309
  C      -4.231413      1.620058      2.238607
  O      -3.089369      4.618187     -2.426761
  C      -1.697435      4.739998     -2.264835
  H      -1.362749      5.295135     -3.147507
  O      -1.344231      5.438433     -1.088279
  C      -1.699163      6.818556     -1.121528
  C      -0.980828      3.388961     -2.215928
  H       0.062916      3.574910     -1.951639
  O      -0.994085      2.781157     -3.494745
  H      -1.142952      3.863650      0.153257
  H      -3.235044     -0.432991     -0.308389
  H      -1.932767     -0.892033     -1.414529
  H      -3.372608     -1.905985     -1.271617
  H      -5.777555     -0.234832     -0.392165
  H      -7.288143      0.319649     -1.123229
  H      -5.933118      1.435328     -0.957060
  H      -7.439767      0.813436     -3.578467
  H      -6.040470      0.616478     -4.641294
  H      -6.074577      1.934311     -3.461839
  H      -5.701930     -2.175969     -2.116615
  H      -5.864532     -1.808491     -3.839945
  H      -7.234502     -1.565687     -2.750403
  H      -3.445109     -1.536721     -4.510290
  H      -2.120110     -0.371160     -4.394948
  H      -3.653007      0.101159     -5.145590
  H      -3.216223      4.590569      0.432952
  H      -4.474575      5.482275     -0.423510
  H      -2.993066      4.523971      2.808048
  H      -4.150198      4.380991      4.130086
  H      -4.417059      5.578070      2.856413
  H      -7.644281      2.741915      0.700213
  H      -8.703724      2.315239      2.055522
  H      -7.280553      1.328939      1.699274
  H      -6.556294      1.646679      4.136618
  H      -7.959451      2.677601      4.437469
  H      -6.336515      3.272753      4.801821
  H      -7.350661      5.117442      1.659834
  H      -6.913082      5.319929      3.364486
  H      -8.485206      4.637837      2.932121
  H      -4.776645      0.865054      1.665535
  H      -4.199139      1.293386      3.282431
  H      -3.203966      1.659351      1.866597
  H      -1.393642      7.253750     -0.170746
  H      -2.775524      6.947977     -1.254532
  H      -1.172558      7.322518     -1.939660
  H      -1.875885      2.395352     -3.616023
69
Coordinates from ORCA-job goat_0_43 E -1780.867708683641
  O      -1.301287      2.903910      0.164837
  C      -1.617094      2.480274     -1.157995
  H      -1.212087      1.472771     -1.280649
  C      -3.135481      2.409191     -1.376357
  H      -3.590250      1.900650     -0.525222
  O      -3.358910      1.687386     -2.588526
  Si     -3.836095      0.083298     -2.677856
  C      -3.012623     -0.883856     -1.303619
  C      -5.718449     -0.020952     -2.552353
  C      -6.182812      0.419049     -1.156864
  C      -6.361146      0.893158     -3.606004
  C      -6.163272     -1.470701     -2.798698
  C      -3.235481     -0.481112     -4.350734
  C      -3.789911      3.780592     -1.523842
  H      -4.753185      3.614076     -2.011894
  C      -4.096724      4.489348     -0.201994
  O      -5.112849      3.761662      0.468920
  Si     -5.041854      3.312044      2.076315
  C      -4.084870      4.598622      3.043030
  C      -6.840658      3.226703      2.643815
  C      -7.640147      2.302975      1.711800
  C      -6.907586      2.678591      4.075833
  C      -7.455121      4.633790      2.608260
  C      -4.199110      1.649367      2.235063
  O      -3.073457      4.630700     -2.433734
  C      -1.680883      4.743336     -2.256830
  H      -1.334748      5.312673     -3.126017
  O      -1.331594      5.414483     -1.065337
  C      -1.665035      6.802685     -1.065344
  C      -0.978088      3.383827     -2.217863
  H       0.069026      3.557116     -1.958526
  O      -1.003179      2.779899     -3.501488
  H      -1.184175      3.863975      0.160026
  H      -3.216235     -0.453401     -0.319237
  H      -1.927914     -0.906283     -1.446829
  H      -3.370236     -1.918264     -1.294173
  H      -5.763973     -0.215571     -0.370495
  H      -7.275974      0.354401     -1.087389
  H      -5.902657      1.453275     -0.940171
  H      -7.454717      0.828114     -3.542443
  H      -6.071080      0.609154     -4.622572
  H      -6.078473      1.939275     -3.453966
  H      -5.720803     -2.162543     -2.074655
  H      -5.891516     -1.812776     -3.802306
  H      -7.253932     -1.548144     -2.706030
  H      -3.478704     -1.533971     -4.521832
  H      -2.148553     -0.369200     -4.420049
  H      -3.690331      0.106858     -5.153939
  H      -3.208841      4.599572      0.419511
  H      -4.469148      5.490928     -0.438935
  H      -3.017853      4.572076      2.801588
  H      -4.184515      4.415087      4.117847
  H      -4.457510      5.606677      2.836847
  H      -7.629836      2.668057      0.681267
  H      -8.685232      2.251477      2.042461
  H      -7.242743      1.283595      1.712176
  H      -6.519389      1.657158      4.136096
  H      -7.948860      2.658850      4.421839
  H      -6.338658      3.298310      4.776775
  H      -7.396670      5.072831      1.607150
  H      -6.951558      5.310701      3.305090
  H      -8.513496      4.589814      2.894522
  H      -4.726942      0.880441      1.664121
  H      -4.163273      1.331498      3.281942
  H      -3.171592      1.706958      1.864276
  H      -1.354699      7.205285     -0.101010
  H      -2.739631      6.951860     -1.194098
  H      -1.127545      7.319334     -1.868718
  H      -1.882940      2.384648     -3.610853
69
Coordinates from ORCA-job goat_0_43 E -1780.867822726047
  O      -1.296548      2.916286      0.154242
  C      -1.618201      2.488703     -1.164854
  H      -1.212290      1.481855     -1.284819
  C      -3.137095      2.414505     -1.378856
  H      -3.589820      1.906546     -0.525775
  O      -3.363619      1.690292     -2.590092
  Si     -3.836703      0.082010     -2.671667
  C      -3.027378     -0.878906     -1.283534
  C      -5.720407     -0.022108     -2.567339
  C      -6.201028      0.435858     -1.183297
  C      -6.349847      0.878059     -3.640360
  C      -6.162378     -1.475046     -2.800402
  C      -3.212835     -0.489884     -4.335365
  C      -3.793289      3.783987     -1.524064
  H      -4.756291      3.616461     -2.011842
  C      -4.098372      4.488017     -0.199686
  O      -5.118522      3.761648      0.468552
  Si     -5.043112      3.306195      2.075132
  C      -4.073534      4.584401      3.041852
  C      -6.838841      3.226312      2.652970
  C      -7.648294      2.299729      1.733982
  C      -6.893943      2.685540      4.088921
  C      -7.450201      4.634511      2.616477
  C      -4.205608      1.638985      2.224867
  O      -3.080347      4.639183     -2.433257
  C      -1.686359      4.752366     -2.259593
  H      -1.345561      5.328684     -3.125742
  O      -1.332638      5.416227     -1.067242
  C      -1.658874      6.806497     -1.057550
  C      -0.984530      3.392284     -2.228001
  H       0.065304      3.563106     -1.979693
  O      -1.021346      2.789942     -3.512793
  H      -1.216201      3.880868      0.148831
  H      -3.246590     -0.449369     -0.302225
  H      -1.941356     -0.896252     -1.413877
  H      -3.381545     -1.913986     -1.280644
  H      -5.791234     -0.188570     -0.383922
  H      -7.294621      0.371427     -1.126304
  H      -5.923176      1.472625     -0.976202
  H      -7.443882      0.817199     -3.586258
  H      -6.050765      0.577424     -4.649062
  H      -6.065522      1.925258     -3.500791
  H      -5.734910     -2.154763     -2.056771
  H      -5.871805     -1.832945     -3.792824
  H      -7.254446     -1.548927     -2.727333
  H      -3.451546     -1.544340     -4.500985
  H      -2.125868     -0.375009     -4.389324
  H      -3.657968      0.091419     -5.147829
  H      -3.210585      4.593112      0.422738
  H      -4.467907      5.491295     -0.432961
  H      -3.008665      4.548673      2.794032
  H      -4.171123      4.396504      4.115495
  H      -4.438253      5.595624      2.839745
  H      -7.645669      2.656224      0.700657
  H      -8.690835      2.254891      2.073082
  H      -7.253870      1.279335      1.739106
  H      -6.503092      1.665547      4.150832
  H      -7.932156      2.666019      4.442642
  H      -6.320329      3.309977      4.781242
  H      -7.406217      5.066846      1.612171
  H      -6.933486      5.314626      3.300248
  H      -8.503927      4.595454      2.919233
  H      -4.740363      0.872121      1.657705
  H      -4.161607      1.322455      3.271410
  H      -3.181566      1.693807      1.844401
  H      -1.337511      7.199318     -0.093397
  H      -2.733915      6.960658     -1.173943
  H      -1.125519      7.323255     -1.862426
  H      -1.894627      2.375565     -3.603704
69
Coordinates from ORCA-job goat_0_43 E -1780.867853408193
  O      -1.269653      2.898134      0.140119
  C      -1.608105      2.480853     -1.177090
  H      -1.211347      1.471300     -1.303015
  C      -3.129030      2.418082     -1.383118
  H      -3.581866      1.911935     -0.528481
  O      -3.367540      1.697019     -2.594493
  Si     -3.844303      0.087804     -2.672047
  C      -3.017201     -0.879964     -1.299164
  C      -5.726357     -0.009660     -2.540292
  C      -6.184037      0.446565     -1.148118
  C      -6.366816      0.896327     -3.601281
  C      -6.178047     -1.459727     -2.771371
  C      -3.242534     -0.480067     -4.346208
  C      -3.779489      3.790008     -1.524851
  H      -4.741064      3.626853     -2.016578
  C      -4.088455      4.490451     -0.199420
  O      -5.114490      3.765745      0.461714
  Si     -5.048460      3.315598      2.071035
  C      -4.108047      4.610840      3.044905
  C      -6.848252      3.207184      2.630597
  C      -7.632039      2.260238      1.711533
  C      -6.906828      2.675631      4.070326
  C      -7.484374      4.603569      2.579156
  C      -4.184323      1.662772      2.234635
  O      -3.062910      4.645937     -2.430042
  C      -1.667611      4.749108     -2.258519
  H      -1.327664      5.331420     -3.120706
  O      -1.309119      5.403061     -1.062780
  C      -1.627708      6.794769     -1.044889
  C      -0.974940      3.384342     -2.239843
  H       0.078422      3.544630     -2.000370
  O      -1.028295      2.790792     -3.527913
  H      -1.200045      3.863935      0.138611
  H      -3.225605     -0.458859     -0.312217
  H      -1.933334     -0.894768     -1.443621
  H      -3.370857     -1.914746     -1.302190
  H      -5.764719     -0.182097     -0.357048
  H      -7.276691      0.386270     -1.074871
  H      -5.898567      1.481553     -0.941944
  H      -7.459901      0.843339     -3.528745
  H      -6.086795      0.594506     -4.614744
  H      -6.072612      1.940955     -3.465001
  H      -5.748254     -2.141642     -2.031583
  H      -5.897504     -1.818166     -3.766100
  H      -7.269548     -1.527335     -2.689396
  H      -3.485940     -1.533289     -4.510523
  H      -2.156485     -0.367518     -4.411434
  H      -3.695331      0.104317     -5.151272
  H      -3.204600      4.590699      0.428468
  H      -4.453579      5.495547     -0.431354
  H      -3.040798      4.587281      2.807924
  H      -4.215144      4.423197      4.117141
  H      -4.483237      5.616285      2.836046
  H      -7.624542      2.607706      0.675310
  H      -8.677133      2.201147      2.039769
  H      -7.220394      1.246893      1.729571
  H      -6.494361      1.665266      4.143787
  H      -7.947847      2.635755      4.412652
  H      -6.355016      3.317628      4.763770
  H      -7.443348      5.027630      1.571592
  H      -6.983120      5.298803      3.259001
  H      -8.538517      4.548235      2.877032
  H      -4.700237      0.884131      1.666562
  H      -4.143814      1.353137      3.282972
  H      -3.158203      1.734214      1.862986
  H      -1.296638      7.180617     -0.081763
  H      -2.702750      6.954146     -1.151964
  H      -1.097556      7.310323     -1.851811
  H      -1.899658      2.368967     -3.605086
69
Coordinates from ORCA-job goat_0_43 E -1780.867878133446
  O      -1.278068      2.898517      0.143829
  C      -1.615893      2.481837     -1.173823
  H      -1.219436      1.471893     -1.299013
  C      -3.136318      2.418551     -1.382084
  H      -3.589698      1.911688     -0.528044
  O      -3.372015      1.698015     -2.594403
  Si     -3.842241      0.086582     -2.671350
  C      -3.025718     -0.872331     -1.286607
  C      -5.724784     -0.016617     -2.557540
  C      -6.197419      0.445690     -1.172583
  C      -6.357747      0.881524     -3.629660
  C      -6.169141     -1.469363     -2.785104
  C      -3.220722     -0.485795     -4.336462
  C      -3.786796      3.790629     -1.523427
  H      -4.749295      3.628332     -2.013701
  C      -4.091610      4.491447     -0.197322
  O      -5.118942      3.770759      0.465372
  Si     -5.046150      3.314556      2.072812
  C      -4.089603      4.598852      3.045529
  C      -6.842964      3.217146      2.643410
  C      -7.639242      2.280899      1.724486
  C      -6.896730      2.678915      4.080872
  C      -7.469186      4.618334      2.603112
  C      -4.192289      1.655296      2.224063
  O      -3.070587      4.645046     -2.429264
  C      -1.675697      4.748907     -2.256916
  H      -1.335487      5.329996     -3.119995
  O      -1.321079      5.406344     -1.061400
  C      -1.644684      6.796749     -1.048732
  C      -0.981931      3.384851     -2.236354
  H       0.070957      3.545506     -1.994537
  O      -1.033403      2.792534     -3.524765
  H      -1.210534      3.864382      0.142733
  H      -3.248404     -0.450775     -0.303034
  H      -1.940159     -0.881405     -1.418240
  H      -3.373710     -1.909128     -1.292520
  H      -5.781302     -0.174998     -0.373507
  H      -7.290284      0.379158     -1.108588
  H      -5.920682      1.483853     -0.970931
  H      -7.451328      0.825892     -3.566916
  H      -6.067493      0.574697     -4.638815
  H      -6.067701      1.927691     -3.496743
  H      -5.745414     -2.145582     -2.036523
  H      -5.876244     -1.832678     -3.774492
  H      -7.261271     -1.540352     -2.714956
  H      -3.459047     -1.540393     -4.499384
  H      -2.134296     -0.370362     -4.389614
  H      -3.666167      0.094265     -5.148762
  H      -3.205976      4.586695      0.429403
  H      -4.451664      5.498884     -0.427367
  H      -3.024098      4.567384      2.801566
  H      -4.190819      4.407691      4.117765
  H      -4.458066      5.608143      2.843395
  H      -7.636788      2.635313      0.690668
  H      -8.682321      2.226037      2.059804
  H      -7.233531      1.265028      1.732510
  H      -6.490239      1.665623      4.147473
  H      -7.936193      2.643602      4.428514
  H      -6.337741      3.314267      4.774701
  H      -7.432006      5.046223      1.596969
  H      -6.958562      5.307124      3.282558
  H      -8.521694      4.569205      2.907850
  H      -4.717208      0.882132      1.656627
  H      -4.146808      1.341522      3.271004
  H      -3.167987      1.721406      1.846283
  H      -1.313824      7.188685     -0.087945
  H      -2.720383      6.951712     -1.155858
  H      -1.117402      7.310384     -1.858955
  H      -1.903892      2.368998     -3.603115
69
Coordinates from ORCA-job goat_0_43 E -1780.867885377927
  O      -1.276992      2.897302      0.142370
  C      -1.617244      2.481337     -1.175189
  H      -1.222232      1.470843     -1.301061
  C      -3.137907      2.418978     -1.381861
  H      -3.590487      1.911525     -0.527908
  O      -3.374888      1.699919     -2.594772
  Si     -3.843251      0.087726     -2.671018
  C      -3.027773     -0.868518     -1.284336
  C      -5.725594     -0.016096     -2.559055
  C      -6.200051      0.450567     -1.176201
  C      -6.357689      0.878488     -3.634852
  C      -6.168932     -1.469776     -2.782356
  C      -3.218745     -0.486654     -4.333903
  C      -3.787560      3.791869     -1.521068
  H      -4.751229      3.630841     -2.009665
  C      -4.089743      4.491034     -0.193381
  O      -5.119219      3.772800      0.468407
  Si     -5.046415      3.314987      2.075489
  C      -4.091485      4.598892      3.050186
  C      -6.843405      3.215290      2.644625
  C      -7.637801      2.280333      1.722507
  C      -6.898333      2.673949      4.080796
  C      -7.470943      4.616034      2.606608
  C      -4.190259      1.656919      2.225190
  O      -3.071814      4.646006     -2.427397
  C      -1.676321      4.748474     -2.258317
  H      -1.336788      5.327497     -3.123173
  O      -1.318186      5.407568     -1.064179
  C      -1.638026      6.798926     -1.055133
  C      -0.983878      3.383871     -2.238562
  H       0.069303      3.543280     -1.996647
  O      -1.037377      2.793313     -3.527514
  H      -1.208803      3.863003      0.142526
  H      -3.254073     -0.448238     -0.301053
  H      -1.941766     -0.875481     -1.413044
  H      -3.373688     -1.906226     -1.292150
  H      -5.783403     -0.166025     -0.374276
  H      -7.292921      0.382271     -1.112613
  H      -5.925691      1.490120     -0.978607
  H      -7.451415      0.822838     -3.572997
  H      -6.066385      0.568429     -4.642852
  H      -6.067974      1.925233     -3.505162
  H      -5.746188     -2.143357     -2.030668
  H      -5.874024     -1.836459     -3.770028
  H      -7.261238     -1.541349     -2.713879
  H      -3.456692     -1.541523     -4.496323
  H      -2.131988     -0.371513     -4.384504
  H      -3.662330      0.092702     -5.147983
  H      -3.203316      4.581795      0.433241
  H      -4.445677      5.500471     -0.421050
  H      -3.025659      4.568113      2.806889
  H      -4.192721      4.406269      4.122348
  H      -4.460431      5.608437      2.849536
  H      -7.634586      2.637961      0.689715
  H      -8.681171      2.223063      2.056664
  H      -7.230872      1.264916      1.727728
  H      -6.490712      1.660928      4.146172
  H      -7.938418      2.636423      4.426806
  H      -6.341427      3.308689      4.776997
  H      -7.433285      5.045413      1.600969
  H      -6.961909      5.304368      3.287747
  H      -8.523784      4.565254      2.910215
  H      -4.713727      0.883293      1.656995
  H      -4.144715      1.342136      3.271999
  H      -3.165728      1.725089      1.848374
  H      -1.302478      7.194300     -0.097216
  H      -2.713568      6.956787     -1.159472
  H      -1.112430      7.308322     -1.869463
  H      -1.908703      2.371634     -3.606247
69
Coordinates from ORCA-job goat_0_43 E -1780.867890976757
  O      -1.272407      2.892574      0.138012
  C      -1.617549      2.479574     -1.179332
  H      -1.225039      1.468445     -1.307548
  C      -3.138957      2.419762     -1.382803
  H      -3.590732      1.912258     -0.528543
  O      -3.379004      1.702095     -2.595947
  Si     -3.845934      0.088834     -2.669737
  C      -3.031497     -0.864776     -1.281081
  C      -5.728073     -0.013935     -2.558711
  C      -6.203417      0.460367     -1.178782
  C      -6.358761      0.875477     -3.639770
  C      -6.171926     -1.468540     -2.774711
  C      -3.219243     -0.489314     -4.330088
  C      -3.786919      3.793937     -1.519906
  H      -4.751933      3.634899     -2.006643
  C      -4.085614      4.491657     -0.190618
  O      -5.118636      3.777155      0.469597
  Si     -5.045748      3.317720      2.076440
  C      -4.096055      4.603342      3.053880
  C      -6.842988      3.211276      2.642823
  C      -7.632631      2.275451      1.717237
  C      -6.898386      2.666842      4.077717
  C      -7.475335      4.609955      2.606499
  C      -4.182801      1.663208      2.225029
  O      -3.071314      4.647849     -2.426218
  C      -1.675540      4.748471     -2.258759
  H      -1.335653      5.327802     -3.123243
  O      -1.315790      5.405515     -1.063640
  C      -1.633563      6.797394     -1.053378
  C      -0.984879      3.382960     -2.242437
  H       0.068710      3.540128     -2.000672
  O      -1.041593      2.795583     -3.532507
  H      -1.204207      3.858159      0.141367
  H      -3.262341     -0.447219     -0.297723
  H      -1.945038     -0.869156     -1.406225
  H      -3.374851     -1.903469     -1.292403
  H      -5.786668     -0.150849     -0.372839
  H      -7.296299      0.391580     -1.115081
  H      -5.930128      1.501334     -0.987433
  H      -7.452625      0.821443     -3.577996
  H      -6.067465      0.559458     -4.645981
  H      -6.067845      1.922664     -3.515824
  H      -5.751435     -2.138070     -2.018082
  H      -5.874769     -1.841258     -3.759540
  H      -7.264481     -1.539341     -2.708432
  H      -3.458250     -1.544176     -4.491413
  H      -2.132043     -0.376016     -4.377766
  H      -3.659814      0.089442     -5.146356
  H      -3.198508      4.576453      0.436109
  H      -4.435792      5.503703     -0.415696
  H      -3.029752      4.575367      2.811902
  H      -4.197605      4.408731      4.125778
  H      -4.467309      5.612397      2.854757
  H      -7.629209      2.636151      0.685488
  H      -8.676236      2.213049      2.049808
  H      -7.221791      1.261599      1.719941
  H      -6.487042      1.655210      4.142189
  H      -7.939089      2.624480      4.421601
  H      -6.345412      3.302430      4.776356
  H      -7.438339      5.040503      1.601257
  H      -6.969533      5.299331      3.288989
  H      -8.528325      4.555014      2.909038
  H      -4.702519      0.887324      1.656442
  H      -4.136259      1.348108      3.271821
  H      -3.158266      1.736236      1.849099
  H      -1.292233      7.193356     -0.097669
  H      -2.709389      6.957145     -1.152509
  H      -1.111710      7.305913     -1.870851
  H      -1.913372      2.374619     -3.610324
69
Coordinates from ORCA-job goat_0_43 E -1780.867894997678
  O      -1.270205      2.890661      0.135317
  C      -1.618205      2.478847     -1.181543
  H      -1.227263      1.467315     -1.310808
  C      -3.140071      2.420999     -1.382880
  H      -3.591648      1.914006     -0.528224
  O      -3.382269      1.703709     -2.595856
  Si     -3.848362      0.089730     -2.667651
  C      -3.035959     -0.862604     -1.277021
  C      -5.730542     -0.011896     -2.558573
  C      -6.207279      0.468536     -1.181265
  C      -6.359238      0.873457     -3.644140
  C      -6.175108     -1.467089     -2.769133
  C      -3.219497     -0.491601     -4.325859
  C      -3.786472      3.796101     -1.519148
  H      -4.752239      3.638361     -2.004770
  C      -4.083319      4.493170     -0.189028
  O      -5.118793      3.780822      0.469905
  Si     -5.045219      3.319964      2.076467
  C      -4.100468      4.607669      3.055829
  C      -6.842394      3.206837      2.641308
  C      -7.628203      2.270068      1.713293
  C      -6.896994      2.659518      4.075073
  C      -7.479307      4.603479      2.606964
  C      -4.175817      1.668836      2.224016
  O      -3.070840      4.649634     -2.425804
  C      -1.674887      4.748740     -2.259441
  H      -1.334656      5.328023     -3.123750
  O      -1.313111      5.404414     -1.064250
  C      -1.627156      6.797115     -1.053118
  C      -0.985809      3.382289     -2.244806
  H       0.068083      3.537965     -2.003511
  O      -1.044494      2.795705     -3.535150
  H      -1.201534      3.856178      0.140022
  H      -3.271409     -0.447819     -0.293602
  H      -1.949074     -0.864896     -1.398157
  H      -3.377095     -1.902020     -1.291828
  H      -5.791676     -0.139052     -0.371976
  H      -7.300237      0.400396     -1.118404
  H      -5.933741      1.510206     -0.994231
  H      -7.453206      0.820978     -3.583142
  H      -6.067404      0.552597     -4.648636
  H      -6.067178      1.920862     -3.524565
  H      -5.756986     -2.133506     -2.008486
  H      -5.875830     -1.844558     -3.751518
  H      -7.267857     -1.536884     -2.705185
  H      -3.460228     -1.546126     -4.486765
  H      -2.131927     -0.380683     -4.370773
  H      -3.656635      0.087175     -5.143923
  H      -3.196116      4.574501      0.437992
  H      -4.430321      5.506603     -0.412691
  H      -3.033913      4.583079      2.814591
  H      -4.201920      4.411447      4.127455
  H      -4.474473      5.615921      2.857946
  H      -7.626096      2.633469      0.682535
  H      -8.671547      2.202510      2.045660
  H      -7.213221      1.257891      1.713344
  H      -6.482569      1.649049      4.137990
  H      -7.937742      2.613275      4.418303
  H      -6.346286      3.295440      4.775197
  H      -7.443290      5.035672      1.602418
  H      -6.976094      5.293422      3.290775
  H      -8.532243      4.544567      2.908935
  H      -4.692294      0.890841      1.655321
  H      -4.127859      1.353585      3.270710
  H      -3.151594      1.746241      1.848108
  H      -1.280714      7.192511     -0.099031
  H      -2.702922      6.959961     -1.147833
  H      -1.107478      7.304336     -1.872755
  H      -1.916711      2.375659     -3.612287
69
Coordinates from ORCA-job goat_0_43 E -1780.867898812538
  O      -1.268394      2.889969      0.132822
  C      -1.618496      2.478705     -1.183490
  H      -1.228376      1.467026     -1.313606
  C      -3.140778      2.422273     -1.382729
  H      -3.592071      1.916077     -0.527461
  O      -3.385395      1.704781     -2.595144
  Si     -3.851024      0.090342     -2.664617
  C      -3.043288     -0.860559     -1.270214
  C      -5.733526     -0.009624     -2.560077
  C      -6.213198      0.478182     -1.186425
  C      -6.358505      0.870937     -3.651638
  C      -6.179079     -1.465372     -2.764606
  C      -3.218105     -0.495372     -4.319621
  C      -3.785966      3.797962     -1.518476
  H      -4.752478      3.641152     -2.002850
  C      -4.080928      4.494975     -0.187831
  O      -5.118828      3.784869      0.470228
  Si     -5.043951      3.322395      2.076413
  C      -4.104317      4.612431      3.057482
  C      -6.840805      3.202099      2.640439
  C      -7.623211      2.265083      1.709772
  C      -6.893702      2.650738      4.072680
  C      -7.482259      4.596693      2.609529
  C      -4.168028      1.674707      2.222812
  O      -3.070803      4.650980     -2.426038
  C      -1.674821      4.749170     -2.260648
  H      -1.334597      5.328715     -3.124745
  O      -1.311366      5.403553     -1.065554
  C      -1.622838      6.796697     -1.052741
  C      -0.986736      3.382063     -2.247237
  H       0.067475      3.536994     -2.007037
  O      -1.047085      2.795224     -3.537426
  H      -1.198213      3.855350      0.137919
  H      -3.285847     -0.448750     -0.287268
  H      -1.955729     -0.860366     -1.384667
  H      -3.381650     -1.900816     -1.289203
  H      -5.800374     -0.125653     -0.372887
  H      -7.306353      0.411689     -1.125892
  H      -5.938569      1.520353     -1.003834
  H      -7.452650      0.820406     -3.592856
  H      -6.064888      0.544323     -4.653713
  H      -6.065115      1.918512     -3.536864
  H      -5.764452     -2.128216     -1.999003
  H      -5.876725     -1.848383     -3.743877
  H      -7.272099     -1.533635     -2.704248
  H      -3.461849     -1.549180     -4.480436
  H      -2.130000     -0.388372     -4.360311
  H      -3.649653      0.083880     -5.140233
  H      -3.193669      4.573403      0.439397
  H      -4.425293      5.509468     -0.410629
  H      -3.037604      4.591980      2.816706
  H      -4.205371      4.414619      4.128828
  H      -4.481620      5.619655      2.860876
  H      -7.624043      2.632365      0.680454
  H      -8.665785      2.191246      2.043187
  H      -7.203278      1.254940      1.705476
  H      -6.476708      1.641169      4.132632
  H      -7.934125      2.601008      4.416250
  H      -6.344090      3.285967      4.774289
  H      -7.447108      5.031889      1.606300
  H      -6.981527      5.286240      3.295543
  H      -8.535123      4.533523      2.910816
  H      -4.681356      0.894639      1.654027
  H      -4.118480      1.359243      3.269336
  H      -3.144289      1.756444      1.846573
  H      -1.271198      7.191008     -0.100142
  H      -2.698755      6.961681     -1.142196
  H      -1.106141      7.303544     -1.874398
  H      -1.919957      2.376575     -3.613959
69
Coordinates from ORCA-job goat_0_43 E -1780.867905716709
  O      -1.268349      2.890297      0.131841
  C      -1.619134      2.478832     -1.184104
  H      -1.229300      1.467077     -1.314486
  C      -3.141608      2.423388     -1.382146
  H      -3.592783      1.918040     -0.526289
  O      -3.388134      1.705378     -2.593880
  Si     -3.853326      0.090819     -2.661825
  C      -3.051233     -0.858592     -1.263008
  C      -5.736262     -0.008263     -2.563096
  C      -6.219663      0.485292     -1.192839
  C      -6.357223      0.868402     -3.660016
  C      -6.182171     -1.464481     -2.763326
  C      -3.215317     -0.498555     -4.313615
  C      -3.785852      3.799432     -1.517776
  H      -4.752884      3.643280     -2.001264
  C      -4.079331      4.497017     -0.187069
  O      -5.118775      3.788672      0.470942
  Si     -5.042333      3.324759      2.076714
  C      -4.106767      4.616819      3.058935
  C      -6.838741      3.198446      2.640791
  C      -7.618870      2.261722      1.707997
  C      -6.889524      2.643041      4.071561
  C      -7.483829      4.591401      2.613821
  C      -4.161549      1.679610      2.222067
  O      -3.071036      4.651654     -2.426467
  C      -1.674992      4.749079     -2.261941
  H      -1.335061      5.328557     -3.126217
  O      -1.310145      5.403120     -1.067356
  C      -1.619872      6.796518     -1.053721
  C      -0.987687      3.381519     -2.248609
  H       0.066856      3.536183     -2.009815
  O      -1.049161      2.793551     -3.538276
  H      -1.195833      3.855532      0.135985
  H      -3.301763     -0.449164     -0.281061
  H      -1.962945     -0.855444     -1.369885
  H      -3.386439     -1.899789     -1.285737
  H      -5.809959     -0.115757     -0.375643
  H      -7.313037      0.420263     -1.135337
  H      -5.944174      1.527761     -1.013232
  H      -7.451561      0.819131     -3.604283
  H      -6.060921      0.537381     -4.659823
  H      -6.063182      1.916149     -3.548600
  H      -5.770789     -2.124474     -1.993568
  H      -5.876592     -1.851659     -3.739928
  H      -7.275432     -1.531635     -2.706689
  H      -3.462117     -1.551545     -4.474913
  H      -2.126703     -0.395452     -4.349837
  H      -3.641047      0.081564     -5.136608
  H      -3.192019      4.573814      0.440222
  H      -4.422298      5.511968     -0.409778
  H      -3.039980      4.600218      2.818339
  H      -4.207373      4.417891      4.130085
  H      -4.487152      5.623012      2.863140
  H      -7.623367      2.632922      0.680146
  H      -8.660416      2.182075      2.043247
  H      -7.194421      1.253486      1.698964
  H      -6.470965      1.633955      4.128056
  H      -7.929434      2.590915      4.416170
  H      -6.339906      3.276947      4.774351
  H      -7.449043      5.030173      1.612173
  H      -6.985200      5.279828      3.302482
  H      -8.536710      4.524578      2.914188
  H      -4.672676      0.898167      1.653105
  H      -4.110756      1.363827      3.268388
  H      -3.138258      1.764488      1.845356
  H      -1.264653      7.190166     -0.102201
  H      -2.695890      6.962841     -1.139408
  H      -1.105234      7.302824     -1.876925
  H      -1.922861      2.376639     -3.614511
69
Coordinates from ORCA-job goat_0_43 E -1780.867906891631
  O      -1.269166      2.891237      0.132131
  C      -1.619730      2.479073     -1.183663
  H      -1.229849      1.467278     -1.313822
  C      -3.142243      2.424040     -1.381336
  H      -3.593341      1.919381     -0.525004
  O      -3.389967      1.705402     -2.592432
  Si     -3.855022      0.091062     -2.659843
  C      -3.058241     -0.857015     -1.256977
  C      -5.738367     -0.007689     -2.566701
  C      -6.225291      0.489443     -1.198997
  C      -6.355847      0.866490     -3.667526
  C      -6.184161     -1.464222     -2.764544
  C      -3.212163     -0.500626     -4.309083
  C      -3.785976      3.800198     -1.517228
  H      -4.753231      3.644328     -2.000349
  C      -4.078653      4.498693     -0.186866
  O      -5.118498      3.791341      0.471864
  Si     -5.040650      3.326646      2.077335
  C      -4.107747      4.620421      3.059870
  C      -6.836648      3.196151      2.641954
  C      -7.615542      2.259824      1.707830
  C      -6.885490      2.637670      4.071660
  C      -7.484225      4.587990      2.618343
  C      -4.156997      1.682960      2.222173
  O      -3.071258      4.651654     -2.426826
  C      -1.675074      4.748540     -2.262957
  H      -1.335601      5.327745     -3.127636
  O      -1.309401      5.402895     -1.068882
  C      -1.618655      6.796355     -1.055232
  C      -0.988345      3.380762     -2.249019
  H       0.066516      3.535399     -2.011618
  O      -1.050683      2.791551     -3.538110
  H      -1.194660      3.856371      0.134679
  H      -3.315840     -0.448815     -0.276346
  H      -1.969347     -0.851057     -1.357141
  H      -3.390652     -1.899045     -1.282246
  H      -5.818435     -0.110107     -0.379288
  H      -7.318880      0.425602     -1.144434
  H      -5.949223      1.532020     -1.020827
  H      -7.450360      0.817825     -3.614812
  H      -6.056780      0.532823     -4.665630
  H      -6.061708      1.914389     -3.557851
  H      -5.775241     -2.122377     -1.991921
  H      -5.875879     -1.853898     -3.739288
  H      -7.277614     -1.530745     -2.710983
  H      -3.461573     -1.552867     -4.471202
  H      -2.123144     -0.400729     -4.341544
  H      -3.633118      0.080609     -5.133754
  H      -3.191254      4.575265      0.440326
  H      -4.421424      5.513556     -0.410158
  H      -3.040940      4.606709      2.819250
  H      -4.208002      4.421155      4.130971
  H      -4.490612      5.625686      2.864087
  H      -7.623247      2.634041      0.681103
  H      -8.656181      2.175872      2.044843
  H      -7.187799      1.253018      1.694934
  H      -6.466207      1.628746      4.125255
  H      -7.924943      2.584201      4.417381
  H      -6.335427      3.270322      4.775235
  H      -7.449582      5.029796      1.618018
  H      -6.987062      5.275262      3.309218
  H      -8.537150      4.518577      2.917959
  H      -4.667060      0.900820      1.653170
  H      -4.105424      1.367066      3.268394
  H      -3.134036      1.769481      1.844969
  H      -1.262145      7.189947     -0.104171
  H      -2.694748      6.962912     -1.139434
  H      -1.104828      7.302159     -1.879228
  H      -1.925093      2.376045     -3.614084
69
Coordinates from ORCA-job goat_0_43 E -1780.867907548939
  O      -1.269253      2.892403      0.132506
  C      -1.619584      2.479425     -1.183177
  H      -1.229356      1.467688     -1.313008
  C      -3.142099      2.423945     -1.380576
  H      -3.592739      1.919517     -0.523879
  O      -3.390258      1.704786     -2.591209
  Si     -3.855666      0.090856     -2.658911
  C      -3.062469     -0.856384     -1.253433
  C      -5.739263     -0.007595     -2.569509
  C      -6.228389      0.490447     -1.202910
  C      -6.354459      0.866203     -3.671914
  C      -6.185004     -1.464124     -2.767294
  C      -3.209706     -0.501635     -4.306804
  C      -3.786162      3.799901     -1.516755
  H      -4.753452      3.643697     -1.999733
  C      -4.078623      4.499109     -0.186782
  O      -5.117901      3.791894      0.472955
  Si     -5.039433      3.327199      2.078320
  C      -4.107286      4.621848      3.060507
  C      -6.835276      3.195481      2.643356
  C      -7.613939      2.259328      1.708929
  C      -6.883308      2.635979      4.072747
  C      -7.483627      4.586983      2.621027
  C      -4.155460      1.683636      2.223321
  O      -3.071768      4.651112     -2.426888
  C      -1.675423      4.748137     -2.263711
  H      -1.336685      5.327059     -3.128885
  O      -1.309395      5.403231     -1.070042
  C      -1.619514      6.796568     -1.056983
  C      -0.988616      3.380524     -2.249238
  H       0.066437      3.535463     -2.012827
  O      -1.051565      2.790602     -3.537986
  H      -1.194256      3.857537      0.133810
  H      -3.324215     -0.447997     -0.273965
  H      -1.973225     -0.848783     -1.349653
  H      -3.393407     -1.898858     -1.279476
  H      -5.823532     -0.109204     -0.382318
  H      -7.322145      0.427560     -1.150356
  H      -5.951845      1.532880     -1.024572
  H      -7.449097      0.817842     -3.621259
  H      -6.053538      0.531990     -4.669295
  H      -6.060294      1.914094     -3.562184
  H      -5.777384     -2.121954     -1.993698
  H      -5.875312     -1.854296     -3.741398
  H      -7.278568     -1.530339     -2.715382
  H      -3.460706     -1.553399     -4.469662
  H      -2.120462     -0.403576     -4.337129
  H      -3.628093      0.080576     -5.132140
  H      -3.191039      4.576443      0.440100
  H      -4.421984      5.513613     -0.410780
  H      -3.040481      4.609209      2.819805
  H      -4.207446      4.422956      4.131689
  H      -4.491291      5.626589      2.864116
  H      -7.623027      2.634689      0.682613
  H      -8.654198      2.173813      2.046740
  H      -7.185026      1.253037      1.694450
  H      -6.464182      1.626938      4.125228
  H      -7.922602      2.582448      4.418972
  H      -6.332841      3.268036      4.776548
  H      -7.448753      5.030013      1.621222
  H      -6.987096      5.273721      3.312895
  H      -8.536654      4.516748      2.920118
  H      -4.665721      0.901528      1.654445
  H      -4.103796      1.367901      3.269583
  H      -3.132591      1.770039      1.845869
  H      -1.263793      7.190706     -0.105844
  H      -2.695668      6.962321     -1.141834
  H      -1.105492      7.302165     -1.881001
  H      -1.926162      2.375343     -3.613511
69
Coordinates from ORCA-job goat_0_43 E -1780.867910000501
  O      -1.268954      2.892972      0.132716
  C      -1.619463      2.479506     -1.182839
  H      -1.229260      1.467703     -1.312364
  C      -3.141994      2.423795     -1.379993
  H      -3.592287      1.919500     -0.523039
  O      -3.390235      1.704258     -2.590316
  Si     -3.856184      0.090662     -2.658444
  C      -3.065050     -0.856101     -1.251530
  C      -5.739894     -0.007303     -2.571128
  C      -6.230147      0.491180     -1.205077
  C      -6.353733      0.866488     -3.674298
  C      -6.185820     -1.463741     -2.768995
  C      -3.208621     -0.502030     -4.305712
  C      -3.786236      3.799683     -1.516471
  H      -4.753493      3.643220     -1.999450
  C      -4.078670      4.499308     -0.186742
  O      -5.117208      3.791937      0.473808
  Si     -5.038521      3.327527      2.079165
  C      -4.107213      4.623126      3.060986
  C      -6.834350      3.194750      2.644126
  C      -7.612388      2.258199      1.709594
  C      -6.882119      2.635110      4.073502
  C      -7.483602      4.585836      2.621951
  C      -4.154036      1.684216      2.224563
  O      -3.071909      4.650775     -2.426758
  C      -1.675434      4.747783     -2.264050
  H      -1.337065      5.326416     -3.129555
  O      -1.309194      5.403398     -1.070578
  C      -1.619810      6.796726     -1.058267
  C      -0.988699      3.380220     -2.249311
  H       0.066455      3.535122     -2.013269
  O      -1.052146      2.790141     -3.537967
  H      -1.194377      3.858157      0.133525
  H      -3.329114     -0.447256     -0.272876
  H      -1.975621     -0.847451     -1.345636
  H      -3.395157     -1.898827     -1.277751
  H      -5.826645     -0.108803     -0.384083
  H      -7.324023      0.429158     -1.153702
  H      -5.953102      1.533444     -1.026538
  H      -7.448447      0.818376     -3.624799
  H      -6.051804      0.532101     -4.671334
  H      -6.059485      1.914343     -3.564390
  H      -5.778930     -2.121522     -1.994955
  H      -5.875470     -1.854127     -3.742810
  H      -7.279454     -1.529696     -2.717888
  H      -3.460745     -1.553454     -4.469124
  H      -2.119241     -0.405172     -4.334905
  H      -3.625688      0.081028     -5.131152
  H      -3.190873      4.577401      0.439802
  H      -4.422557      5.513549     -0.411182
  H      -3.040388      4.611246      2.820300
  H      -4.207353      4.424691      4.132264
  H      -4.492212      5.627370      2.863887
  H      -7.621793      2.633814      0.683358
  H      -8.652593      2.171843      2.047375
  H      -7.182761      1.252218      1.694782
  H      -6.462739      1.626168      4.125890
  H      -7.921453      2.581231      4.419630
  H      -6.331984      3.267326      4.777425
  H      -7.448837      5.029013      1.622183
  H      -6.987664      5.272827      3.313995
  H      -8.536646      4.514920      2.920849
  H      -4.664331      0.901996      1.655870
  H      -4.102385      1.368793      3.270929
  H      -3.131167      1.770605      1.847111
  H      -1.265425      7.191366     -0.106832
  H      -2.695904      6.962000     -1.144622
  H      -1.104896      7.302067     -1.881916
  H      -1.926617      2.374483     -3.612973
69
Coordinates from ORCA-job goat_0_43 E -1780.867910067674
  O      -1.268124      2.893170      0.132605
  C      -1.619103      2.479488     -1.182789
  H      -1.229005      1.467624     -1.312128
  C      -3.141683      2.423566     -1.379634
  H      -3.591698      1.919360     -0.522494
  O      -3.389835      1.703719     -2.589753
  Si     -3.856520      0.090360     -2.658189
  C      -3.066295     -0.856326     -1.250762
  C      -5.740269     -0.006815     -2.571625
  C      -6.230738      0.491642     -1.205630
  C      -6.353382      0.867463     -3.674824
  C      -6.186743     -1.463035     -2.769883
  C      -3.208638     -0.502334     -4.305332
  C      -3.786103      3.799402     -1.516385
  H      -4.753326      3.642683     -1.999362
  C      -4.078575      4.499218     -0.186761
  O      -5.116577      3.791683      0.474241
  Si     -5.037974      3.327664      2.079646
  C      -4.107426      4.624067      3.061171
  C      -6.833852      3.194103      2.644255
  C      -7.611080      2.256747      1.709836
  C      -6.881676      2.635015      4.073843
  C      -7.483968      4.584777      2.621339
  C      -4.152890      1.684689      2.225471
  O      -3.071862      4.650525     -2.426662
  C      -1.675351      4.747647     -2.264155
  H      -1.337092      5.326174     -3.129760
  O      -1.309109      5.403454     -1.070700
  C      -1.620266      6.796728     -1.058707
  C      -0.988569      3.380128     -2.249448
  H       0.066596      3.534941     -2.013374
  O      -1.052316      2.790198     -3.538160
  H      -1.194465      3.858420      0.133553
  H      -3.331177     -0.447014     -0.272519
  H      -1.976804     -0.847316     -1.344160
  H      -3.396177     -1.899119     -1.276833
  H      -5.828107     -0.108941     -0.384659
  H      -7.324699      0.430494     -1.154759
  H      -5.953014      1.533660     -1.026724
  H      -7.448136      0.819775     -3.625714
  H      -6.051243      0.533197     -4.671841
  H      -6.058765      1.915188     -3.564592
  H      -5.780255     -2.121136     -1.995891
  H      -5.876344     -1.853350     -3.743719
  H      -7.280413     -1.528623     -2.718983
  H      -3.461552     -1.553521     -4.469089
  H      -2.119183     -0.406251     -4.334171
  H      -3.625214      0.081368     -5.130575
  H      -3.190601      4.577837      0.439506
  H      -4.422721      5.513334     -0.411392
  H      -3.040584      4.612653      2.820533
  H      -4.207551      4.426034      4.132529
  H      -4.493135      5.627933      2.863508
  H      -7.620248      2.632004      0.683464
  H      -8.651389      2.169982      2.047202
  H      -7.180966      1.250965      1.695494
  H      -6.461688      1.626357      4.126859
  H      -7.921125      2.580584      4.419577
  H      -6.332276      3.267939      4.777709
  H      -7.449459      5.027338      1.621282
  H      -6.988543      5.272530      3.312995
  H      -8.536989      4.513370      2.920226
  H      -4.663135      0.902236      1.657059
  H      -4.101184      1.369644      3.271960
  H      -3.130038      1.771156      1.848016
  H      -1.267249      7.191548     -0.106836
  H      -2.696307      6.961553     -1.146539
  H      -1.104489      7.302237     -1.881724
  H      -1.926485      2.373819     -3.612681
