69
Coordinates from ORCA-job goat_0_114 E -1780.867861876566
  O          -1.26621269837306      2.91530352473498     -0.08089536232625
  C          -1.70757067664871      2.58865623899750     -1.39354948008888
  H          -1.31297559347928      1.59689990884499     -1.62556114310420
  C          -3.23939372338865      2.51712673597373     -1.47858903768689
  H          -3.61524528982927      1.93702176829493     -0.63433196102104
  O          -3.57074352893365      1.89167141817127     -2.72069459843817
  Si         -4.05578532917322      0.29022823316264     -2.87977045431726
  C          -3.16355933076650     -0.76452303306601     -1.61805466036290
  C          -5.92817147176542      0.18800388128441     -2.65469537149267
  C          -6.31034803762431      0.56010993366197     -1.21558425566549
  C          -6.61807294906298      1.15815097824247     -3.62432079383437
  C          -6.39903242092854     -1.24447697415672     -2.94790747075313
  C          -3.54444413564747     -0.16799461046576     -4.61524974545524
  C          -3.91011246774972      3.88661583104474     -1.45352913630593
  H          -4.91123764919202      3.74965442339633     -1.86865442149725
  C          -4.10131943727141      4.47740121526848     -0.05403894067180
  O          -5.04314792676508      3.68127427838402      0.64795459725394
  Si         -4.78316493581874      3.06742808118964      2.18236342868171
  C          -3.72255625736553      4.25885111261755      3.16470946478462
  C          -6.50394098767270      2.88910998272594      2.93793357670138
  C          -6.39552497494382      2.21104085952454      4.31163048265031
  C          -7.13678340798380      4.27749978319813      3.10697029229040
  C          -7.39301889818701      2.03539899480063      2.02298674184182
  C          -3.91716846539323      1.41151307673527      2.07564538736484
  O          -3.28271457331093      4.81938340571060     -2.34792918759835
  C          -1.87862402562403      4.92953176943419     -2.29308154343462
  H          -1.62038576751300      5.57469564537354     -3.13892681819143
  O          -1.42228941122500      5.50479702344916     -1.08893742291721
  C          -1.75352173328814      6.88611498385107     -0.94708337108229
  C          -1.17439079555012      3.57779413318171     -2.43476524160572
  H          -0.10632682546394      3.73553626073608     -2.26930033761187
  O          -1.33059550095487      3.08376962623738     -3.75535268664396
  H          -1.20238163264219      3.87923706268326     -0.01786981461751
  H          -3.35225933315718     -0.43538028239100     -0.59310662223228
  H          -2.08426321271528     -0.74329454169919     -1.79307881211013
  H          -3.49663666655575     -1.80322785416454     -1.70203276863300
  H          -7.39829366755656      0.49895726495616     -1.08971543573665
  H          -6.00844945690057      1.57947778600641     -0.96111023761664
  H          -5.85554132903680     -0.11682274047240     -0.48649690364125
  H          -6.31064478344362      2.19182181905592     -3.44144541525786
  H          -7.70626493175011      1.10403654031235     -3.49748846622772
  H          -6.39347257834462      0.91723278791891     -4.66765555833952
  H          -5.93587653733245     -1.97009288634770     -2.27227873432183
  H          -6.17097408584076     -1.54458721386952     -3.97500823590974
  H          -7.48542855509895     -1.31505935462412     -2.81465629646191
  H          -2.46076662810890     -0.06463686314810     -4.72422529586080
  H          -4.02566805540636      0.47743284550051     -5.35493500643087
  H          -3.81136732307773     -1.20403327792422     -4.84138364755756
  H          -3.16146976430045      4.55339465477148      0.49082533411334
  H          -4.50436461777143      5.48803614746909     -0.17127565415671
  H          -2.69153202368230      4.26309609057091      2.79952485044024
  H          -3.69997196405854      3.95891323119955      4.21661130436976
  H          -4.11030481885043      5.27975399520309      3.11053789282154
  H          -5.98383827704535      1.20069598038447      4.23219215347526
  H          -7.38959607234536      2.12964225840124      4.76786396410833
  H          -5.76238495583695      2.78123616688020      4.99850597138317
  H          -7.21548765583764      4.80161739104551      2.14985827220898
  H          -6.55589851497243      4.90474228305309      3.78972738014483
  H          -8.14799365834572      4.18250546538481      3.52145762121149
  H          -8.38871796343630      1.92081419973065      2.46912887774311
  H          -6.97786389694028      1.03416970062567      1.87436462657555
  H          -7.51606721031344      2.49667903546841      1.03977342885496
  H          -3.76689001606868      0.99646244599042      3.07683090918607
  H          -2.93577189130235      1.52505529686861      1.60693127170548
  H          -4.49654367311076      0.69200923869484      1.49080302408749
  H          -1.32600406165823      7.21833260787988     -0.00188969791259
  H          -2.83562273217669      7.03287802017788     -0.93077938098694
  H          -1.31876763425440      7.46164125023418     -1.77089785306521
  H          -2.20340061382998      2.65928486763373     -3.79303759481495
