69
Coordinates from ORCA-job goat_0_44 E -1780.867900178657
  O          -1.26648133272600      2.92394437189022      0.09071716780730
  C          -1.63233241711584      2.53382311181874     -1.22778835726781
  H          -1.22960307723650      1.53093911119837     -1.38555640523189
  C          -3.15680713751760      2.45926094043141     -1.40145001583846
  H          -3.58519263808765      1.92857943020213     -0.54930329223508
  O          -3.41361807219661      1.76371628570360     -2.62392462096196
  Si         -3.87039773244164      0.14902745899382     -2.72192363240096
  C          -3.04779190735729     -0.82311299144572     -1.35096170320855
  C          -5.75158005248054      0.03466833007132     -2.60455100889480
  C          -6.22141368043549      0.48247421960437     -1.21393504558941
  C          -6.39133067875815      0.94059829849302     -3.66631200426894
  C          -6.19062122866985     -1.41766089097052     -2.84396779974299
  C          -3.24794246425099     -0.39954964240636     -4.39391049153941
  C          -3.82378236862856      3.82789922563132     -1.49590864569141
  H          -4.79622199871351      3.66722297005660     -1.96692165922651
  C          -4.10515095030139      4.49290813666583     -0.14618129895790
  O          -5.11547436627312      3.75015607726626      0.51865641206350
  Si         -4.99800709017699      3.24870169901876      2.11033441151622
  C          -4.05506451069593      4.52811083041033      3.10223386773782
  C          -6.77991953984491      3.08807735942408      2.71094284960649
  C          -6.79242402086287      2.49482479993499      4.12744840962588
  C          -7.43954915906790      4.47421588384700      2.73497772676440
  C          -7.57102472203807      2.16734651692815      1.77156432014902
  C          -4.09928008698668      1.60901929607946      2.19836760856326
  O          -3.13741804846994      4.71064434121915     -2.39733399475830
  C          -1.73986311511747      4.82475636700842     -2.25611960916619
  H          -1.42487613854489      5.42710140931659     -3.11419708670005
  O          -1.36243068647100      5.45953387676607     -1.05488663790760
  C          -1.69354318383710      6.84740965642131     -1.00692679343011
  C          -1.03285367885305      3.46761349507529     -2.28387460162768
  H           0.02362915547782      3.63294186427859     -2.06123887498116
  O          -1.10933570418242      2.90615224715819     -3.58452478765515
  H          -1.20782377824040      3.88997623415246      0.11247443196083
  H          -3.29669258491906     -0.43560248150847     -0.35973950164993
  H          -1.96035911498352     -0.80471128837738     -1.46492606488038
  H          -3.37180525339245     -1.86722377948787     -1.39232443171854
  H          -5.94676387660597      1.51940611671873     -1.00341134766195
  H          -5.80143905057531     -0.14380516508570     -0.42135438267054
  H          -7.31398650325342      0.41256904596766     -1.14688957795743
  H          -6.10209905795707      0.64536662329419     -4.67935878930409
  H          -6.10560970161098      1.98677580436895     -3.52345031497422
  H          -7.48461348967395      0.87944991987588     -3.60159241141608
  H          -5.89838762905442     -1.77139322803198     -3.83719530936580
  H          -7.28237920756042     -1.49434268591689     -2.77198021427591
  H          -5.76235963941104     -2.09880923056193     -2.10227242467260
  H          -3.68933508294165      0.19518682449174     -5.19810203761926
  H          -3.48897384709094     -1.45067957278476     -4.57488131675576
  H          -2.16078310056231     -0.28673471506058     -4.44218646084272
  H          -3.20717947394137      4.57727515576265      0.46476619750845
  H          -4.47422661570454      5.50419617499269     -0.34248798665607
  H          -2.99329350899665      4.52848022383296      2.83986713002250
  H          -4.13206469545900      4.30482744034731      4.17052314090667
  H          -4.45030669665802      5.53388615886888      2.93568476386510
  H          -7.82347363487777      2.42542823229688      4.49495187754715
  H          -6.23095833011753      3.11415056026010      4.83389493387424
  H          -6.36553149843349      1.48788469395641      4.14679365283018
  H          -7.42926444034929      4.93998156245230      1.74496262642841
  H          -6.93368059571377      5.14910716734266      3.43171375314827
  H          -8.48542382305211      4.38860551571850      3.05452422560758
  H          -7.13318377656827      1.16600346230743      1.72212784131615
  H          -7.60719370333827      2.56785715340573      0.75536529601669
  H          -8.60245965621119      2.06304840075730      2.13051451781639
  H          -4.02639492557986      1.26884697438624      3.23569934006717
  H          -3.08403423556113      1.71170914795879      1.80490646340301
  H          -4.61487677006886      0.83719969730750      1.62037206135810
  H          -1.32931397619390      7.22672993098700     -0.05298912974333
  H          -2.77327471036729      6.99795161537662     -1.07224107650116
  H          -1.19997713543653      7.37833014188049     -1.82755804254319
  H          -1.97793421667587      2.47733807165661     -3.65378579901950
