69
Coordinates from ORCA-job goat_0_110 E -1780.865722644020
  O      -1.226665      2.263904     -0.575700
  C      -1.933205      2.300315     -1.803843
  H      -1.827050      1.321048     -2.276017
  C      -3.431401      2.546916     -1.586185
  H      -3.778284      1.910823     -0.767409
  O      -4.083152      2.220474     -2.812056
  Si     -5.470395      1.316875     -3.026323
  C      -5.944925      1.717736     -4.782750
  C      -5.109611     -0.528460     -2.818173
  C      -4.659357     -0.833049     -1.383140
  C      -6.385274     -1.329200     -3.119832
  C      -4.008792     -0.947523     -3.800893
  C      -6.761175      1.882482     -1.798406
  C      -3.751907      3.994768     -1.223124
  H      -4.809688      4.145847     -1.446173
  C      -3.593221      4.306534      0.264016
  O      -4.594092      3.573270      0.943655
  Si     -4.703568      3.516089      2.604011
  C      -5.001181      5.241431      3.261588
  C      -6.162428      2.371472      2.922544
  C      -5.863133      1.004811      2.293738
  C      -6.397530      2.202800      4.428924
  C      -7.413786      2.975358      2.272834
  C      -3.113632      2.851949      3.326854
  O      -3.076548      4.942866     -2.054236
  C      -1.702962      4.755385     -2.269006
  H      -1.438313      5.486906     -3.039092
  O      -0.941443      4.984304     -1.099588
  C      -0.890327      6.349302     -0.714723
  C      -1.366380      3.349653     -2.763612
  H      -0.278924      3.256351     -2.793929
  O      -1.837600      3.180975     -4.081878
  H      -0.874391      3.148722     -0.407172
  H      -6.156993      2.784865     -4.874109
  H      -6.831401      1.168695     -5.103905
  H      -5.133071      1.483816     -5.474680
  H      -4.490693     -1.908210     -1.262092
  H      -5.412717     -0.537433     -0.647635
  H      -3.722504     -0.330139     -1.129998
  H      -6.757419     -1.145554     -4.130671
  H      -7.189391     -1.098616     -2.417194
  H      -6.182059     -2.401851     -3.038874
  H      -4.320673     -0.807822     -4.838564
  H      -3.766423     -2.007564     -3.671946
  H      -3.090383     -0.375316     -3.649965
  H      -6.340617      1.992162     -0.795883
  H      -7.592313      1.176968     -1.736429
  H      -7.166785      2.852391     -2.094463
  H      -2.601070      4.040746      0.635954
  H      -3.743493      5.384722      0.397108
  H      -5.201600      5.222371      4.335323
  H      -5.846684      5.722930      2.766667
  H      -4.118569      5.867017      3.107527
  H      -6.717538      0.332088      2.420372
  H      -4.995051      0.527170      2.755038
  H      -5.661612      1.095689      1.224355
  H      -7.254308      1.544366      4.606262
  H      -6.614655      3.155903      4.917977
  H      -5.535518      1.755313      4.929896
  H      -8.268589      2.303413      2.399200
  H      -7.268669      3.139601      1.203280
  H      -7.679235      3.933885      2.725880
  H      -2.788758      1.936183      2.829492
  H      -3.241115      2.636500      4.390429
  H      -2.307890      3.584276      3.240059
  H      -0.375904      6.937663     -1.480041
  H      -0.331975      6.401201      0.216768
  H      -1.891647      6.755155     -0.561416
  H      -2.777499      2.951892     -4.024665
69
Coordinates from ORCA-job goat_0_110 E -1780.866610168039
  O      -1.299463      2.244808     -0.504892
  C      -1.970182      2.271211     -1.757041
  H      -1.863273      1.281842     -2.209763
  C      -3.470737      2.542521     -1.585158
  H      -3.850437      1.917733     -0.773512
  O      -4.090331      2.217347     -2.827300
  Si     -5.470291      1.304195     -3.060239
  C      -5.959513      1.728826     -4.808637
  C      -5.080890     -0.538382     -2.884482
  C      -4.623056     -0.860672     -1.455353
  C      -6.344083     -1.353047     -3.200410
  C      -3.972013     -0.924590     -3.872823
  C      -6.763851      1.833613     -1.818254
  C      -3.783302      3.998212     -1.244023
  H      -4.835906      4.159497     -1.487257
  C      -3.635096      4.330138      0.242482
  O      -4.634652      3.603763      0.936546
  Si     -4.702618      3.547171      2.600561
  C      -4.963323      5.276260      3.266663
  C      -6.161664      2.413600      2.969571
  C      -5.894228      1.033541      2.352044
  C      -6.349217      2.265279      4.484321
  C      -7.435767      3.012710      2.356432
  C      -3.095916      2.865650      3.272382
  O      -3.078774      4.925026     -2.078954
  C      -1.698141      4.720915     -2.250097
  H      -1.401535      5.441241     -3.019405
  O      -0.968647      4.951763     -1.062278
  C      -0.931966      6.319988     -0.668984
  C      -1.361396      3.301871     -2.713694
  H      -0.273669      3.196783     -2.708982
  O      -1.798818      3.109431     -4.045960
  H      -0.963076      3.134171     -0.323516
  H      -6.184902      2.797047     -4.881276
  H      -6.844092      1.173421     -5.131579
  H      -5.148025      1.510441     -5.508328
  H      -4.440803     -1.937705     -1.353095
  H      -5.378390     -0.583822     -0.713925
  H      -3.691070     -0.348825     -1.197936
  H      -6.715434     -1.158061     -4.210969
  H      -7.153438     -1.141044     -2.495700
  H      -6.123932     -2.425518     -3.132911
  H      -4.283526     -0.766719     -4.909608
  H      -3.718257     -1.986000     -3.762532
  H      -3.059678     -0.344530     -3.705069
  H      -6.344023      1.905483     -0.812082
  H      -7.597997      1.127826     -1.783251
  H      -7.163359      2.817577     -2.081608
  H      -2.644671      4.072776      0.621064
  H      -3.784392      5.408926      0.364061
  H      -5.119028      5.259130      4.349593
  H      -5.829090      5.759533      2.805887
  H      -4.084252      5.898246      3.070859
  H      -6.749160      0.368061      2.523913
  H      -5.011209      0.558710      2.790698
  H      -5.734641      1.102895      1.273292
  H      -7.203461      1.610495      4.696278
  H      -6.546975      3.227735      4.966222
  H      -5.470202      1.822502      4.962280
  H      -8.289244      2.345533      2.529051
  H      -7.333150      3.155520      1.277672
  H      -7.678419      3.981849      2.802643
  H      -2.808560      1.936085      2.773066
  H      -3.186307      2.664075      4.344116
  H      -2.281141      3.584224      3.141452
  H      -0.408834      6.916560     -1.424252
  H      -0.387830      6.369488      0.273629
  H      -1.939894      6.718164     -0.527724
  H      -2.741941      2.883116     -4.009959
