69
Coordinates from ORCA-job goat_0_35 E -1780.872393620959
  O          -1.57055817821405      1.18244480263597     -2.41909278870164
  C          -2.02621028065500      2.51992318576902     -2.26535232479622
  H          -2.07629154737164      2.93208178978708     -3.27840611773856
  C          -3.42229509337625      2.57532834511306     -1.64686445129667
  H          -3.39192076591728      2.06258599624562     -0.68018243791986
  O          -4.35311273858569      1.96733769289171     -2.51747337475501
  Si         -5.32177856088025      0.65371459818865     -2.14635250159401
  C          -7.03259316640393      1.24012921072956     -1.66245990529632
  C          -5.41421076944359     -0.37237105070396     -3.73158219538093
  C          -5.86628921981423      0.51712046179681     -4.89907675554854
  C          -4.03872822666224     -0.97025938744822     -4.05689995044292
  C          -6.42667365313363     -1.51237786516855     -3.54549540630818
  C          -4.57620800281545     -0.32275674753021     -0.73421487644552
  C          -3.83723967205582      4.02596457938318     -1.39393847634395
  H          -3.90133717118253      4.55529148723747     -2.35621973361862
  C          -5.18542500983382      4.13732349530486     -0.70822970400740
  O          -5.30781321130465      3.27749348573238      0.40639765509268
  Si         -4.75915479332916      3.55019855672992      1.95912350094440
  C          -4.60529717624369      5.38653064013524      2.28498899929116
  C          -6.07742777147937      2.76588097477815      3.06659817488891
  C          -5.66860904620488      2.89652395905785      4.54067211287204
  C          -7.42082885686041      3.47653934028841      2.84991447660727
  C          -6.23369974593190      1.27912223899732      2.71543065914805
  C          -3.11077908146569      2.69968193668566      2.21239436319891
  O          -2.86779755103689      4.65866319445783     -0.56222840280743
  C          -1.60694733418415      4.74245522330369     -1.19695028920597
  H          -1.71535161871094      5.28518416744776     -2.15106149848437
  O          -0.72554322123595      5.41080165492985     -0.35556882095238
  C          -0.97896209833586      6.81347635217372     -0.26546085057209
  C          -1.04434486546879      3.34872239239239     -1.44631236763755
  H          -0.89697427354289      2.86925614304367     -0.46844001319354
  O           0.18279331051340      3.42857477846729     -2.15497101465958
  H          -1.51357313145186      0.78344905276319     -1.54180788995372
  H          -7.48873398041314      1.84338904998046     -2.45253242862492
  H          -6.97936954241988      1.84062645493613     -0.75174643546433
  H          -7.68638576767004      0.38449887233345     -1.46920353068546
  H          -5.93465784656558     -0.07662039616720     -5.81908706295941
  H          -5.15942686788972      1.33212928720020     -5.07747971637568
  H          -6.85123998616007      0.95703961151190     -4.71488895163206
  H          -4.09064790999444     -1.54342589697275     -4.99101778602236
  H          -3.69968614542919     -1.64988033036243     -3.26919270026259
  H          -3.28025271519779     -0.19290971154653     -4.17761977883340
  H          -6.46364834600098     -2.13201774002088     -4.44982100528242
  H          -7.43581013873419     -1.13249316078459     -3.36299924438103
  H          -6.15466267296675     -2.16453744619923     -2.70943909677388
  H          -3.54781878886113     -0.62540685347401     -0.94627821666768
  H          -5.16845464334543     -1.22705790184116     -0.56375553145683
  H          -4.58332531240503      0.25791119811014      0.19185987925874
  H          -5.34318074848724      5.18247509918908     -0.42171842859119
  H          -5.96070431442939      3.86133922320037     -1.42585483118815
  H          -5.54279925895134      5.91297261581836      2.08588039728951
  H          -3.82359678468795      5.82371708938453      1.65947449211169
  H          -4.33821601655224      5.55653854981025      3.33232600469521
  H          -5.55447850678002      3.94343869905839      4.83830950161972
  H          -4.72542807568643      2.38201376631077      4.74692726338130
  H          -6.43670752111270      2.45101385575755      5.18480746433723
  H          -7.36608386064032      4.53444656785917      3.12364028853674
  H          -8.19798672741423      3.01261679079472      3.46993417236307
  H          -7.74276457765214      3.41304477236895      1.80636187594115
  H          -7.00282983397658      0.82143384749814      3.35008221191396
  H          -5.30244791130939      0.72629770518516      2.87217531262766
  H          -6.53500227360191      1.14295605760176      1.67309479415003
  H          -3.16611057510201      1.64538464589782      1.92614824282981
  H          -2.80476314401797      2.75135823722178      3.26149353832945
  H          -2.34074122756437      3.18028481546754      1.60543349237627
  H          -0.96923716272893      7.26788108477368     -1.26201167644158
  H          -0.17834659225443      7.23965822508303      0.33812516682616
  H          -1.94163544452919      7.00607417129325      0.21487731563204
  H           0.78320374415142      3.96538443810572     -1.62322275695923
