69
Coordinates from ORCA-job goat_0_49 E -1780.867295093498
  O          -1.54347153245390      2.06148997146865      0.46808600788593
  C          -1.77403566293906      1.81136471749649     -0.91226843919325
  H          -1.61802211192598      0.74209359546551     -1.07083079573697
  C          -3.21883120718763      2.13657203837005     -1.32096018086124
  H          -3.89571511923679      1.73744447398393     -0.56226376845332
  O          -3.45070567258141      1.52924609506051     -2.59456391572233
  Si         -4.32814602842280      0.11220372239729     -2.81316330870076
  C          -3.97691529411414     -1.06316372976925     -1.39987957213803
  C          -6.17095085028960      0.51928125429506     -2.91580467340275
  C          -6.68381427249677      1.03490490505537     -1.56344856730277
  C          -6.40492338955175      1.59502561336114     -3.98603201842564
  C          -6.94608914252649     -0.75112274325140     -3.29776515285631
  C          -3.68505779125143     -0.57215781898728     -4.42628170169007
  C          -3.49544487515317      3.63198651924022     -1.45893060340542
  H          -4.37102675688289      3.72484656920923     -2.10475908759462
  C          -3.87086135747707      4.31927624090950     -0.14491041866681
  O          -5.13860029594026      3.80408139444539      0.22826662781013
  Si         -5.89504401079307      4.10484668666478      1.68708606782251
  C          -7.72092780708390      4.02243707099941      1.29663918684984
  C          -5.41717998771722      2.77656759030189      2.94579373674737
  C          -6.19666004342417      3.00876770503735      4.24897081552359
  C          -5.76383974559429      1.38857216724583      2.38804336051487
  C          -3.91213827611966      2.83446495220983      3.24352319767333
  C          -5.41489578576453      5.81188133589382      2.28693228737635
  O          -2.46126271279327      4.32823465968541     -2.16909049661127
  C          -1.12895911577796      4.07428289286345     -1.79035889822682
  H          -0.52454555476137      4.59962023532512     -2.53673991770644
  O          -0.83009587688166      4.55545300522365     -0.49876246869354
  C          -0.81429178783246      5.97982746061237     -0.40279081444230
  C          -0.79340541406047      2.58113432974942     -1.80131093245183
  H           0.22024510611952      2.45831882119017     -1.41342456946371
  O          -0.80236668790379      2.09195984955874     -3.13336919182101
  H          -1.28192638877391      2.98888855946754      0.56377101225308
  H          -4.22351683626348     -0.62754350370724     -0.42809756107288
  H          -2.92118900398241     -1.34848801587205     -1.39110139270309
  H          -4.57049904514058     -1.97452881108471     -1.51740192153263
  H          -6.55228820515456      0.29266756923856     -0.77059487242547
  H          -7.75567007825188      1.25926477647010     -1.63245451738302
  H          -6.17513403278471      1.95142159134386     -1.25446500484444
  H          -6.07475308025406      1.26257257375098     -4.97480065370369
  H          -5.87468895768700      2.52087846403709     -3.74589145864849
  H          -7.47439519074973      1.82906915669739     -4.05445045532465
  H          -6.63543402222805     -1.13837622749449     -4.27260758270299
  H          -8.01881469708544     -0.52992419150547     -3.35456105196194
  H          -6.81194590318595     -1.54684795391041     -2.55855093312881
  H          -4.17396723123839     -1.51889161493702     -4.67161736566385
  H          -2.60903811543883     -0.75466179700597     -4.35041723239352
  H          -3.85637226687870      0.12435325980028     -5.25137775350341
  H          -3.13180821249648      4.15205611147018      0.63957678984949
  H          -3.93544371573016      5.39641430203717     -0.33020499779055
  H          -7.98798103851173      3.05324093659815      0.86654500827921
  H          -7.98370460553357      4.79982667342852      0.57321097323437
  H          -8.32545494870023      4.17538714397306      2.19487421951855
  H          -5.97000702408438      3.98534862911817      4.68765277430662
  H          -5.92716478912487      2.24358896069563      4.98730559617059
  H          -7.27788094154676      2.95105128125628      4.09210671381314
  H          -5.22591772043737      1.18340890771177      1.45796312856888
  H          -6.83449742564338      1.28788658311491      2.18662167247342
  H          -5.48748505835333      0.61259170550000      3.11264179718567
  H          -3.61357479037155      3.80988937990253      3.63937854071104
  H          -3.31509258860609      2.63017549513753      2.35118956513181
  H          -3.65107865871524      2.07855643477827      3.99492833201237
  H          -4.34072785458577      5.89060712531679      2.47473629863354
  H          -5.93925952809107      6.05324669188615      3.21594168030807
  H          -5.68659421896689      6.56459222042302      1.54063148293166
  H          -0.56200337818407      6.22439206092118      0.62825978634951
  H          -1.79033304551801      6.40249567914109     -0.65079415824809
  H          -0.05543787861468      6.39189694428297     -1.07595733029524
  H          -1.72610046226703      1.88936132670640     -3.35366095304092
