69
Coordinates from ORCA-job goat_0_11 E -1780.872750827954
  O          -1.24736710442458      0.45120490903518     -1.43255004777790
  C          -1.45229265788088      1.84820951169789     -1.60387143202679
  H          -1.17952509913152      2.14392427260653     -2.62657139893904
  C          -2.92835220224872      2.14692041187098     -1.39275026601849
  H          -3.22701508954476      1.76347240936494     -0.41259561663220
  O          -3.71248452656727      1.57839935917090     -2.41932602550490
  Si         -4.44143521895500      0.07277312283090     -2.38893815317670
  C          -4.45915526439267     -0.61103446570971     -0.64790127954362
  C          -6.20451292822863      0.33468768251364     -3.02567395527392
  C          -6.18061925473733      1.22132205469062     -4.27869016501740
  C          -6.82690553027056     -1.02411783066738     -3.37934127848506
  C          -7.05954238008093      1.00953305201121     -1.94387283264032
  C          -3.50703836865476     -1.06845776667033     -3.53948117678589
  C          -3.15859997480868      3.66025361626419     -1.40408750626955
  H          -2.90138213440297      4.05149008572169     -2.39956128448457
  C          -4.60086771995309      4.02552390777005     -1.11540462796277
  O          -5.05512568846450      3.38651193881916      0.06390189435942
  Si         -5.75547697281479      4.21297975063954      1.33205181791312
  C          -7.33723844976147      5.02140839864903      0.73906949259512
  C          -6.08226887545231      2.88678720751039      2.63339715561711
  C          -4.77392898454065      2.15338228738175      2.96319512511609
  C          -6.63237267210664      3.54498195109256      3.90684418512714
  C          -7.10724734030610      1.87473399337524      2.10203443015875
  C          -4.58918233073842      5.53264551804283      1.96819269527104
  O          -2.33763227858667      4.28118794005947     -0.41775285528713
  C          -0.95868984283532      4.11743989030001     -0.69770912261866
  H          -0.73944275003525      4.52052406779509     -1.70053022287809
  O          -0.22287193653566      4.78996493866260      0.26879670033164
  C          -0.26739142154169      6.21056164121227      0.12917138855317
  C          -0.59877835550249      2.64059442956397     -0.62607311069815
  H          -0.79995058960446      2.29277864460980      0.39477763706386
  O           0.76066140858788      2.41673884088111     -0.97516558719153
  H          -0.30610691872008      0.28274779757638     -1.56067403040512
  H          -3.44650896566482     -0.84351669377279     -0.31029702842584
  H          -5.04873336622950     -1.53285782406978     -0.62371492442421
  H          -4.90679387080603      0.09312581297620      0.05832212261130
  H          -5.78552466505841      2.21570495977201     -4.05425939797573
  H          -7.19709429568090      1.34241060937510     -4.67361329773539
  H          -5.56647620101469      0.78507397201177     -5.07307744740344
  H          -7.86932872298518     -0.88972578260971     -3.69354741792991
  H          -6.82558016071292     -1.70639595030367     -2.52282772780572
  H          -6.29291900120852     -1.51189547813096     -4.19963340582104
  H          -8.06043010398216      1.22820831181016     -2.33671169827048
  H          -6.61939059086506      1.94990800152799     -1.60190391903195
  H          -7.18038454287424      0.36249519089353     -1.07050959811779
  H          -2.45668633700049     -1.11013711866458     -3.24248817987104
  H          -3.56067328783945     -0.71733675469201     -4.57424524374772
  H          -3.91883675261052     -2.08124410068359     -3.50393939125447
  H          -4.66859308604215      5.11681941781256     -1.03967233656932
  H          -5.21626873236736      3.70645931638816     -1.96068170708484
  H          -7.11480050366280      5.77905193658061     -0.01898417732173
  H          -7.85707779297384      5.51719329092668      1.56418973093345
  H          -8.01580433467652      4.28691245766358      0.29691544505000
  H          -4.35854046425482      1.66143097230234      2.07932032812916
  H          -4.95636923339660      1.38353365526567      3.72320485405093
  H          -4.01532107304738      2.83591653085987      3.35824086851772
  H          -5.91493493134047      4.24742427898532      4.34135719276193
  H          -6.84728034846455      2.77930999189245      4.66223305417069
  H          -7.56253475625895      4.08834352541840      3.71268860764372
  H          -8.07002640686868      2.34876874934271      1.88950350703952
  H          -7.28054403394651      1.08864048136948      2.84736718040516
  H          -6.75742982536581      1.39463680180200      1.18435006293083
  H          -3.65768051831162      5.09692836546599      2.33799369991234
  H          -5.05767361558337      6.09235146940853      2.78318479720077
  H          -4.33870935021943      6.24316487996481      1.17508841249548
  H          -1.27631337424253      6.58999978441936      0.30999923254666
  H           0.06037920965425      6.50599208079071     -0.87342736285604
  H           0.41536726234388      6.62144709132976      0.87216828040580
  H           1.31049621679952      2.81739421789852     -0.29154367164738
