69
Coordinates from ORCA-job goat_0_19 E -1780.869921532252
  O      -1.058121      1.058282     -1.918616
  C      -1.611739      2.367815     -1.975683
  H      -1.520220      2.765743     -2.995324
  C      -3.074320      2.391881     -1.576886
  H      -3.177485      1.970254     -0.572251
  O      -3.846913      1.673290     -2.509840
  Si     -4.454673      0.126447     -2.367900
  C      -4.299142     -0.470828     -0.607893
  C      -6.256797      0.208169     -2.929887
  C      -6.371884      1.170613     -4.118415
  C      -6.761626     -1.177277     -3.354779
  C      -7.116701      0.720404     -1.765452
  C      -3.442961     -0.972989     -3.501824
  C      -3.542502      3.843022     -1.542080
  H      -3.446793      4.273253     -2.551758
  C      -4.986832      3.975776     -1.106696
  O      -5.267537      3.242692      0.061902
  Si     -4.928860      3.670054      1.639333
  C      -4.879013      5.528902      1.813235
  C      -6.348901      2.918891      2.632295
  C      -6.146318      3.173930      4.131202
  C      -7.671065      3.547416      2.178709
  C      -6.395037      1.408778      2.371097
  C      -3.296524      2.945558      2.184253
  O      -2.743023      4.564156     -0.615805
  C      -1.360138      4.622772     -0.936821
  H      -1.233357      5.157218     -1.894788
  O      -0.716893      5.283998      0.089190
  C      -0.955014      6.681465      0.108029
  C      -0.772046      3.226694     -1.047541
  H      -0.786971      2.785139     -0.042601
  O       0.547236      3.348619     -1.536991
  H      -1.433978      0.537802     -2.636455
  H      -4.776441     -1.448842     -0.502960
  H      -4.775364      0.212294      0.098401
  H      -3.248634     -0.580567     -0.328921
  H      -6.045231      2.175950     -3.849450
  H      -7.410504      1.227798     -4.460022
  H      -5.762788      0.842234     -4.965138
  H      -6.242378     -1.543079     -4.243149
  H      -7.828701     -1.130276     -3.597162
  H      -6.640347     -1.922482     -2.563017
  H      -8.143868      0.894591     -2.102812
  H      -6.734470      1.654817     -1.346740
  H      -7.157259     -0.007770     -0.951239
  H      -3.975580     -1.894383     -3.743342
  H      -2.503972     -1.270136     -3.025853
  H      -3.209871     -0.467296     -4.442169
  H      -5.209931      5.039574     -0.972260
  H      -5.620985      3.591443     -1.908955
  H      -4.063453      5.935141      1.213169
  H      -4.689149      5.793357      2.856262
  H      -5.809148      6.013247      1.509894
  H      -5.225244      2.718007      4.501936
  H      -6.974868      2.744244      4.704219
  H      -6.110401      4.241589      4.363681
  H      -7.698574      4.621616      2.377808
  H      -8.512517      3.092645      2.711945
  H      -7.831055      3.397444      1.108651
  H      -7.218002      0.949764      2.929111
  H      -5.470643      0.914274      2.681393
  H      -6.551950      1.201022      1.310393
  H      -2.474059      3.458483      1.684346
  H      -3.226679      1.878223      1.960170
  H      -3.167100      3.070556      3.261800
  H      -0.591461      7.146353     -0.813828
  H      -0.400824      7.079173      0.953678
  H      -2.016656      6.903867      0.234032
  H       0.869096      2.454799     -1.702866
69
Coordinates from ORCA-job goat_0_19 E -1780.870846180016
  O      -0.983783      1.112446     -2.036494
  C      -1.564189      2.413383     -2.051760
  H      -1.510046      2.829172     -3.067111
  C      -3.017096      2.409835     -1.604968
  H      -3.083869      1.971753     -0.605374
  O      -3.813778      1.694295     -2.523289
  Si     -4.435346      0.154572     -2.348615
  C      -4.262746     -0.409136     -0.577535
  C      -6.247579      0.242759     -2.882987
  C      -6.372263      1.116509     -4.139418
  C      -6.789031     -1.158804     -3.193285
  C      -7.077318      0.860918     -1.747545
  C      -3.457173     -0.983169     -3.475690
  C      -3.504639      3.856254     -1.528272
  H      -3.442346      4.306105     -2.530884
  C      -4.943713      3.968856     -1.056653
  O      -5.227604      3.199350      0.092732
  Si     -4.936895      3.586438      1.690450
  C      -4.835496      5.440486      1.905308
  C      -6.424159      2.867301      2.609986
  C      -6.285224      3.115287      4.117198
  C      -7.710517      3.531762      2.101374
  C      -6.500886      1.355735      2.349762
  C      -3.357989      2.790359      2.296537
  O      -2.684707      4.579648     -0.619196
  C      -1.320761      4.665033     -1.004287
  H      -1.250839      5.194101     -1.969906
  O      -0.639676      5.355307     -0.015625
  C      -0.900947      6.755278     -0.009600
  C      -0.713539      3.275118     -1.133590
  H      -0.698376      2.824086     -0.132416
  O       0.601081      3.414567     -1.644084
  H      -1.347259      0.611512     -2.774510
  H      -4.749656     -1.381027     -0.448185
  H      -4.723566      0.293594      0.120412
  H      -3.208856     -0.523812     -0.308801
  H      -6.034757      2.138129     -3.951501
  H      -7.417834      1.157396     -4.468456
  H      -5.778577      0.717769     -4.968883
  H      -6.294640     -1.600508     -4.062438
  H      -7.861798     -1.105375     -3.416077
  H      -6.663208     -1.844622     -2.348661
  H      -8.110461      1.021853     -2.079340
  H      -6.674615      1.822243     -1.417236
  H      -7.108671      0.202353     -0.874606
  H      -3.999513     -1.912044     -3.670447
  H      -2.502764     -1.265725     -3.019670
  H      -3.254328     -0.507730     -4.439930
  H      -5.171685      5.027769     -0.890982
  H      -5.587727      3.608988     -1.861903
  H      -3.978107      5.833044      1.354197
  H      -4.692279      5.680062      2.963789
  H      -5.735285      5.957377      1.562124
  H      -5.394918      2.631059      4.528902
  H      -7.154842      2.709594      4.649194
  H      -6.226663      4.182958      4.351196
  H      -7.716996      4.607436      2.301297
  H      -8.586075      3.097786      2.600152
  H      -7.832081      3.386528      1.024010
  H      -7.361556      0.922363      2.874531
  H      -5.603993      0.837506      2.702663
  H      -6.617029      1.143986      1.283719
  H      -2.493624      3.278029      1.844056
  H      -3.320914      1.724622      2.053613
  H      -3.275129      2.890210      3.383339
  H      -0.600242      7.206713     -0.961945
  H      -0.305393      7.182910      0.796625
  H      -1.958619      6.962262      0.172597
  H       0.929949      2.524796     -1.823648
69
Coordinates from ORCA-job goat_0_19 E -1780.871452109016
  O      -1.020185      1.088877     -2.027474
  C      -1.583210      2.398694     -2.031446
  H      -1.515089      2.824266     -3.041755
  C      -3.041243      2.409637     -1.594016
  H      -3.119950      1.960134     -0.600507
  O      -3.834851      1.709121     -2.529693
  Si     -4.438357      0.156814     -2.382731
  C      -4.268639     -0.433477     -0.618324
  C      -6.250312      0.217235     -2.926855
  C      -6.393964      1.110788     -4.168552
  C      -6.749804     -1.193622     -3.264745
  C      -7.109842      0.782821     -1.786325
  C      -3.442575     -0.952081     -3.523513
  C      -3.508802      3.864998     -1.503298
  H      -3.433408      4.327583     -2.498514
  C      -4.946866      4.005035     -1.037578
  O      -5.245029      3.235879      0.108812
  Si     -4.939359      3.618392      1.704294
  C      -4.831423      5.473188      1.922367
  C      -6.415870      2.898215      2.644397
  C      -6.277085      3.190576      4.144171
  C      -7.716448      3.528466      2.125135
  C      -6.471827      1.376740      2.434039
  C      -3.352459      2.813848      2.282500
  O      -2.681021      4.567362     -0.581601
  C      -1.321517      4.640659     -0.977949
  H      -1.255704      5.158145     -1.949388
  O      -0.625625      5.342854     -0.003227
  C      -0.880915      6.748348     -0.022437
  C      -0.731804      3.240875     -1.094128
  H      -0.738785      2.785814     -0.094284
  O       0.598310      3.356699     -1.578661
  H      -1.356979      0.616316     -2.796512
  H      -4.739884     -1.416432     -0.510386
  H      -4.747724      0.249960      0.086574
  H      -3.214470     -0.534048     -0.342362
  H      -6.100943      2.142655     -3.956322
  H      -7.437829      1.116910     -4.508621
  H      -5.775659      0.750194     -4.998612
  H      -6.237748     -1.605670     -4.138962
  H      -7.823622     -1.165572     -3.490768
  H      -6.606336     -1.889010     -2.430032
  H      -8.143001      0.926481     -2.129168
  H      -6.736339      1.742727     -1.424064
  H      -7.136036      0.097823     -0.933585
  H      -3.960745     -1.898173     -3.706660
  H      -2.471035     -1.201388     -3.084146
  H      -3.273447     -0.472028     -4.492698
  H      -5.153351      5.067320     -0.864944
  H      -5.597592      3.663088     -1.845089
  H      -3.976541      5.867456      1.366441
  H      -4.684640      5.711877      2.981398
  H      -5.733865      5.988049      1.580979
  H      -5.378344      2.729680      4.566045
  H      -7.141560      2.787999      4.688675
  H      -6.231218      4.265989      4.346114
  H      -7.736302      4.610199      2.292405
  H      -8.581472      3.096344      2.645658
  H      -7.846526      3.348361      1.053260
  H      -7.328460      0.950774      2.973446
  H      -5.568086      0.883855      2.806663
  H      -6.582001      1.123548      1.376320
  H      -2.491536      3.294556      1.811871
  H      -3.329898      1.748349      2.035366
  H      -3.249049      2.912357      3.368369
  H      -0.601817      7.175707     -0.992844
  H      -0.264584      7.192892      0.760692
  H      -1.934186      6.962738      0.179543
  H       0.911323      2.460844     -1.758797
69
Coordinates from ORCA-job goat_0_19 E -1780.871731140137
  O      -1.016798      1.076319     -1.991450
  C      -1.575087      2.387887     -1.997201
  H      -1.485067      2.820369     -3.002286
  C      -3.042203      2.396599     -1.589369
  H      -3.142111      1.939990     -0.600809
  O      -3.820147      1.706849     -2.545874
  Si     -4.435962      0.156809     -2.407275
  C      -4.264206     -0.448567     -0.646855
  C      -6.250886      0.238622     -2.938048
  C      -6.390256      1.110257     -4.195137
  C      -6.770944     -1.173376     -3.243866
  C      -7.096414      0.839179     -1.804798
  C      -3.465834     -0.957679     -3.564457
  C      -3.511051      3.849901     -1.498163
  H      -3.416606      4.323619     -2.486576
  C      -4.954984      3.986150     -1.056868
  O      -5.252704      3.223077      0.092915
  Si     -4.937755      3.624676      1.681054
  C      -4.851062      5.483860      1.879373
  C      -6.391878      2.894927      2.650271
  C      -6.241954      3.221959      4.142924
  C      -7.709596      3.491070      2.134637
  C      -6.427116      1.369032      2.473496
  C      -3.330227      2.843840      2.238559
  O      -2.699615      4.540294     -0.551096
  C      -1.338056      4.620861     -0.934517
  H      -1.265135      5.132702     -1.908401
  O      -0.655931      5.334970      0.042325
  C      -0.929651      6.737544      0.005917
  C      -0.745411      3.221956     -1.032849
  H      -0.778182      2.763513     -0.035406
  O       0.597481      3.334669     -1.483574
  H      -1.303973      0.628235     -2.794276
  H      -4.747861     -1.425677     -0.545080
  H      -4.730696      0.236300      0.064749
  H      -3.210579     -0.565232     -0.376775
  H      -6.090465      2.143958     -4.000948
  H      -7.434805      1.118051     -4.531542
  H      -5.777656      0.729522     -5.019730
  H      -6.272492     -1.609058     -4.114072
  H      -7.846119     -1.135337     -3.459061
  H      -6.626869     -1.852610     -2.396469
  H      -8.130835      0.980387     -2.143140
  H      -6.713791      1.806682     -1.472314
  H      -7.118950      0.176825     -0.934381
  H      -3.983782     -1.908359     -3.719431
  H      -2.479647     -1.193901     -3.153144
  H      -3.331570     -0.487541     -4.543694
  H      -5.166686      5.048037     -0.890675
  H      -5.596941      3.634318     -1.868037
  H      -4.007400      5.885660      1.311959
  H      -4.701479      5.736706      2.933852
  H      -5.764643      5.978246      1.537449
  H      -5.328037      2.790239      4.562655
  H      -7.090807      2.811405      4.704507
  H      -6.218403      4.301718      4.321309
  H      -7.742909      4.576299      2.273616
  H      -8.558283      3.059676      2.680969
  H      -7.854908      3.280521      1.070801
  H      -7.270516      0.944471      3.033306
  H      -5.511755      0.898830      2.845928
  H      -6.547210      1.088028      1.423579
  H      -2.482983      3.322352      1.740143
  H      -3.306719      1.775516      2.005180
  H      -3.203869      2.959651      3.319696
  H      -0.665621      7.152933     -0.973092
  H      -0.312250      7.199675      0.776570
  H      -1.983891      6.938890      0.214980
  H       0.905590      2.438315     -1.668025
69
Coordinates from ORCA-job goat_0_19 E -1780.871922021945
  O      -1.020807      1.074151     -2.002885
  C      -1.570105      2.389309     -2.005638
  H      -1.484247      2.820956     -3.011008
  C      -3.034597      2.403314     -1.589657
  H      -3.130448      1.944995     -0.601680
  O      -3.821063      1.719947     -2.543947
  Si     -4.430989      0.166387     -2.404257
  C      -4.241431     -0.447115     -0.647842
  C      -6.250900      0.240456     -2.917839
  C      -6.404492      1.114532     -4.170632
  C      -6.761260     -1.176053     -3.223872
  C      -7.094770      0.829667     -1.777697
  C      -3.474148     -0.941386     -3.577716
  C      -3.496331      3.857016     -1.492842
  H      -3.402886      4.334542     -2.479737
  C      -4.937209      3.997299     -1.046042
  O      -5.238557      3.225308      0.097888
  Si     -4.943369      3.622680      1.691144
  C      -4.862753      5.481660      1.897426
  C      -6.409767      2.890775      2.639337
  C      -6.277905      3.215418      4.134866
  C      -7.719784      3.488844      2.107946
  C      -6.445472      1.366529      2.457022
  C      -3.344390      2.836917      2.268758
  O      -2.675371      4.538811     -0.547351
  C      -1.318085      4.618555     -0.946537
  H      -1.255772      5.126955     -1.923159
  O      -0.624320      5.334944      0.019483
  C      -0.903785      6.735424     -0.018132
  C      -0.730329      3.218872     -1.046066
  H      -0.757778      2.760706     -0.049045
  O       0.608012      3.324951     -1.509324
  H      -1.285745      0.640900     -2.821041
  H      -4.723204     -1.424648     -0.547289
  H      -4.702057      0.233948      0.071128
  H      -3.185858     -0.564207     -0.387872
  H      -6.113001      2.149581     -3.973128
  H      -7.450478      1.114940     -4.500558
  H      -5.794235      0.742364     -4.999939
  H      -6.267063     -1.604992     -4.099328
  H      -7.837983     -1.146521     -3.429184
  H      -6.603901     -1.855824     -2.379882
  H      -8.134000      0.951648     -2.106484
  H      -6.726430      1.804854     -1.453146
  H      -7.097121      0.170449     -0.904804
  H      -3.978208     -1.903043     -3.703711
  H      -2.471141     -1.151668     -3.195903
  H      -3.381176     -0.480704     -4.565672
  H      -5.143547      5.058687     -0.871652
  H      -5.581976      3.655546     -1.859164
  H      -4.012591      5.888082      1.344985
  H      -4.732366      5.732128      2.954120
  H      -5.773013      5.972040      1.541650
  H      -5.365894      2.789155      4.563318
  H      -7.129594      2.797663      4.685200
  H      -6.264480      4.294284      4.315844
  H      -7.751519      4.574198      2.243565
  H      -8.574467      3.061267      2.646469
  H      -7.854369      3.276030      1.043768
  H      -7.296727      0.943028      3.004126
  H      -5.536278      0.893344      2.839503
  H      -6.553323      1.088702      1.404756
  H      -2.490542      3.312462      1.781973
  H      -3.322413      1.769170      2.033351
  H      -3.231277      2.949457      3.351174
  H      -0.667366      7.144454     -1.006137
  H      -0.267759      7.202660      0.732407
  H      -1.952437      6.933326      0.217898
  H       0.903490      2.427485     -1.707347
69
Coordinates from ORCA-job goat_0_19 E -1780.872061937736
  O      -1.014134      1.077770     -1.997922
  C      -1.564413      2.393071     -2.005788
  H      -1.479446      2.820961     -3.012482
  C      -3.029505      2.405094     -1.591002
  H      -3.124407      1.945198     -0.603945
  O      -3.817645      1.725017     -2.547052
  Si     -4.427187      0.170207     -2.404277
  C      -4.234548     -0.446126     -0.648727
  C      -6.247981      0.242062     -2.913583
  C      -6.402869      1.117405     -4.164753
  C      -6.751949     -1.177066     -3.222250
  C      -7.095859      0.824816     -1.774035
  C      -3.483080     -0.938687     -3.585166
  C      -3.494381      3.856962     -1.489749
  H      -3.405225      4.337661     -2.475482
  C      -4.933113      3.990863     -1.035455
  O      -5.226906      3.210452      0.105608
  Si     -4.937485      3.607483      1.700292
  C      -4.840565      5.466126      1.904141
  C      -6.417686      2.894796      2.640193
  C      -6.291986      3.224668      4.135252
  C      -7.717046      3.504842      2.096527
  C      -6.468238      1.371273      2.462269
  C      -3.352989      2.800591      2.290266
  O      -2.670145      4.538564     -0.546258
  C      -1.315017      4.624969     -0.954455
  H      -1.262103      5.127949     -1.934517
  O      -0.618723      5.349617      0.002460
  C      -0.914073      6.746215     -0.032092
  C      -0.723484      3.227475     -1.050695
  H      -0.748884      2.772788     -0.052356
  O       0.612093      3.331244     -1.520006
  H      -1.227935      0.661153     -2.838913
  H      -4.720745     -1.421385     -0.549660
  H      -4.691098      0.235970      0.072196
  H      -3.179269     -0.568245     -0.390857
  H      -6.113587      2.152057     -3.963687
  H      -7.448640      1.117148     -4.495151
  H      -5.792363      0.748768     -4.995053
  H      -6.256929     -1.602411     -4.098776
  H      -7.828798     -1.151980     -3.426641
  H      -6.591254     -1.857315     -2.379506
  H      -8.137223      0.931057     -2.101136
  H      -6.739840      1.806755     -1.456101
  H      -7.087680      0.170383     -0.897804
  H      -3.967740     -1.914669     -3.668275
  H      -2.461828     -1.113584     -3.236810
  H      -3.438530     -0.499373     -4.585848
  H      -5.141900      5.050638     -0.854472
  H      -5.580421      3.651988     -1.847530
  H      -3.982606      5.865436      1.359129
  H      -4.720536      5.718914      2.961167
  H      -5.744513      5.960075      1.537409
  H      -5.382305      2.799615      4.569374
  H      -7.146354      2.809204      4.682799
  H      -6.279335      4.303980      4.311997
  H      -7.735822      4.591680      2.221363
  H      -8.579617      3.093526      2.634779
  H      -7.848437      3.283834      1.033810
  H      -7.330341      0.959297      3.000822
  H      -5.568722      0.888447      2.855363
  H      -6.568174      1.092268      1.409738
  H      -2.490170      3.260272      1.805861
  H      -3.348387      1.731944      2.057491
  H      -3.243259      2.913198      3.372819
  H      -0.711437      7.153034     -1.028404
  H      -0.260518      7.222407      0.697182
  H      -1.957171      6.933418      0.234399
  H       0.897303      2.433845     -1.734078
69
Coordinates from ORCA-job goat_0_19 E -1780.872133601239
  O      -1.018344      1.061708     -1.985887
  C      -1.561910      2.380649     -2.000654
  H      -1.471718      2.804234     -3.008622
  C      -3.027971      2.400351     -1.591755
  H      -3.127798      1.939553     -0.605610
  O      -3.816562      1.726294     -2.551622
  Si     -4.423731      0.169770     -2.413145
  C      -4.215356     -0.460030     -0.664365
  C      -6.249088      0.243589     -2.906206
  C      -6.413813      1.128435     -4.149506
  C      -6.752727     -1.173949     -3.223377
  C      -7.090618      0.816331     -1.757556
  C      -3.495558     -0.930429     -3.613019
  C      -3.488031      3.854196     -1.489260
  H      -3.397136      4.334234     -2.475006
  C      -4.926893      3.991431     -1.033427
  O      -5.220819      3.212988      0.109159
  Si     -4.945281      3.621951      1.703652
  C      -4.874743      5.482488      1.898725
  C      -6.421185      2.897129      2.640187
  C      -6.303824      3.230941      4.134770
  C      -7.724334      3.493767      2.090381
  C      -6.456119      1.373084      2.463694
  C      -3.354695      2.834877      2.303722
  O      -2.660652      4.533909     -0.546709
  C      -1.303663      4.615018     -0.953443
  H      -1.248588      5.115300     -1.934840
  O      -0.605292      5.338159      0.001987
  C      -0.898568      6.735088     -0.025464
  C      -0.718381      3.214815     -1.047091
  H      -0.749896      2.763498     -0.047067
  O       0.618132      3.306741     -1.514303
  H      -1.183433      0.659970     -2.844837
  H      -4.706038     -1.433568     -0.568769
  H      -4.661862      0.218643      0.065924
  H      -3.158294     -0.589379     -0.417126
  H      -6.120888      2.160833     -3.942425
  H      -7.462470      1.132785     -4.471645
  H      -5.811106      0.766075     -4.988359
  H      -6.262783     -1.591452     -4.106561
  H      -7.831083     -1.148981     -3.421188
  H      -6.586417     -1.861042     -2.387128
  H      -8.136265      0.914123     -2.074398
  H      -6.739806      1.801260     -1.441858
  H      -7.068828      0.160941     -0.882228
  H      -3.954491     -1.921615     -3.656115
  H      -2.454942     -1.067181     -3.307208
  H      -3.507642     -0.508826     -4.622247
  H      -5.134682      5.051746     -0.854307
  H      -5.575104      3.651629     -1.844241
  H      -4.019787      5.892380      1.357149
  H      -4.766958      5.743319      2.955366
  H      -5.784414      5.959317      1.523176
  H      -5.388099      2.821832      4.571647
  H      -7.152291      2.802049      4.681770
  H      -6.309457      4.310774      4.309592
  H      -7.753215      4.581123      2.209354
  H      -8.585350      3.078017      2.628208
  H      -7.849952      3.266441      1.028119
  H      -7.317897      0.952816      2.996916
  H      -5.554602      0.898121      2.862046
  H      -6.547569      1.093805      1.410507
  H      -2.495028      3.298568      1.816785
  H      -3.341265      1.764571      2.078493
  H      -3.247221      2.955405      3.385681
  H      -0.713437      7.143198     -1.024987
  H      -0.230189      7.209395      0.692167
  H      -1.936175      6.924568      0.260285
  H       0.889041      2.407825     -1.741942
69
Coordinates from ORCA-job goat_0_19 E -1780.872164761623
  O      -1.028155      1.065890     -1.981308
  C      -1.572322      2.384919     -1.999708
  H      -1.482260      2.805529     -3.008993
  C      -3.037626      2.404505     -1.591367
  H      -3.137018      1.944875     -0.604397
  O      -3.824758      1.728015     -2.549981
  Si     -4.424245      0.169322     -2.409873
  C      -4.226908     -0.451432     -0.657164
  C      -6.246120      0.231993     -2.918323
  C      -6.405555      1.114748     -4.164273
  C      -6.740351     -1.187556     -3.238920
  C      -7.099109      0.802869     -1.777298
  C      -3.480533     -0.930562     -3.597160
  C      -3.499575      3.858443     -1.490969
  H      -3.412795      4.335332     -2.478585
  C      -4.937578      3.993008     -1.030390
  O      -5.225897      3.211804      0.111249
  Si     -4.937363      3.614248      1.705220
  C      -4.841294      5.473033      1.902170
  C      -6.417907      2.907282      2.647924
  C      -6.286785      3.230235      4.143299
  C      -7.715596      3.526042      2.109401
  C      -6.475622      1.384493      2.462670
  C      -3.354138      2.805174      2.293459
  O      -2.672870      4.543685     -0.552438
  C      -1.314530      4.623080     -0.955760
  H      -1.256937      5.123770     -1.936917
  O      -0.618261      5.344143      0.001879
  C      -0.910466      6.741232     -0.019343
  C      -0.729622      3.222398     -1.048349
  H      -0.763467      2.773861     -0.046610
  O       0.607713      3.311730     -1.512758
  H      -1.170634      0.668875     -2.846563
  H      -4.715987     -1.425945     -0.561053
  H      -4.681426      0.228972      0.066721
  H      -3.171387     -0.576438     -0.400864
  H      -6.115742      2.148228     -3.957667
  H      -7.452185      1.116229     -4.493506
  H      -5.796542      0.752745     -4.998983
  H      -6.238193     -1.604344     -4.115774
  H      -7.816549     -1.167516     -3.449943
  H      -6.581770     -1.873199     -2.399779
  H      -8.143197      0.895101     -2.101584
  H      -6.755010      1.790194     -1.460967
  H      -7.081006      0.149524     -0.900236
  H      -3.916571     -1.933147     -3.616370
  H      -2.433897     -1.036431     -3.299496
  H      -3.511742     -0.528965     -4.614238
  H      -5.145655      5.052771     -0.848358
  H      -5.588322      3.654410     -1.839749
  H      -3.983547      5.873070      1.356933
  H      -4.724893      5.731103      2.958841
  H      -5.746608      5.962489      1.532225
  H      -5.374726      2.804976      4.572644
  H      -7.138183      2.811064      4.693758
  H      -6.274655      4.309220      4.324360
  H      -7.728962      4.612921      2.235684
  H      -8.580143      3.119001      2.648599
  H      -7.849300      3.307695      1.046016
  H      -7.340845      0.972453      2.997180
  H      -5.579264      0.893850      2.853753
  H      -6.575790      1.113972      1.407946
  H      -2.491570      3.257628      1.800240
  H      -3.357297      1.734887      2.067413
  H      -3.236368      2.923055      3.374786
  H      -0.729151      7.153774     -1.017989
  H      -0.238559      7.212972      0.697140
  H      -1.946764      6.931532      0.271204
  H       0.875232      2.412775     -1.744750
69
Coordinates from ORCA-job goat_0_19 E -1780.872184234411
  O      -1.024502      1.061591     -1.977734
  C      -1.569762      2.380040     -1.997026
  H      -1.477591      2.800709     -3.006106
  C      -3.035856      2.398942     -1.591340
  H      -3.137451      1.939186     -0.604619
  O      -3.822220      1.723332     -2.551272
  Si     -4.424470      0.165991     -2.414211
  C      -4.225188     -0.458903     -0.663521
  C      -6.247517      0.235477     -2.918434
  C      -6.408359      1.123534     -4.160729
  C      -6.746871     -1.180826     -3.243079
  C      -7.094892      0.805338     -1.772532
  C      -3.486660     -0.935061     -3.605235
  C      -3.497868      3.853264     -1.492100
  H      -3.410501      4.328496     -2.480501
  C      -4.936955      3.987576     -1.034142
  O      -5.225462      3.211265      0.110460
  Si     -4.939848      3.621304      1.703095
  C      -4.856858      5.481246      1.893081
  C      -6.415111      2.906592      2.648787
  C      -6.285711      3.233151      4.143371
  C      -7.717585      3.514879      2.109827
  C      -6.462194      1.382600      2.467252
  C      -3.349779      2.827361      2.292464
  O      -2.674285      4.540899     -0.553222
  C      -1.314951      4.618768     -0.951869
  H      -1.253507      5.120581     -1.932245
  O      -0.621346      5.338105      0.009086
  C      -0.910374      6.735921     -0.012893
  C      -0.730533      3.217615     -1.042862
  H      -0.768149      2.769429     -0.040942
  O       0.609210      3.307341     -1.500675
  H      -1.158623      0.666961     -2.845289
  H      -4.718530     -1.431376     -0.567706
  H      -4.674694      0.222000      0.062986
  H      -3.169531     -0.589119     -0.410329
  H      -6.114065      2.155535     -3.952282
  H      -7.456103      1.129521     -4.486206
  H      -5.803327      0.762176     -4.998739
  H      -6.244776     -1.597035     -4.120401
  H      -7.822731     -1.156369     -3.455542
  H      -6.591944     -1.869468     -2.405651
  H      -8.139449      0.904584     -2.093249
  H      -6.744876      1.789220     -1.452514
  H      -7.077816      0.147794     -0.898525
  H      -3.921285     -1.938540     -3.619672
  H      -2.438319     -1.038963     -3.314108
  H      -3.524512     -0.535902     -4.623124
  H      -5.146805      5.047782     -0.856747
  H      -5.586066      3.644383     -1.842970
  H      -4.001432      5.885053      1.346821
  H      -4.742153      5.743668      2.948969
  H      -5.764946      5.964176      1.521363
  H      -5.372449      2.811692      4.574099
  H      -7.135863      2.812721      4.694813
  H      -6.276534      4.312642      4.322184
  H      -7.739901      4.601555      2.236662
  H      -8.579251      3.100577      2.648121
  H      -7.848928      3.295859      1.046198
  H      -7.323268      0.965345      3.004428
  H      -5.561619      0.899655      2.858239
  H      -6.562100      1.108657      1.413363
  H      -2.491626      3.284501      1.795510
  H      -3.344112      1.755958      2.072038
  H      -3.230629      2.952018      3.372937
  H      -0.723716      7.148974     -1.010353
  H      -0.240891      7.206247      0.706803
  H      -1.947610      6.928802      0.272849
  H       0.878465      2.408586     -1.731149
69
Coordinates from ORCA-job goat_0_19 E -1780.872188110043
  O      -1.025135      1.059637     -1.976906
  C      -1.569773      2.378284     -1.996193
  H      -1.477464      2.798722     -3.005291
  C      -3.035845      2.397742     -1.590214
  H      -3.137813      1.938314     -0.603414
  O      -3.822928      1.722388     -2.549579
  Si     -4.424674      0.165224     -2.414618
  C      -4.225492     -0.460993     -0.664517
  C      -6.247994      0.235998     -2.918356
  C      -6.409933      1.126959     -4.158392
  C      -6.747913     -1.179196     -3.245945
  C      -7.093812      0.803873     -1.770101
  C      -3.487315     -0.936415     -3.605626
  C      -3.497335      3.852375     -1.492200
  H      -3.410072      4.326063     -2.481436
  C      -4.936862      3.987195     -1.035602
  O      -5.226114      3.212823      0.109954
  Si     -4.941421      3.624515      1.702339
  C      -4.862874      5.484676      1.891135
  C      -6.414760      2.905940      2.648387
  C      -6.284791      3.230247      4.143382
  C      -7.718763      3.512447      2.111350
  C      -6.459132      1.381975      2.464721
  C      -3.348567      2.836626      2.291606
  O      -2.674723      4.541309     -0.553918
  C      -1.315058      4.617299     -0.950862
  H      -1.251713      5.119578     -1.930845
  O      -0.621560      5.335806      0.011278
  C      -0.907189      6.734246     -0.013385
  C      -0.731608      3.215553     -1.041052
  H      -0.770187      2.767602     -0.039149
  O       0.608927      3.305460     -1.496864
  H      -1.156933      0.666212     -2.845324
  H      -4.720447     -1.432613     -0.568601
  H      -4.673317      0.220182      0.062768
  H      -3.169892     -0.593135     -0.412130
  H      -6.115375      2.158576     -3.948557
  H      -7.458007      1.133391     -4.482573
  H      -5.805606      0.767140     -4.997581
  H      -6.243799     -1.594467     -4.122558
  H      -7.823229     -1.153879     -3.460894
  H      -6.595117     -1.869155     -2.409240
  H      -8.138347      0.906535     -2.089711
  H      -6.741581      1.785918     -1.446909
  H      -7.077542      0.143335     -0.898337
  H      -3.919067     -1.941156     -3.616324
  H      -2.437899     -1.036688     -3.317130
  H      -3.528888     -0.540380     -4.624603
  H      -5.146838      5.047692     -0.859987
  H      -5.585296      3.642671     -1.844418
  H      -4.007663      5.889651      1.345423
  H      -4.748900      5.747577      2.946980
  H      -5.771201      5.966630      1.518810
  H      -5.372220      2.806532      4.573411
  H      -7.135578      2.810699      4.694383
  H      -6.273472      4.309432      4.323927
  H      -7.744109      4.598535      2.242641
  H      -8.579346      3.093466      2.647646
  H      -7.849435      3.297206      1.046885
  H      -7.317743      0.962221      3.003759
  H      -5.556465      0.900767      2.853014
  H      -6.561086      1.108879      1.410806
  H      -2.492563      3.296267      1.793276
  H      -3.338478      1.764857      2.073279
  H      -3.228731      2.963981      3.371707
  H      -0.716044      7.145828     -1.010563
  H      -0.239406      7.204014      0.708177
  H      -1.945022      6.929993      0.268260
  H       0.879376      2.406618     -1.725441
69
Coordinates from ORCA-job goat_0_19 E -1780.872190753403
  O      -1.025269      1.059333     -1.975758
  C      -1.569664      2.378077     -1.995740
  H      -1.477865      2.797728     -3.005125
  C      -3.035679      2.397762     -1.589092
  H      -3.137349      1.938741     -0.602086
  O      -3.823730      1.722293     -2.547510
  Si     -4.424604      0.165131     -2.413646
  C      -4.226597     -0.461270     -0.663427
  C      -6.247775      0.236099     -2.918253
  C      -6.409905      1.129126     -4.156668
  C      -6.746985     -1.178704     -3.248487
  C      -7.093772      0.801689     -1.768899
  C      -3.487331     -0.937866     -3.603476
  C      -3.497363      3.852370     -1.492039
  H      -3.410799      4.324959     -2.481920
  C      -4.936951      3.987024     -1.035616
  O      -5.226244      3.213033      0.110167
  Si     -4.941733      3.624472      1.702630
  C      -4.862490      5.484560      1.891744
  C      -6.415456      2.905564      2.647802
  C      -6.284123      3.226082      4.143500
  C      -7.718897      3.514937      2.112836
  C      -6.461665      1.382101      2.460572
  C      -3.348852      2.837337      2.292499
  O      -2.674967      4.542515     -0.554726
  C      -1.315405      4.617800     -0.951736
  H      -1.251758      5.119711     -1.931835
  O      -0.621696      5.337019      0.010131
  C      -0.906366      6.735559     -0.017333
  C      -0.731931      3.215992     -1.040894
  H      -0.770121      2.768587     -0.038828
  O       0.608622      3.306375     -1.496856
  H      -1.152731      0.667412     -2.845475
  H      -4.723011     -1.432080     -0.567176
  H      -4.673387      0.220628      0.063845
  H      -3.171215     -0.594958     -0.410982
  H      -6.116120      2.160590     -3.945261
  H      -7.457953      1.135218     -4.480832
  H      -5.805133      0.770952     -4.996218
  H      -6.240767     -1.592854     -4.124408
  H      -7.821818     -1.153503     -3.465660
  H      -6.595437     -1.869560     -2.412328
  H      -8.138096      0.906011     -2.088589
  H      -6.740996      1.782668     -1.443008
  H      -7.078218      0.138868     -0.898885
  H      -3.915367     -1.944204     -3.608277
  H      -2.436584     -1.032924     -3.318164
  H      -3.533739     -0.546698     -4.624114
  H      -5.147034      5.047585     -0.860403
  H      -5.585242      3.642151     -1.844360
  H      -4.005941      5.888723      1.347519
  H      -4.749480      5.746901      2.947813
  H      -5.769508      5.968088      1.518369
  H      -5.373064      2.797926      4.572271
  H      -7.136403      2.808499      4.693602
  H      -6.268775      4.304746      4.326738
  H      -7.743554      4.600453      2.248840
  H      -8.579768      3.094058      2.647124
  H      -7.849658      3.304209      1.047511
  H      -7.319497      0.962077      3.000567
  H      -5.558593      0.899390      2.846069
  H      -6.565933      1.111261      1.406338
  H      -2.493264      3.297141      1.793720
  H      -3.337643      1.765339      2.075440
  H      -3.228913      2.966105      3.372413
  H      -0.713405      7.145300     -1.014884
  H      -0.239564      7.206152      0.704533
  H      -1.944555      6.932368      0.262283
  H       0.879929      2.407431     -1.723939
69
Coordinates from ORCA-job goat_0_19 E -1780.872192093945
  O      -1.026162      1.058900     -1.974338
  C      -1.569954      2.377908     -1.995300
  H      -1.478461      2.796694     -3.005034
  C      -3.035923      2.398127     -1.588351
  H      -3.137392      1.939385     -0.601192
  O      -3.824492      1.722530     -2.546209
  Si     -4.424367      0.165165     -2.412994
  C      -4.227139     -0.461311     -0.662573
  C      -6.247323      0.235828     -2.918403
  C      -6.409299      1.129641     -4.156198
  C      -6.745853     -1.179020     -3.249834
  C      -7.093849      0.800172     -1.768833
  C      -3.486767     -0.938402     -3.601986
  C      -3.497593      3.852710     -1.491783
  H      -3.411257      4.324914     -2.481874
  C      -4.937094      3.987586     -1.035157
  O      -5.226602      3.213589      0.110617
  Si     -4.941975      3.624341      1.703180
  C      -4.861624      5.484338      1.893194
  C      -6.416120      2.905456      2.647552
  C      -6.283439      3.222710      4.143857
  C      -7.718891      3.517892      2.114501
  C      -6.464433      1.382523      2.457199
  C      -3.349437      2.836865      2.293546
  O      -2.674779      4.543117     -0.555002
  C      -1.315420      4.618224     -0.952776
  H      -1.252137      5.119493     -1.933200
  O      -0.621318      5.338359      0.008307
  C      -0.906107      6.736852     -0.020733
  C      -0.731844      3.216485     -1.041313
  H      -0.769235      2.769511     -0.039078
  O       0.608369      3.306889     -1.498428
  H      -1.151421      0.667433     -2.844580
  H      -4.724066     -1.431829     -0.566200
  H      -4.673634      0.220937      0.064582
  H      -3.171863     -0.595543     -0.409923
  H      -6.116358      2.161108     -3.943808
  H      -7.457213      1.135252     -4.480825
  H      -5.803882      0.772446     -4.995680
  H      -6.239018     -1.592408     -4.125748
  H      -7.820583     -1.154182     -3.467460
  H      -6.594156     -1.870286     -2.414048
  H      -8.137956      0.905187     -2.089004
  H      -6.741004      1.780671     -1.441413
  H      -7.078871      0.136162     -0.899737
  H      -3.912694     -1.945632     -3.603346
  H      -2.435325     -1.030362     -3.318205
  H      -3.535723     -0.550090     -4.623580
  H      -5.146901      5.048204     -0.859880
  H      -5.585556      3.642897     -1.843807
  H      -4.003902      5.887776      1.350269
  H      -4.749481      5.745939      2.949540
  H      -5.767562      5.969228      1.519026
  H      -5.373282      2.791363      4.571257
  H      -7.136607      2.806093      4.693323
  H      -6.265492      4.300929      4.329414
  H      -7.742167      4.603019      2.253719
  H      -8.580115      3.096412      2.647763
  H      -7.850224      3.310386      1.048625
  H      -7.322148      0.962567      2.997432
  H      -5.561456      0.897970      2.840623
  H      -6.570207      1.113905      1.402577
  H      -2.493822      3.296538      1.794738
  H      -3.338011      1.764767      2.076996
  H      -3.229733      2.966187      3.373413
  H      -0.712408      7.145519     -1.018572
  H      -0.239932      7.208180      0.701223
  H      -1.944543      6.933703      0.257927
  H       0.880074      2.407698     -1.724036
69
Coordinates from ORCA-job goat_0_19 E -1780.872190400413
  O      -1.026822      1.058769     -1.972541
  C      -1.570370      2.377887     -1.994615
  H      -1.478905      2.795882     -3.004675
  C      -3.036389      2.398378     -1.587814
  H      -3.137841      1.939878     -0.600521
  O      -3.824993      1.722510     -2.545453
  Si     -4.424215      0.164990     -2.412565
  C      -4.228028     -0.461287     -0.661812
  C      -6.246820      0.235490     -2.919122
  C      -6.408091      1.129535     -4.156825
  C      -6.744910     -1.179436     -3.251185
  C      -7.094179      0.799318     -1.769940
  C      -3.486074     -0.939120     -3.600562
  C      -3.498196      3.852891     -1.491630
  H      -3.411865      4.325011     -2.481740
  C      -4.937599      3.987931     -1.034786
  O      -5.227251      3.213890      0.110979
  Si     -4.941832      3.623875      1.703529
  C      -4.859753      5.483774      1.894359
  C      -6.416246      2.905586      2.647791
  C      -6.282024      3.220427      4.144508
  C      -7.718444      3.520862      2.116581
  C      -6.466867      1.383064      2.455247
  C      -3.349667      2.835397      2.293759
  O      -2.675075      4.543413     -0.555066
  C      -1.315920      4.618837     -0.953566
  H      -1.253197      5.119371     -1.934402
  O      -0.621699      5.339977      0.006691
  C      -0.907216      6.738342     -0.023247
  C      -0.731977      3.217291     -1.041502
  H      -0.768699      2.770735     -0.039061
  O       0.607935      3.307754     -1.499546
  H      -1.150450      0.667291     -2.843009
  H      -4.725202     -1.431668     -0.565391
  H      -4.674629      0.221290      0.064977
  H      -3.172889     -0.595701     -0.408654
  H      -6.115863      2.161051     -3.943722
  H      -7.455735      1.134793     -4.482385
  H      -5.801808      0.772894     -4.995909
  H      -6.237940     -1.592351     -4.127248
  H      -7.819639     -1.154789     -3.468822
  H      -6.592969     -1.870927     -2.415629
  H      -8.137977      0.904799     -2.090972
  H      -6.741351      1.779507     -1.441511
  H      -7.080056      0.134674     -0.901318
  H      -3.911282     -1.946662     -3.600055
  H      -2.434470     -1.029748     -3.316974
  H      -3.535680     -0.552488     -4.622748
  H      -5.147167      5.048577     -0.859386
  H      -5.586259      3.643414     -1.843337
  H      -4.000984      5.886255      1.352365
  H      -4.748135      5.744717      2.950930
  H      -5.764713      5.970028      1.519636
  H      -5.372479      2.786579      4.570611
  H      -7.135744      2.804649      4.693782
  H      -6.261960      4.298323      4.331712
  H      -7.740031      4.605757      2.257785
  H      -8.579948      3.099638      2.649614
  H      -7.850730      3.315456      1.050409
  H      -7.324620      0.963546      2.995778
  H      -5.564147      0.896665      2.836949
  H      -6.574065      1.116170      1.400343
  H      -2.493949      3.294420      1.794520
  H      -3.338834      1.763189      2.077733
  H      -3.229751      2.965235      3.373533
  H      -0.712953      7.146521     -1.021179
  H      -0.241808      7.210309      0.699000
  H      -1.945951      6.934685      0.254608
  H       0.880234      2.408293     -1.723343
