69
Coordinates from ORCA-job goat_0_29 E -1780.872241962403
  O          -1.17771701723751      2.16401500116388     -2.90115314640535
  C          -2.07320777493544      3.23388147658124     -2.62535917193572
  H          -2.44121058522889      3.66676572410386     -3.56609067369555
  C          -3.26149365894144      2.68174961618567     -1.85318238087810
  H          -2.89222247091847      2.16733981888059     -0.96129692235421
  O          -4.02848694834731      1.81306830867563     -2.65864690703739
  Si         -3.87435996380444      0.14897188453324     -2.73876451948433
  C          -2.83693772790032     -0.48067494813570     -1.31483423339918
  C          -5.63144389343385     -0.54897557213476     -2.64403963403104
  C          -6.55760903982843      0.23628303487840     -3.58331599355198
  C          -5.61723203431206     -2.02539062116478     -3.06697692676360
  C          -6.16151807091882     -0.44395051094360     -1.20747864063689
  C          -3.09478788292591     -0.30289948762268     -4.37790295972587
  C          -4.16059407734621      3.83584504648083     -1.40367895032314
  H          -4.55416921652548      4.34725546280556     -2.29443346086876
  C          -5.34209003775311      3.36993774846029     -0.58048528551892
  O          -4.90243123384702      2.56654672208495      0.50094434727957
  Si         -5.76290114736656      2.38689658034352      1.92076515955550
  C          -5.26272043495163      0.70851346571139      2.57237854057070
  C          -5.27943810938011      3.75550362002194      3.13366138415200
  C          -6.12625905933308      3.62941361456989      4.40850719192813
  C          -3.79293067257025      3.61780085263319      3.49303204584602
  C          -5.51307347666858      5.13817065315099      2.50740547188221
  C          -7.59748353123704      2.43587185892837      1.54760961385039
  O          -3.40325962509954      4.75453139046840     -0.61907729992120
  C          -2.37929831434773      5.37512492943577     -1.37680210204953
  H          -2.82781382394825      5.88294763124062     -2.24705519025061
  O          -1.71489645474110      6.28784909207875     -0.56896389836271
  C          -2.48173442599893      7.45868430812352     -0.28454375225380
  C          -1.37420571594928      4.32558233169182     -1.83000968878661
  H          -0.91923830125543      3.88478754248717     -0.93434411739933
  O          -0.37817789627349      4.88723032689217     -2.67454394411540
  H          -0.42285414046663      2.53818818017245     -3.37146738753824
  H          -3.22263833770303     -0.13820350575253     -0.35074879244845
  H          -1.79982895402864     -0.15068861856232     -1.41098008763813
  H          -2.84847164886274     -1.57508791747555     -1.31282484006624
  H          -6.20721177519518      0.20320577489837     -4.61989419297098
  H          -6.63011656776417      1.28556133493967     -3.28487255061994
  H          -7.56763278736817     -0.19167587208677     -3.56056553118865
  H          -5.31441467392792     -2.14321744769624     -4.11114786119364
  H          -6.62030374916952     -2.45653853831933     -2.96029261845047
  H          -4.93549351642650     -2.61882564159811     -2.44877769374310
  H          -7.20287591375542     -0.78677931330710     -1.16283344292963
  H          -6.13112754396597      0.58361180759694     -0.83792226736530
  H          -5.57875258797339     -1.06212581462014     -0.51870611622786
  H          -2.13311571586896      0.20450586043609     -4.48243666912190
  H          -3.73492194627143     -0.00687324264078     -5.21426004514632
  H          -2.92759243438553     -1.38183729748306     -4.44493027428364
  H          -5.88520771829767      4.25391798388669     -0.23173582798511
  H          -6.00914771555964      2.79421526182481     -1.22886608165571
  H          -5.64580974021744     -0.07850563349196      1.91682527014733
  H          -5.66033587345894      0.53966992897702      3.57707448715168
  H          -4.17416059343511      0.61509836310208      2.61645007724959
  H          -5.82981452787634      4.39773829767367      5.13317436753743
  H          -5.99714380630157      2.65460213170926      4.88910467303569
  H          -7.19173653294738      3.76455086044260      4.19985686763651
  H          -3.58274250605522      2.66515222204818      3.98788353656803
  H          -3.49485006659067      4.42141470240218      4.17782133050740
  H          -3.15875983497096      3.68532252937898      2.60364387635453
  H          -5.27100037551486      5.92267701193134      3.23536639360633
  H          -6.55561626413968      5.27887915501923      2.20532328923036
  H          -4.87924368173358      5.29307904500264      1.63041368283727
  H          -7.92166712965580      3.42304766535901      1.20755704891447
  H          -8.17384201212970      2.18074970795654      2.44150205062410
  H          -7.84304131874325      1.70786940920297      0.76859022629475
  H          -3.35019880453695      7.21718430595183      0.33359920040136
  H          -2.81465699574375      7.93220169915355     -1.21453331378811
  H          -1.82645571606485      8.13979887746275      0.25743679037592
  H           0.15856620043259      5.48504984389472     -2.14119157942661
