69
Coordinates from ORCA-job goat_0_65 E -1780.867516427924
  O          -1.47897554155544      2.61324491725426      0.34018406244013
  C          -1.69164997312533      2.37658217172954     -1.04565585943105
  H          -1.21739456163953      1.42101399320751     -1.27875581604208
  C          -3.18447760005072      2.25051467086925     -1.39158157786779
  H          -3.66660179581393      1.61812203183899     -0.64160275561255
  O          -3.27182612279845      1.66951453614023     -2.69459586418045
  Si         -3.62288506034090      0.05163711341790     -2.98463069743424
  C          -2.79964243040597     -1.01321929795978     -1.68416721178684
  C          -5.49656916075142     -0.19020749180254     -2.97442787333529
  C          -6.06492220001381      0.09059311662962     -1.57619775724383
  C          -6.14653493014803      0.76928956413923     -3.98164745749241
  C          -5.82233028265351     -1.63825396128978     -3.37107048976306
  C          -2.89491953261343     -0.27432513709540     -4.67190245091535
  C          -3.91990463170304      3.58804773068315     -1.42708038663481
  H          -4.81729485833776      3.43594795006773     -2.03039704563620
  C          -4.40716161732975      4.06247579112465     -0.05622904044345
  O          -5.52910127866099      3.26656224986132      0.29522490061672
  Si         -5.84078977613259      2.74534812678735      1.85271693998334
  C          -4.42024196737185      1.68473504402298      2.45313201229478
  C          -6.12013589786056      4.22043716011598      3.00740990352313
  C          -7.10815223018471      5.20004370137282      2.35825704130803
  C          -6.71272239577352      3.70550035071929      4.32900133478872
  C          -4.80629124515292      4.95556343577118      3.31080304029190
  C          -7.39432800368124      1.72151264458095      1.69029808458627
  O          -3.18997498760635      4.60203871580303     -2.13388094132582
  C          -1.83210518580410      4.76782027188013     -1.80006449408160
  H          -1.45439224625252      5.49654319929563     -2.52425994455890
  O          -1.65282893170406      5.24906905134410     -0.48658410549896
  C          -2.04813558661006      6.60955282693964     -0.30961816836792
  C          -1.04381816672988      3.46101358233281     -1.91168730250722
  H          -0.02684188851338      3.64532238856589     -1.55849644225425
  O          -0.95677445779161      3.06229539416134     -3.27061647570864
  H          -1.51069014473692      3.56948010383923      0.48790301264960
  H          -3.09610344879089     -0.73327263454301     -0.66980421816746
  H          -1.71127642435929     -0.93586758997190     -1.75755314555043
  H          -3.07187871631287     -2.06204522064393     -1.83414600106902
  H          -5.89472465573072      1.12442770448694     -1.26549212205942
  H          -5.62677853087625     -0.56625921968498     -0.81827735610002
  H          -7.14900202587332     -0.07860634305562     -1.57324313090005
  H          -5.79591682037425      0.58414187442476     -5.00135227270986
  H          -5.93423093798019      1.81347992044764     -3.73440392998633
  H          -7.23547291124831      0.63760892029176     -3.97583172625165
  H          -5.39224852180120     -2.35838656664920     -2.66842631723274
  H          -5.45125738406715     -1.87814167576431     -4.37193654760931
  H          -6.90876590353732     -1.78824904681606     -3.37496287608196
  H          -1.81546345933293     -0.09742956353745     -4.65267768593554
  H          -3.33532935522921      0.38009691469601     -5.42882170538532
  H          -3.06398375690615     -1.31086960666639     -4.97637046705399
  H          -3.62389541484082      3.99630022087470      0.69986350286011
  H          -4.71236333391721      5.10950647289363     -0.14170030669645
  H          -4.31972923483469      0.79999766027974      1.81669270208413
  H          -4.60198801191020      1.34757814932466      3.47806621649010
  H          -3.46942335982829      2.22258664440350      2.43620943211698
  H          -8.06663914967280      4.72104744299742      2.13608681034458
  H          -6.71181724949032      5.60963841282511      1.42452265416610
  H          -7.30577788723041      6.04001184779625      3.03561504251698
  H          -7.68281367431827      3.22398799227470      4.17755066482982
  H          -6.86060036895420      4.54193363028530      5.02289913328878
  H          -6.04949030963294      2.98451717332138      4.81757649546120
  H          -4.06799705064184      4.29276378730799      3.77138304668042
  H          -4.99512262405496      5.77952138607178      4.01016614250764
  H          -4.35919433178701      5.38680587543985      2.41123502859072
  H          -8.24363054946019      2.32906220680874      1.36633896050406
  H          -7.65157931770957      1.25783401863365      2.64658635000896
  H          -7.24387271297977      0.92454526141030      0.95737204741733
  H          -1.88209940865387      6.85363972324953      0.73893976059649
  H          -3.10348439332146      6.74854604654685     -0.55409392202461
  H          -1.43726237698645      7.26203862933542     -0.94186409769866
  H          -1.78353197750624      2.59930349455685     -3.48196620631145
