69
Coordinates from ORCA-job goat_0_121 E -1780.866836284483
  O          -1.72213846031753      2.22502479236803     -0.16436182581218
  C          -2.19517490513019      2.26837219350477     -1.50478265795529
  H          -2.06406985276321      1.26757321855689     -1.92194396522090
  C          -3.69044730810054      2.60806201674946     -1.56994683881317
  H          -4.21551083022834      2.02169183574909     -0.81368690687081
  O          -4.13923587750429      2.27361730870417     -2.88540779779093
  Si         -5.48660982963032      1.31753085495167     -3.19167531782572
  C          -5.93673492402843      1.72723814440071     -4.95585274645721
  C          -5.03208530943660     -0.50743913944663     -3.00045473817133
  C          -6.25044572486785     -1.36850631118354     -3.36874096167171
  C          -3.86784805975200     -0.84858791344724     -3.94161555382875
  C          -4.62203360129188     -0.81916951952077     -1.55354733007013
  C          -6.86353436026227      1.79209416899968     -2.01707624683905
  C          -3.99423761487034      4.08374452221729     -1.31603906104267
  H          -4.97485661221683      4.27800575461443     -1.75545166422758
  C          -4.11795703303612      4.44858850860705      0.16419313646463
  O          -5.26750751638673      3.77628411852318      0.65234935932048
  Si         -5.70124635195581      3.69442288969760      2.26358998320729
  C          -7.54342235102501      3.38313390393485      2.22471522261755
  C          -4.80100055748119      2.26658046000905      3.12143362267193
  C          -3.32244445677877      2.60814615536061      3.35623714819062
  C          -5.47154878678162      2.00190229758479      4.47859302975234
  C          -4.89433467246003      1.00190779290824      2.25600471745518
  C          -5.30860576845588      5.32637363916785      3.09166788555444
  O          -3.11219636602388      4.96487728969085     -2.02607984078664
  C          -1.73145523438786      4.69430749434728     -1.96241415773865
  H          -1.28034502210417      5.39486455862672     -2.67250320618985
  O          -1.19514610074036      4.89858419056221     -0.67406771124752
  C          -1.18093923845453      6.26609614114617     -0.26466896329292
  C          -1.39674431718414      3.25511181440627     -2.36085270528114
  H          -0.32874725022052      3.09774636425664     -2.19445423319935
  O          -1.64579453522581      3.06307237542003     -3.74446449194236
  H          -1.44123525852617      3.11827029430744      0.08221427951841
  H          -5.10014126583524      1.53506165704159     -5.63289151524104
  H          -6.20575835259559      2.78442575009151     -5.03628146768252
  H          -6.79074444428249      1.13251418994980     -5.29122637883315
  H          -6.57789028828836     -1.19064679091698     -4.39737194330068
  H          -7.09839260041099     -1.17519008456262     -2.70482678346547
  H          -5.99596384952143     -2.43163757488976     -3.28050671556263
  H          -4.13962319533056     -0.69455342096107     -4.99003215105029
  H          -3.58403225183246     -1.90140274428340     -3.82296246226736
  H          -2.98554406957723     -0.23782448888260     -3.72872439280636
  H          -3.72265169295644     -0.27308658878106     -1.25694737326720
  H          -4.40312690111243     -1.88907174031862     -1.45098693869046
  H          -5.41670456888408     -0.57393282512239     -0.84294790376613
  H          -7.10850837581908      2.85256973449861     -2.12472603862435
  H          -6.60185004924016      1.60890760688600     -0.97214071620588
  H          -7.76232257120799      1.21249530474996     -2.24748859361728
  H          -3.22941324985359      4.17493016344504      0.73365035948279
  H          -4.24962820155777      5.53317894609183      0.23771181039722
  H          -8.04280384126316      4.17207042729907      1.65487278831860
  H          -7.96359678442993      3.37412875904189      3.23400429385010
  H          -7.77234646666543      2.42388275530991      1.75177990341139
  H          -3.20741053447171      3.49531037030870      3.98547704942154
  H          -2.79138536089465      2.78546651633975      2.41726695457353
  H          -2.82234500016176      1.77360252568674      3.86350238892158
  H          -4.93844184622831      1.20348865598390      5.00916895466403
  H          -6.51165661277100      1.68526122170587      4.36083971930835
  H          -5.45901939556009      2.88956508842816      5.11946592811606
  H          -5.93282088393503      0.72842851623249      2.04413397155813
  H          -4.42711442696748      0.15531688256488      2.77426689141507
  H          -4.37938555612908      1.13416578924405      1.30136205648602
  H          -5.88478848968917      6.13515117902037      2.63233062082640
  H          -4.24690653116814      5.57468058456520      3.01013376755702
  H          -5.56487857597080      5.28844897171837      4.15453386339064
  H          -2.19372876132616      6.67023451287750     -0.20348303265380
  H          -0.59153836424651      6.86174274032871     -0.96947097569070
  H          -0.71586566954801      6.29628405652970      0.71985566496950
  H          -2.59119684263810      2.86212119700386     -3.83829116641967
