69
Coordinates from ORCA-job goat_0_85 E -1780.867743106647
  O          -1.37444053090245      2.54164665716927     -0.47933140451581
  C          -2.04899151605071      2.50099879666028     -1.73080156974974
  H          -1.87734470519162      1.50902762534022     -2.15406134723768
  C          -3.56588031536800      2.68270563483493     -1.57301974565116
  H          -3.91363067936287      2.05142795047372     -0.75254420770307
  O          -4.15883205368097      2.29130011043826     -2.81340401813283
  Si         -5.40739110128725      1.17698215092386     -2.95541197733943
  C          -6.15543424332173      1.54917431218522     -4.62407442097768
  C          -4.71250121188060     -0.57962297654515     -2.88805551713759
  C          -3.65943788276320     -0.76125813133510     -3.99060321348427
  C          -4.06931778348570     -0.85770339915056     -1.52148494517802
  C          -5.85796073881763     -1.57964920845654     -3.11052764489420
  C          -6.63785600323952      1.46476531742761     -1.57823478622174
  C          -3.97765549045118      4.12288424777485     -1.27567357373735
  H          -5.03258329086338      4.21033524069699     -1.54427983077829
  C          -3.88331182351922      4.51221491821737      0.20182158965404
  O          -4.92254569942672      3.84140871735485      0.90097235129344
  Si         -4.66366057402004      3.04213769206987      2.34785736325169
  C          -3.50717650095739      4.05258426228481      3.42059729866494
  C          -6.37032720940358      2.87965497748965      3.13647957745585
  C          -6.91114752702048      4.27250541207574      3.48919371561181
  C          -7.33969040392222      2.19203355430259      2.16503831104455
  C          -6.25922655988871      2.03848296484263      4.41682316540621
  C          -3.89986064330578      1.36688557971576      2.01267632578547
  O          -3.31981205374265      5.06895681836026     -2.13265725400237
  C          -1.92378131926541      4.94927988294135     -2.27873510424407
  H          -1.66414990194601      5.67293128190105     -3.05805196857415
  O          -1.22619035893963      5.24590670972630     -1.08949599613443
  C          -1.27105314491981      6.62483117458137     -0.72259645518411
  C          -1.49694182257815      3.54349485266803     -2.70734588591898
  H          -0.40538196000924      3.50415308614230     -2.69777172660186
  O          -1.92034378780256      3.29048617163038     -4.03747774119126
  H          -1.14121374530198      3.46300508756995     -0.29498235223613
  H          -5.40738542667103      1.47668193232638     -5.41812554106657
  H          -6.56526499808733      2.56330578079714     -4.63218168112372
  H          -6.96619407271886      0.85277877520253     -4.85472776670654
  H          -4.09077752620568     -0.62308569372802     -4.98641262808948
  H          -3.24055240453061     -1.77406154655120     -3.94742822147350
  H          -2.83370420036802     -0.05234612600698     -3.87955098701356
  H          -4.78411099061226     -0.73482384259208     -0.70280292461693
  H          -3.21791460117976     -0.19977949467521     -1.32809227793977
  H          -3.69911228512918     -1.88964639067449     -1.48751594236474
  H          -6.34121266052750     -1.43498662078458     -4.08131569879586
  H          -6.62465865491058     -1.49579853617857     -2.33432689230631
  H          -5.46911865993795     -2.60476881760601     -3.08295225861165
  H          -7.00797035082968      2.49364429861771     -1.60424630810841
  H          -6.20139301885062      1.28716559557435     -0.59300708311696
  H          -7.49411738442847      0.79364618874741     -1.69229112579081
  H          -2.90575235650158      4.27961496636464      0.62463371406566
  H          -4.03659131303211      5.59268241541310      0.27842079837982
  H          -2.49424224369693      4.06113439068393      3.00791009073026
  H          -3.45207061161080      3.62306590567469      4.42528164834048
  H          -3.84857057904752      5.08736887868024      3.51088457130688
  H          -7.91249525717388      4.18722973292957      3.92885716984875
  H          -6.98816934459180      4.90883073108853      2.60257580729019
  H          -6.27145088992936      4.78100691900730      4.21645187625157
  H          -7.46174181121471      2.76825225824265      1.24432027938281
  H          -8.32696596395477      2.08921980992681      2.63223184414269
  H          -6.99611595991405      1.18979417120023      1.89189126898594
  H          -7.24214132187749      1.95541117580306      4.89623933580209
  H          -5.57456713229259      2.48896643336672      5.14211527528583
  H          -5.90731710250350      1.02481728332038      4.20373301076953
  H          -2.95831148099971      1.48139348992763      1.46789275352533
  H          -4.56507930256803      0.73804656364083      1.41429023602722
  H          -3.68793221685334      0.84555218480773      2.95090042274315
  H          -0.69724578049876      6.72637568320348      0.19770342612845
  H          -2.29825211398127      6.95403748554769     -0.55123270731884
  H          -0.81745171379173      7.23621573139352     -1.50947962351661
  H          -2.84413568634176      2.99470074499662     -3.98752058238819
