69
Coordinates from ORCA-job goat_0_20 E -1780.872756953297
  O          -1.13047255507168      0.81620715504221     -1.81962288054236
  C          -1.50453995256044      2.18498123690737     -1.91479390981125
  H          -1.38079910982061      2.53601664015399     -2.94885026819245
  C          -2.97163173319458      2.31177460610066     -1.53574710354348
  H          -3.11685974544755      1.87545408780611     -0.54304643609749
  O          -3.79801911306906      1.68323856435286     -2.49168168839582
  Si         -4.36882834134311      0.11215843497488     -2.42822783072171
  C          -4.13575674394423     -0.60077842940586     -0.71457244510449
  C          -6.20639968313078      0.20503003080862     -2.87299346716181
  C          -6.40164695265009      1.11258858796352     -4.09572662464809
  C          -6.72467411136576     -1.20295914894978     -3.20168359965880
  C          -7.00739364927152      0.76800569281257     -1.69060583024557
  C          -3.45314759991124     -0.90927658354060     -3.70006181476227
  C          -3.36137040581961      3.79042977886678     -1.47018587623161
  H          -3.25082509187844      4.23212233324817     -2.47159024519174
  C          -4.79679976469588      3.99115501087012     -1.02963129592926
  O          -5.05437569022697      3.29069463701653      0.17438255190805
  Si         -5.80197255220535      4.00665063886198      1.48247904909661
  C          -7.52257791181618      4.55217119950365      0.98397328758699
  C          -5.84107196030897      2.66282395805756      2.80565133427441
  C          -4.42097267609928      2.12826007719809      3.04245853119980
  C          -6.38711042305612      3.25417127208219      4.11354285551522
  C          -6.74626265944116      1.50788492623242      2.35470045778334
  C          -4.81645613922188      5.49775430304076      2.04168145832503
  O          -2.51269323787491      4.47198791655475     -0.54926268860173
  C          -1.16194554796012      4.47105782896300     -0.97750146124690
  H          -1.09738647329065      4.92577007979754     -1.98014047378336
  O          -0.40252382948024      5.19205924362640     -0.06594253421377
  C          -0.60909294041635      6.60293614793285     -0.14503696786126
  C          -0.63878424829405      3.04228732393355     -1.00497161736499
  H          -0.68422468143700      2.64573214170916      0.01688637469120
  O           0.68904785309932      2.98223501813264     -1.50884236601672
  H          -0.19357214473872      0.76042455280109     -2.04314863582007
  H          -3.07609757448856     -0.74969481791006     -0.49413789594330
  H          -4.63767590443859     -1.57145803905228     -0.65284139212987
  H          -4.56199198996520      0.04763047460908      0.05544747033739
  H          -6.08689198465256      2.13796275483011     -3.88442454256054
  H          -7.46069877383333      1.13619459051199     -4.38151563510899
  H          -5.83311336127853      0.75578693358907     -4.96057092798231
  H          -6.56946706520129     -1.89741447356317     -2.36934921632118
  H          -6.23177505580501     -1.61932704726469     -4.08460306006571
  H          -7.80178729417578     -1.16816340261408     -3.40665561906602
  H          -6.63216121326314      1.74280386983232     -1.36816472819605
  H          -6.97023671714251      0.09647096193973     -0.82826057466906
  H          -8.06087389252397      0.88865454109350     -1.97274904110518
  H          -2.37876392768658     -0.85566446434589     -3.51055572747058
  H          -3.64477400518537     -0.54244989560152     -4.71282624186932
  H          -3.76207148669727     -1.95765005094989     -3.65551223008743
  H          -4.97185841834108      5.06749933931201     -0.91999783874140
  H          -5.45762150370741      3.61960823224453     -1.81734782005455
  H          -7.46746573772677      5.33126041382808      0.21711411382004
  H          -8.06631036453027      4.96380380417377      1.83944277927790
  H          -8.10051041736010      3.71690832716425      0.57917712260595
  H          -4.43520566551198      1.36040979791848      3.82584975368786
  H          -3.73895902774166      2.92026510575425      3.36651777952382
  H          -4.00823611306649      1.67631723515966      2.13622798786203
  H          -6.43518536868518      2.47648718138891      4.88542166393276
  H          -7.39709983530994      3.65664545361882      3.98620938323422
  H          -5.74835852269474      4.05783270947784      4.49159220210583
  H          -6.75135358898434      0.71603276091305      3.11391463721752
  H          -6.39859304173413      1.06890145619454      1.41587981244913
  H          -7.77966142074806      1.83696520416027      2.21135951949710
  H          -5.31282866431469      5.99006772903775      2.88316858982310
  H          -4.72781621300175      6.22891680187119      1.23286335390439
  H          -3.80779263146615      5.21452418763165      2.35364305174289
  H           0.10069834793106      7.06393078341093      0.54104071901370
  H          -1.62771689303985      6.86651297103048      0.15083112453503
  H          -0.41987758907524      6.95976387060054     -1.16323635660341
  H           1.26611275139027      3.41822544654870     -0.87088007582934
