69
Coordinates from ORCA-job goat_0_116 E -1780.867073289298
  O          -1.30760118140884      2.70844919807138      0.12151288147860
  C          -1.63236045330117      2.47903450996565     -1.24337287058745
  H          -1.14672827524347      1.54424072467726     -1.53212016845851
  C          -3.14398696745995      2.30206988715690     -1.45288689256848
  H          -3.53187857364944      1.63644568893177     -0.67784685095191
  O          -3.33045608149595      1.74631962147307     -2.75691176372186
  Si         -3.68898288802160      0.13487765566263     -3.06881548089500
  C          -2.80219265339349     -0.95672378407071     -1.83443223140250
  C          -5.55963387021467     -0.11374351019529     -2.97955484286698
  C          -6.25762266922061      0.87287038159596     -3.92660693650156
  C          -5.90230202804850     -1.55049119691829     -3.40173851779324
  C          -6.05882516557654      0.12416980477411     -1.54757671813963
  C          -3.03978506947620     -0.14878503855196     -4.79574989454798
  C          -3.92783068693420      3.61061732344333     -1.39261765041214
  H          -4.86908049619706      3.42895088120674     -1.91599307792686
  C          -4.31026243466032      4.06060130810755      0.01911965999585
  O          -5.26168556451356      3.13385272837182      0.51653043323796
  Si         -5.39905981234579      2.68333397002392      2.12073769877778
  C          -3.70130008466926      2.52615477219880      2.89349305956422
  C          -6.44346059021687      3.95289162464631      3.05563460639336
  C          -5.82629015945511      5.35206965616105      2.91697351469943
  C          -7.86645715771377      3.97234830570052      2.48007832768482
  C          -6.50063505989977      3.57316696498005      4.54256564423220
  C          -6.25000200583708      1.02116234836937      2.07347912847361
  O          -3.30546714559632      4.66297352836943     -2.14532562891779
  C          -1.92657760360052      4.87277571489054     -1.94768543932499
  H          -1.64966959585404      5.61817806539011     -2.70012285075503
  O          -1.62805931890782      5.35438685787714     -0.65631918227116
  C          -2.07516870655512      6.68915373473809     -0.41887917278449
  C          -1.10628986688664      3.59658000097800     -2.14894237518901
  H          -0.06882283528809      3.81573134018022     -1.88691694421732
  O          -1.12812236066214      3.21646136103282     -3.51585206153623
  H          -1.35977829328893      3.66111805701301      0.28559238408711
  H          -3.07587561633486     -0.72526314109818     -0.80183596779851
  H          -1.71862362384483     -0.84845353100570     -1.93560982109241
  H          -3.05327961162089     -2.00532414371423     -2.01960655811708
  H          -5.95482442728097      0.71943679024558     -4.96671877651382
  H          -6.03581841808839      1.90991629975447     -3.65858770457453
  H          -7.34491427317365      0.73780189074314     -3.87382687810436
  H          -5.43402278610048     -2.28952714186377     -2.74448760544251
  H          -5.58378160260439     -1.75890685717197     -4.42744514792830
  H          -6.98712463943641     -1.70463038702755     -3.35315293043359
  H          -5.59260170178437     -0.56339836093255     -0.83600210241949
  H          -7.14336714533673     -0.03473150556976     -1.49779745318272
  H          -5.86112920199679      1.14399216870735     -1.20764616441720
  H          -1.96039803951170      0.02756081854054     -4.82278980901613
  H          -3.51437022399594      0.52453204971329     -5.51454772375975
  H          -3.22445778347350     -1.17723584538624     -5.11810468129320
  H          -3.44689758444980      4.13056362774840      0.68141702870939
  H          -4.76069805102062      5.05425933786540     -0.06043650524731
  H          -3.20924256788323      3.49275991417764      3.02885203804835
  H          -3.05588489162661      1.89909851487732      2.27255494086585
  H          -3.79048630508961      2.05413289360792      3.87654103357769
  H          -6.40669662890480      6.07765682088160      3.50020599370190
  H          -5.82599815489193      5.69006760695739      1.87731378215285
  H          -4.79559198655244      5.38204317595949      3.28360273906607
  H          -7.86356959710652      4.21061747008574      1.41183351924312
  H          -8.47063560367288      4.73239361185004      2.99078156453341
  H          -8.36675142973351      3.00817552638456      2.60957814943721
  H          -5.50817153981644      3.59373730806704      5.00244773042724
  H          -6.92129952822273      2.57380044405251      4.69167694901618
  H          -7.13412780505896      4.28384526511593      5.08750114784354
  H          -5.58719539737927      0.27017874290853      1.63478759264453
  H          -7.16240979897985      1.06113571162672      1.47273644277460
  H          -6.51832948666484      0.69280545298092      3.08168469206022
  H          -3.16226486837954      6.76168161261688     -0.49540184332881
  H          -1.61194492539455      7.37246103968534     -1.13814718517448
  H          -1.76268763577931      6.95237485686562      0.59088100990574
  H          -1.95331145321549      2.72480958549906     -3.65774119301847
