69
Coordinates from ORCA-job goat_0_46 E -1780.868070331245
  O          -1.26091575611676      2.52624672439902      0.04541299231277
  C          -1.84510573825725      2.22947328699031     -1.21713716160118
  H          -1.63136500995650      1.17917353722851     -1.42906396827615
  C          -3.37124323221854      2.39491651772240     -1.19950282485231
  H          -3.76242759658565      1.92872024746576     -0.29191151137085
  O          -3.87701630631266      1.74548911868403     -2.36964613593357
  Si         -4.86867929490873      0.39628671812684     -2.22828790641026
  C          -6.44826324440550      0.91289704097434     -1.37371994573777
  C          -5.15880284214182     -0.17697906649486     -3.99864203992847
  C          -6.21230885146226     -1.29514863316038     -3.99296142546263
  C          -5.66511728429956      0.99504098349451     -4.85141670117706
  C          -3.85175133247395     -0.71606615226871     -4.59805220454520
  C          -3.99212428048668     -0.89738986019032     -1.19957231164594
  C          -3.83284330739324      3.84866100837665     -1.21921075553255
  H          -4.86451551112831      3.84420454644730     -1.57776426473568
  C          -3.86768400466209      4.50911576867772      0.16170677240043
  O          -4.95373227370157      3.94822157172021      0.88567546093209
  Si         -4.81581790866745      3.39183315296810      2.45691448388758
  C          -3.75548456257495      4.57509281584239      3.44841263112834
  C          -6.58556237463957      3.33265602352636      3.10876056970037
  C          -7.15590194209662      4.75629987055594      3.18244454237368
  C          -7.46213736743551      2.48467980181971      2.17633672898166
  C          -6.59226127649904      2.70969092460226      4.51258971471326
  C          -4.02576915292995      1.69472757588269      2.46295368015381
  O          -3.12776364011510      4.63763878166885     -2.18928236571625
  C          -1.72319005665682      4.53428481570474     -2.21009318860202
  H          -1.41645190207904      5.10647012264332     -3.09146502371066
  O          -1.12269932817999      5.06911729768936     -1.05173493353996
  C          -1.21589026813555      6.49070015359983     -0.95801723345984
  C          -1.24370278646344      3.08590692928280     -2.33555386436781
  H          -0.15486581231500      3.08120278744232     -2.24884422623776
  O          -1.57141994496479      2.57746788002241     -3.61901147176461
  H          -1.06187715300711      3.47347922181178      0.06740599585344
  H          -7.09208013508837      0.04706925243113     -1.19412637590483
  H          -7.00676251591291      1.64044701450689     -1.96884186913236
  H          -6.22290990031460      1.36816290808313     -0.40527662370014
  H          -6.37603545570316     -1.66007074680142     -5.01395769655838
  H          -7.17352361650271     -0.94227378817956     -3.60780766680677
  H          -5.89552594990094     -2.14749091514451     -3.38353739818717
  H          -4.92834900845114      1.80152629705436     -4.90210636015850
  H          -6.59595831206448      1.41195886599012     -4.45485466536346
  H          -5.86287846164340      0.65466912674883     -5.87512897520122
  H          -3.48586755972331     -1.58674049566999     -4.04651865778902
  H          -3.06166513498478      0.04069965242109     -4.59670845548619
  H          -4.01599868080046     -1.02483884032354     -5.63752649915072
  H          -3.84594569486474     -0.54509588706459     -0.17395458070164
  H          -3.01392118308005     -1.14501694006495     -1.61961276727159
  H          -4.58755649096076     -1.81426364814040     -1.15388710823693
  H          -2.92639966979518      4.38792821676889      0.69935044103848
  H          -4.04251067760630      5.58006173660788      0.02332792964093
  H          -2.71319451984017      4.54017297557358      3.11846664133627
  H          -3.77683861760458      4.30477207955876      4.50835573823569
  H          -4.11081303605735      5.60463705884405      3.35217500701628
  H          -8.19484762833977      4.72756542898527      3.53315898281731
  H          -7.14650352040646      5.24307221455833      2.20269964426107
  H          -6.58832441419378      5.38247546320874      3.87709913425170
  H          -7.50241943611437      2.90854451698122      1.16946586457161
  H          -8.48730340017196      2.43997313456630      2.56423887123090
  H          -7.09267151840747      1.45788626563702      2.09574986938488
  H          -6.22709101135685      1.67857479238163      4.49834217430084
  H          -7.61411673980441      2.69456124769279      4.91067968513211
  H          -5.97305569471211      3.27843660615871      5.21329240034530
  H          -3.02744200967792      1.73667001161457      2.01789898306132
  H          -4.62203737165158      0.97322362413780      1.89681861402380
  H          -3.92339681659747      1.32482861347117      3.48754683079994
  H          -2.25799316861989      6.81634498855072     -0.93039403748293
  H          -0.70980858730855      6.95600600119760     -1.81019283402343
  H          -0.71848789878527      6.78047158471469     -0.03328100510615
  H          -2.49023477968163      2.26655013968742     -3.57471533301587
