69
Coordinates from ORCA-job goat_0_60 E -1780.869782817361
  O          -1.57993209314720      2.02332010593975     -3.83527917814257
  C          -1.96742462831211      3.03156449001379     -2.91064339725446
  H          -2.58375204646051      3.78816522396911     -3.41549893374944
  C          -2.81687013274512      2.38111262371048     -1.82612138634594
  H          -2.27250451003479      1.51473075457879     -1.42963078818617
  O          -4.07601795026773      1.99266905808867     -2.33691881333735
  Si         -4.44541099696295      0.57446070132937     -3.14765687294711
  C          -3.20237089387608     -0.75452786777488     -2.71481790061898
  C          -6.17981316839512      0.09646754444734     -2.55718150562168
  C          -7.12679396758407      1.29773850217740     -2.69037146368525
  C          -6.70922114394591     -1.05886655328480     -3.42040842614955
  C          -6.13956186960240     -0.35594162524502     -1.09144884868154
  C          -4.48241406483229      0.88425033935206     -4.99250374187720
  C          -3.06223006315681      3.37321497174248     -0.68145945267993
  H          -3.69930247987838      4.18896302783053     -1.05182902971728
  C          -3.74206153976344      2.70050911633813      0.49247146621419
  O          -4.08514913867513      3.65430938654723      1.48382924971908
  Si         -5.63133761520211      3.82627867586706      2.09403915367304
  C          -6.88101487582162      3.65788381149922      0.70878798288930
  C          -5.94272998501125      2.52893287110277      3.43398136529793
  C          -4.95458148856815      2.73786762740890      4.58986224033288
  C          -7.37920858654847      2.66990527200902      3.95817551878180
  C          -5.75327049540864      1.11727287885502      2.86033967439848
  C          -5.66551304722303      5.55290385243981      2.80643812289493
  O          -1.82626868969037      3.90219384732787     -0.21204132843911
  C          -1.15750320724513      4.65533046624194     -1.20742900690943
  H          -1.82971078510832      5.44385827697955     -1.58448692504065
  O          -0.01210633146954      5.21247937356873     -0.65610250388705
  C          -0.28084946766599      6.30803764298121      0.22013865995573
  C          -0.74199027769259      3.72001884960749     -2.33082443618111
  H          -0.06589961355140      2.96591153773400     -1.90937618730401
  O          -0.11356505432975      4.42044405561731     -3.39591989341526
  H          -1.08453630061077      2.45599494140962     -4.54095203405220
  H          -2.22345151614112     -0.52275711971667     -3.14002579971736
  H          -3.53280754968069     -1.71608320247100     -3.11926048317076
  H          -3.09252862336652     -0.86422499809006     -1.63234187427031
  H          -7.20707144016543      1.63539047679074     -3.72818968868342
  H          -6.78915453072599      2.14264216542952     -2.08516032141257
  H          -8.13371870416262      1.02279545857223     -2.35210780893701
  H          -6.05326044143654     -1.93418887193325     -3.37559834334364
  H          -6.81109506925924     -0.76657939054480     -4.46919943227189
  H          -7.69912659539603     -1.36934689892665     -3.06400850049519
  H          -7.14960821406066     -0.61202572102566     -0.74789764184504
  H          -5.75828802124126      0.42938713465598     -0.43452970199990
  H          -5.50974788895528     -1.24057952612079     -0.95977584005926
  H          -4.68595224874365     -0.04481566192595     -5.53322410586348
  H          -3.52038209106851      1.27605111083376     -5.32683490366248
  H          -5.26205201675629      1.60513343344152     -5.25522821392326
  H          -4.62034960377375      2.17153128749694      0.11876718914499
  H          -3.05521298463727      1.96284246539972      0.92250246725813
  H          -6.59333070674505      4.28409710668285     -0.14120299135366
  H          -7.86519396184108      3.98844274053983      1.05381563532137
  H          -6.97839273895868      2.62851339256477      0.35587006306586
  H          -5.10452757298731      1.97026013051794      5.35919249527016
  H          -5.08939683090375      3.71414955843392      5.06472566236639
  H          -3.91728744539338      2.66905854606758      4.24767599174873
  H          -7.56251851175237      1.93735627241303      4.75385986330074
  H          -8.11542115097773      2.49232869328114      3.16845784794579
  H          -7.56398089771782      3.66464001370749      4.37530613933867
  H          -4.72915279911539      0.95625245685413      2.51205279640566
  H          -6.43006878849003      0.92330845150255      2.02306396528363
  H          -5.96057760243523      0.36803967250460      3.63441043141755
  H          -4.84320377508804      5.70575713733093      3.51050950164552
  H          -6.60510375050422      5.74081564819398      3.33359655358397
  H          -5.57128518090575      6.29227162878000      2.00566962753837
  H          -0.84998516191128      7.08405923616245     -0.30309327509157
  H           0.68420665602299      6.70850725679428      0.52874651002519
  H          -0.83850270676439      5.97720026731862      1.09987884193716
  H           0.72328703482691      4.76792588807415     -3.06562381643115
