69
Coordinates from ORCA-job goat_0_6 E -1780.872741718501
  O          -1.67148511758554      0.81754050530605     -2.29210056192186
  C          -1.95246182077028      2.21036373272274     -2.23347367289791
  H          -1.96877147637255      2.63201285571241     -3.24840066375284
  C          -3.32645798471267      2.40827704259735     -1.61159732345984
  H          -3.34697397368825      1.90133109944499     -0.64247732850007
  O          -4.32154521210039      1.90241808380574     -2.47900110166723
  Si         -5.41019232051530      0.68719287494634     -2.10528356362263
  C          -7.00663785647120      1.42580448038318     -1.46376690681018
  C          -5.71995858573092     -0.21555196784751     -3.73677084758945
  C          -6.17512336760657      0.78767026417518     -4.80689126072824
  C          -4.43487603971106     -0.90803873254214     -4.21021180235186
  C          -6.81764988192589     -1.27140858052041     -3.53781393462066
  C          -4.68813207283908     -0.44970264260799     -0.80614032163185
  C          -3.57843414761560      3.90127479140229     -1.37824396931426
  H          -3.60198709360599      4.41322111801035     -2.35145071607888
  C          -4.89577786154434      4.16203993758353     -0.67762818125547
  O          -4.99845226487091      3.37692492723868      0.49687971146229
  Si         -5.42431988234734      4.01967706834068      1.97603962481271
  C          -7.13942113447427      4.76116548586256      1.85194946629243
  C          -5.37020347682058      2.55301001901284      3.16121009636626
  C          -5.66757492712266      3.04025897851736      4.58683413940759
  C          -6.41994318629555      1.50957190237601      2.75296047380283
  C          -3.97667254883368      1.90889563524260      3.12363824008573
  C          -4.20724227935805      5.35494735219446      2.46789237550212
  O          -2.53744857372922      4.44935284179511     -0.57250233996325
  C          -1.27956825188103      4.38931118824367     -1.22092525969906
  H          -1.34241797103634      4.91371364491987     -2.18904498748142
  O          -0.32639617512149      4.98469215803332     -0.40565361905431
  C          -0.43065347669244      6.40809054686417     -0.35624461121922
  C          -0.88612830884018      2.93425197633739     -1.42579696174963
  H          -0.80031338169473      2.46518119266673     -0.43779426920727
  O           0.33510258252976      2.81985252481743     -2.14412835564840
  H          -0.78346506828580      0.72349333110214     -2.65797652070991
  H          -6.81951075363093      1.98943636804657     -0.54693388916707
  H          -7.72410908928929      0.63199686836784     -1.23475740468190
  H          -7.46445540282589      2.09598494296899     -2.19670705787462
  H          -7.10245977788553      1.29265463915248     -4.51996218130082
  H          -6.36045428698278      0.26742831805376     -5.75485303295102
  H          -5.41486356009217      1.55259057095104     -4.98797474171445
  H          -4.61407849792940     -1.42159931176649     -5.16298458403884
  H          -4.09062999693967     -1.65564878937725     -3.48922513698118
  H          -3.62477281674933     -0.18983307438343     -4.36197813683971
  H          -6.53961912904257     -2.00753103816327     -2.77706999729409
  H          -6.98985212153041     -1.81337249639506     -4.47569825809865
  H          -7.76659403239443     -0.81733842326319     -3.23837166980386
  H          -3.69917048045294     -0.81247586108858     -1.09487726499555
  H          -5.34655110461555     -1.31233257668809     -0.66577280497770
  H          -4.60062338380841      0.05978151665037      0.15752377736586
  H          -4.95955579181210      5.23366025824895     -0.45787073250611
  H          -5.71247995321463      3.90776414203747     -1.35804582657899
  H          -7.14286834724775      5.59164576462344      1.13892803019043
  H          -7.46933124523403      5.15075923874275      2.81951365202970
  H          -7.86813339813049      4.01971957023173      1.51329637859823
  H          -4.92152447923816      3.76258228176798      4.93130255688103
  H          -5.65616586693248      2.19303008901195      5.28328787488107
  H          -6.65259732118735      3.51237928926158      4.65606452384850
  H          -6.24873990110155      1.14388118725792      1.73699431762569
  H          -7.43394034019454      1.91760225920398      2.79905563796416
  H          -6.37667249236312      0.64850761737451      3.43129694836288
  H          -3.19639964602704      2.61586048269885      3.42123533800656
  H          -3.73392548129107      1.53908380615370      2.12347642903185
  H          -3.93682933307579      1.05889835227091      3.81604654745262
  H          -4.19852414297481      6.16107882558167      1.72838359077571
  H          -3.19160274850174      4.95924698723493      2.54850633068230
  H          -4.48707364963497      5.78950136190788      3.43211940307712
  H          -1.36237249559650      6.71569413037345      0.12537273204274
  H          -0.38424478352917      6.82947201024861     -1.36627000083044
  H           0.41688406001629      6.76567795911239      0.22758044810285
  H           1.04026485911078      3.16298717745228     -1.58275687308054
