69
Coordinates from ORCA-job goat_0_95 E -1780.867718311346
  O          -1.45247153449644      2.35035566020495     -0.68949279040776
  C          -2.19948300906378      2.41695868283177     -1.89806567579595
  H          -2.12605861594941      1.43687557547311     -2.37470015238160
  C          -3.68433767357771      2.69739616094177     -1.63279436966725
  H          -4.02924177354841      2.04898681011032     -0.82426097192789
  O          -4.37932010567941      2.42556330005390     -2.85236930028604
  Si         -5.74441106137086      1.45747146704832     -2.98361601383247
  C          -6.48343278395392      1.95170745756468     -4.62464509427044
  C          -5.24521742149479     -0.36578737647566     -2.97498085955288
  C          -6.49938314759701     -1.22851148272490     -3.18593500533877
  C          -4.24995236505083     -0.63236977316736     -4.11354350400684
  C          -4.59716760388409     -0.75082786100623     -1.63712360908195
  C          -6.91150578503084      1.84778754041298     -1.57587512460201
  C          -3.96651151511908      4.14449770512987     -1.23477233711346
  H          -5.02764245567646      4.31652780330308     -1.42827414309319
  C          -3.74423736810385      4.45121062807146      0.24708020352131
  O          -4.65026693337840      3.65159695596186      0.99100832989935
  Si         -4.43311934863045      3.39047665991503      2.62846094031341
  C          -4.72438359302345      4.99212918979126      3.55235451633033
  C          -5.70082648049456      2.07099603618910      3.08301332073497
  C          -7.10380310607041      2.51771175363838      2.64793388457014
  C          -5.34338483395057      0.75284376023246      2.38138283662105
  C          -5.68857840253349      1.85701231069704      4.60379408585624
  C          -2.68349111366063      2.79984165167113      2.94223631069112
  O          -3.29650868566689      5.08872637950779     -2.08334918150471
  C          -1.92729482776106      4.87630922025485     -2.34259426432442
  H          -1.67570787940004      5.61603497022682     -3.10955944050258
  O          -1.11819383326401      5.06844226191085     -1.20345672210184
  C          -1.07066203248335      6.42162161725242     -0.75167173857950
  C          -1.63419345822122      3.46597975606886     -2.86063942539911
  H          -0.54986459247628      3.35034904468644     -2.92423631916444
  O          -2.15568717811320      3.30899934838839     -4.17054923781059
  H          -1.14194780718161      3.24307626571531     -0.48023543836312
  H          -5.77028160174331      1.80776642672632     -5.44065434014778
  H          -6.76846967137893      3.00752245627614     -4.60216600757761
  H          -7.37798771903724      1.36309591837828     -4.84577433830455
  H          -6.99280193839849     -1.00340478984837     -4.13610851051283
  H          -7.22888001242358     -1.08624607195867     -2.38290305404420
  H          -6.22343379941098     -2.28987947088523     -3.19882280612988
  H          -4.69084441709109     -0.42226181008355     -5.09237424526722
  H          -3.94387935070598     -1.68562907019377     -4.10608334822133
  H          -3.34854262399896     -0.02117346198221     -4.01097925096490
  H          -3.66743614772993     -0.20333093133906     -1.46016071599068
  H          -4.35132341053690     -1.81980585499897     -1.63767553002755
  H          -5.26632849947018     -0.56526103106614     -0.79201283298923
  H          -6.47108493904107      1.62597571759898     -0.60168228441208
  H          -7.82809592706457      1.25868125142721     -1.67233939473701
  H          -7.18613267678005      2.90644928243291     -1.59208435461937
  H          -2.71591967407718      4.25947124889061      0.55446462193040
  H          -3.95434577449269      5.51456509690623      0.40634934632147
  H          -4.52895639309240      4.86589700615820      4.62119344108785
  H          -5.75263041172275      5.34356216363710      3.43102146794918
  H          -4.05161819273397      5.77078367877309      3.17925339764985
  H          -7.84215364688302      1.75467532895776      2.92367738951928
  H          -7.16139816171706      2.66505644312814      1.56655519480636
  H          -7.39712277903423      3.45341999487429      3.13360055039665
  H          -5.30139907308076      0.87217999022499      1.29520787470901
  H          -6.09819632050044     -0.01081315244490      2.60575071639549
  H          -4.37417220433668      0.37042926349431      2.71470392245456
  H          -6.40442796764152      1.07241733060716      4.87735197904335
  H          -5.97251990456163      2.76678391346668      5.14104354793551
  H          -4.70291707529782      1.54544834597619      4.96316050192750
  H          -1.95869296478637      3.60103901227589      2.77157113480970
  H          -2.42369309540166      1.95961780152549      2.29315060659026
  H          -2.57862266462185      2.47426026317316      3.98155845463544
  H          -0.38483899890021      6.44855626886515      0.09417802279128
  H          -2.05703726950214      6.76690219458146     -0.43430901473347
  H          -0.69622969195550      7.07000391514978     -1.55061496477967
  H          -3.09445643494217      3.07886523141518     -4.07361042692288
