69
Coordinates from ORCA-job goat_0_50 E -1780.865778033334
  O      -1.431116      2.827988     -0.566132
  C      -2.134020      2.685073     -1.790739
  H      -1.891031      1.702129     -2.200555
  C      -3.651928      2.738944     -1.576123
  H      -3.915368      2.089900     -0.736128
  O      -4.252944      2.286358     -2.786960
  Si     -5.490040      1.181835     -2.980203
  C      -6.034499      1.494547     -4.732650
  C      -4.844708     -0.581793     -2.758389
  C      -5.975450     -1.579003     -3.048773
  C      -3.690666     -0.833092     -3.736410
  C      -4.350125     -0.794352     -1.321757
  C      -6.838310      1.550521     -1.742504
  C      -4.157137      4.146507     -1.269124
  H      -5.229320      4.144078     -1.478047
  C      -4.014944      4.565255      0.195607
  O      -4.884619      3.762760      0.970728
  Si     -4.425676      2.977590      2.368571
  C      -3.333408      4.094614      3.398370
  C      -6.054830      2.603282      3.233744
  C      -5.817299      1.702244      4.450680
  C      -6.695692      3.921513      3.682403
  C      -6.992018      1.895695      2.248180
  C      -3.470477      1.422865      1.974885
  O      -3.623059      5.129222     -2.163063
  C      -2.239438      5.116827     -2.396097
  H      -2.090427      5.827900     -3.214178
  O      -1.498733      5.522505     -1.261120
  C      -1.637551      6.903538     -0.960279
  C      -1.714046      3.743689     -2.813642
  H      -0.623959      3.799112     -2.839663
  O      -2.149269      3.435676     -4.118389
  H      -1.191261      3.760215     -0.467539
  H      -6.384420      2.524135     -4.826593
  H      -6.844378      0.831999     -5.040639
  H      -5.205087      1.365289     -5.430646
  H      -6.371424     -1.467256     -4.060920
  H      -6.805661     -1.473739     -2.346666
  H      -5.603068     -2.604379     -2.958107
  H      -3.280792     -1.837934     -3.590555
  H      -2.876715     -0.118104     -3.596050
  H      -4.021159     -0.762922     -4.775228
  H      -5.141708     -0.615277     -0.588338
  H      -3.505611     -0.144500     -1.077715
  H      -4.010363     -1.826814     -1.188656
  H      -7.348353      2.480378     -2.002689
  H      -6.441616      1.661684     -0.730669
  H      -7.585235      0.754020     -1.720936
  H      -2.982556      4.489064      0.543223
  H      -4.323170      5.613761      0.268892
  H      -3.226512      3.685540      4.406256
  H      -3.739421      5.103767      3.487998
  H      -2.330310      4.163261      2.971978
  H      -5.381610      0.741869      4.165679
  H      -6.764973      1.493678      4.957598
  H      -5.154091      2.168425      5.183828
  H      -7.670156      3.733301      4.144216
  H      -6.851245      4.592245      2.834587
  H      -6.078010      4.442557      4.418074
  H      -6.570651      0.950586      1.893054
  H      -7.194379      2.524002      1.379406
  H      -7.947694      1.667874      2.731246
  H      -4.082636      0.668280      1.475412
  H      -3.078778      0.982997      2.895620
  H      -2.619244      1.655455      1.329996
  H      -2.684483      7.170381     -0.805624
  H      -1.226433      7.507721     -1.774482
  H      -1.075566      7.093682     -0.048900
  H      -3.054284      3.096443     -4.044395
69
Coordinates from ORCA-job goat_0_50 E -1780.866744719503
  O      -1.349413      2.786928     -0.648207
  C      -2.094925      2.668373     -1.852916
  H      -1.870083      1.689436     -2.284363
  C      -3.607172      2.726000     -1.590336
  H      -3.847263      2.071333     -0.750424
  O      -4.248241      2.284387     -2.783205
  Si     -5.474489      1.156632     -2.910527
  C      -6.209320      1.529142     -4.582153
  C      -4.763999     -0.594003     -2.839155
  C      -5.897778     -1.610337     -3.039109
  C      -3.723883     -0.773749     -3.953444
  C      -4.097769     -0.845851     -1.479401
  C      -6.696907      1.431711     -1.524166
  C      -4.112943      4.129298     -1.263468
  H      -5.187063      4.128509     -1.464065
  C      -3.964086      4.535108      0.205642
  O      -4.879014      3.766115      0.968393
  Si     -4.485779      2.988472      2.391464
  C      -3.383375      4.089391      3.429462
  C      -6.148286      2.677446      3.222881
  C      -5.954020      1.812083      4.473680
  C      -6.776950      4.020303      3.620375
  C      -7.079868      1.948624      2.243032
  C      -3.577085      1.392574      2.049510
  O      -3.591900      5.123429     -2.156416
  C      -2.210259      5.112907     -2.415556
  H      -2.073006      5.842959     -3.219852
  O      -1.444879      5.485813     -1.287442
  C      -1.586559      6.857049     -0.927729
  C      -1.700956      3.743237     -2.870988
  H      -0.611061      3.795610     -2.930985
  O      -2.184615      3.447901     -4.167147
  H      -1.118334      3.718814     -0.526109
  H      -6.595973      2.552732     -4.592008
  H      -7.031444      0.853305     -4.831637
  H      -5.453489      1.450684     -5.368559
  H      -6.408286     -1.470846     -3.996833
  H      -6.646298     -1.548411     -2.243726
  H      -5.492809     -2.629758     -3.028608
  H      -3.279924     -1.775330     -3.899792
  H      -2.912630     -0.044337     -3.872066
  H      -4.173397     -0.665487     -4.945008
  H      -4.799165     -0.708159     -0.650734
  H      -3.242705     -0.184200     -1.314229
  H      -3.725621     -1.876614     -1.427451
  H      -7.239256      2.369758     -1.676111
  H      -6.200763      1.487235     -0.551233
  H      -7.431346      0.622859     -1.478963
  H      -2.940710      4.420417      0.563130
  H      -4.230191      5.594229      0.282537
  H      -3.307333      3.689594      4.445706
  H      -3.767125      5.110729      3.497089
  H      -2.370277      4.129575      3.018179
  H      -5.533206      0.832745      4.226825
  H      -6.917790      1.641663      4.969179
  H      -5.291109      2.289609      5.202300
  H      -7.764809      3.859495      4.069459
  H      -6.906794      4.671126      2.750615
  H      -6.163426      4.552479      4.353283
  H      -6.663698      0.986643      1.927079
  H      -7.261825      2.547658      1.347448
  H      -8.047684      1.748374      2.719353
  H      -4.203745      0.656104      1.539289
  H      -3.233371      0.950899      2.990384
  H      -2.697814      1.583806      1.428730
  H      -2.630780      7.105633     -0.723055
  H      -1.211205      7.498434     -1.732496
  H      -0.992631      7.016877     -0.028489
  H      -3.085247      3.100446     -4.062900
69
Coordinates from ORCA-job goat_0_50 E -1780.867253122933
  O      -1.387375      2.738289     -0.634634
  C      -2.115767      2.643073     -1.853780
  H      -1.898212      1.664015     -2.288957
  C      -3.630164      2.720233     -1.612230
  H      -3.888376      2.062152     -0.780766
  O      -4.260545      2.296134     -2.818873
  Si     -5.483923      1.161385     -2.943062
  C      -6.238992      1.515489     -4.612356
  C      -4.750750     -0.578996     -2.867299
  C      -5.873984     -1.610417     -3.050902
  C      -3.714797     -0.751966     -3.988097
  C      -4.069147     -0.810831     -1.510815
  C      -6.701882      1.433653     -1.550714
  C      -4.121299      4.127617     -1.280088
  H      -5.194537      4.143340     -1.483713
  C      -3.962115      4.525800      0.190480
  O      -4.890302      3.773788      0.958188
  Si     -4.494069      3.003758      2.386085
  C      -3.380373      4.113780      3.404008
  C      -6.147380      2.694343      3.242858
  C      -5.915835      1.876118      4.520394
  C      -6.799223      4.036362      3.609392
  C      -7.082987      1.909616      2.309598
  C      -3.592779      1.402096      2.040310
  O      -3.582327      5.119271     -2.167990
  C      -2.193686      5.097235     -2.400125
  H      -2.031252      5.835729     -3.192459
  O      -1.446374      5.443187     -1.253951
  C      -1.590193      6.808833     -0.860153
  C      -1.691803      3.723286     -2.855591
  H      -0.600399      3.763213     -2.900982
  O      -2.164267      3.435863     -4.162673
  H      -1.181530      3.671149     -0.475764
  H      -6.642377      2.534073     -4.625272
  H      -7.054389      0.823883     -4.846435
  H      -5.488158      1.437514     -5.404913
  H      -6.391238     -1.483313     -4.007741
  H      -6.619116     -1.545210     -2.251404
  H      -5.455816     -2.625654     -3.031637
  H      -3.261788     -1.750549     -3.932734
  H      -2.909295     -0.014222     -3.910235
  H      -4.171256     -0.648784     -4.977976
  H      -4.764348     -0.673396     -0.677008
  H      -3.222704     -0.134076     -1.360598
  H      -3.682204     -1.837058     -1.455670
  H      -7.229733      2.383611     -1.686933
  H      -6.204252      1.464129     -0.578556
  H      -7.448681      0.634620     -1.520936
  H      -2.940861      4.385204      0.544795
  H      -4.202730      5.589823      0.276063
  H      -3.280095      3.713711      4.418836
  H      -3.776364      5.131082      3.477897
  H      -2.377179      4.168288      2.968078
  H      -5.482859      0.895191      4.297979
  H      -6.868946      1.709169      5.039505
  H      -5.244869      2.390679      5.217031
  H      -7.775100      3.866412      4.083637
  H      -6.961900      4.658411      2.723008
  H      -6.182395      4.604308      4.313096
  H      -6.654244      0.942659      2.027679
  H      -7.292342      2.463965      1.390840
  H      -8.039344      1.714090      2.813163
  H      -4.227195      0.673223      1.528015
  H      -3.251699      0.956148      2.980886
  H      -2.712985      1.589075      1.417099
  H      -2.635009      7.050374     -0.648645
  H      -1.214538      7.470584     -1.648778
  H      -0.996410      6.944183      0.044365
  H      -3.066097      3.086866     -4.067875
69
Coordinates from ORCA-job goat_0_50 E -1780.867496386034
  O      -1.387073      2.719845     -0.634572
  C      -2.120955      2.636454     -1.850891
  H      -1.913000      1.656155     -2.285542
  C      -3.634537      2.726875     -1.608967
  H      -3.896559      2.072706     -0.774530
  O      -4.269386      2.304231     -2.816021
  Si     -5.485477      1.155461     -2.916064
  C      -6.301017      1.509276     -4.557916
  C      -4.725923     -0.574944     -2.878531
  C      -5.837631     -1.619672     -3.057498
  C      -3.707130     -0.717070     -4.019231
  C      -4.019442     -0.819364     -1.536790
  C      -6.666463      1.402754     -1.486498
  C      -4.115506      4.138403     -1.280829
  H      -5.187391      4.162239     -1.488778
  C      -3.960000      4.533474      0.189936
  O      -4.904615      3.789860      0.945876
  Si     -4.517852      3.012394      2.373199
  C      -3.398114      4.114793      3.393916
  C      -6.171214      2.705668      3.232078
  C      -5.932404      1.887200      4.509882
  C      -6.821020      4.046571      3.603518
  C      -7.113544      1.923161      2.305196
  C      -3.627756      1.405823      2.014541
  O      -3.566132      5.125062     -2.169932
  C      -2.175840      5.090674     -2.398587
  H      -2.006648      5.827071     -3.190976
  O      -1.424100      5.429764     -1.254612
  C      -1.543319      6.800562     -0.868124
  C      -1.687123      3.712026     -2.852130
  H      -0.596215      3.741102     -2.901639
  O      -2.166689      3.427593     -4.158352
  H      -1.193395      3.653034     -0.463467
  H      -6.724345      2.518694     -4.550556
  H      -7.109786      0.802770     -4.766071
  H      -5.576113      1.447563     -5.374744
  H      -6.371179     -1.486158     -4.003816
  H      -6.570345     -1.573139     -2.245949
  H      -5.405362     -2.628274     -3.057804
  H      -3.242231     -1.710492     -3.986548
  H      -2.909798      0.028642     -3.941044
  H      -4.180965     -0.603362     -4.999068
  H      -4.702696     -0.704859     -0.690165
  H      -3.180623     -0.133570     -1.389424
  H      -3.618155     -1.840264     -1.506314
  H      -7.180245      2.364715     -1.579777
  H      -6.147447      1.391728     -0.525521
  H      -7.425655      0.615703     -1.468278
  H      -2.944816      4.373167      0.553269
  H      -4.185837      5.599974      0.280561
  H      -3.282612      3.703309      4.401550
  H      -3.802036      5.127317      3.483571
  H      -2.402550      4.183770      2.944704
  H      -5.500742      0.906867      4.285092
  H      -6.882699      1.721154      5.032532
  H      -5.258373      2.402238      5.202072
  H      -7.791476      3.874413      4.086195
  H      -6.992680      4.668894      2.719785
  H      -6.198088      4.614505      4.301399
  H      -6.688444      0.955457      2.021950
  H      -7.328511      2.475850      1.386605
  H      -8.066159      1.731610      2.815524
  H      -4.267394      0.692699      1.487654
  H      -3.298702      0.944124      2.951015
  H      -2.742480      1.591664      1.398893
  H      -2.581170      7.059086     -0.647917
  H      -1.165067      7.449603     -1.664948
  H      -0.938289      6.929743      0.028923
  H      -3.068623      3.081288     -4.057051
69
Coordinates from ORCA-job goat_0_50 E -1780.867604475288
  O      -1.377581      2.707956     -0.658453
  C      -2.121408      2.640931     -1.868974
  H      -1.914811      1.665709     -2.313602
  C      -3.635221      2.727562     -1.622031
  H      -3.893926      2.067717     -0.790804
  O      -4.270913      2.312036     -2.833981
  Si     -5.486240      1.157581     -2.932539
  C      -6.290769      1.485847     -4.585383
  C      -4.724273     -0.571263     -2.868396
  C      -5.829085     -1.618147     -3.078107
  C      -3.672721     -0.714679     -3.978193
  C      -4.060878     -0.816574     -1.504916
  C      -6.686439      1.420350     -1.522254
  C      -4.117862      4.136790     -1.284800
  H      -5.189330      4.160483     -1.494057
  C      -3.965395      4.524213      0.188282
  O      -4.916637      3.785250      0.941759
  Si     -4.521170      3.009736      2.369331
  C      -3.393525      4.115163      3.378635
  C      -6.164308      2.704585      3.247348
  C      -5.905702      1.887539      4.523442
  C      -6.807991      4.045345      3.626350
  C      -7.120799      1.925121      2.335442
  C      -3.637731      1.401545      1.997546
  O      -3.569276      5.128653     -2.168548
  C      -2.178603      5.097278     -2.394032
  H      -2.010058      5.841554     -3.178702
  O      -1.431315      5.426766     -1.245158
  C      -1.546719      6.795648     -0.853574
  C      -1.690434      3.724362     -2.861023
  H      -0.600343      3.753717     -2.915268
  O      -2.174092      3.453989     -4.168414
  H      -1.195806      3.640200     -0.471906
  H      -6.722454      2.490279     -4.595862
  H      -7.091383      0.769054     -4.784914
  H      -5.560873      1.416152     -5.396023
  H      -6.330442     -1.490208     -4.041766
  H      -6.588004     -1.566600     -2.292014
  H      -5.397019     -2.625469     -3.058011
  H      -3.210917     -1.708066     -3.930966
  H      -2.877938      0.029535     -3.876207
  H      -4.117015     -0.601121     -4.971021
  H      -4.771455     -0.704100     -0.681165
  H      -3.227778     -0.131413     -1.329000
  H      -3.660613     -1.836513     -1.463880
  H      -7.164275      2.400323     -1.607805
  H      -6.190216      1.371485     -0.551110
  H      -7.471748      0.659761     -1.538209
  H      -2.953064      4.351881      0.554775
  H      -4.182288      5.592059      0.284227
  H      -3.249210      3.696946      4.378672
  H      -3.811380      5.119767      3.485361
  H      -2.410754      4.203540      2.907550
  H      -5.475574      0.908438      4.294127
  H      -6.848312      1.720646      5.057520
  H      -5.225041      2.404915      5.205980
  H      -7.768768      3.872925      4.125787
  H      -6.995388      4.665117      2.744927
  H      -6.173772      4.615227      4.311711
  H      -6.704062      0.955283      2.048099
  H      -7.346050      2.477363      1.419567
  H      -8.066405      1.740068      2.858930
  H      -4.282255      0.700734      1.460828
  H      -3.314020      0.926750      2.928439
  H      -2.751119      1.588193      1.385174
  H      -2.582452      7.053595     -0.625061
  H      -1.174124      7.444699     -1.652081
  H      -0.934361      6.920009      0.038171
  H      -3.073271      3.101396     -4.065810
69
Coordinates from ORCA-job goat_0_50 E -1780.867674947233
  O      -1.379052      2.705988     -0.652110
  C      -2.123446      2.638710     -1.862217
  H      -1.920475      1.661075     -2.303731
  C      -3.636800      2.731199     -1.616461
  H      -3.898083      2.074750     -0.783512
  O      -4.274047      2.313950     -2.826834
  Si     -5.482961      1.150234     -2.911726
  C      -6.322465      1.484838     -4.545341
  C      -4.709049     -0.574282     -2.876453
  C      -5.813499     -1.626495     -3.063186
  C      -3.687464     -0.706134     -4.014950
  C      -4.006853     -0.824471     -1.533180
  C      -6.659756      1.393564     -1.478948
  C      -4.113306      4.142706     -1.282614
  H      -5.185164      4.170651     -1.489815
  C      -3.955384      4.528659      0.189408
  O      -4.916665      3.798426      0.938949
  Si     -4.530415      3.016160      2.365973
  C      -3.403302      4.112261      3.385853
  C      -6.177952      2.716148      3.235378
  C      -5.930195      1.886715      4.505425
  C      -6.812016      4.059140      3.622685
  C      -7.136275      1.952643      2.312461
  C      -3.654577      1.405379      1.987008
  O      -3.562014      5.129844     -2.168570
  C      -2.171727      5.092998     -2.392197
  H      -1.999734      5.835978     -3.177464
  O      -1.427985      5.422182     -1.240842
  C      -1.537672      6.792637     -0.855559
  C      -1.688723      3.717756     -2.857323
  H      -0.598400      3.742553     -2.911598
  O      -2.172953      3.448877     -4.164120
  H      -1.197109      3.638155     -0.465679
  H      -6.762366      2.485640     -4.540944
  H      -7.121174      0.762300     -4.730946
  H      -5.609862      1.425635     -5.372032
  H      -6.337556     -1.500003     -4.014773
  H      -6.554426     -1.580675     -2.259622
  H      -5.376134     -2.631610     -3.054819
  H      -3.221043     -1.698074     -3.987205
  H      -2.892959      0.040197     -3.930449
  H      -4.159168     -0.588051     -4.994554
  H      -4.695873     -0.725500     -0.689563
  H      -3.174570     -0.133888     -1.373275
  H      -3.596829     -1.841129     -1.511578
  H      -7.126582      2.380881     -1.534589
  H      -6.152859      1.313894     -0.515032
  H      -7.454061      0.642412     -1.504774
  H      -2.944763      4.343720      0.555713
  H      -4.159929      5.598945      0.286093
  H      -3.256899      3.685321      4.381865
  H      -3.823390      5.114826      3.501998
  H      -2.420823      4.206340      2.915385
  H      -5.506007      0.906550      4.270105
  H      -6.876417      1.721818      5.033825
  H      -5.249676      2.393921      5.195636
  H      -7.776027      3.890562      4.117145
  H      -6.990991      4.686741      2.745040
  H      -6.176532      4.619065      4.314918
  H      -6.726460      0.982074      2.017253
  H      -7.352920      2.516235      1.401440
  H      -8.085795      1.770378      2.829847
  H      -4.300008      0.716511      1.435357
  H      -3.343944      0.916613      2.915000
  H      -2.760537      1.591488      1.385376
  H      -2.572472      7.055385     -0.626905
  H      -1.164172      7.436203     -1.658201
  H      -0.923176      6.919409      0.034396
  H      -3.073241      3.098680     -4.061881
69
Coordinates from ORCA-job goat_0_50 E -1780.867713636218
  O      -1.377542      2.707767     -0.658148
  C      -2.124805      2.639954     -1.866501
  H      -1.923051      1.662241     -2.309435
  C      -3.637630      2.731958     -1.617166
  H      -3.897823      2.073715     -0.785413
  O      -4.276741      2.316814     -2.826592
  Si     -5.481093      1.148021     -2.909892
  C      -6.324323      1.481670     -4.541157
  C      -4.703076     -0.574565     -2.877274
  C      -5.807677     -1.628624     -3.053109
  C      -3.690970     -0.706698     -4.024240
  C      -3.988716     -0.821208     -1.540004
  C      -6.656901      1.385373     -1.476281
  C      -4.113021      4.143003     -1.279173
  H      -5.185535      4.171694     -1.483151
  C      -3.951866      4.524073      0.194326
  O      -4.916444      3.797212      0.943393
  Si     -4.533117      3.013657      2.371036
  C      -3.406430      4.106086      3.394779
  C      -6.182673      2.719051      3.237256
  C      -5.942656      1.885169      4.505107
  C      -6.810639      4.064857      3.626228
  C      -7.142406      1.962655      2.309435
  C      -3.660799      1.401743      1.990394
  O      -3.563851      5.131594     -2.164261
  C      -2.174400      5.095115     -2.393389
  H      -2.004831      5.838521     -3.179004
  O      -1.426729      5.424414     -1.243995
  C      -1.527947      6.796661     -0.863538
  C      -1.693142      3.720215     -2.862245
  H      -0.602557      3.744610     -2.918481
  O      -2.179750      3.454846     -4.168214
  H      -1.191912      3.639701     -0.473234
  H      -6.767350      2.481551     -4.535945
  H      -7.121735      0.756360     -4.723975
  H      -5.614556      1.425086     -5.370788
  H      -6.337919     -1.507129     -4.002171
  H      -6.543856     -1.581405     -2.244936
  H      -5.368947     -2.633564     -3.043721
  H      -3.223322     -1.698491     -4.000092
  H      -2.895938      0.040538     -3.948286
  H      -4.171325     -0.590184     -5.000136
  H      -4.671294     -0.725362     -0.690691
  H      -3.157695     -0.127348     -1.386344
  H      -3.574074     -1.836437     -1.521211
  H      -7.113704      2.378243     -1.519928
  H      -6.154203      1.286830     -0.511769
  H      -7.458397      0.642124     -1.514980
  H      -2.941698      4.334120      0.558646
  H      -4.150995      5.595151      0.292978
  H      -3.259723      3.676104      4.389858
  H      -3.827006      5.108206      3.514319
  H      -2.422891      4.201306      2.925885
  H      -5.523544      0.902877      4.268514
  H      -6.891210      1.723984      5.031445
  H      -5.260830      2.386868      5.198565
  H      -7.778173      3.900694      4.116150
  H      -6.982154      4.695540      2.748928
  H      -6.175677      4.619726      4.323057
  H      -6.736210      0.991670      2.010315
  H      -7.354787      2.532130      1.401049
  H      -8.094156      1.781200      2.823918
  H      -4.306230      0.718705      1.431141
  H      -3.357053      0.905568      2.916967
  H      -2.762565      1.587115      1.394457
  H      -2.560564      7.065790     -0.631321
  H      -1.155239      7.436032     -1.670351
  H      -0.908652      6.925199      0.023223
  H      -3.080435      3.105517     -4.066866
69
Coordinates from ORCA-job goat_0_50 E -1780.867722044651
  O      -1.376374      2.706465     -0.664542
  C      -2.125161      2.640625     -1.872045
  H      -1.923889      1.664136     -2.318004
  C      -3.637916      2.731617     -1.620217
  H      -3.897260      2.071957     -0.789207
  O      -4.278761      2.318188     -2.828994
  Si     -5.479951      1.146229     -2.912331
  C      -6.321987      1.477635     -4.544309
  C      -4.700487     -0.575538     -2.877180
  C      -5.805501     -1.629432     -3.049974
  C      -3.689638     -0.709375     -4.025155
  C      -3.985060     -0.820267     -1.540465
  C      -6.657884      1.381561     -1.480802
  C      -4.113767      4.142094     -1.279291
  H      -5.186688      4.170695     -1.481178
  C      -3.950517      4.521017      0.194994
  O      -4.916413      3.796565      0.944662
  Si     -4.532723      3.012909      2.372555
  C      -3.404216      4.103365      3.395878
  C      -6.182349      2.722715      3.240049
  C      -5.945245      1.888486      4.507763
  C      -6.806774      4.070537      3.628537
  C      -7.144484      1.968448      2.312295
  C      -3.663338      1.400329      1.989764
  O      -3.566244      5.132385     -2.162825
  C      -2.176898      5.097483     -2.392441
  H      -2.007134      5.843157     -3.175813
  O      -1.429827      5.423583     -1.241547
  C      -1.531914      6.794472     -0.856677
  C      -1.695108      3.723969     -2.865604
  H      -0.604425      3.748934     -2.921767
  O      -2.182358      3.461836     -4.171594
  H      -1.186898      3.637610     -0.479348
  H      -6.767154      2.476804     -4.540441
  H      -7.118266      0.750513     -4.726352
  H      -5.612694      1.422105     -5.374502
  H      -6.336155     -1.510055     -3.999211
  H      -6.541372     -1.580838     -2.241540
  H      -5.366958     -2.634690     -3.038999
  H      -3.221975     -1.701309     -4.000674
  H      -2.894117      0.037902     -3.951449
  H      -4.170988     -0.594044     -5.000822
  H      -4.667052     -0.723678     -0.690725
  H      -3.154033     -0.126419     -1.387791
  H      -3.570347     -1.835626     -1.520400
  H      -7.103888      2.379796     -1.515257
  H      -6.161367      1.266104     -0.514913
  H      -7.466879      0.647114     -1.532156
  H      -2.940533      4.328191      0.557918
  H      -4.146307      5.592732      0.294230
  H      -3.255815      3.671753      4.390205
  H      -3.824537      5.105339      3.518107
  H      -2.420770      4.199059      2.926470
  H      -5.530208      0.904224      4.271494
  H      -6.894065      1.731080      5.035147
  H      -5.260792      2.387587      5.200774
  H      -7.776177      3.909511      4.116189
  H      -6.974259      4.701967      2.750841
  H      -6.171958      4.623193      4.327259
  H      -6.739671      0.997701      2.010601
  H      -7.357813      2.540317      1.405562
  H      -8.095754      1.786167      2.827738
  H      -4.309701      0.721418      1.426566
  H      -3.362451      0.898906      2.914537
  H      -2.763591      1.585159      1.395731
  H      -2.564463      7.061717     -0.621108
  H      -1.162146      7.437671     -1.661959
  H      -0.910831      6.921958      0.029135
  H      -3.082880      3.111892     -4.071432
69
Coordinates from ORCA-job goat_0_50 E -1780.867716095792
  O      -1.378762      2.705942     -0.664355
  C      -2.126785      2.640485     -1.872293
  H      -1.925623      1.664359     -2.318882
  C      -3.639514      2.731816     -1.620601
  H      -3.899246      2.072209     -0.789619
  O      -4.280941      2.319133     -2.829370
  Si     -5.479799      1.145254     -2.913816
  C      -6.321258      1.476343     -4.546116
  C      -4.698712     -0.575744     -2.878306
  C      -5.803425     -1.629997     -3.050323
  C      -3.688317     -0.709233     -4.026681
  C      -3.982693     -0.819896     -1.541899
  C      -6.658894      1.377722     -1.482879
  C      -4.114673      4.142430     -1.278972
  H      -5.187604      4.171533     -1.480499
  C      -3.951259      4.520694      0.195647
  O      -4.917423      3.796816      0.945425
  Si     -4.533109      3.012891      2.373108
  C      -3.402910      4.102185      3.395540
  C      -6.182523      2.724570      3.242102
  C      -5.945662      1.891247      4.510409
  C      -6.806079      4.073060      3.629576
  C      -7.145864      1.969976      2.315600
  C      -3.665275      1.400082      1.988783
  O      -3.566909      5.133113     -2.161998
  C      -2.177584      5.097863     -2.391854
  H      -2.007413      5.843494     -3.175110
  O      -1.429496      5.423212     -1.241462
  C      -1.530363      6.794017     -0.856001
  C      -1.696246      3.724233     -2.865293
  H      -0.605571      3.748810     -2.920925
  O      -2.183465      3.462291     -4.171355
  H      -1.187450      3.636807     -0.479762
  H      -6.768172      2.474722     -4.541798
  H      -7.116446      0.748257     -4.729041
  H      -5.612009      1.422764     -5.376418
  H      -6.334980     -1.510441     -3.999039
  H      -6.538563     -1.582134     -2.241249
  H      -5.364472     -2.635082     -3.040354
  H      -3.219826     -1.700756     -4.002230
  H      -2.893332      0.038632     -3.953358
  H      -4.169992     -0.594399     -5.002218
  H      -4.664116     -0.722652     -0.691799
  H      -3.151450     -0.126242     -1.389945
  H      -3.568375     -1.835387     -1.521350
  H      -7.099656      2.378429     -1.511166
  H      -6.165341      1.252680     -0.516743
  H      -7.471524      0.647803     -1.541362
  H      -2.941347      4.326956      0.558350
  H      -4.146231      5.592528      0.295135
  H      -3.254197      3.669773      4.389481
  H      -3.822214      5.104424      3.519023
  H      -2.419611      4.197530      2.925844
  H      -5.532343      0.906092      4.274723
  H      -6.894020      1.735761      5.039060
  H      -5.259544      2.389735      5.202212
  H      -7.776092      3.913133      4.116285
  H      -6.972164      4.704426      2.751607
  H      -6.171345      4.625200      4.328779
  H      -6.740885      0.999582      2.013042
  H      -7.361135      2.541947      1.409392
  H      -8.096092      1.786828      2.832531
  H      -4.312424      0.722957      1.424308
  H      -3.364768      0.896268      2.912343
  H      -2.765537      1.584839      1.394733
  H      -2.562306      7.061754     -0.618519
  H      -1.161647      7.437692     -1.661342
  H      -0.907878      6.921044      0.028869
  H      -3.084279      3.113230     -4.071647
69
Coordinates from ORCA-job goat_0_50 E -1780.867717658120
  O      -1.381222      2.704155     -0.663815
  C      -2.128703      2.639695     -1.872089
  H      -1.928147      1.663805     -2.319295
  C      -3.641258      2.732323     -1.620164
  H      -3.901371      2.073403     -0.788710
  O      -4.284084      2.320082     -2.828380
  Si     -5.479873      1.143710     -2.913027
  C      -6.324065      1.475566     -4.543825
  C      -4.695629     -0.575943     -2.880400
  C      -5.799287     -1.631513     -3.051256
  C      -3.687223     -0.706782     -4.030784
  C      -3.976722     -0.820407     -1.545610
  C      -6.657630      1.370820     -1.479922
  C      -4.115057      4.143426     -1.278610
  H      -5.187930      4.173465     -1.480201
  C      -3.951672      4.521772      0.195974
  O      -4.918168      3.798242      0.945503
  Si     -4.534213      3.013640      2.372893
  C      -3.401841      4.100947      3.394869
  C      -6.183944      2.727755      3.242616
  C      -5.947871      1.894497      4.511177
  C      -6.805824      4.077032      3.629714
  C      -7.148568      1.973953      2.316697
  C      -3.668796      1.399951      1.987585
  O      -3.566436      5.133923     -2.161510
  C      -2.177248      5.097332     -2.391526
  H      -2.006401      5.842760     -3.174799
  O      -1.428046      5.421653     -1.241683
  C      -1.528640      6.791988     -0.854575
  C      -1.697211      3.723237     -2.864818
  H      -0.606587      3.746902     -2.920467
  O      -2.184985      3.461006     -4.170738
  H      -1.187327      3.634637     -0.480155
  H      -6.773683      2.472673     -4.536683
  H      -7.117727      0.746137     -4.727700
  H      -5.615988      1.425887     -5.375303
  H      -6.333889     -1.510569     -3.998062
  H      -6.532000     -1.586386     -2.239904
  H      -5.358892     -2.635930     -3.044911
  H      -3.216596     -1.697275     -4.007820
  H      -2.893690      0.042657     -3.958123
  H      -4.170788     -0.592149     -5.005356
  H      -4.656129     -0.723716     -0.693872
  H      -3.145486     -0.126448     -1.395270
  H      -3.562042     -1.835713     -1.526373
  H      -7.094726      2.373267     -1.500328
  H      -6.164490      1.236485     -0.514852
  H      -7.472988      0.644417     -1.543916
  H      -2.941884      4.327505      0.558840
  H      -4.146324      5.593661      0.295409
  H      -3.254412      3.667706      4.388617
  H      -3.818851      5.104044      3.519029
  H      -2.418277      4.194695      2.925583
  H      -5.536458      0.908544      4.275515
  H      -6.895993      1.740940      5.040615
  H      -5.260186      2.391746      5.202255
  H      -7.776419      3.918469      4.115535
  H      -6.970246      4.708987      2.751928
  H      -6.170547      4.627841      4.329489
  H      -6.744016      1.003683      2.013220
  H      -7.364970      2.546274      1.410972
  H      -8.098098      1.790814      2.834729
  H      -4.316912      0.724549      1.422107
  H      -3.368897      0.894158      2.910197
  H      -2.768984      1.584160      1.393505
  H      -2.560178      7.059295     -0.615092
  H      -1.161226      7.436764     -1.659560
  H      -0.904908      6.918021      0.029516
  H      -3.086283      3.113383     -4.070644
69
Coordinates from ORCA-job goat_0_50 E -1780.867729187996
  O      -1.383112      2.703224     -0.662541
  C      -2.129954      2.639163     -1.871253
  H      -1.929542      1.663264     -2.318467
  C      -3.642458      2.732667     -1.619630
  H      -3.902959      2.074255     -0.787891
  O      -4.285908      2.320555     -2.827578
  Si     -5.479822      1.142661     -2.912304
  C      -6.326343      1.475372     -4.541801
  C      -4.693306     -0.576056     -2.882399
  C      -5.796036     -1.632816     -3.052330
  C      -3.686675     -0.704683     -4.034580
  C      -3.971782     -0.820907     -1.549043
  C      -6.656283      1.366014     -1.477300
  C      -4.115395      4.144119     -1.278451
  H      -5.188148      4.174806     -1.480610
  C      -3.952411      4.522645      0.196027
  O      -4.918891      3.798885      0.945382
  Si     -4.535406      3.013945      2.372649
  C      -3.401153      4.099773      3.394127
  C      -6.185239      2.730072      3.243041
  C      -5.949321      1.896760      4.511663
  C      -6.805409      4.080069      3.630217
  C      -7.151037      1.977117      2.317768
  C      -3.672178      1.399102      1.987306
  O      -3.565842      5.134300     -2.161315
  C      -2.176753      5.096638     -2.391345
  H      -2.005530      5.841771     -3.174848
  O      -1.427046      5.420689     -1.241784
  C      -1.527372      6.790924     -0.854271
  C      -1.697621      3.722146     -2.864091
  H      -0.607007      3.745188     -2.919906
  O      -2.185583      3.459508     -4.169966
  H      -1.188307      3.633607     -0.479334
  H      -6.777792      2.471624     -4.532223
  H      -7.118883      0.745023     -4.726607
  H      -5.618888      1.428639     -5.373965
  H      -6.333082     -1.510978     -3.997620
  H      -6.526822     -1.589680     -2.239144
  H      -5.354410     -2.636662     -3.048533
  H      -3.214409     -1.694399     -4.012918
  H      -2.894267      0.045988     -3.962641
  H      -4.172055     -0.590181     -5.008240
  H      -4.649491     -0.725175     -0.695876
  H      -3.140764     -0.126410     -1.399981
  H      -3.556333     -1.835892     -1.531341
  H      -7.092359      2.368955     -1.493241
  H      -6.162300      1.227374     -0.513257
  H      -7.472498      0.640768     -1.543361
  H      -2.942625      4.328621      0.559122
  H      -4.147470      5.594454      0.295397
  H      -3.254963      3.666236      4.387923
  H      -3.816137      5.103706      3.518242
  H      -2.417368      4.191727      2.925030
  H      -5.538974      0.910424      4.275835
  H      -6.897324      1.744243      5.041560
  H      -5.260777      2.393370      5.202303
  H      -7.775931      3.922644      4.116494
  H      -6.969481      4.712278      2.752570
  H      -6.168959      4.630080      4.329564
  H      -6.747653      1.006332      2.014418
  H      -7.367285      2.549270      1.411910
  H      -8.100509      1.795416      2.836375
  H      -4.321189      0.724517      1.421857
  H      -3.372601      0.892815      2.909722
  H      -2.772354      1.582417      1.392976
  H      -2.558755      7.058290     -0.614346
  H      -1.160095      7.435729     -1.659279
  H      -0.903303      6.916460      0.029637
  H      -3.087222      3.112811     -4.069546
69
Coordinates from ORCA-job goat_0_50 E -1780.867730827546
  O      -1.384421      2.703218     -0.661159
  C      -2.130774      2.639035     -1.870209
  H      -1.930219      1.663021     -2.317136
  C      -3.643265      2.732974     -1.618884
  H      -3.903921      2.074997     -0.786865
  O      -4.287052      2.320616     -2.826547
  Si     -5.479460      1.141422     -2.911247
  C      -6.328114      1.475120     -4.539487
  C      -4.691045     -0.576523     -2.884225
  C      -5.792867     -1.634312     -3.054118
  C      -3.685659     -0.702733     -4.037789
  C      -3.967636     -0.822336     -1.552037
  C      -6.654657      1.361484     -1.474478
  C      -4.115844      4.144691     -1.278335
  H      -5.188470      4.175648     -1.481194
  C      -3.953357      4.523655      0.195962
  O      -4.919574      3.799400      0.945210
  Si     -4.536604      3.013873      2.372205
  C      -3.399859      4.097657      3.393163
  C      -6.186401      2.732530      3.243480
  C      -5.950831      1.898481      4.511726
  C      -6.803895      4.083491      3.631529
  C      -7.153977      1.981440      2.318679
  C      -3.676342      1.397415      1.986739
  O      -3.565606      5.134523     -2.161257
  C      -2.176593      5.096198     -2.391297
  H      -2.005233      5.841032     -3.175089
  O      -1.426791      5.420443     -1.241815
  C      -1.527178      6.790730     -0.854459
  C      -1.697952      3.721401     -2.863391
  H      -0.607340      3.744131     -2.919481
  O      -2.185975      3.458267     -4.169204
  H      -1.189312      3.633637     -0.478391
  H      -6.781211      2.470613     -4.527510
  H      -7.119513      0.743857     -4.725403
  H      -5.620952      1.431292     -5.372073
  H      -6.331624     -1.511588     -3.998310
  H      -6.522346     -1.593066     -2.239644
  H      -5.350130     -2.637660     -3.052435
  H      -3.212031     -1.691822     -4.017585
  H      -2.894196      0.048965     -3.966106
  H      -4.172478     -0.587958     -5.010696
  H      -4.644235     -0.728184     -0.697838
  H      -3.137016     -0.127275     -1.403338
  H      -3.551216     -1.836949     -1.536198
  H      -7.090525      2.364557     -1.487042
  H      -6.159428      1.220087     -0.511420
  H      -7.471128      0.636623     -1.541516
  H      -2.943506      4.330380      0.559278
  H      -4.149239      5.595331      0.295115
  H      -3.254903      3.663815      4.387013
  H      -3.812395      5.102605      3.517164
  H      -2.415873      4.187221      2.924040
  H      -5.541859      0.911740      4.275278
  H      -6.898828      1.747028      5.041959
  H      -5.261386      2.394023      5.202215
  H      -7.774125      3.927604      4.118887
  H      -6.967850      4.716182      2.754202
  H      -6.165631      4.632293      4.330172
  H      -6.752790      1.009702      2.015482
  H      -7.369215      2.553743      1.412665
  H      -8.103737      1.802152      2.837623
  H      -4.326644      0.723702      1.421738
  H      -3.377045      0.890928      2.909121
  H      -2.776528      1.579369      1.391960
  H      -2.558613      7.058131     -0.614827
  H      -1.159673      7.435233     -1.659611
  H      -0.903251      6.916213      0.029553
  H      -3.087818      3.112095     -4.068553
69
Coordinates from ORCA-job goat_0_50 E -1780.867731245261
  O      -1.384930      2.703609     -0.660488
  C      -2.131158      2.639076     -1.869626
  H      -1.930497      1.662907     -2.316197
  C      -3.643653      2.733126     -1.618440
  H      -3.904301      2.075317     -0.786303
  O      -4.287459      2.320444     -2.825949
  Si     -5.479191      1.140565     -2.910561
  C      -6.328887      1.474815     -4.538155
  C      -4.689748     -0.576935     -2.885161
  C      -5.790953     -1.635323     -3.055461
  C      -3.684747     -0.701581     -4.039253
  C      -3.965663     -0.823415     -1.553464
  C      -6.653659      1.359022     -1.472888
  C      -4.116233      4.144989     -1.278339
  H      -5.188781      4.175938     -1.481635
  C      -3.954058      4.524367      0.195854
  O      -4.919959      3.799784      0.945207
  Si     -4.537295      3.013729      2.371941
  C      -3.398811      4.096010      3.392639
  C      -6.186987      2.734006      3.243840
  C      -5.951788      1.898993      4.511536
  C      -6.802457      4.085589      3.632985
  C      -7.155975      1.984689      2.319126
  C      -3.679066      1.396150      1.986284
  O      -3.565683      5.134582     -2.161326
  C      -2.176678      5.096026     -2.391359
  H      -2.005277      5.840704     -3.175297
  O      -1.426972      5.420502     -1.241827
  C      -1.527343      6.790930     -0.854876
  C      -1.698211      3.721077     -2.863115
  H      -0.607595      3.743681     -2.919409
  O      -2.186279      3.457730     -4.168873
  H      -1.189963      3.634110     -0.477932
  H      -6.782907      2.469887     -4.524912
  H      -7.119528      0.742934     -4.724815
  H      -5.621645      1.432660     -5.370783
  H      -6.330157     -1.512329     -3.999360
  H      -6.520141     -1.595050     -2.240657
  H      -5.347545     -2.638379     -3.054518
  H      -3.210451     -1.690376     -4.019980
  H      -2.893757      0.050617     -3.967466
  H      -4.172163     -0.586441     -5.011829
  H      -4.642075     -0.730794     -0.698967
  H      -3.135622     -0.127734     -1.404331
  H      -3.548228     -1.837639     -1.538862
  H      -7.089853      2.361972     -1.484174
  H      -6.157506      1.216924     -0.510379
  H      -7.469918      0.633924     -1.539874
  H      -2.944126      4.331802      0.559270
  H      -4.150573      5.595955      0.294745
  H      -3.254512      3.661995      4.386518
  H      -3.809749      5.101623      3.516530
  H      -2.414721      4.183870      2.923391
  H      -5.543839      0.912000      4.274404
  H      -6.899837      1.748150      5.041903
  H      -5.261759      2.393575      5.202137
  H      -7.772392      3.930723      4.121290
  H      -6.966513      4.718752      2.756000
  H      -6.162852      4.633427      4.331153
  H      -6.756544      1.012286      2.015752
  H      -7.370324      2.557477      1.413197
  H      -8.106001      1.807026      2.838181
  H      -4.330257      0.723021      1.421640
  H      -3.380034      0.889650      2.908755
  H      -2.779166      1.577104      1.391309
  H      -2.558868      7.058486     -0.615763
  H      -1.159460      7.435068     -1.660161
  H      -0.903713      6.916567      0.029326
  H      -3.088165      3.111666     -4.068185
69
Coordinates from ORCA-job goat_0_50 E -1780.867731629550
  O      -1.385395      2.704253     -0.659514
  C      -2.131391      2.639148     -1.868788
  H      -1.930555      1.662769     -2.314824
  C      -3.643948      2.733206     -1.617950
  H      -3.904638      2.075581     -0.785701
  O      -4.287560      2.320050     -2.825368
  Si     -5.478736      1.139489     -2.909755
  C      -6.329786      1.474510     -4.536495
  C      -4.688236     -0.577524     -2.886361
  C      -5.788788     -1.636463     -3.057408
  C      -3.683554     -0.700270     -4.040963
  C      -3.963595     -0.824915     -1.555146
  C      -6.652045      1.356255     -1.470889
  C      -4.116756      4.145182     -1.278502
  H      -5.189211      4.175916     -1.482328
  C      -3.955116      4.525161      0.195596
  O      -4.920603      3.800217      0.945097
  Si     -4.538166      3.013381      2.371405
  C      -3.397215      4.093666      3.391528
  C      -6.187598      2.735889      3.244402
  C      -5.952774      1.900090      4.511643
  C      -6.800640      4.088324      3.634515
  C      -7.158455      1.988400      2.320170
  C      -3.682671      1.394367      1.985265
  O      -3.565928      5.134487     -2.161579
  C      -2.176840      5.095903     -2.391284
  H      -2.005273      5.840396     -3.175351
  O      -1.427533      5.420745     -1.241550
  C      -1.528094      6.791350     -0.855146
  C      -1.698270      3.720821     -2.862564
  H      -0.607641      3.743393     -2.918794
  O      -2.186125      3.457201     -4.168332
  H      -1.190897      3.634887     -0.477068
  H      -6.784818      2.469108     -4.521836
  H      -7.119575      0.741895     -4.723847
  H      -5.622549      1.434210     -5.369240
  H      -6.328143     -1.513161     -4.001178
  H      -6.517939     -1.597235     -2.242502
  H      -5.344722     -2.639244     -3.057157
  H      -3.208741     -1.688854     -4.023019
  H      -2.892928      0.052283     -3.968770
  H      -4.171487     -0.584311     -5.013197
  H      -4.640075     -0.734451     -0.700472
  H      -3.134453     -0.128352     -1.405069
  H      -3.544761     -1.838601     -1.542067
  H      -7.088548      2.359088     -1.480801
  H      -6.154718      1.213435     -0.509076
  H      -7.468080      0.630887     -1.537618
  H      -2.945104      4.333543      0.559234
  H      -4.152423      5.596650      0.294056
  H      -3.253271      3.659448      4.385377
  H      -3.806221      5.100063      3.515425
  H      -2.413177      4.179451      2.921750
  H      -5.546305      0.912624      4.273960
  H      -6.900769      1.750330      5.042453
  H      -5.261757      2.393597      5.202037
  H      -7.770183      3.934813      4.124055
  H      -6.964899      4.721754      2.757742
  H      -6.159455      4.635237      4.331953
  H      -6.761068      1.015188      2.016698
  H      -7.372045      2.561564      1.414292
  H      -8.108625      1.812559      2.839615
  H      -4.335143      0.722093      1.421106
  H      -3.383988      0.887773      2.907811
  H      -2.782678      1.573918      1.389998
  H      -2.559783      7.058949     -0.616743
  H      -1.159788      7.435163     -1.660505
  H      -0.904937      6.917333      0.029347
  H      -3.087972      3.111002     -4.067812
