69
Coordinates from ORCA-job goat_0_91 E -1780.872376330090
  O          -1.55503290302434      1.27624991323771     -2.45181213138666
  C          -2.06164922944447      2.59593046766193     -2.30189766024973
  H          -2.14298243032504      2.99711505163777     -3.31732887746276
  C          -3.44944797023697      2.60169908098363     -1.66244235457105
  H          -3.38496320026078      2.09540761014231     -0.69400667992582
  O          -4.37027836175845      1.95471989149340     -2.51553898948213
  Si         -5.28469244018717      0.60884016531377     -2.12378461396804
  C          -7.00633540468636      1.13573178097665     -1.61008310679328
  C          -5.36913062477635     -0.42397114102094     -3.70497068947019
  C          -5.90522220769829      0.43700203566643     -4.85822863229362
  C          -3.97349833499972     -0.94519980533453     -4.07278952766232
  C          -6.31124755123342     -1.61756833552541     -3.48809437899676
  C          -4.47984524075378     -0.33687616427718     -0.72321100803475
  C          -3.91693625952413      4.03635153878682     -1.40948972319549
  H          -4.01986374564573      4.55665699135680     -2.37332814197179
  C          -5.25579322450319      4.09797685376193     -0.69936396089046
  O          -5.32303013903352      3.24158060495648      0.42254812232304
  Si         -4.75698027262309      3.54650098701667      1.96306125393807
  C          -4.66915916928796      5.38959266518620      2.27495149590895
  C          -6.02294936359287      2.71856310157336      3.09933773049975
  C          -7.39755545454828      3.37269039289418      2.90090739905263
  C          -6.12496497034589      1.22405595288910      2.76143039289554
  C          -5.59470276747815      2.87708424984536      4.56512965868911
  C          -3.07200745926908      2.76337719840239      2.19170173608336
  O          -2.95911121144700      4.71269209493872     -0.59914869456882
  C          -1.71376803741436      4.84176012079861     -1.25645015709262
  H          -1.86038296853414      5.37199521655149     -2.21247502434456
  O          -0.84566002431323      5.55167804354057     -0.43568131078640
  C          -1.15081092114669      6.94460068102445     -0.35518365460017
  C          -1.10060569648947      3.46968579854171     -1.50519200476641
  H          -0.91821890284276      3.00415518732003     -0.52649593762159
  O           0.11040846802714      3.59289036519972     -2.23499195331753
  H          -1.47554329102780      0.88494409546563     -1.57279543943663
  H          -7.49276503129395      1.73118979911423     -2.38783653094729
  H          -6.95907049529197      1.73006782960075     -0.69497930270460
  H          -7.62994129425176      0.25822662772880     -1.41523365286118
  H          -6.90882569208636      0.81805595939217     -4.64611226268060
  H          -5.96393822208776     -0.15977654057434     -5.77693735457201
  H          -5.25290878115063      1.29230635587344     -5.05543181680823
  H          -3.26643067028403     -0.12614127881791     -4.22526734554292
  H          -4.02381986536611     -1.52909528402742     -5.00031588064857
  H          -3.56824842079211     -1.59637271897224     -3.29235933988271
  H          -7.33245175031183     -1.29371100366599     -3.26816914653248
  H          -5.97482288520615     -2.25687538423119     -2.66575407856290
  H          -6.34707423683763     -2.23548071590491     -4.39369340990320
  H          -3.44717232688007     -0.60897728359986     -0.95506256193761
  H          -5.04046516384905     -1.25768857332492     -0.53534668520874
  H          -4.48564447500506      0.24883333224681      0.19975278385346
  H          -5.45007043494127      5.13786844585136     -0.41615750569230
  H          -6.03240096209126      3.78643183015151     -1.40079811242181
  H          -4.38449511670698      5.57679442491281      3.31469112735685
  H          -5.63092330177632      5.87764440604922      2.09487588133888
  H          -3.91977320752761      5.85253358250858      1.62872855789743
  H          -7.38135042247734      4.43386730011060      3.16685185409274
  H          -8.14475280180809      2.88198766389064      3.53692669660009
  H          -7.73379457251930      3.28867643599525      1.86334651376480
  H          -5.16939083076494      0.71040993164271      2.90442014915681
  H          -6.43935943630206      1.06831755243446      1.72572827711027
  H          -6.86328404733951      0.74029390807337      3.41311283964078
  H          -4.62889204143379      2.40128099768019      4.75910972109382
  H          -6.33396835609607      2.40725268776173      5.22552649562552
  H          -5.51666567115811      3.93000565182488      4.85304445310973
  H          -3.08888376803240      1.70749891426036      1.90644637820050
  H          -2.75367414400224      2.82809401135748      3.23641625960710
  H          -2.33053335692953      3.27426115048266      1.57401881339560
  H          -0.35917349188703      7.40654727270689      0.23375495100688
  H          -2.11378546435879      7.10524465139631      0.13621488854222
  H          -1.17120231667799      7.38931769422065     -1.35592868000127
  H           0.69675431595070      4.15880772484502     -1.71790615098593
