69
Coordinates from ORCA-job goat_0_47 E -1780.867728029971
  O          -1.37362039710833      2.45343981761772     -0.51590492090669
  C          -2.06649195966598      2.51400626758295     -1.75646666899620
  H          -1.93159750477118      1.54636748250059     -2.24422439769550
  C          -3.57448451493333      2.73228907782222     -1.56329321808611
  H          -3.93092712901266      2.06177095729982     -0.77847935417216
  O          -4.19803831985692      2.43972612845680     -2.81588385465339
  Si         -5.46824997518669      1.35839320622107     -3.01109052025991
  C          -6.22377860227998      1.84586303680251     -4.64643344233490
  C          -4.80960812173207     -0.41295877274435     -3.05781854152385
  C          -4.18333562082254     -0.79799754009853     -1.70957754496930
  C          -5.97530025032676     -1.36989299175501     -3.35415929011279
  C          -3.75391269498164     -0.54393825052073     -4.16486112048188
  C          -6.68069240881220      1.58823461587735     -1.60710515480264
  C          -3.93535804367654      4.16253897064450     -1.16829130983451
  H          -4.99072034661820      4.29919057719033     -1.41384168140264
  C          -3.80831376777865      4.45158518867777      0.32968126743762
  O          -4.86440963455356      3.77633440285728      0.99871468950212
  Si         -4.62071688368090      2.87370741895713      2.38626999599992
  C          -3.41840120071935      3.76870857504768      3.50998408383772
  C          -6.32567332123338      2.72205689681660      3.18088174954260
  C          -6.80996405017846      4.10759764336276      3.63130068018046
  C          -7.32761661318452      2.13879444435364      2.17487816249624
  C          -6.23767188708818      1.79337982970478      4.40096607536792
  C          -3.92228890269362      1.19795910495448      1.93250451124953
  O          -3.25965292242313      5.14076883456329     -1.97339734002560
  C          -1.87046756683415      4.98752306304714     -2.14793527959502
  H          -1.59758704872609      5.75184451749911     -2.88261870379238
  O          -1.14861393485505      5.18462556506805     -0.95249725881210
  C          -1.14295512541019      6.53836653303055     -0.49902782543395
  C          -1.49513917824027      3.59984358936248     -2.67305413227841
  H          -0.40539446296889      3.52585788351912     -2.68384469022977
  O          -1.94559542018865      3.44668274963276     -4.00955755923481
  H          -1.11220297734871      3.35405093149668     -0.27522692983103
  H          -7.06425059177303      1.19408743052528     -4.90002422212227
  H          -5.49069024255936      1.78721953659518     -5.45540372456351
  H          -6.59434980507054      2.87371655953673     -4.59479370559791
  H          -3.32284699841066     -0.17075016116188     -1.46136514352005
  H          -3.83132155324544     -1.83622282258921     -1.74587360298158
  H          -4.90430729440749     -0.72107253023134     -0.89076049868084
  H          -6.44307657300992     -1.15350300994873     -4.31906266266785
  H          -6.74905764890163     -1.31656915959037     -2.58226804570104
  H          -5.61035002772103     -2.40362542550552     -3.38659759666548
  H          -3.36027541303381     -1.56742450008252     -4.18975613350357
  H          -2.91172367834630      0.13472947060892     -4.00178162156453
  H          -4.17539156010138     -0.32676070938665     -5.15077005879218
  H          -7.54874047760183      0.93764791481987     -1.74794272065984
  H          -7.03440031964007      2.62275123596572     -1.57464114948130
  H          -6.23848245039933      1.35145744879311     -0.63704915595118
  H          -2.83555306226152      4.15494375780720      0.72297650714728
  H          -3.91875641400272      5.52972431854407      0.47825541209324
  H          -3.72363299807638      4.80557512314861      3.67504978375357
  H          -2.41025228339011      3.77193785328966      3.08575218734070
  H          -3.36721681979579      3.26992751235987      4.48237051287255
  H          -7.81175075653740      4.03148245801098      4.07160320284363
  H          -6.86594950482206      4.80541587420309      2.79058029106026
  H          -6.14728869678503      4.54002784625500      4.38666181871388
  H          -7.02443020768798      1.14538801926301      1.83085455142333
  H          -7.43383585104951      2.78080495433547      1.29666854846946
  H          -8.31481111983396      2.04185868326893      2.64346782767996
  H          -7.21940149452387      1.71593717156217      4.88373115937525
  H          -5.53073739338909      2.16784596186909      5.14784114654268
  H          -5.92686303416528      0.78349241400928      4.11757048073095
  H          -4.61083060872106      0.63931818758829      1.29234919181647
  H          -3.73174147102863      0.60439439592915      2.83153660166200
  H          -2.97650076512015      1.31374295099805      1.39540670520186
  H          -0.55549148210551      6.56262349082726      0.41792435738317
  H          -2.15653304722081      6.88956659603303     -0.29341540622448
  H          -0.67821832645181      7.18295586623776     -1.25218360967195
  H          -2.87731927091852      3.17624540126283     -3.96354042390924
