69
Coordinates from ORCA-job goat_0_93 E -1780.867519457898
  O          -1.51335606653974      2.80202159000587      0.25292923322566
  C          -1.75291047709464      2.56512256261137     -1.12873562003710
  H          -1.23673305161596      1.63744442494580     -1.38430611787090
  C          -3.24677906802967      2.36515975120634     -1.43437281968935
  H          -3.67335778435950      1.69840128024155     -0.68087781036957
  O          -3.34066964431467      1.79628009476340     -2.74229026553879
  Si         -3.62769757670941      0.16743611127688     -3.04220584410931
  C          -2.73487028166036     -0.87221308124116     -1.76777232412526
  C          -5.48873245360985     -0.15455041547061     -2.99947961181414
  C          -6.19696291583547      0.78099191799270     -3.98988080954197
  C          -5.76034255971850     -1.61334469746597     -3.39703349280363
  C          -6.04200346269354      0.09686375549720     -1.58978777261374
  C          -2.91860379111107     -0.11132711618861     -4.74575178737438
  C          -4.04987072386086      3.66329148221813     -1.42914463605446
  H          -4.95836839620850      3.47405106142874     -2.00468251711513
  C          -4.51305540067287      4.09546923705339     -0.03557700064492
  O          -5.59633459754088      3.25579707850858      0.33677404090512
  Si         -5.77878157459553      2.60232309949751      1.86524499058145
  C          -4.31446637412348      1.50385015284699      2.25427711862723
  C          -5.96310058039184      3.96950774554402      3.16419123680458
  C          -4.62306919108330      4.66126508810073      3.45351644727592
  C          -6.97497548182245      5.01340687353256      2.67068679823008
  C          -6.48201043777998      3.33850712334844      4.46642448207086
  C          -7.34369601969734      1.58961104786996      1.74503005087136
  O          -3.39506092175936      4.72029260783528     -2.14682466138599
  C          -2.03749464516351      4.95254611967721     -1.85400450123227
  H          -1.72004263189667      5.70453947118387     -2.58332383041635
  O          -1.84117133660713      5.43352480345601     -0.54316499781699
  C          -2.29145375113461      6.77379540599038     -0.34509291147672
  C          -1.18707897113575      3.68891137021144     -2.00180229331948
  H          -0.17119533521993      3.92266272931746     -1.67579974003692
  O          -1.11897740214907      3.30741636489118     -3.36678791323967
  H          -1.58030724396748      3.75519862947645      0.40871895023817
  H          -3.03082383851961     -0.62338354038042     -0.74523279152161
  H          -1.65272581434925     -0.74021850754293     -1.85381666403033
  H          -2.95717404820823     -1.93077544541181     -1.93147558779006
  H          -5.85894881567834      0.61390374026774     -5.01690449477848
  H          -6.02260969285556      1.83217191574646     -3.74228622362219
  H          -7.27927256230633      0.60491751813866     -3.96347938697049
  H          -5.39796407375197     -1.83290880052687     -4.40573795892096
  H          -6.83931515457588     -1.80940308068948     -3.38187625664335
  H          -5.28709917091097     -2.31754888811290     -2.70612562385253
  H          -5.56282677779965     -0.54351635054800     -0.84272664612682
  H          -7.11784768611052     -0.11740837244238     -1.56769687231628
  H          -5.90934287906074      1.13582709476670     -1.27815446794772
  H          -3.05287612231748     -1.15011607218570     -5.05972232232200
  H          -1.84669046389070      0.10738611977758     -4.74419996008182
  H          -3.39809570352642      0.53361112725294     -5.48690402634894
  H          -3.70458328952582      4.04423912034533      0.69402896936002
  H          -4.85813494702590      5.13183115131270     -0.09105689961578
  H          -3.36484036108126      2.03235237036469      2.14203266581300
  H          -4.30295039463166      0.64258431421493      1.57885696436656
  H          -4.37819384119233      1.12958762096321      3.28050185000097
  H          -4.23140660995443      5.18128000520011      2.57537466948490
  H          -3.86426926003795      3.94967680155650      3.79179524957674
  H          -4.75424805515104      5.40909781212218      4.24548835198614
  H          -7.12319395447294      5.78661692039095      3.43468146997546
  H          -7.95044534486782      4.56403649286496      2.46066571876785
  H          -6.62817591084967      5.50702835820027      1.75832886774257
  H          -7.46978537391293      2.88889175107362      4.33290803144242
  H          -6.56769246036533      4.10646255914081      5.24477522269801
  H          -5.80540572223353      2.56339969109355      4.84071325767619
  H          -7.26925426425982      0.87701197521213      0.91960525485326
  H          -8.21879370828620      2.22240257237813      1.57386166777929
  H          -7.50768584858189      1.02381661663111      2.66628580319325
  H          -1.74422717030044      7.45376265920805     -1.00601063338017
  H          -2.08460869051991      7.02689040245040      0.69398676092882
  H          -3.36308965239291      6.86316247133666     -0.53653112806211
  H          -1.92703204639152      2.80468630566700     -3.55908692151715
