69
Coordinates from ORCA-job goat_0_119 E -1780.866958830679
  O          -1.51015011869912      2.70065937017227     -0.57581256917320
  C          -2.16071821754186      2.69405747792525     -1.83931157806329
  H          -1.83972279890878      1.78787504492218     -2.35786496271511
  C          -3.68830834335856      2.62999556219817     -1.69991515836484
  H          -3.94255547318933      1.88367503448462     -0.94369288314521
  O          -4.20062415689471      2.26261703338132     -2.98342061165288
  Si         -5.30579628989977      1.02360904314264     -3.23541975626861
  C          -5.95675181952565      1.34995918820264     -4.95367291666010
  C          -4.43529328334288     -0.65245238423996     -3.13602487126712
  C          -3.32407757404259     -0.72070277316848     -4.19358795888520
  C          -3.82227769438346     -0.87588352964635     -1.74547967963555
  C          -5.46216194995455     -1.76292381852752     -3.40938603802156
  C          -6.67008951644643      1.14889424918098     -1.96264596680766
  C          -4.32380849027773      3.95590251962548     -1.28600846588769
  H          -5.37099810247275      3.90631770373165     -1.59143135100830
  C          -4.34065345325862      4.19970623562012      0.22537201174165
  O          -5.22486904309306      3.24794444275539      0.79305706035653
  Si         -4.98990099833041      2.45805550897442      2.24703201582336
  C          -3.16501807265912      2.16861365440467      2.54267842566047
  C          -5.73924013458763      3.48694814483028      3.64440987967522
  C          -5.12461203774116      4.89408686429738      3.63865046824449
  C          -7.25711548728018      3.60013520266596      3.44495203817943
  C          -5.45127759974090      2.81383971924946      4.99403746653290
  C          -5.88385568425123      0.82863083521690      2.05297269726244
  O          -3.80053670852242      5.07591096628678     -2.01499738589263
  C          -2.40047715409124      5.17794899644338     -2.12999446251483
  H          -2.24002351080353      6.01189026519816     -2.82088526259190
  O          -1.77162092076384      5.44290396746225     -0.89579068766690
  C          -2.03859351691328      6.74707540501108     -0.38023345043648
  C          -1.76437101821422      3.90385866143400     -2.69049961402299
  H          -0.67940783889956      4.02630995746930     -2.66060167371626
  O          -2.13669842697873      3.73174751838568     -4.04892751291316
  H          -1.45132828334106      3.61881892278445     -0.27433966880230
  H          -5.14569098944238      1.37528311252422     -5.68621858387157
  H          -6.47335004182660      2.31370822408599     -4.98129910656526
  H          -6.66654594512897      0.57559392854480     -5.25741017724437
  H          -3.72654718282096     -0.63375439125667     -5.20698333531741
  H          -2.79950656979743     -1.68156740239070     -4.12553369843756
  H          -2.58526647438917      0.07420498871033     -4.05439219676306
  H          -3.38048367137201     -1.87842650291080     -1.69189694842191
  H          -4.57146299501580     -0.80132678578014     -0.95147645092701
  H          -3.02626116349806     -0.15819467765089     -1.53064041942897
  H          -4.96743967339671     -2.74142791648773     -3.38646906880682
  H          -5.93030829483187     -1.65175119997228     -4.39204448855105
  H          -6.25489638437952     -1.77518821132549     -2.65558225229190
  H          -7.16851553545391      2.11976927914340     -2.03629542635789
  H          -6.29561423843881      1.03679231439951     -0.94281519013795
  H          -7.41896371290090      0.37060513905039     -2.13571592166739
  H          -3.34728681112570      4.12927931804050      0.66972296811496
  H          -4.72019183536793      5.21113760659943      0.39927348554125
  H          -2.62536891035091      3.09114610973300      2.77220765930136
  H          -2.70097503286773      1.71405843473775      1.66350741474873
  H          -3.03851426031434      1.48638689153662      3.38868440791219
  H          -5.53307264440815      5.48607531774130      4.46694673629838
  H          -5.34876536238739      5.42678481300267      2.71015159634340
  H          -4.03720171095616      4.86412411470049      3.75815461596163
  H          -7.69538842633493      4.23187531950306      4.22745245554566
  H          -7.74370557648524      2.62176321032073      3.49649286789549
  H          -7.50232056002970      4.04883834391534      2.47725758314058
  H          -5.86108537428955      1.79986135325249      5.03780524222314
  H          -5.90765642757958      3.39105962763625      5.80756528485710
  H          -4.37722245826176      2.75275072954488      5.19296992896341
  H          -5.37380094308041      0.20557266993130      1.31217333408968
  H          -6.91431351193183      0.97948711966581      1.72049090814660
  H          -5.90744048291446      0.28101814618752      2.99962493647488
  H          -1.49183214871623      6.83443456989338      0.55780971844175
  H          -3.10579924719079      6.88813465432106     -0.19597877405742
  H          -1.68580972590934      7.50727660153899     -1.08480930520140
  H          -3.00362195839609      3.29420003963881     -4.05198727731393
