69
Coordinates from ORCA-job goat_0_84 E -1780.873692332480
  O          -1.53576341125875      1.01797391086497     -2.24011876553270
  C          -1.94085699989496      2.38069292611005     -2.14435892904179
  H          -1.91542259558602      2.84613685624733     -3.13878169435134
  C          -3.34590106945008      2.51952599455818     -1.57986255438218
  H          -3.38927939747122      2.00369367159647     -0.61744758048326
  O          -4.26849993296392      1.96726237274346     -2.49944202752609
  Si         -5.37520484819686      0.75582874448134     -2.15904657223357
  C          -7.04775799518051      1.49763193385645     -1.77033888905435
  C          -5.47384567617845     -0.27444263678321     -3.74209164686337
  C          -6.33789017531256     -1.51818134454033     -3.48390760609962
  C          -6.10810570101121      0.55610501170744     -4.86735523681830
  C          -4.07128933546248     -0.71901651896607     -4.17785710553603
  C          -4.77721656773234     -0.26619295925957     -0.71064257804887
  C          -3.64870166968243      3.99842543607874     -1.34482335104241
  H          -3.62034035407192      4.53314553639703     -2.30568540536940
  C          -5.01113062033348      4.22539154316118     -0.71856411659419
  O          -5.25532351637423      3.37687996280680      0.38474416151390
  Si         -4.76334921384031      3.60619538905754      1.96328178000836
  C          -4.48231814604748      5.42520286300636      2.30101837463098
  C          -6.19132966201048      2.92841240336972      3.00301015218312
  C          -5.85347650603353      3.04605767346911      4.49607764137424
  C          -7.46728631133773      3.72950163071109      2.70858695511517
  C          -6.43384466273880      1.45239814246489      2.65540163238688
  C          -3.19928251255133      2.63314935646678      2.29669730751634
  O          -2.66416861490579      4.53555047868458     -0.46453383246892
  C          -1.35588561183454      4.51407175539735     -1.01275716996092
  H          -1.35245058854566      5.07687104031101     -1.96130734405420
  O          -0.49242905726583      5.09580011326977     -0.09657002572444
  C          -0.64989719268949      6.51085659612811      0.00694122298615
  C          -0.92273786651828      3.07551325268079     -1.25411417948058
  H          -0.88535902210580      2.56481606242611     -0.28310082235831
  O           0.35950062819060      3.08521703650274     -1.86350652174559
  H          -2.04682443181969      0.60594506335575     -2.94593057199087
  H          -7.35495972012396      2.20912981728616     -2.54158048099297
  H          -7.01685234003048      2.01754004374472     -0.81031266888590
  H          -7.80697171963770      0.71167063803814     -1.71246878853606
  H          -7.34357977340078     -1.25166694378852     -3.14466027474815
  H          -5.88918205311316     -2.17178683763274     -2.73030739351972
  H          -6.44354095876898     -2.09940286172883     -4.40794004140453
  H          -6.13309897337693     -0.02586851619897     -5.79692464153911
  H          -5.53997161856852      1.47110229376975     -5.06181105092707
  H          -7.13613932897460      0.84078256668520     -4.62626238449183
  H          -3.54852311620508     -1.26255882596046     -3.38376228493532
  H          -3.45997711127776      0.13832001544150     -4.47640993429679
  H          -4.13878512599516     -1.38715603936396     -5.04489330094984
  H          -5.48108330310004     -1.08222462542632     -0.52267382587374
  H          -4.72148770734995      0.33866320308114      0.19793066313053
  H          -3.79141480347565     -0.70000956697514     -0.89789902837130
  H          -5.09257672922819      5.27970683879039     -0.43393038287625
  H          -5.77448146983340      4.01746666501347     -1.47145508000202
  H          -5.36414654392910      6.02443927315064      2.05823221591100
  H          -3.63915709433144      5.79717465122139      1.71437523953685
  H          -4.25240544153912      5.57548928836215      3.36007452531270
  H          -5.68464255325085      4.08573385333012      4.79295724345640
  H          -4.95965739066791      2.47128526092942      4.75606692448952
  H          -6.68322030421351      2.65959738996937      5.10071585899047
  H          -8.30689344652554      3.33064045211830      3.29139189803147
  H          -7.73807532915556      3.67426038997855      1.65013982181019
  H          -7.35188823373798      4.78480054360744      2.97371118331658
  H          -5.55345324529331      0.83749949211327      2.86533958075272
  H          -6.68910035313089      1.32550058680155      1.59966923366214
  H          -7.26564788624816      1.05722669387405      3.25186479879429
  H          -3.31727269466494      1.58535976216348      2.00594875945438
  H          -2.94425274292493      2.66379990587318      3.36026248884446
  H          -2.36606206706227      3.05470574615739      1.73075854060208
  H           0.14237143726715      6.86774496970312      0.66431243511823
  H          -1.62255972227494      6.76870027000055      0.43369959707660
  H          -0.54746299341216      6.97976073746165     -0.97787123328794
  H           0.53466092577161      2.18176352004674     -2.15594300360591
