69
Coordinates from ORCA-job goat_0_88 E -1780.867719953895
  O          -1.52440755212581      2.94301726170170     -0.01578542876207
  C          -2.01688187687986      2.60144781372083     -1.30472519239668
  H          -1.50916023069612      1.68211457350579     -1.60609956616245
  C          -3.52435552570933      2.30849539244655     -1.29088371572865
  H          -3.74932631364644      1.68373606508915     -0.42121107647055
  O          -3.82826748247605      1.62723490277019     -2.51120250123012
  Si         -4.41392502107949      0.05310817942629     -2.49023487790237
  C          -6.07677607376581      0.04725146000884     -1.63438337802136
  C          -4.53545494395202     -0.43349285685276     -4.30567084502218
  C          -5.37685020193861      0.60067637489366     -5.06744506777012
  C          -3.13168762358907     -0.50228381527598     -4.92436750361072
  C          -5.20538945253667     -1.81178415645025     -4.41123454472984
  C          -3.21578119606724     -1.02761267604553     -1.54373362733156
  C          -4.39875356716902      3.55722812236487     -1.21050262882399
  H          -5.38031235916853      3.27512388831890     -1.59753457307579
  C          -4.63703111573882      4.05149042444637      0.21734095333475
  O          -5.50238280440846      3.11522152758539      0.84105916743452
  Si         -5.42376991383169      2.70382494297491      2.45915947556498
  C          -3.71422841838666      2.05783789720518      2.86318580261574
  C          -5.85387240447636      4.19427754539579      3.54335378640723
  C          -4.70846088898194      5.21732909422760      3.55380590786843
  C          -7.12686242105298      4.86593046266498      3.00937850898096
  C          -6.09952236704713      3.70944355809553      4.98062421448061
  C          -6.69402464124939      1.34623698909187      2.63769290737421
  O          -3.96150744718875      4.60150318239994     -2.09210974310985
  C          -2.58936174427463      4.91753944929784     -2.08928839150948
  H          -2.46886694388437      5.63624269697155     -2.90628558789225
  O          -2.16754125594922      5.49093830944745     -0.87195248647163
  C          -2.68416762542404      6.80159090994928     -0.64026311916507
  C          -1.70872121806821      3.69036443803391     -2.33679933825750
  H          -0.66459218097376      3.99609594724819     -2.24006997655108
  O          -1.89542902043324      3.22258729578405     -3.66347924176818
  H          -1.63757361429119      3.89726218371805      0.10290766466639
  H          -6.80768415829264      0.65172803325024     -2.17803772475502
  H          -5.98594742434087      0.45273734147957     -0.62216975427686
  H          -6.46494117037167     -0.97215665285164     -1.55317067843188
  H          -5.46559612663117      0.30775631001460     -6.12062319583959
  H          -4.91971377852216      1.59349951151331     -5.03255229011686
  H          -6.38863733282443      0.67931770508146     -4.65835037024556
  H          -3.20345054369727     -0.75797104995507     -5.98843756334117
  H          -2.51541898443662     -1.26502903103846     -4.43998634635787
  H          -2.60734831411546      0.45471504001955     -4.84640418206451
  H          -6.22365247395404     -1.79710894705482     -4.01149369784788
  H          -4.64098217177675     -2.57951900054813     -3.87267936440054
  H          -5.26455791327373     -2.11954599996677     -5.46205507021878
  H          -3.54537849148444     -2.07068381747016     -1.56500469790811
  H          -3.15985385344803     -0.71834170820906     -0.49558510074170
  H          -2.21033295642797     -0.97715014651302     -1.96930636654178
  H          -3.70569576206008      4.16137617974573      0.77526363891004
  H          -5.12380639958654      5.03031208281173      0.16774256860781
  H          -2.93322728459850      2.78740913679879      2.63658242134679
  H          -3.50826648731013      1.15144543523273      2.28586765719737
  H          -3.64494718549120      1.80751549318166      3.92612079461886
  H          -4.50758955399329      5.61774801132988      2.55631223539428
  H          -3.78084297476815      4.78168359805613      3.93600168407124
  H          -4.97003661553159      6.06330079895858      4.20147523283013
  H          -6.98206143359628      5.24780205628346      1.99462008574705
  H          -7.40497676567494      5.71192570732699      3.65003713050104
  H          -7.97321340448681      4.17241906334092      2.99032487910364
  H          -6.94844891124713      3.02208679446382      5.03599001331684
  H          -6.31968569639505      4.56423450929244      5.63168137778038
  H          -5.22327370453942      3.19800454068257      5.39184016624202
  H          -6.67086836118586      0.92179182443710      3.64515390103870
  H          -6.48193291705662      0.54263365176121      1.92631731811875
  H          -7.70526837032718      1.71477429836952      2.44545000024225
  H          -3.77512516240588      6.79271924950473     -0.59219404704033
  H          -2.35856822942132      7.47850225350672     -1.43680426314262
  H          -2.27968651870475      7.13657224177159      0.31405716934234
  H          -2.67889729156048      2.64912785123158     -3.65526962810270
