69
Coordinates from ORCA-job goat_0_7 E -1780.871757067698
  O      -1.610886      0.887049     -1.970307
  C      -1.977643      2.251523     -2.034135
  H      -1.930024      2.613179     -3.070925
  C      -3.396106      2.451526     -1.522315
  H      -3.467562      2.010904     -0.521818
  O      -4.289450      1.834934     -2.425234
  Si     -5.358681      0.590673     -2.112944
  C      -7.004736      1.251895     -1.543998
  C      -5.507281     -0.271975     -3.783128
  C      -6.453916     -1.471685     -3.684197
  C      -6.052601      0.721123     -4.815409
  C      -4.127770     -0.749763     -4.245572
  C      -4.675116     -0.526377     -0.782039
  C      -3.728670      3.933677     -1.408286
  H      -3.700921      4.387439     -2.410224
  C      -5.098227      4.169436     -0.809419
  O      -5.308108      3.419051      0.364147
  Si     -4.764805      3.726524      1.910573
  C      -4.625145      5.566781      2.183908
  C      -6.085251      2.936510      3.000787
  C      -7.452703      3.545338      2.679044
  C      -6.137717      1.430830      2.719759
  C      -5.761760      3.164598      4.480494
  C      -3.105604      2.930615      2.222918
  O      -2.780099      4.563926     -0.558959
  C      -1.462104      4.485666     -1.057320
  H      -1.412657      4.997814     -2.034941
  O      -0.611795      5.096097     -0.148204
  C      -0.778645      6.503481     -0.064983
  C      -0.993148      3.044695     -1.204079
  H      -0.942066      2.603921     -0.200644
  O       0.264329      3.015572     -1.845233
  H      -2.205866      0.401548     -2.553567
  H      -6.868402      1.826450     -0.625081
  H      -7.692168      0.429949     -1.328824
  H      -7.472101      1.898865     -2.288713
  H      -6.561246     -1.947330     -4.664709
  H      -7.452224     -1.174354     -3.354949
  H      -6.079401     -2.230106     -2.992811
  H      -6.093016      0.253901     -5.805173
  H      -5.415099      1.604430     -4.889330
  H      -7.064505      1.047412     -4.565819
  H      -3.448554      0.095127     -4.386497
  H      -4.205293     -1.262954     -5.209978
  H      -3.679577     -1.454417     -3.539193
  H      -3.639334     -0.822760     -0.955070
  H      -5.282677     -1.431532     -0.704626
  H      -4.720041     -0.026611      0.188950
  H      -5.221577      5.241206     -0.622526
  H      -5.853158      3.867137     -1.536205
  H      -4.285532      5.771606      3.202015
  H      -5.569812      6.091674      2.028795
  H      -3.881416      5.979090      1.499021
  H      -7.709823      3.401392      1.627784
  H      -7.479206      4.616314      2.894249
  H      -8.232810      3.069000      3.283122
  H      -5.194426      0.938185      2.968053
  H      -6.362733      1.233204      1.669147
  H      -6.923636      0.959365      3.320136
  H      -5.737776      4.228155      4.730222
  H      -4.799140      2.728936      4.757983
  H      -6.526468      2.696607      5.109877
  H      -2.854975      2.963293      3.286056
  H      -2.328055      3.468251      1.679711
  H      -3.086093      1.884346      1.908115
  H      -0.586633      6.973028     -1.034958
  H      -0.055070      6.865283      0.660990
  H      -1.785610      6.760212      0.267644
  H       0.885161      3.496729     -1.287201
69
Coordinates from ORCA-job goat_0_7 E -1780.872779834982
  O      -1.544110      0.983453     -2.187256
  C      -1.961715      2.340382     -2.158437
  H      -1.969493      2.754235     -3.176733
  C      -3.365206      2.475212     -1.575856
  H      -3.381849      1.991521     -0.595016
  O      -4.282598      1.865884     -2.462715
  Si     -5.332382      0.610333     -2.123144
  C      -6.991348      1.256816     -1.566264
  C      -5.475258     -0.302996     -3.768710
  C      -6.403043     -1.515053     -3.617482
  C      -6.049440      0.646050     -4.831726
  C      -4.088349     -0.778378     -4.222515
  C      -4.626305     -0.465271     -0.767592
  C      -3.726786      3.947330     -1.387003
  H      -3.743729      4.439360     -2.370963
  C      -5.085243      4.142548     -0.738281
  O      -5.283459      3.353981      0.416590
  Si     -4.756871      3.623019      1.976711
  C      -4.477787      5.449142      2.254309
  C      -6.171004      2.953079      3.033808
  C      -7.471720      3.689281      2.686148
  C      -6.353573      1.454801      2.749440
  C      -5.857660      3.152143      4.522372
  C      -3.181937      2.687153      2.347384
  O      -2.755419      4.571260     -0.553900
  C      -1.459739      4.550891     -1.117664
  H      -1.475105      5.088069     -2.081947
  O      -0.578845      5.165838     -0.235383
  C      -0.758322      6.575651     -0.132617
  C      -0.962867      3.124287     -1.330643
  H      -0.866890      2.648889     -0.346038
  O       0.281113      3.138355     -2.009597
  H      -2.137889      0.510001     -2.781228
  H      -6.866387      1.847994     -0.655870
  H      -7.666823      0.425708     -1.340771
  H      -7.466493      1.885434     -2.323881
  H      -6.508224     -2.031055     -4.579708
  H      -7.405259     -1.220405     -3.291395
  H      -6.011422     -2.239275     -2.896686
  H      -6.097415      0.139487     -5.803587
  H      -5.425592      1.536497     -4.949636
  H      -7.063039      0.970315     -4.578688
  H      -3.422658      0.069895     -4.408996
  H      -4.166626     -1.339666     -5.161672
  H      -3.619640     -1.438371     -3.485004
  H      -3.593736     -0.768523     -0.953832
  H      -5.233345     -1.368604     -0.653996
  H      -4.651339      0.066557      0.188603
  H      -5.213586      5.207083     -0.513359
  H      -5.853302      3.861091     -1.462172
  H      -4.157808      5.628469      3.285245
  H      -5.374712      6.045565      2.068081
  H      -3.682154      5.802567      1.593183
  H      -7.726016      3.567790      1.629625
  H      -7.399228      4.760582      2.898081
  H      -8.303608      3.291049      3.280436
  H      -5.459984      0.880259      3.011077
  H      -6.578377      1.274838      1.694305
  H      -7.187751      1.055902      3.340286
  H      -5.738538      4.210781      4.773231
  H      -4.943828      2.628798      4.818972
  H      -6.676935      2.757756      5.136278
  H      -2.971190      2.700055      3.421406
  H      -2.340498      3.152794      1.833003
  H      -3.243619      1.641950      2.031465
  H      -0.625524      7.053028     -1.110253
  H       0.002431      6.942180      0.555927
  H      -1.749302      6.819197      0.257908
  H       0.911194      3.610623     -1.451698
69
Coordinates from ORCA-job goat_0_7 E -1780.873317583236
  O      -1.534836      0.995163     -2.190140
  C      -1.943938      2.357900     -2.154092
  H      -1.936155      2.778230     -3.169603
  C      -3.353122      2.503394     -1.583703
  H      -3.382519      2.017155     -0.604646
  O      -4.272237      1.900819     -2.475356
  Si     -5.357219      0.680555     -2.110687
  C      -7.016011      1.383538     -1.616827
  C      -5.496573     -0.308572     -3.714488
  C      -6.449191     -1.494762     -3.506006
  C      -6.047020      0.592308     -4.832704
  C      -4.114593     -0.835703     -4.128863
  C      -4.698548     -0.350608     -0.695894
  C      -3.698411      3.981122     -1.393641
  H      -3.697589      4.481112     -2.373616
  C      -5.062842      4.188895     -0.762549
  O      -5.279813      3.381220      0.374869
  Si     -4.771090      3.628102      1.944040
  C      -4.572208      5.456782      2.281411
  C      -6.155575      2.866496      2.982767
  C      -7.483797      3.574204      2.674975
  C      -6.289394      1.373167      2.641705
  C      -5.836280      3.018874      4.477203
  C      -3.156002      2.744497      2.278757
  O      -2.726484      4.585717     -0.543338
  C      -1.428742      4.559314     -1.103909
  H      -1.439365      5.089319     -2.071378
  O      -0.545946      5.176485     -0.222790
  C      -0.697557      6.595291     -0.159680
  C      -0.946195      3.125272     -1.305946
  H      -0.872929      2.649105     -0.319216
  O       0.314229      3.117118     -1.961058
  H      -2.118139      0.532551     -2.802315
  H      -6.902626      1.996002     -0.719034
  H      -7.717071      0.573562     -1.389762
  H      -7.453688      2.002188     -2.405614
  H      -6.553931     -2.062518     -4.439481
  H      -7.449116     -1.163573     -3.206683
  H      -6.078039     -2.183106     -2.739570
  H      -6.103165      0.031517     -5.774685
  H      -5.404346      1.462366     -4.999299
  H      -7.054055      0.953365     -4.601389
  H      -3.433728     -0.013507     -4.371289
  H      -4.200021     -1.460361     -5.027109
  H      -3.657135     -1.447135     -3.343396
  H      -3.676843     -0.700232     -0.865149
  H      -5.338959     -1.225441     -0.544648
  H      -4.707286      0.229660      0.232840
  H      -5.176378      5.251426     -0.520158
  H      -5.825338      3.928933     -1.501295
  H      -4.268661      5.615686      3.321361
  H      -5.495775      6.016297      2.107850
  H      -3.790809      5.869280      1.637495
  H      -7.748223      3.483907      1.617010
  H      -7.441064      4.639731      2.924173
  H      -8.295481      3.128767      3.264812
  H      -5.371630      0.821870      2.869925
  H      -6.519856      1.223907      1.582333
  H      -7.101231      0.923066      3.228096
  H      -5.747129      4.071231      4.766931
  H      -4.903316      2.513864      4.747003
  H      -6.638665      2.576006      5.081513
  H      -2.940473      2.738237      3.352192
  H      -2.334029      3.253380      1.768985
  H      -3.183146      1.706123      1.935499
  H      -0.557705      7.040406     -1.151787
  H       0.073516      6.965329      0.516991
  H      -1.682983      6.869594      0.226478
  H       0.939322      3.581725     -1.390460
69
Coordinates from ORCA-job goat_0_7 E -1780.873473003433
  O      -1.557662      1.014903     -2.183873
  C      -1.968254      2.378037     -2.134835
  H      -1.946021      2.811319     -3.144296
  C      -3.385304      2.509551     -1.582190
  H      -3.424499      2.006727     -0.612040
  O      -4.285880      1.911212     -2.496644
  Si     -5.347029      0.662246     -2.149814
  C      -7.030264      1.318845     -1.664986
  C      -5.464980     -0.330356     -3.755363
  C      -6.380028     -1.544411     -3.531061
  C      -6.054650      0.546125     -4.872382
  C      -4.073295     -0.819823     -4.182083
  C      -4.664568     -0.363148     -0.740178
  C      -3.734038      3.985152     -1.375291
  H      -3.719628      4.503599     -2.345294
  C      -5.102470      4.189176     -0.756763
  O      -5.313369      3.372668      0.373830
  Si     -4.761775      3.608717      1.929286
  C      -4.469288      5.430209      2.247439
  C      -6.151871      2.924163      3.017722
  C      -7.446591      3.709326      2.758217
  C      -6.386115      1.441004      2.688200
  C      -5.770550      3.059363      4.499870
  C      -3.179083      2.648782      2.215610
  O      -2.772068      4.571073     -0.498850
  C      -1.471593      4.562628     -1.053014
  H      -1.481539      5.098186     -2.016753
  O      -0.602031      5.181988     -0.161055
  C      -0.753634      6.603265     -0.116111
  C      -0.984366      3.131459     -1.257246
  H      -0.928461      2.645697     -0.274122
  O       0.289196      3.127600     -1.889636
  H      -2.128095      0.562864     -2.815689
  H      -6.947674      1.904894     -0.747372
  H      -7.716829      0.486888     -1.477534
  H      -7.465056      1.950922     -2.444698
  H      -6.474787     -2.120866     -4.459858
  H      -7.386302     -1.241381     -3.224455
  H      -5.981654     -2.214955     -2.762840
  H      -6.108000     -0.024268     -5.808509
  H      -5.439485      1.432737     -5.055195
  H      -7.067314      0.881685     -4.628851
  H      -3.424010      0.018490     -4.454353
  H      -4.153843     -1.466593     -5.064527
  H      -3.581644     -1.395509     -3.390767
  H      -3.644705     -0.708501     -0.931430
  H      -5.298842     -1.240612     -0.580791
  H      -4.659563      0.218268      0.186663
  H      -5.211639      5.249398     -0.503610
  H      -5.862017      3.934894     -1.500096
  H      -4.143520      5.581091      3.281591
  H      -5.371026      6.027327      2.085128
  H      -3.682464      5.805347      1.587429
  H      -7.757481      3.634479      1.711731
  H      -7.329909      4.770484      3.000859
  H      -8.259106      3.313549      3.381019
  H      -5.490752      0.839564      2.874629
  H      -6.672679      1.302860      1.641720
  H      -7.193093      1.039425      3.314761
  H      -5.605464      4.104661      4.781043
  H      -4.861444      2.498539      4.738035
  H      -6.576969      2.668698      5.133652
  H      -2.923514      2.649619      3.279814
  H      -2.351606      3.102611      1.662140
  H      -3.277630      1.608310      1.892571
  H      -0.616716      7.033055     -1.114652
  H       0.019743      6.980489      0.553369
  H      -1.738352      6.881028      0.269898
  H       0.899989      3.590838     -1.303162
69
Coordinates from ORCA-job goat_0_7 E -1780.873688003733
  O      -1.556040      1.007459     -2.218341
  C      -1.956611      2.371700     -2.161637
  H      -1.945663      2.807162     -3.170156
  C      -3.365118      2.506100     -1.591132
  H      -3.394398      2.001281     -0.622189
  O      -4.277688      1.915942     -2.498297
  Si     -5.347116      0.676252     -2.142629
  C      -7.023638      1.349935     -1.658524
  C      -5.477765     -0.321315     -3.743682
  C      -6.395371     -1.531350     -3.511058
  C      -6.069490      0.552908     -4.859424
  C      -4.091365     -0.816009     -4.177607
  C      -4.668615     -0.349783     -0.731568
  C      -3.707746      3.979706     -1.375893
  H      -3.696828      4.501418     -2.344141
  C      -5.072971      4.184007     -0.748527
  O      -5.286714      3.367268      0.383043
  Si     -4.770981      3.623765      1.948268
  C      -4.540500      5.453518      2.268846
  C      -6.160593      2.903047      3.012832
  C      -7.471354      3.648735      2.725373
  C      -6.346643      1.414122      2.685015
  C      -5.811664      3.053754      4.500652
  C      -3.168671      2.709119      2.269991
  O      -2.736279      4.556366     -0.505719
  C      -1.441789      4.548291     -1.074432
  H      -1.461465      5.092681     -2.033229
  O      -0.563119      5.157888     -0.186626
  C      -0.714830      6.577269     -0.125708
  C      -0.958995      3.118605     -1.295692
  H      -0.887526      2.626434     -0.317605
  O       0.301550      3.120695     -1.950488
  H      -2.138902      0.561283     -2.843240
  H      -6.937072      1.931902     -0.738771
  H      -7.719107      0.525080     -1.475985
  H      -7.449349      1.988699     -2.436958
  H      -6.497979     -2.108180     -4.437980
  H      -7.398104     -1.224805     -3.198900
  H      -5.994314     -2.202407     -2.745632
  H      -6.127920     -0.019201     -5.793490
  H      -5.453072      1.437138     -5.046606
  H      -7.080053      0.890678     -4.612864
  H      -3.440472      0.019862     -4.453000
  H      -4.179341     -1.461794     -5.059355
  H      -3.598434     -1.395205     -3.390112
  H      -3.654180     -0.706314     -0.927809
  H      -5.311233     -1.219160     -0.564885
  H      -4.652829      0.234417      0.192488
  H      -5.183252      5.244167     -0.496382
  H      -5.833628      3.929438     -1.489747
  H      -4.248218      5.615472      3.310744
  H      -5.455015      6.022504      2.081087
  H      -3.748116      5.850801      1.630224
  H      -7.757145      3.563637      1.673069
  H      -7.391735      4.712458      2.968974
  H      -8.284584      3.229127      3.330416
  H      -5.438572      0.839069      2.890011
  H      -6.609816      1.264941      1.634497
  H      -7.153187      0.992132      3.297501
  H      -5.681452      4.103645      4.780803
  H      -4.892481      2.519493      4.758170
  H      -6.618461      2.642952      5.119957
  H      -2.932718      2.722203      3.338339
  H      -2.345306      3.181822      1.730394
  H      -3.233719      1.665025      1.950999
  H      -0.592824      7.016449     -1.121452
  H       0.067046      6.948246      0.535939
  H      -1.693946      6.849049      0.276923
  H       0.920323      3.584015     -1.373123
69
Coordinates from ORCA-job goat_0_7 E -1780.873697187717
  O      -1.544631      1.044133     -2.254292
  C      -1.947958      2.406314     -2.190670
  H      -1.948412      2.844355     -3.198024
  C      -3.351336      2.533077     -1.606705
  H      -3.368292      2.029440     -0.636965
  O      -4.271660      1.940273     -2.504024
  Si     -5.356362      0.721088     -2.122091
  C      -7.033316      1.428178     -1.690172
  C      -5.472841     -0.329361     -3.689720
  C      -6.393846     -1.530273     -3.426274
  C      -6.051819      0.507339     -4.839213
  C      -4.083729     -0.839228     -4.094200
  C      -4.708311     -0.262796     -0.667294
  C      -3.700776      4.002241     -1.385672
  H      -3.696806      4.529180     -2.351170
  C      -5.064083      4.192140     -0.750344
  O      -5.276533      3.348552      0.362527
  Si     -4.761730      3.572651      1.933331
  C      -4.498061      5.392411      2.282800
  C      -6.168615      2.864913      2.982600
  C      -7.462092      3.641615      2.702081
  C      -6.384820      1.386379      2.630772
  C      -5.821389      2.984840      4.473127
  C      -3.180838      2.618923      2.246122
  O      -2.727223      4.577183     -0.517899
  C      -1.436189      4.580391     -1.096266
  H      -1.467255      5.132866     -2.050255
  O      -0.555494      5.188014     -0.210276
  C      -0.719629      6.604331     -0.130763
  C      -0.945784      3.155839     -1.333180
  H      -0.859357      2.658133     -0.359437
  O       0.305209      3.172916     -2.004017
  H      -2.132418      0.599179     -2.875607
  H      -6.960246      2.029525     -0.781351
  H      -7.743651      0.616692     -1.506526
  H      -7.431707      2.054473     -2.492355
  H      -6.489366     -2.135045     -4.335691
  H      -7.398646     -1.213636     -3.132498
  H      -5.999597     -2.178140     -2.638128
  H      -6.098766     -0.094270     -5.754939
  H      -5.433810      1.385572     -5.047402
  H      -7.065524      0.851163     -4.615956
  H      -3.428250     -0.012909     -4.386875
  H      -4.164097     -1.510022     -4.957572
  H      -3.600803     -1.398176     -3.286123
  H      -3.697624     -0.639537     -0.841670
  H      -5.365073     -1.116411     -0.477354
  H      -4.694265      0.352309      0.236377
  H      -5.175581      5.246528     -0.475976
  H      -5.825758      3.953778     -1.495624
  H      -4.219367      5.533025      3.331204
  H      -5.398658      5.981306      2.089945
  H      -3.688406      5.783517      1.662510
  H      -7.742549      3.581956      1.646742
  H      -7.363492      4.698478      2.966571
  H      -8.287394      3.226378      3.293260
  H      -5.490289      0.788712      2.829880
  H      -6.646717      1.259849      1.576768
  H      -7.202933      0.972158      3.232677
  H      -5.669455      4.026825      4.770349
  H      -4.915230      2.426527      4.724964
  H      -6.638942      2.582059      5.083065
  H      -2.942957      2.616334      3.314082
  H      -2.348380      3.076358      1.709618
  H      -3.272482      1.579858      1.917387
  H      -0.618265      7.055695     -1.123149
  H       0.068727      6.975645      0.522430
  H      -1.694841      6.860586      0.290545
  H       0.925630      3.643215     -1.434055
69
Coordinates from ORCA-job goat_0_7 E -1780.873792352445
  O      -1.542376      1.022416     -2.235717
  C      -1.945522      2.385024     -2.175973
  H      -1.940320      2.822054     -3.183822
  C      -3.352474      2.512973     -1.599753
  H      -3.374868      2.008148     -0.630749
  O      -4.267757      1.922220     -2.504592
  Si     -5.348340      0.694325     -2.137172
  C      -7.022726      1.391525     -1.679811
  C      -5.478566     -0.324612     -3.724505
  C      -6.383327     -1.540301     -3.472187
  C      -6.083981      0.530019     -4.847118
  C      -4.091156     -0.811489     -4.162065
  C      -4.687209     -0.320069     -0.709557
  C      -3.702118      3.982708     -1.378418
  H      -3.694981      4.509638     -2.343920
  C      -5.066841      4.173979     -0.746714
  O      -5.274006      3.342137      0.375969
  Si     -4.764365      3.597430      1.943905
  C      -4.521439      5.425476      2.263465
  C      -6.164104      2.892838      3.004685
  C      -7.465657      3.650693      2.709274
  C      -6.364269      1.405838      2.679271
  C      -5.819366      3.042960      4.493154
  C      -3.173436      2.665914      2.272054
  O      -2.730843      4.557793     -0.507635
  C      -1.437289      4.560169     -1.081099
  H      -1.465096      5.111543     -2.035829
  O      -0.559010      5.168366     -0.192935
  C      -0.723282      6.584777     -0.112743
  C      -0.946798      3.135177     -1.314979
  H      -0.865473      2.638209     -0.340185
  O       0.307748      3.150575     -1.979519
  H      -2.127677      0.576847     -2.858810
  H      -6.946710      1.966324     -0.754324
  H      -7.733915      0.575898     -1.518054
  H      -7.421991      2.041025     -2.463058
  H      -6.488014     -2.125956     -4.393303
  H      -7.386383     -1.240493     -3.155086
  H      -5.969443     -2.201444     -2.705235
  H      -6.138012     -0.052301     -5.775059
  H      -5.478800      1.419616     -5.045489
  H      -7.098174      0.857453     -4.601746
  H      -3.450389      0.027632     -4.450895
  H      -4.179095     -1.466972     -5.036634
  H      -3.587913     -1.380197     -3.373251
  H      -3.679204     -0.694788     -0.903606
  H      -5.343704     -1.176430     -0.530546
  H      -4.662526      0.275533      0.206655
  H      -5.183217      5.230691     -0.483451
  H      -5.827398      3.923427     -1.489314
  H      -4.251920      5.586642      3.311452
  H      -5.427280      6.000900      2.054552
  H      -3.711733      5.815121      1.642078
  H      -7.743515      3.570534      1.654417
  H      -7.379388      4.712957      2.956579
  H      -8.287688      3.236030      3.305691
  H      -5.463735      0.821095      2.889944
  H      -6.623618      1.257433      1.627348
  H      -7.178893      0.993818      3.287678
  H      -5.678690      4.091670      4.772190
  H      -4.907532      2.498611      4.755517
  H      -6.633305      2.642295      5.109615
  H      -2.931752      2.688178      3.339006
  H      -2.346859      3.119540      1.722440
  H      -3.257094      1.619349      1.965819
  H      -0.623478      7.036629     -1.105274
  H       0.065986      6.956373      0.539604
  H      -1.698120      6.840530      0.310026
  H       0.925268      3.623587     -1.408297
69
Coordinates from ORCA-job goat_0_7 E -1780.873819004337
  O      -1.567318      1.021236     -2.253185
  C      -1.962009      2.386245     -2.184431
  H      -1.957333      2.828779     -3.189973
  C      -3.366245      2.519093     -1.602885
  H      -3.386789      2.010481     -0.635778
  O      -4.284497      1.932509     -2.507900
  Si     -5.359589      0.698097     -2.143228
  C      -7.044652      1.384279     -1.708136
  C      -5.467424     -0.330291     -3.726292
  C      -6.353222     -1.559495     -3.471168
  C      -6.082699      0.509033     -4.855506
  C      -4.070505     -0.797449     -4.155997
  C      -4.702467     -0.306373     -0.706855
  C      -3.706993      3.990708     -1.374028
  H      -3.698826      4.522248     -2.336975
  C      -5.068330      4.189338     -0.737338
  O      -5.276550      3.352555      0.381487
  Si     -4.765167      3.605472      1.949485
  C      -4.524277      5.432995      2.273670
  C      -6.161458      2.897968      3.012923
  C      -7.462062      3.662346      2.728936
  C      -6.368514      1.413660      2.678453
  C      -5.808529      3.036501      4.500758
  C      -3.172964      2.672877      2.268125
  O      -2.729047      4.555685     -0.503268
  C      -1.437166      4.553094     -1.081248
  H      -1.465596      5.108404     -2.033655
  O      -0.551501      5.152241     -0.194307
  C      -0.706439      6.569534     -0.106680
  C      -0.956214      3.126146     -1.322823
  H      -0.875910      2.624111     -0.350244
  O       0.297341      3.135739     -1.989840
  H      -2.157614      0.583182     -2.877048
  H      -6.989367      1.947357     -0.774268
  H      -7.755943      0.563925     -1.571233
  H      -7.430460      2.041959     -2.491477
  H      -6.447250     -2.149502     -4.390894
  H      -7.361603     -1.274933     -3.156282
  H      -5.929558     -2.211683     -2.701805
  H      -6.121676     -0.077846     -5.781522
  H      -5.492652      1.408774     -5.054825
  H      -7.103914      0.819217     -4.616558
  H      -3.441834      0.050269     -4.446351
  H      -4.144585     -1.458781     -5.027693
  H      -3.561438     -1.354600     -3.362533
  H      -3.693154     -0.680163     -0.897344
  H      -5.358092     -1.163140     -0.526018
  H      -4.681658      0.293550      0.206591
  H      -5.176106      5.245345     -0.467805
  H      -5.833274      3.948516     -1.478619
  H      -4.263444      5.591874      3.324342
  H      -5.429615      6.007432      2.059279
  H      -3.710683      5.825368      1.659234
  H      -7.744541      3.591699      1.674465
  H      -7.371611      4.722405      2.984615
  H      -8.283168      3.245344      3.325261
  H      -5.469013      0.824133      2.880295
  H      -6.633877      1.273192      1.626806
  H      -7.181592      1.000305      3.288279
  H      -5.662910      4.082727      4.786837
  H      -4.897103      2.487114      4.754440
  H      -6.620701      2.633896      5.118597
  H      -2.921149      2.698698      3.332662
  H      -2.350301      3.122372      1.708242
  H      -3.262805      1.625406      1.966518
  H      -0.614926      7.024883     -1.098550
  H       0.092329      6.933932      0.538422
  H      -1.675099      6.829338      0.327851
  H       0.918180      3.606284     -1.420046
69
Coordinates from ORCA-job goat_0_7 E -1780.873853970977
  O      -1.556916      1.027449     -2.261486
  C      -1.954458      2.391450     -2.189957
  H      -1.950550      2.836399     -3.194505
  C      -3.358881      2.520013     -1.607823
  H      -3.377704      2.009937     -0.641448
  O      -4.276867      1.933348     -2.512953
  Si     -5.357795      0.704972     -2.143157
  C      -7.039991      1.404459     -1.718355
  C      -5.469451     -0.332152     -3.720535
  C      -6.342941     -1.567537     -3.452981
  C      -6.100464      0.496785     -4.848801
  C      -4.072584     -0.790470     -4.159675
  C      -4.707122     -0.296586     -0.702097
  C      -3.703542      3.989903     -1.374737
  H      -3.696357      4.524852     -2.335805
  C      -5.065657      4.182065     -0.737391
  O      -5.271506      3.338685      0.377353
  Si     -4.764078      3.594665      1.946553
  C      -4.519480      5.422327      2.266477
  C      -6.163776      2.895784      3.011062
  C      -7.460701      3.665366      2.723896
  C      -6.377685      1.411382      2.681133
  C      -5.811236      3.036570      4.498742
  C      -3.175848      2.656553      2.267892
  O      -2.726794      4.554271     -0.501967
  C      -1.434912      4.556597     -1.080412
  H      -1.465469      5.115074     -2.030943
  O      -0.550054      5.154543     -0.192239
  C      -0.709809      6.570715     -0.096323
  C      -0.950345      3.131743     -1.326890
  H      -0.868666      2.626857     -0.355736
  O       0.303074      3.146518     -1.993911
  H      -2.146579      0.589949     -2.886329
  H      -6.990781      1.956953     -0.777835
  H      -7.761645      0.590250     -1.600002
  H      -7.408628      2.074479     -2.499486
  H      -6.442651     -2.159998     -4.370615
  H      -7.350067     -1.290421     -3.127479
  H      -5.905345     -2.214918     -2.687466
  H      -6.139023     -0.093503     -5.772709
  H      -5.521172      1.402056     -5.055021
  H      -7.123386      0.797031     -4.604673
  H      -3.454488      0.060624     -4.462338
  H      -4.148769     -1.458725     -5.025924
  H      -3.551408     -1.338031     -3.367279
  H      -3.703524     -0.683705     -0.896647
  H      -5.372256     -1.144177     -0.512934
  H      -4.674240      0.308197      0.207664
  H      -5.176258      5.236364     -0.462615
  H      -5.830141      3.943295     -1.479902
  H      -4.273457      5.583804      3.320334
  H      -5.420301      5.998349      2.037573
  H      -3.696462      5.810548      1.662162
  H      -7.741375      3.595002      1.668875
  H      -7.366525      4.725238      2.979004
  H      -8.284907      3.252308      3.318746
  H      -5.481226      0.818021      2.885149
  H      -6.643403      1.268676      1.630003
  H      -7.193041      1.003782      3.291833
  H      -5.661081      4.082729      4.782650
  H      -4.902547      2.483491      4.754315
  H      -6.625650      2.639046      5.117004
  H      -2.917096      2.691692      3.330467
  H      -2.353881      3.094615      1.697847
  H      -3.275224      1.606722      1.977495
  H      -0.629073      7.031373     -1.086705
  H       0.093286      6.935255      0.543324
  H      -1.675588      6.824474      0.348078
  H       0.921316      3.622228     -1.425583
69
Coordinates from ORCA-job goat_0_7 E -1780.873870808245
  O      -1.551455      1.031910     -2.269898
  C      -1.951043      2.395017     -2.195029
  H      -1.948569      2.842286     -3.198577
  C      -3.354823      2.520548     -1.611023
  H      -3.371750      2.009811     -0.644869
  O      -4.273347      1.933558     -2.514901
  Si     -5.359406      0.710413     -2.142383
  C      -7.039687      1.421380     -1.730367
  C      -5.469211     -0.334241     -3.715143
  C      -6.332312     -1.575216     -3.440421
  C      -6.110165      0.486138     -4.844133
  C      -4.070548     -0.784294     -4.157235
  C      -4.717723     -0.288323     -0.695929
  C      -3.701812      3.989482     -1.375779
  H      -3.696806      4.525738     -2.336142
  C      -5.063685      4.177647     -0.736599
  O      -5.267617      3.329883      0.375405
  Si     -4.762794      3.587662      1.945630
  C      -4.516518      5.415356      2.262838
  C      -6.164432      2.893492      3.010308
  C      -7.458468      3.668301      2.723980
  C      -6.384462      1.410078      2.679689
  C      -5.810764      3.031400      4.497919
  C      -3.176790      2.646826      2.268366
  O      -2.725426      4.555187     -0.503331
  C      -1.433876      4.559079     -1.081951
  H      -1.464888      5.119350     -2.031497
  O      -0.548751      5.155646     -0.193214
  C      -0.711175      6.570892     -0.091032
  C      -0.947696      3.135226     -1.331139
  H      -0.865315      2.628667     -0.360851
  O       0.305554      3.152764     -1.998036
  H      -2.141468      0.594995     -2.894866
  H      -6.998864      1.962863     -0.783007
  H      -7.771713      0.613695     -1.632703
  H      -7.389655      2.104203     -2.508996
  H      -6.435779     -2.168503     -4.357078
  H      -7.338662     -1.305129     -3.106537
  H      -5.883737     -2.219258     -2.678552
  H      -6.144312     -0.106094     -5.766940
  H      -5.540351      1.396805     -5.053144
  H      -7.135547      0.776668     -4.598827
  H      -3.460089      0.069903     -4.466425
  H      -4.144669     -1.457532     -5.019774
  H      -3.542755     -1.324460     -3.364080
  H      -3.718588     -0.686940     -0.890460
  H      -5.391190     -1.128036     -0.501288
  H      -4.676676      0.320412      0.210715
  H      -5.175347      5.230835     -0.458224
  H      -5.828685      3.940941     -1.479250
  H      -4.282404      5.579086      3.319019
  H      -5.413570      5.992542      2.022310
  H      -3.686204      5.800672      1.666757
  H      -7.739154      3.600616      1.668802
  H      -7.360387      4.727365      2.980869
  H      -8.284438      3.257706      3.318038
  H      -5.490628      0.812787      2.883546
  H      -6.651058      1.268807      1.628602
  H      -7.201452      1.005580      3.290229
  H      -5.657167      4.076596      4.783364
  H      -4.903766      2.474956      4.752217
  H      -6.626027      2.635622      5.116139
  H      -2.910874      2.689734      3.328836
  H      -2.356847      3.076787      1.689421
  H      -3.282183      1.595069      1.987156
  H      -0.637677      7.035697     -1.080054
  H       0.095129      6.934950      0.544799
  H      -1.674642      6.821229      0.360169
  H       0.922041      3.632776     -1.431476
69
Coordinates from ORCA-job goat_0_7 E -1780.873887692883
  O      -1.550712      1.032764     -2.272867
  C      -1.950543      2.395678     -2.196296
  H      -1.948538      2.843994     -3.199372
  C      -3.353896      2.520546     -1.611408
  H      -3.370366      2.009585     -0.645322
  O      -4.272828      1.933504     -2.514437
  Si     -5.361157      0.712578     -2.142104
  C      -7.040811      1.428659     -1.737102
  C      -5.468453     -0.335345     -3.713078
  C      -6.326101     -1.579450     -3.435767
  C      -6.113894      0.480975     -4.842478
  C      -4.068329     -0.780601     -4.155547
  C      -4.724698     -0.285147     -0.693064
  C      -3.701040      3.989494     -1.376071
  H      -3.697095      4.525446     -2.336606
  C      -5.062634      4.177451     -0.736095
  O      -5.266750      3.328738      0.375151
  Si     -4.762960      3.586568      1.945972
  C      -4.517692      5.414332      2.263165
  C      -6.164586      2.891868      3.010226
  C      -7.457868      3.669041      2.726909
  C      -6.386864      1.409416      2.676540
  C      -5.809331      3.025780      4.497804
  C      -3.176614      2.646450      2.268343
  O      -2.724536      4.556406     -0.504482
  C      -1.433228      4.559315     -1.082848
  H      -1.463351      5.119365     -2.032581
  O      -0.547647      5.155665     -0.194162
  C      -0.709567      6.570906     -0.092134
  C      -0.947347      3.135217     -1.331594
  H      -0.865696      2.628575     -0.361314
  O       0.306369      3.152483     -1.997570
  H      -2.141426      0.596242     -2.897471
  H      -7.005456      1.963065     -0.785504
  H      -7.778751      0.624912     -1.652546
  H      -7.379748      2.119540     -2.513565
  H      -6.431725     -2.172560     -4.352245
  H      -7.331918     -1.313303     -3.096993
  H      -5.871755     -2.222032     -2.676104
  H      -6.145091     -0.111811     -5.765004
  H      -5.549136      1.394658     -5.052108
  H      -7.140647      0.766242     -4.596755
  H      -3.461763      0.075214     -4.467820
  H      -4.140441     -1.456835     -5.015875
  H      -3.537683     -1.316114     -3.361135
  H      -3.728067     -0.690411     -0.886945
  H      -5.402853     -1.120485     -0.495887
  H      -4.679075      0.325538      0.212014
  H      -5.173444      5.230477     -0.456770
  H      -5.828064      3.942113     -1.478670
  H      -4.288435      5.578876      3.320277
  H      -5.413444      5.991634      2.018119
  H      -3.684791      5.799309      1.670494
  H      -7.739875      3.603994      1.671928
  H      -7.357863      4.727406      2.985911
  H      -8.283713      3.258579      3.321194
  H      -5.493630      0.810562      2.878433
  H      -6.654737      1.270632      1.625491
  H      -7.203697      1.004712      3.287138
  H      -5.654456      4.070111      4.785729
  H      -4.902572      2.467883      4.749711
  H      -6.624276      2.629285      5.115940
  H      -2.906654      2.692832      3.327606
  H      -2.358693      3.074429      1.685101
  H      -3.282744      1.593766      1.990828
  H      -0.636929      7.035591     -1.081287
  H       0.097592      6.934862      0.542667
  H      -1.672414      6.822091      0.359904
  H       0.921979      3.634352     -1.431651
69
Coordinates from ORCA-job goat_0_7 E -1780.873892099027
  O      -1.551320      1.032863     -2.274847
  C      -1.950929      2.395730     -2.196720
  H      -1.949531      2.844869     -3.199405
  C      -3.353843      2.520304     -1.610852
  H      -3.369863      2.009193     -0.644837
  O      -4.273337      1.933185     -2.512967
  Si     -5.362534      0.713133     -2.142025
  C      -7.042126      1.431661     -1.741491
  C      -5.467332     -0.336349     -3.712297
  C      -6.321559     -1.582499     -3.433861
  C      -6.115253      0.477677     -4.841910
  C      -4.066040     -0.778291     -4.154407
  C      -4.729598     -0.284244     -0.691514
  C      -3.700764      3.989386     -1.376016
  H      -3.697449      4.524516     -2.337016
  C      -5.062178      4.178226     -0.735783
  O      -5.267126      3.330184      0.375674
  Si     -4.763469      3.587285      1.946803
  C      -4.518925      5.415061      2.264516
  C      -6.164843      2.891019      3.010345
  C      -7.457584      3.670470      2.731053
  C      -6.389035      1.409807      2.672467
  C      -5.807553      3.020135      4.497872
  C      -3.176266      2.648546      2.268599
  O      -2.724084      4.557280     -0.505323
  C      -1.432966      4.558955     -1.083353
  H      -1.461919      5.118608     -2.033352
  O      -0.547162      5.155380     -0.194524
  C      -0.708138      6.570796     -0.094168
  C      -0.947556      3.134468     -1.331437
  H      -0.866441      2.627914     -0.361142
  O       0.306442      3.151322     -1.996936
  H      -2.143285      0.596647     -2.898496
  H      -7.010887      1.960587     -0.786682
  H      -7.784438      0.630999     -1.667025
  H      -7.372986      2.128796     -2.515950
  H      -6.428921     -2.175111     -4.350400
  H      -7.326861     -1.318948     -3.091417
  H      -5.863442     -2.224334     -2.675820
  H      -6.144379     -0.115192     -5.764419
  H      -5.553724      1.393369     -5.051485
  H      -7.142877      0.759561     -4.595879
  H      -3.461756      0.078549     -4.468231
  H      -4.136462     -1.456465     -5.013305
  H      -3.534033     -1.310701     -3.358814
  H      -3.734914     -0.694725     -0.884587
  H      -5.411301     -1.116274     -0.492509
  H      -4.680444      0.327810      0.212443
  H      -5.171774      5.231500     -0.456808
  H      -5.827855      3.943424     -1.478185
  H      -4.291025      5.580041      3.321846
  H      -5.414027      5.992733      2.017993
  H      -3.685204      5.799815      1.672771
  H      -7.741434      3.608441      1.676391
  H      -7.355661      4.728055      2.992468
  H      -8.282897      3.259642      3.325797
  H      -5.496001      0.809649      2.871407
  H      -6.658580      1.274356      1.621437
  H      -7.205214      1.004110      3.283271
  H      -5.651038      4.063484      4.788537
  H      -4.901083      2.460534      4.746959
  H      -6.622176      2.622956      5.115953
  H      -2.903708      2.696975      3.327072
  H      -2.360097      3.076617      1.682952
  H      -3.281220      1.595268      1.992894
  H      -0.633428      7.034494     -1.083633
  H       0.098255      6.934750      0.541608
  H      -1.671539      6.823463      0.355916
  H       0.921541      3.634144     -1.431257
69
Coordinates from ORCA-job goat_0_7 E -1780.873881079865
  O      -1.552046      1.032857     -2.275131
  C      -1.951243      2.395808     -2.196555
  H      -1.950128      2.845150     -3.199141
  C      -3.353966      2.520518     -1.610236
  H      -3.369682      2.009452     -0.644205
  O      -4.273765      1.933246     -2.511940
  Si     -5.362567      0.712927     -2.141793
  C      -7.042365      1.431297     -1.741646
  C      -5.466995     -0.336600     -3.712085
  C      -6.320114     -1.583371     -3.432982
  C      -6.116122      0.476845     -4.841408
  C      -4.065550     -0.777441     -4.154752
  C      -4.729885     -0.284469     -0.691190
  C      -3.700660      3.989671     -1.375800
  H      -3.697158      4.524404     -2.337030
  C      -5.062154      4.179202     -0.735940
  O      -5.267827      3.331808      0.375774
  Si     -4.763883      3.587848      1.946941
  C      -4.518978      5.415493      2.265388
  C      -6.165328      2.890736      3.009832
  C      -7.457905      3.670872      2.731853
  C      -6.389910      1.410005      2.670269
  C      -5.807493      3.018232      4.497388
  C      -3.176347      2.649546      2.268474
  O      -2.723875      4.557488     -0.505240
  C      -1.432762      4.558774     -1.083191
  H      -1.461299      5.118382     -2.033213
  O      -0.546918      5.155147     -0.194193
  C      -0.707195      6.570725     -0.094871
  C      -0.947591      3.134164     -1.331275
  H      -0.866450      2.627557     -0.361036
  O       0.306351      3.150937     -1.996942
  H      -2.144986      0.596748     -2.897937
  H      -7.011939      1.958751     -0.786001
  H      -7.785842      0.631528     -1.669747
  H      -7.371323      2.130141     -2.515429
  H      -6.428180     -2.175896     -4.349480
  H      -7.325167     -1.320580     -3.089208
  H      -5.860723     -2.224904     -2.675450
  H      -6.145256     -0.116075     -5.763876
  H      -5.555512      1.393042     -5.051275
  H      -7.143831      0.757887     -4.594724
  H      -3.462041      0.079787     -4.469024
  H      -4.135873     -1.455940     -5.013403
  H      -3.532795     -1.309203     -3.359209
  H      -3.736047     -0.696955     -0.884361
  H      -5.412848     -1.115214     -0.491084
  H      -4.679099      0.328156      0.212292
  H      -5.171250      5.232682     -0.457446
  H      -5.827682      3.944336     -1.478451
  H      -4.290136      5.580271      3.322547
  H      -5.413909      5.993717      2.019575
  H      -3.685490      5.799943      1.673076
  H      -7.742149      3.610034      1.677217
  H      -7.355571      4.728166      2.994282
  H      -8.283099      3.259555      3.326419
  H      -5.496785      0.809575      2.868041
  H      -6.659926      1.275872      1.619200
  H      -7.205788      1.003707      3.281074
  H      -5.649978      4.061246      4.788776
  H      -4.901403      2.457719      4.745759
  H      -6.622317      2.621319      5.115371
  H      -2.903502      2.698293      3.326857
  H      -2.360631      3.078346      1.682684
  H      -3.280244      1.596159      1.992823
  H      -0.630256      7.033841     -1.084434
  H       0.098126      6.934529      0.542350
  H      -1.671347      6.824134      0.353201
  H       0.921445      3.633685     -1.431171
69
Coordinates from ORCA-job goat_0_7 E -1780.873880088408
  O      -1.552407      1.032991     -2.275259
  C      -1.951312      2.396005     -2.196483
  H      -1.950410      2.845442     -3.199033
  C      -3.353939      2.520810     -1.609836
  H      -3.369313      2.009801     -0.643782
  O      -4.273924      1.933364     -2.511324
  Si     -5.362204      0.712658     -2.141646
  C      -7.042192      1.430623     -1.741131
  C      -5.466993     -0.336719     -3.711978
  C      -6.319430     -1.583802     -3.432014
  C      -6.117242      0.476312     -4.840935
  C      -4.065719     -0.777021     -4.155638
  C      -4.729163     -0.284848     -0.691171
  C      -3.700533      3.989952     -1.375497
  H      -3.696652      4.524642     -2.336758
  C      -5.062162      4.179797     -0.736082
  O      -5.268231      3.332884      0.375864
  Si     -4.764116      3.588167      1.946986
  C      -4.518687      5.415720      2.265839
  C      -6.165813      2.890600      3.009237
  C      -7.458243      3.671070      2.731600
  C      -6.390502      1.410136      2.668766
  C      -5.807984      3.017364      4.496888
  C      -3.176376      2.650221      2.268767
  O      -2.723662      4.557299     -0.504763
  C      -1.432540      4.558755     -1.082874
  H      -1.461180      5.118584     -2.032745
  O      -0.546676      5.154930     -0.193749
  C      -0.706537      6.570611     -0.094735
  C      -0.947397      3.134220     -1.331437
  H      -0.865893      2.627392     -0.361338
  O       0.306329      3.151245     -1.997552
  H      -2.146239      0.596937     -2.897269
  H      -7.011808      1.957381     -0.785094
  H      -7.786254      0.631341     -1.670265
  H      -7.370371      2.130297     -2.514532
  H      -6.427830     -2.176510     -4.348358
  H      -7.324359     -1.321374     -3.087607
  H      -5.859292     -2.225010     -2.674662
  H      -6.146941     -0.116816     -5.763255
  H      -5.557059      1.392638     -5.051416
  H      -7.144855      0.757072     -4.593527
  H      -3.462676      0.080468     -4.470105
  H      -4.136446     -1.455350     -5.014402
  H      -3.532247     -1.308899     -3.360633
  H      -3.736136     -0.699024     -0.884868
  H      -5.413230     -1.114404     -0.489826
  H      -4.676858      0.328291      0.211869
  H      -5.171270      5.233398     -0.458000
  H      -5.827418      3.944556     -1.478758
  H      -4.288677      5.580379      3.322760
  H      -5.413547      5.994405      2.020866
  H      -3.685510      5.799712      1.672757
  H      -7.742288      3.610966      1.676856
  H      -7.355921      4.728186      2.994724
  H      -8.283588      3.259274      3.325633
  H      -5.497333      0.809577      2.865989
  H      -6.660544      1.276765      1.617592
  H      -7.206345      1.003475      3.279379
  H      -5.649585      4.060189      4.788493
  H      -4.902385      2.456039      4.745213
  H      -6.623235      2.621011      5.114677
  H      -2.903875      2.699524      3.327226
  H      -2.360782      3.079517      1.683130
  H      -3.279367      1.596688      1.993414
  H      -0.627696      7.033619     -1.084191
  H       0.097764      6.934112      0.543943
  H      -1.671395      6.824216      0.351711
  H       0.921542      3.633757     -1.431688
69
Coordinates from ORCA-job goat_0_7 E -1780.873880128779
  O      -1.552610      1.033288     -2.275291
  C      -1.951358      2.396348     -2.196600
  H      -1.950441      2.845746     -3.199180
  C      -3.353961      2.521313     -1.609881
  H      -3.369219      2.010388     -0.643786
  O      -4.273990      1.933776     -2.511297
  Si     -5.362200      0.713081     -2.141511
  C      -7.042333      1.431207     -1.741600
  C      -5.466942     -0.336872     -3.711411
  C      -6.318589     -1.584295     -3.430432
  C      -6.118090      0.475205     -4.840520
  C      -4.065663     -0.776646     -4.155518
  C      -4.729370     -0.283998     -0.690573
  C      -3.700450      3.990459     -1.375448
  H      -3.696316      4.525336     -2.336601
  C      -5.062108      4.180330     -0.736171
  O      -5.268329      3.333252      0.375630
  Si     -4.764103      3.587856      1.946743
  C      -4.518120      5.415263      2.266136
  C      -6.165988      2.890186      3.008641
  C      -7.458162      3.671186      2.731317
  C      -6.391125      1.409962      2.667475
  C      -5.808117      3.016188      4.496353
  C      -3.176417      2.649780      2.268534
  O      -2.723486      4.557370     -0.504520
  C      -1.432376      4.559022     -1.082833
  H      -1.461299      5.119033     -2.032584
  O      -0.546444      5.154992     -0.193730
  C      -0.706180      6.570702     -0.094485
  C      -0.947299      3.134547     -1.331747
  H      -0.865594      2.627578     -0.361721
  O       0.306306      3.151634     -1.998098
  H      -2.146893      0.597233     -2.896877
  H      -7.012217      1.957796     -0.785453
  H      -7.786758      0.632226     -1.671327
  H      -7.369729      2.131150     -2.515096
  H      -6.426732     -2.177617     -4.346422
  H      -7.323631     -1.322251     -3.086085
  H      -5.857935     -2.224801     -2.672809
  H      -6.147876     -0.118460     -5.762500
  H      -5.558424      1.391679     -5.051754
  H      -7.145763      0.755568     -4.592926
  H      -3.463181      0.081079     -4.470424
  H      -4.136419     -1.455161     -5.014140
  H      -3.531574     -1.308199     -3.360706
  H      -3.736917     -0.699446     -0.884432
  H      -5.414349     -1.112561     -0.488216
  H      -4.676169      0.329807      0.211950
  H      -5.171286      5.233881     -0.457950
  H      -5.827249      3.945160     -1.478997
  H      -4.287680      5.579604      3.323012
  H      -5.412857      5.994305      2.021562
  H      -3.684944      5.798988      1.672872
  H      -7.742052      3.611814      1.676485
  H      -7.355641      4.728114      2.995119
  H      -8.283725      3.259184      3.324912
  H      -5.498097      0.809041      2.864221
  H      -6.661301      1.277248      1.616247
  H      -7.207031      1.003194      3.277932
  H      -5.648966      4.058796      4.788327
  H      -4.902940      2.454104      4.744500
  H      -6.623669      2.620175      5.113970
  H      -2.904020      2.699629      3.327006
  H      -2.360854      3.078939      1.682748
  H      -3.279351      1.596120      1.993688
  H      -0.626670      7.033895     -1.083796
  H       0.097758      6.933934      0.544799
  H      -1.671285      6.824218      0.351475
  H       0.921640      3.634009     -1.432246
