69
Coordinates from ORCA-job goat_0_0 E -1780.870941349770
  O      -1.354897      0.863718     -1.523699
  C      -1.715814      2.219537     -1.728615
  H      -1.536449      2.506793     -2.774885
  C      -3.197149      2.373465     -1.436700
  H      -3.400384      1.972771     -0.437123
  O      -3.988222      1.739375     -2.407008
  Si     -4.389218      0.123121     -2.532155
  C      -4.210717     -0.723068     -0.881120
  C      -6.186229      0.140663     -3.107244
  C      -7.087109      0.567888     -1.943629
  C      -6.343285      1.143315     -4.254454
  C      -6.606113     -1.249369     -3.594239
  C      -3.285731     -0.668528     -3.807194
  C      -3.585291      3.852123     -1.451533
  H      -3.464406      4.231143     -2.477236
  C      -5.025142      4.061394     -1.032244
  O      -5.351404      3.370404      0.148853
  Si     -5.030642      3.765559      1.733648
  C      -5.078990      5.617915      1.960104
  C      -6.401978      2.879034      2.674683
  C      -6.229101      3.052105      4.186423
  C      -7.761033      3.440737      2.248206
  C      -6.353070      1.387880      2.322067
  C      -3.356900      3.143544      2.281579
  O      -2.767189      4.600963     -0.560506
  C      -1.402660      4.552259     -0.909628
  H      -1.268937      4.958312     -1.928523
  O      -0.674691      5.294512      0.006725
  C      -0.916190      6.692226     -0.068665
  C      -0.897833      3.124998     -0.831067
  H      -1.006735      2.795883      0.209432
  O       0.450015      3.026660     -1.257266
  H      -0.397125      0.805353     -1.623077
  H      -4.773419     -0.214111     -0.095150
  H      -3.160007     -0.758337     -0.590279
  H      -4.578809     -1.750395     -0.942817
  H      -8.121003      0.687011     -2.286724
  H      -6.766172      1.520300     -1.512255
  H      -7.090488     -0.178280     -1.145458
  H      -5.730260      0.869735     -5.116953
  H      -6.056326      2.148404     -3.941168
  H      -7.386315      1.177094     -4.587941
  H      -7.659815     -1.242273     -3.893297
  H      -6.493201     -2.007389     -2.814461
  H      -6.021195     -1.565016     -4.460958
  H      -3.338955     -0.131691     -4.756913
  H      -3.553250     -1.711316     -3.988602
  H      -2.254635     -0.633555     -3.453468
  H      -5.203747      5.137264     -0.928094
  H      -5.672836      3.686679     -1.825291
  H      -6.030158      6.058583      1.656071
  H      -4.279868      6.078715      1.375009
  H      -4.905949      5.873391      3.008549
  H      -5.285758      2.628439      4.538106
  H      -7.037130      2.538277      4.718557
  H      -6.260176      4.104113      4.481948
  H      -7.863001      4.496473      2.511036
  H      -8.570582      2.897393      2.747943
  H      -7.906865      3.338608      1.170862
  H      -6.472563      1.237413      1.246981
  H      -7.162880      0.850806      2.828057
  H      -5.410663      0.928631      2.631588
  H      -3.201454      2.094266      2.019572
  H      -3.247348      3.237749      3.364637
  H      -2.570975      3.737210      1.813980
  H      -0.673422      7.071392     -1.066478
  H      -0.268266      7.164005      0.665652
  H      -1.957462      6.921296      0.162389
  H       0.980410      3.602043     -0.694577
69
Coordinates from ORCA-job goat_0_0 E -1780.872262535159
  O      -1.212950      0.957101     -1.721957
  C      -1.634980      2.307661     -1.852115
  H      -1.514807      2.640585     -2.892993
  C      -3.108711      2.399640     -1.487395
  H      -3.252510      1.970940     -0.490987
  O      -3.931666      1.756338     -2.430751
  Si     -4.364741      0.144330     -2.499898
  C      -4.169804     -0.653119     -0.823772
  C      -6.178018      0.173339     -3.031198
  C      -7.038415      0.697333     -1.872549
  C      -6.347877      1.100074     -4.243600
  C      -6.641826     -1.239808     -3.406497
  C      -3.311350     -0.716518     -3.777273
  C      -3.542352      3.867306     -1.447555
  H      -3.454906      4.281722     -2.462931
  C      -4.984683      4.027543     -0.999927
  O      -5.309349      3.284943      0.155197
  Si     -5.030025      3.638015      1.758629
  C      -4.973599      5.489382      2.006982
  C      -6.499601      2.836663      2.631672
  C      -6.391340      3.025680      4.149434
  C      -7.804685      3.472057      2.132812
  C      -6.515475      1.334267      2.307443
  C      -3.429335      2.896044      2.378723
  O      -2.719709      4.612334     -0.555741
  C      -1.365923      4.626390     -0.960201
  H      -1.290688      5.068294     -1.969094
  O      -0.628002      5.372684     -0.049440
  C      -0.904353      6.770446     -0.094735
  C      -0.807406      3.211222     -0.954502
  H      -0.859618      2.838677      0.075998
  O       0.528176      3.173848     -1.435552
  H      -0.261418      0.938134     -1.882454
  H      -4.699210     -0.099079     -0.043616
  H      -3.113451     -0.710276     -0.553762
  H      -4.572667     -1.670873     -0.843282
  H      -8.082342      0.805122     -2.192569
  H      -6.693720      1.674895     -1.522390
  H      -7.022952      0.012277     -1.019847
  H      -5.752345      0.761423     -5.097580
  H      -6.047640      2.123860     -4.007018
  H      -7.398170      1.118642     -4.560462
  H      -7.705999     -1.229942     -3.673430
  H      -6.517957     -1.943913     -2.577005
  H      -6.089775     -1.629585     -4.266448
  H      -3.389057     -0.217725     -4.747909
  H      -3.603199     -1.762356     -3.907268
  H      -2.266718     -0.685108     -3.459716
  H      -5.183450      5.095220     -0.852411
  H      -5.630931      3.675597     -1.806780
  H      -5.880492      5.990148      1.658495
  H      -4.117990      5.907826      1.468978
  H      -4.843226      5.722193      3.068411
  H      -5.491514      2.553516      4.554044
  H      -7.255501      2.569896      4.648651
  H      -6.371848      4.084584      4.426540
  H      -7.855127      4.537639      2.376489
  H      -8.667937      2.984290      2.602635
  H      -7.908862      3.363718      1.049496
  H      -6.595935      1.162821      1.230825
  H      -7.374625      0.851361      2.789827
  H      -5.611039      0.833021      2.665855
  H      -3.334930      1.840097      2.110631
  H      -3.370743      2.971995      3.468986
  H      -2.580842      3.436297      1.957276
  H      -0.710743      7.168173     -1.097534
  H      -0.235569      7.248022      0.620572
  H      -1.941380      6.974700      0.182664
  H       1.064676      3.733588     -0.861158
69
Coordinates from ORCA-job goat_0_0 E -1780.872992631924
  O      -1.205693      0.969251     -1.783578
  C      -1.632772      2.323702     -1.868848
  H      -1.505001      2.692146     -2.896512
  C      -3.109870      2.397189     -1.512279
  H      -3.256970      1.943906     -0.527567
  O      -3.917829      1.759929     -2.476467
  Si     -4.366198      0.150996     -2.531121
  C      -4.176435     -0.628126     -0.842845
  C      -6.182055      0.176023     -3.063437
  C      -7.047681      0.716413     -1.914370
  C      -6.354109      1.078565     -4.295603
  C      -6.642571     -1.246814     -3.412022
  C      -3.322259     -0.739477     -3.800186
  C      -3.550888      3.863312     -1.440861
  H      -3.450246      4.309032     -2.441673
  C      -4.999558      4.012039     -1.009952
  O      -5.320388      3.263219      0.142526
  Si     -5.027726      3.636371      1.738979
  C      -4.978805      5.493404      1.959652
  C      -6.481342      2.844604      2.653569
  C      -6.361117      3.103782      4.161824
  C      -7.801937      3.441414      2.143175
  C      -6.477733      1.326944      2.401566
  C      -3.411644      2.905240      2.337322
  O      -2.741291      4.580578     -0.512468
  C      -1.381570      4.614822     -0.903356
  H      -1.299929      5.082579     -1.899042
  O      -0.659119      5.344508      0.035120
  C      -0.922161      6.748276     -0.006470
  C      -0.817459      3.200077     -0.930546
  H      -0.881338      2.793265      0.086907
  O       0.526716      3.179942     -1.393178
  H      -0.255363      0.958302     -1.952087
  H      -4.693753     -0.052194     -0.070124
  H      -3.119770     -0.700184     -0.572307
  H      -4.598548     -1.638671     -0.848289
  H      -8.093073      0.805904     -2.237361
  H      -6.713942      1.703683     -1.583823
  H      -7.024084      0.049551     -1.047108
  H      -5.746817      0.731319     -5.138688
  H      -6.070210      2.111947     -4.077307
  H      -7.402730      1.075813     -4.620665
  H      -7.707853     -1.244870     -3.677505
  H      -6.514228     -1.934126     -2.568468
  H      -6.089371     -1.652164     -4.264903
  H      -3.411494     -0.263508     -4.782038
  H      -3.619264     -1.787765     -3.902639
  H      -2.273012     -0.702885     -3.496285
  H      -5.203751      5.077480     -0.853984
  H      -5.638070      3.659220     -1.823303
  H      -5.893213      5.980536      1.609166
  H      -4.131239      5.911454      1.408058
  H      -4.845460      5.741947      3.017744
  H      -5.450157      2.662433      4.577952
  H      -7.215111      2.660545      4.690356
  H      -6.351412      4.175159      4.389429
  H      -7.860984      4.517300      2.337396
  H      -8.652385      2.965740      2.648844
  H      -7.921685      3.283243      1.066930
  H      -6.571393      1.098001      1.336533
  H      -7.321463      0.855547      2.922555
  H      -5.558528      0.858876      2.768480
  H      -3.327852      1.842713      2.090427
  H      -3.329605      3.006730      3.424392
  H      -2.569171      3.430661      1.880578
  H      -0.712885      7.147804     -1.005718
  H      -0.255904      7.215587      0.719383
  H      -1.960769      6.961963      0.260794
  H       1.056367      3.705408     -0.780716
69
Coordinates from ORCA-job goat_0_0 E -1780.873182760312
  O      -1.191213      0.992908     -1.820820
  C      -1.605704      2.352695     -1.885031
  H      -1.465596      2.738315     -2.904532
  C      -3.083323      2.429007     -1.537023
  H      -3.236600      1.970737     -0.555371
  O      -3.881229      1.789196     -2.509551
  Si     -4.349802      0.184520     -2.515138
  C      -4.077159     -0.565847     -0.822086
  C      -6.192462      0.200100     -2.954236
  C      -7.009212      0.729491     -1.765164
  C      -6.433747      1.097732     -4.177462
  C      -6.654380     -1.228493     -3.280638
  C      -3.381970     -0.743388     -3.820748
  C      -3.514744      3.896353     -1.458333
  H      -3.388300      4.361349     -2.447322
  C      -4.969362      4.051542     -1.057451
  O      -5.317268      3.267328      0.064001
  Si     -5.049024      3.610006      1.672075
  C      -5.005104      5.464098      1.931270
  C      -6.514511      2.806718      2.561400
  C      -6.415437      3.069107      4.071852
  C      -7.829995      3.398683      2.034207
  C      -6.503531      1.289618      2.312322
  C      -3.441189      2.854517      2.266992
  O      -2.715769      4.584051     -0.498818
  C      -1.350446      4.621254     -0.874988
  H      -1.256767      5.105574     -1.860935
  O      -0.639993      5.332537      0.085401
  C      -0.875286      6.742078      0.034242
  C      -0.793804      3.204253     -0.920472
  H      -0.868195      2.776229      0.087278
  O       0.554236      3.186358     -1.372821
  H      -0.242735      0.976278     -1.997726
  H      -4.540683      0.037349     -0.036029
  H      -3.009084     -0.653759     -0.605123
  H      -4.518196     -1.566901     -0.784511
  H      -8.070332      0.796598     -2.037342
  H      -6.679329      1.723014     -1.453129
  H      -6.929490      0.066566     -0.898481
  H      -5.858411      0.760369     -5.045990
  H      -6.158907      2.136249     -3.972195
  H      -7.495461      1.076903     -4.454652
  H      -7.731545     -1.237699     -3.489961
  H      -6.473842     -1.913702     -2.445515
  H      -6.141459     -1.627614     -4.160823
  H      -3.538628     -0.301382     -4.809728
  H      -3.684224     -1.793793     -3.867786
  H      -2.315193     -0.696562     -3.589561
  H      -5.164517      5.113460     -0.871471
  H      -5.592444      3.731513     -1.894997
  H      -5.915041      5.952721      1.571080
  H      -4.150068      5.896231      1.404746
  H      -4.897354      5.690876      2.996657
  H      -5.505952      2.636355      4.499883
  H      -7.272376      2.619875      4.589418
  H      -6.417145      4.140444      4.297440
  H      -7.890129      4.475651      2.220575
  H      -8.683783      2.925743      2.536006
  H      -7.940865      3.235165      0.958165
  H      -6.583000      1.053956      1.246778
  H      -7.351619      0.818294      2.825314
  H      -5.587197      0.826679      2.691310
  H      -3.370018      1.794990      2.003650
  H      -3.365976      2.939366      3.355725
  H      -2.590302      3.374724      1.820542
  H      -0.646012      7.130667     -0.964105
  H      -0.208718      7.198306      0.766069
  H      -1.912542      6.976147      0.288323
  H       1.084308      3.673908     -0.730692
69
Coordinates from ORCA-job goat_0_0 E -1780.873307459001
  O      -1.214770      1.001206     -1.882807
  C      -1.633015      2.360363     -1.914653
  H      -1.505520      2.766464     -2.927712
  C      -3.106405      2.420350     -1.548263
  H      -3.246334      1.940684     -0.575142
  O      -3.895872      1.789942     -2.534470
  Si     -4.362893      0.183921     -2.538781
  C      -4.154976     -0.548345     -0.826951
  C      -6.184914      0.169039     -3.059745
  C      -7.072090      0.655424     -1.905606
  C      -6.388751      1.080902     -4.277126
  C      -6.595029     -1.263833     -3.433870
  C      -3.337052     -0.755099     -3.792586
  C      -3.545528      3.882267     -1.434910
  H      -3.434592      4.369049     -2.415162
  C      -4.992681      4.028252     -1.007509
  O      -5.316608      3.244880      0.123467
  Si     -5.031750      3.622670      1.722227
  C      -4.981132      5.482494      1.943768
  C      -6.490237      2.852301      2.652765
  C      -6.374371      3.171656      4.151253
  C      -7.809011      3.425615      2.117543
  C      -6.487234      1.329595      2.460507
  C      -3.423204      2.862387      2.311103
  O      -2.734391      4.552289     -0.473157
  C      -1.374882      4.605700     -0.868735
  H      -1.298760      5.106550     -1.847689
  O      -0.659048      5.304760      0.094234
  C      -0.889492      6.714845      0.051410
  C      -0.812263      3.194727     -0.944366
  H      -0.869307      2.746586      0.054980
  O       0.527986      3.194851     -1.418364
  H      -0.271453      0.990431     -2.084523
  H      -4.651131      0.062723     -0.068434
  H      -3.097774     -0.632515     -0.563926
  H      -4.595949     -1.548871     -0.797543
  H      -8.119344      0.696037     -2.229757
  H      -6.786830      1.651235     -1.560715
  H      -7.016045     -0.020603     -1.048023
  H      -5.762934      0.774816     -5.120986
  H      -6.151834      2.121586     -4.040178
  H      -7.434341      1.039400     -4.605852
  H      -7.660810     -1.294642     -3.689732
  H      -6.433180     -1.960453     -2.605263
  H      -6.035058     -1.632200     -4.297730
  H      -3.473393     -0.341767     -4.796199
  H      -3.621706     -1.810242     -3.820384
  H      -2.278762     -0.684698     -3.533320
  H      -5.190901      5.088859     -0.819836
  H      -5.627576      3.701717     -1.832717
  H      -5.893710      5.961407      1.578209
  H      -4.130639      5.903708      1.403676
  H      -4.869707      5.730459      3.003160
  H      -5.457686      2.760325      4.583918
  H      -7.222085      2.737434      4.694462
  H      -6.380342      4.249756      4.336785
  H      -7.861759      4.509472      2.257228
  H      -8.656899      2.979055      2.650998
  H      -7.935008      3.216611      1.051817
  H      -6.575509      1.054241      1.405626
  H      -7.332931      0.882217      2.996743
  H      -5.570282      0.877896      2.849574
  H      -3.371029      1.796879      2.069694
  H      -3.332745      2.969996      3.396200
  H      -2.573546      3.360277      1.841550
  H      -0.673482      7.104393     -0.948489
  H      -0.210999      7.164739      0.774645
  H      -1.921684      6.950152      0.321687
  H       1.068031      3.653290     -0.764052
69
Coordinates from ORCA-job goat_0_0 E -1780.873498096088
  O      -1.182849      0.997521     -1.840673
  C      -1.611938      2.352153     -1.897798
  H      -1.480569      2.743621     -2.916198
  C      -3.089845      2.407455     -1.543933
  H      -3.235454      1.935615     -0.568104
  O      -3.875740      1.775085     -2.531189
  Si     -4.359036      0.173903     -2.536717
  C      -4.151281     -0.567961     -0.830361
  C      -6.183138      0.190767     -3.044994
  C      -7.048332      0.702924     -1.885638
  C      -6.376523      1.104021     -4.263355
  C      -6.626826     -1.234324     -3.408635
  C      -3.353672     -0.770259     -3.801443
  C      -3.541300      3.865894     -1.443232
  H      -3.436501      4.342043     -2.429387
  C      -4.990416      3.997454     -1.015246
  O      -5.305662      3.220289      0.122300
  Si     -5.028196      3.608084      1.720260
  C      -4.980639      5.468090      1.932670
  C      -6.490385      2.839631      2.644270
  C      -6.381030      3.151896      4.143949
  C      -7.805852      3.416799      2.104448
  C      -6.488731      1.317576      2.444481
  C      -3.422791      2.854153      2.323038
  O      -2.737169      4.556966     -0.490463
  C      -1.376973      4.615453     -0.881152
  H      -1.301425      5.104248     -1.866639
  O      -0.668501      5.332333      0.074379
  C      -0.917454      6.738388      0.026925
  C      -0.802434      3.208475     -0.937416
  H      -0.860390      2.775126      0.068436
  O       0.539889      3.213529     -1.405258
  H      -0.237233      0.990742     -2.032406
  H      -4.637956      0.043409     -0.065776
  H      -3.093742     -0.664311     -0.574032
  H      -4.602157     -1.564597     -0.803554
  H      -8.097197      0.769499     -2.200587
  H      -6.733975      1.693807     -1.547596
  H      -7.002491      0.028698     -1.025736
  H      -5.766763      0.780257     -5.112719
  H      -6.110985      2.138941     -4.031596
  H      -7.426097      1.088087     -4.582241
  H      -7.695925     -1.243597     -3.653354
  H      -6.471533     -1.931799     -2.579039
  H      -6.084246     -1.617147     -4.277232
  H      -3.492753     -0.351386     -4.802620
  H      -3.648757     -1.822735     -3.831236
  H      -2.293184     -0.711472     -3.548867
  H      -5.202777      5.057296     -0.838510
  H      -5.622539      3.654538     -1.836936
  H      -5.892645      5.944658      1.562834
  H      -4.128292      5.887683      1.392922
  H      -4.870971      5.721620      2.991066
  H      -5.465878      2.739347      4.578714
  H      -7.230501      2.713524      4.681721
  H      -6.389874      4.229201      4.334911
  H      -7.859429      4.500246      2.248461
  H      -8.657812      2.968783      2.630619
  H      -7.925002      3.211497      1.037025
  H      -6.569535      1.050210      1.387303
  H      -7.340045      0.868193      2.970658
  H      -5.576131      0.860673      2.838636
  H      -3.366012      1.788302      2.084478
  H      -3.339148      2.963795      3.408553
  H      -2.571152      3.354715      1.859221
  H      -0.705768      7.128593     -0.974095
  H      -0.246059      7.200626      0.749492
  H      -1.953251      6.960748      0.295192
  H       1.073819      3.688019     -0.757041
69
Coordinates from ORCA-job goat_0_0 E -1780.873537950328
  O      -1.177881      1.001532     -1.838029
  C      -1.605637      2.356603     -1.899284
  H      -1.474849      2.744740     -2.919090
  C      -3.083313      2.414140     -1.545389
  H      -3.227813      1.946331     -0.567493
  O      -3.869404      1.777982     -2.529809
  Si     -4.356200      0.177644     -2.523344
  C      -4.136550     -0.558546     -0.816512
  C      -6.183435      0.192898     -3.018808
  C      -7.042103      0.695117     -1.849932
  C      -6.386739      1.114686     -4.229532
  C      -6.626164     -1.230667     -3.389028
  C      -3.359292     -0.770609     -3.791022
  C      -3.534829      3.872925     -1.449432
  H      -3.429779      4.346032     -2.437022
  C      -4.984302      4.004820     -1.022505
  O      -5.302412      3.220298      0.109061
  Si     -5.029668      3.598272      1.710656
  C      -4.972666      5.456071      1.936056
  C      -6.500409      2.833545      2.623526
  C      -6.393108      3.128497      4.126599
  C      -7.809386      3.427975      2.085648
  C      -6.511807      1.313481      2.406316
  C      -3.432014      2.828145      2.312392
  O      -2.730865      4.566957     -0.498576
  C      -1.370247      4.624045     -0.888706
  H      -1.294962      5.110652     -1.875456
  O      -0.661764      5.343522      0.064878
  C      -0.912332      6.749150      0.018261
  C      -0.795094      3.216689     -0.942960
  H      -0.851591      2.786523      0.064460
  O       0.546623      3.220284     -1.412802
  H      -0.232901      0.992360     -2.033124
  H      -4.617458      0.055296     -0.050149
  H      -3.077226     -0.655880     -0.567338
  H      -4.588615     -1.554721     -0.783921
  H      -8.093302      0.762435     -2.157326
  H      -6.727143      1.683980     -1.506804
  H      -6.989842      0.014812     -0.994901
  H      -5.781755      0.798743     -5.085499
  H      -6.121715      2.148414     -3.991604
  H      -7.438435      1.099085     -4.542048
  H      -7.697625     -1.241116     -3.624299
  H      -6.461754     -1.934200     -2.566073
  H      -6.090194     -1.605230     -4.265440
  H      -3.514103     -0.363364     -4.794779
  H      -3.646907     -1.825677     -3.805748
  H      -2.295786     -0.701744     -3.552116
  H      -5.195883      5.063946     -0.840555
  H      -5.615764      3.667938     -1.847396
  H      -5.881327      5.939143      1.566153
  H      -4.116149      5.875685      1.402589
  H      -4.865900      5.701562      2.996798
  H      -5.481186      2.706397      4.559207
  H      -7.246199      2.688112      4.657478
  H      -6.397356      4.203780      4.329566
  H      -7.854294      4.510577      2.239741
  H      -8.667254      2.982684      2.604881
  H      -7.926787      3.233577      1.015793
  H      -6.590039      1.059952      1.345352
  H      -7.370252      0.865540      2.922494
  H      -5.605685      0.842709      2.799592
  H      -3.383761      1.763934      2.064530
  H      -3.349926      2.927416      3.399099
  H      -2.574858      3.326315      1.855234
  H      -0.703439      7.140222     -0.983286
  H      -0.239872      7.212580      0.739455
  H      -1.947992      6.970389      0.288888
  H       1.083516      3.690227     -0.763608
69
Coordinates from ORCA-job goat_0_0 E -1780.873567137354
  O      -1.169595      1.000560     -1.841334
  C      -1.597418      2.355577     -1.902191
  H      -1.465957      2.744530     -2.921655
  C      -3.075513      2.411410     -1.550184
  H      -3.220122      1.941922     -0.573161
  O      -3.858169      1.775877     -2.537733
  Si     -4.355757      0.178522     -2.522187
  C      -4.131795     -0.555631     -0.815386
  C      -6.184635      0.198786     -3.010385
  C      -7.038975      0.694377     -1.835437
  C      -6.391040      1.129106     -4.214117
  C      -6.629864     -1.221920     -3.388135
  C      -3.367994     -0.776586     -3.791506
  C      -3.529291      3.869186     -1.451843
  H      -3.424184      4.344197     -2.438518
  C      -4.979386      3.997792     -1.025514
  O      -5.295483      3.212243      0.105973
  Si     -5.031538      3.599475      1.707542
  C      -4.987144      5.457833      1.928091
  C      -6.501170      2.831501      2.619209
  C      -6.398518      3.128534      4.122011
  C      -7.810893      3.420787      2.077083
  C      -6.507893      1.311149      2.403099
  C      -3.432047      2.836081      2.312057
  O      -2.726875      4.562383     -0.499055
  C      -1.365969      4.622263     -0.888126
  H      -1.291270      5.110939     -1.874010
  O      -0.659850      5.341167      0.067096
  C      -0.913844      6.745987      0.024577
  C      -0.787912      3.216058     -0.945372
  H      -0.842484      2.784571      0.061596
  O       0.553166      3.223123     -1.416828
  H      -0.225615      0.990618     -2.040964
  H      -4.605964      0.061549     -0.047610
  H      -3.072129     -0.659886     -0.570450
  H      -4.590124     -1.548917     -0.780261
  H      -8.091141      0.764902     -2.138814
  H      -6.721677      1.680635     -1.487045
  H      -6.984842      0.008738     -0.984751
  H      -5.787721      0.819963     -5.073784
  H      -6.125876      2.161041     -3.968978
  H      -7.443346      1.115383     -4.524720
  H      -7.702822     -1.230393     -3.616679
  H      -6.460646     -1.931598     -2.571423
  H      -6.099284     -1.590044     -4.270523
  H      -3.539734     -0.384122     -4.798366
  H      -3.647986     -1.833910     -3.787969
  H      -2.301849     -0.697307     -3.567800
  H      -5.194327      5.056322     -0.844263
  H      -5.609529      3.658668     -1.850549
  H      -5.898318      5.932206      1.553097
  H      -4.131831      5.883082      1.397436
  H      -4.887372      5.706455      2.988790
  H      -5.484363      2.713555      4.556819
  H      -7.249159      2.682119      4.651862
  H      -6.411221      4.203939      4.323959
  H      -7.859724      4.503682      2.227621
  H      -8.668710      2.974716      2.595733
  H      -7.925163      3.222576      1.007544
  H      -6.581885      1.057423      1.341760
  H      -7.367288      0.861096      2.915869
  H      -5.602295      0.842306      2.799830
  H      -3.382996      1.771553      2.065787
  H      -3.348948      2.937215      3.398482
  H      -2.575950      3.334851      1.853407
  H      -0.708306      7.140335     -0.976426
  H      -0.240904      7.209435      0.745298
  H      -1.949439      6.964137      0.298136
  H       1.092745      3.681489     -0.761752
69
Coordinates from ORCA-job goat_0_0 E -1780.873579970508
  O      -1.167112      1.004246     -1.839490
  C      -1.597087      2.358390     -1.902240
  H      -1.465879      2.746430     -2.922116
  C      -3.075522      2.411254     -1.551421
  H      -3.219447      1.940680     -0.574733
  O      -3.854702      1.774203     -2.540807
  Si     -4.357825      0.178302     -2.519468
  C      -4.142991     -0.551328     -0.810004
  C      -6.183988      0.197826     -3.017176
  C      -7.045567      0.690023     -1.846036
  C      -6.384967      1.130449     -4.220031
  C      -6.625288     -1.222573     -3.400280
  C      -3.364400     -0.781663     -3.780401
  C      -3.532837      3.867885     -1.452188
  H      -3.430492      4.343287     -2.438986
  C      -4.982301      3.992089     -1.023070
  O      -5.292402      3.204466      0.108568
  Si     -5.025534      3.594289      1.709510
  C      -4.973054      5.452330      1.927652
  C      -6.497710      2.835453      2.624374
  C      -6.391410      3.131931      4.126845
  C      -7.804945      3.431607      2.083540
  C      -6.513191      1.315068      2.408293
  C      -3.428928      2.821522      2.308964
  O      -2.731643      4.563346     -0.500168
  C      -1.371086      4.626384     -0.889622
  H      -1.297803      5.114934     -1.875754
  O      -0.666589      5.347042      0.065172
  C      -0.926569      6.750541      0.024907
  C      -0.789300      3.221680     -0.946591
  H      -0.841737      2.791061      0.060877
  O       0.551178      3.232324     -1.419343
  H      -0.223934      0.994767     -2.042670
  H      -4.620412      0.067405     -0.045521
  H      -3.084873     -0.657469     -0.559350
  H      -4.603325     -1.543742     -0.776047
  H      -8.095931      0.760973     -2.155386
  H      -6.730757      1.675465     -1.493307
  H      -6.996291      0.002404     -0.996720
  H      -5.774917      0.825332     -5.076374
  H      -6.124470      2.162406     -3.970469
  H      -7.434975      1.114253     -4.538034
  H      -7.697130     -1.232294     -3.633694
  H      -6.458766     -1.933980     -2.584563
  H      -6.089798     -1.587743     -4.280925
  H      -3.542625     -0.403784     -4.791630
  H      -3.634270     -1.841557     -3.762636
  H      -2.298549     -0.690108     -3.560319
  H      -5.199853      5.049871     -0.840619
  H      -5.613376      3.651939     -1.846932
  H      -5.883006      5.928979      1.552649
  H      -4.116627      5.874851      1.396651
  H      -4.872476      5.701238      2.988180
  H      -5.478110      2.713575      4.560222
  H      -7.242660      2.688666      4.658268
  H      -6.399571      4.207369      4.328761
  H      -7.848279      4.514713      2.233639
  H      -8.664640      2.990295      2.603054
  H      -7.921098      3.233412      1.014199
  H      -6.589180      1.062216      1.346922
  H      -7.374951      0.869767      2.921138
  H      -5.610263      0.840807      2.804528
  H      -3.389812      1.756640      2.062341
  H      -3.338836      2.921864      3.394886
  H      -2.571492      3.313432      1.845679
  H      -0.725593      7.147121     -0.976143
  H      -0.253538      7.216109      0.744099
  H      -1.962191      6.964385      0.301564
  H       1.092545      3.682554     -0.760255
69
Coordinates from ORCA-job goat_0_0 E -1780.873581921254
  O      -1.167333      1.000714     -1.840442
  C      -1.596373      2.355179     -1.902903
  H      -1.465324      2.743181     -2.922804
  C      -3.074609      2.409114     -1.551389
  H      -3.218553      1.937545     -0.575208
  O      -3.854735      1.773402     -2.540905
  Si     -4.358621      0.177672     -2.522106
  C      -4.142121     -0.556066     -0.814820
  C      -6.185300      0.198445     -3.017850
  C      -7.045553      0.688522     -1.844768
  C      -6.387878      1.132975     -4.218962
  C      -6.626847     -1.221344     -3.402985
  C      -3.366050     -0.779246     -3.786084
  C      -3.530557      3.866215     -1.451127
  H      -3.428236      4.341546     -2.437968
  C      -4.979958      3.991568     -1.021489
  O      -5.290020      3.206292      0.111748
  Si     -5.027568      3.600423      1.712411
  C      -4.984339      5.458964      1.927091
  C      -6.497626      2.836059      2.625987
  C      -6.395599      3.135362      4.128190
  C      -7.806831      3.424646      2.081698
  C      -6.504592      1.315155      2.412512
  C      -3.428021      2.836266      2.314921
  O      -2.728345      4.560902     -0.499487
  C      -1.368019      4.622883     -0.889721
  H      -1.294661      5.111788     -1.875657
  O      -0.662027      5.342456      0.065005
  C      -0.922362      6.745958      0.026713
  C      -0.787365      3.217641     -0.947493
  H      -0.839337      2.786912      0.059914
  O       0.552795      3.227493     -1.421133
  H      -0.224372      0.990407     -2.044575
  H      -4.619704      0.059509     -0.047906
  H      -3.083721     -0.662165     -0.565185
  H      -4.601512     -1.549036     -0.783924
  H      -8.096134      0.761015     -2.153003
  H      -6.729754      1.672920     -1.490033
  H      -6.995962     -0.001080     -0.997119
  H      -5.778162      0.829767     -5.076224
  H      -6.128112      2.164769     -3.967929
  H      -7.438063      1.116183     -4.536292
  H      -7.698683     -1.230802     -3.636329
  H      -6.460223     -1.933948     -2.588340
  H      -6.091294     -1.585328     -4.284123
  H      -3.548039     -0.402121     -4.796904
  H      -3.632169     -1.840122     -3.767692
  H      -2.299993     -0.684366     -3.568504
  H      -5.197112      5.049757     -0.840802
  H      -5.611419      3.650276     -1.844562
  H      -5.895754      5.930745      1.549466
  H      -4.128874      5.884925      1.397430
  H      -4.887351      5.709956      2.987508
  H      -5.481350      2.721543      4.563990
  H      -7.245995      2.689575      4.658826
  H      -6.408311      4.211118      4.328293
  H      -7.856548      4.507555      2.231188
  H      -8.665290      2.978749      2.599328
  H      -7.919311      3.225247      1.012186
  H      -6.577368      1.059917      1.351531
  H      -7.364724      0.866180      2.924873
  H      -5.599712      0.846651      2.811111
  H      -3.384258      1.771149      2.069933
  H      -3.338123      2.938607      3.400657
  H      -2.572670      3.330940      1.850766
  H      -0.722602      7.143880     -0.974068
  H      -0.248517      7.210807      0.745638
  H      -1.957633      6.959589      0.304748
  H       1.095621      3.674220     -0.760884
69
Coordinates from ORCA-job goat_0_0 E -1780.873582570890
  O      -1.166994      1.000955     -1.840259
  C      -1.596332      2.355361     -1.902732
  H      -1.465223      2.743325     -2.922616
  C      -3.074549      2.409226     -1.551167
  H      -3.218665      1.937334     -0.575151
  O      -3.854917      1.773498     -2.540443
  Si     -4.358952      0.177884     -2.522319
  C      -4.142660     -0.556330     -0.815254
  C      -6.185717      0.199232     -3.017828
  C      -7.045373      0.691697     -1.845315
  C      -6.388272      1.131603     -4.220564
  C      -6.627869     -1.221108     -3.400493
  C      -3.366154     -0.778740     -3.786566
  C      -3.530460      3.866319     -1.451082
  H      -3.428062      4.341529     -2.437978
  C      -4.979944      3.991424     -1.021605
  O      -5.289437      3.206377      0.111848
  Si     -5.027256      3.600191      1.712526
  C      -4.983632      5.458767      1.926753
  C      -6.497503      2.835559      2.625602
  C      -6.395944      3.135221      4.127814
  C      -7.806749      3.423461      2.080898
  C      -6.503386      1.314543      2.412676
  C      -3.427571      2.836210      2.315024
  O      -2.728475      4.561066     -0.499384
  C      -1.368171      4.623096     -0.889526
  H      -1.294479      5.112038     -1.875377
  O      -0.662172      5.342692      0.065408
  C      -0.923405      6.746103      0.027248
  C      -0.787546      3.217770     -0.947038
  H      -0.839708      2.787052      0.060331
  O       0.552748      3.227624     -1.420379
  H      -0.224037      0.990903     -2.044403
  H      -4.620779      0.058186     -0.047807
  H      -3.084268     -0.662031     -0.565449
  H      -4.601469     -1.549613     -0.785451
  H      -8.095906      0.764785     -2.153550
  H      -6.728629      1.676311     -1.491899
  H      -6.996201      0.003142     -0.996826
  H      -5.778589      0.826764     -5.077257
  H      -6.128520      2.163912     -3.971517
  H      -7.438478      1.114096     -4.537731
  H      -7.699444     -1.230460     -3.634929
  H      -6.462423     -1.932087     -2.584199
  H      -6.091598     -1.587323     -4.280284
  H      -3.549348     -0.402884     -4.797627
  H      -3.630046     -1.840152     -3.767306
  H      -2.300177     -0.681720     -3.569494
  H      -5.197099      5.049626     -0.840911
  H      -5.611448      3.650026     -1.844601
  H      -5.894576      5.931075      1.548631
  H      -4.127689      5.884612      1.397765
  H      -4.887281      5.709652      2.987270
  H      -5.482045      2.720952      4.563961
  H      -7.246829      2.690310      4.658346
  H      -6.407789      4.211053      4.327598
  H      -7.857297      4.506193      2.231411
  H      -8.665107      2.976326      2.597613
  H      -7.918522      3.224970      1.011160
  H      -6.575823      1.058458      1.351887
  H      -7.363097      0.865296      2.925476
  H      -5.598061      0.847182      2.811569
  H      -3.383991      1.771108      2.069792
  H      -3.336599      2.938326      3.400669
  H      -2.572554      3.330655      1.849988
  H      -0.723758      7.144240     -0.973464
  H      -0.249866      7.211240      0.746274
  H      -1.958797      6.959231      0.305148
  H       1.095807      3.672271     -0.758943
