69
Coordinates from ORCA-job goat_0_127 E -1780.866704962444
  O          -1.53446827268803      2.13403894228178      0.50022036133986
  C          -1.68226591706601      1.96592037898534     -0.90458607561700
  H          -1.32631503578106      0.96137029633483     -1.14338024753514
  C          -3.15278987361973      2.05638253285517     -1.33806416884667
  H          -3.75904491598048      1.46369214205819     -0.64956009994482
  O          -3.23967820100333      1.55093806177187     -2.67325370680163
  Si         -3.82797563819250      0.02623639310516     -3.06604668807169
  C          -3.25699714742231     -1.21260633690594     -1.78509098650986
  C          -5.71400347998840      0.08586386390372     -3.16703641133374
  C          -6.31904696727676      0.41158645716163     -1.79397029387308
  C          -6.14178354453043      1.16466745468563     -4.17248755660682
  C          -6.23699375038534     -1.28038912592394     -3.63673751718028
  C          -3.06282853012997     -0.33529397411396     -4.72972393535368
  C          -3.69883811317833      3.48197262590887     -1.34568024951240
  H          -4.57341238137187      3.47445130169451     -1.99988538295547
  C          -4.18547859834422      3.97513729359911      0.01769919069352
  O          -5.27610147466318      3.15304533563073      0.39642857930208
  Si         -6.34730546721931      3.52920398869852      1.62210295762314
  C          -7.57998763282586      2.12670368728990      1.57479482691559
  C          -5.45652232225926      3.60538188031465      3.29099672585925
  C          -4.48823647378753      2.41987398062332      3.41209191510754
  C          -4.67968168907996      4.92121593447288      3.44793320541592
  C          -6.50484065202603      3.51838816207944      4.41187486529490
  C          -7.18257303321349      5.16132022053136      1.24359558147626
  O          -2.80149715851766      4.41489647522852     -1.96620651396513
  C          -1.44863465367051      4.37662928401364     -1.57368276673309
  H          -0.94338434608088      5.06301090830918     -2.26081542346770
  O          -1.25369520422751      4.79561217095587     -0.24114827388117
  C          -1.51830039284801      6.18167215998980     -0.02527967061109
  C          -0.84252276812882      2.97635960683749     -1.69168953367608
  H           0.16732782824381      3.00927058076380     -1.27678389779652
  O          -0.72958540461599      2.60916126810847     -3.05756755881309
  H          -1.43495893210661      3.08046364057971      0.67852529317775
  H          -3.65850572340965     -2.20301798649928     -2.01852973912736
  H          -3.58516273539066     -0.94810732523150     -0.77656129505043
  H          -2.16574338770809     -1.28455580962428     -1.78326437579830
  H          -7.41419216210250      0.41249680459119     -1.86060981362084
  H          -6.01173621363945      1.39632461779467     -1.43390736235631
  H          -6.03560359095871     -0.32755432428439     -1.03833196708104
  H          -7.23619775667559      1.21252803745257     -4.22828581336932
  H          -5.76779755922585      0.95160328075840     -5.17828030673151
  H          -5.77793535076165      2.15339762131052     -3.87809124541280
  H          -7.33113169968103     -1.25565075849830     -3.70833032944657
  H          -5.96957103641827     -2.07893505450768     -2.93819680418439
  H          -5.84651609906876     -1.54781662631134     -4.62315498489107
  H          -3.34186561706938      0.42143432525030     -5.46773270887602
  H          -3.38251552506903     -1.31161180926272     -5.10418499956563
  H          -1.97219075551555     -0.34432544523043     -4.64430883561520
  H          -3.40035926095347      3.93382565372646      0.77212642233650
  H          -4.49858987140193      5.01883266752241     -0.09519236157292
  H          -7.11489704466971      1.17802516587498      1.85686914126933
  H          -7.98535898834081      2.02111546266062      0.56441145662091
  H          -8.41259262402992      2.31536938587235      2.25784770129966
  H          -3.70276620863056      2.46021817457674      2.65247125762129
  H          -5.00812052818957      1.46258871575358      3.30537296696532
  H          -4.00460536498171      2.42733358354838      4.39670985478724
  H          -4.17378541615280      4.94111026360712      4.42122301060593
  H          -5.34526030638780      5.78783927348068      3.40299068739476
  H          -3.91405933915529      5.04582366763781      2.67723797511298
  H          -6.01477149730213      3.60328933752338      5.38948806766517
  H          -7.04146633885803      2.56585536268056      4.38995006990421
  H          -7.24286689026902      4.32423478428828      4.34142590010294
  H          -7.86094778980969      5.43984707372816      2.05580073270403
  H          -7.76881069424121      5.08277536226635      0.32322838062056
  H          -6.45803417827426      5.97063779816701      1.12027034410347
  H          -1.30323447200061      6.38450423313657      1.02314809838217
  H          -2.56222699500184      6.42247621275574     -0.23744622292105
  H          -0.86645512619163      6.79048729561876     -0.66036975623016
  H          -1.59686568847787      2.26703328603689     -3.32941959876515
