69
Coordinates from ORCA-job goat_0_27 E -1780.872735586242
  O          -1.50456577242129      0.56237683540864     -2.00055306099994
  C          -1.74670892316836      1.96600936273773     -1.95948327018673
  H          -1.61139259614189      2.39447542882555     -2.96154278099042
  C          -3.15370130406335      2.29102861886304     -1.48228901577466
  H          -3.31724256701917      1.81351006398656     -0.51246028369337
  O          -4.08278952417773      1.83080744166141     -2.44565149169901
  Si         -5.34214691587440      0.76593071804467     -2.15109568570357
  C          -6.91600914073260      1.70555104653776     -1.77652673458216
  C          -5.52791412931643     -0.21595151343988     -3.75568940299671
  C          -4.18193385512142     -0.83711216965055     -4.15266516855760
  C          -6.56025640953346     -1.33482341888844     -3.55090927831683
  C          -6.00400738670394      0.71003395242056     -4.88467831215279
  C          -4.91259540435569     -0.34641308118993     -0.70920923474222
  C          -3.28058334760310      3.80307293243833     -1.29994839234998
  H          -3.12706066027404      4.29821713950304     -2.27014041065615
  C          -4.63601474321769      4.22108159604931     -0.77051632113257
  O          -4.96351879664508      3.48819670336500      0.39702184546905
  Si         -5.52804536013356      4.23126913606296      1.78068628915153
  C          -7.12309815302911      5.13026438937279      1.38743521539731
  C          -5.79411851024173      2.82272380518556      3.00655772930438
  C          -4.47980067834368      2.05456163385351      3.20761159590376
  C          -6.25571706100778      3.40142539114790      4.35214299024270
  C          -6.86570144684595      1.85998653787694      2.47529073012198
  C          -4.25995741673162      5.46140769421232      2.40120113264425
  O          -2.28950458355154      4.23825048302180     -0.37196225874540
  C          -0.96697969557850      4.04827159946520     -0.84914825604870
  H          -0.84867557710670      4.57801728645464     -1.80921647659903
  O          -0.08721328842952      4.55166365417483      0.09714969583577
  C          -0.08490862381533      5.97779128140082      0.16184582809524
  C          -0.69948748183568      2.56136456157703     -1.03108877361926
  H          -0.77533220112050      2.08180900618104     -0.04620953963595
  O           0.60389530460730      2.39585722347259     -1.56894882177794
  H          -2.00647603134729      0.19497708156459     -2.73685023536482
  H          -7.14548689647139      2.42939692624855     -2.56307806546933
  H          -6.82188546357763      2.24100569410557     -0.82922555638447
  H          -7.75912691415912      1.01249488955025     -1.69600432580580
  H          -3.44893824734103     -0.06347579676764     -4.40049107853586
  H          -4.30425729903217     -1.46870825265345     -5.04084710296357
  H          -3.76987232321429     -1.46506830712681     -3.35586044848954
  H          -6.70530728193309     -1.88654935062234     -4.48753677782287
  H          -7.53385793958804     -0.93838108616914     -3.24673081686113
  H          -6.23453762949333     -2.05110883536288     -2.79101722383630
  H          -5.31006903175239      1.54131673866359     -5.04248676418188
  H          -6.99168528907519      1.12886710962745     -4.67225249273421
  H          -6.07509846681574      0.15038163621120     -5.82546724194978
  H          -4.80340116476370      0.23053613244013      0.21287433813870
  H          -3.98398676277827     -0.89657237004377     -0.88175927154968
  H          -5.71733281387802     -1.07063740563249     -0.55225122906623
  H          -4.61067983664861      5.30001886033672     -0.58025884162991
  H          -5.38692540216856      4.03299090743170     -1.54259417827295
  H          -7.54740769454452      5.58553564149132      2.28712624900046
  H          -7.86707682558595      4.45090444114562      0.96259771326338
  H          -6.94050362993027      5.93055782446564      0.66336308217831
  H          -4.11933505764666      1.62546068434716      2.26855693646015
  H          -4.63096081344496      1.23195072781721      3.91747771764578
  H          -3.69205193440765      2.69871911518218      3.60954118391288
  H          -5.50715401746657      4.07368431484074      4.78201138250902
  H          -6.42559562169725      2.59042381369113      5.07071338576129
  H          -7.19315837714176      3.95762285492595      4.25359857077321
  H          -7.82976233118463      2.36057840322964      2.34535693301463
  H          -7.01187917601157      1.03454740313430      3.18291638529888
  H          -6.57642098873085      1.42856324481185      1.51348254387069
  H          -4.62356087608320      5.96503396974657      3.30170810141781
  H          -4.06387369746398      6.22813540084823      1.64586418150036
  H          -3.31255368877003      4.97070603237897      2.63866748180359
  H           0.11905499998869      6.40493300143435     -0.82626239740762
  H           0.71057551148722      6.25958153898023      0.85106766549740
  H          -1.04080568575486      6.35697976280982      0.53224595138657
  H           0.67932098796058      1.46955194278494     -1.83124577631211
