69
Coordinates from ORCA-job goat_0_97 E -1780.867792573136
  O          -1.39147636853470      2.68784804605223     -0.39723229200674
  C          -2.01877363018658      2.52034398570342     -1.66273848251706
  H          -1.78772328765708      1.50859544798741     -2.00271841891543
  C          -3.54688975463970      2.64111749928045     -1.56620646675570
  H          -3.89325379465950      2.05701776823205     -0.71110923811657
  O          -4.08031096060092      2.13091363642380     -2.79009516359660
  Si         -5.27093858682263      0.95039430128296     -2.88612148712080
  C          -5.97994845919793      1.16410596475605     -4.59906809132722
  C          -4.49782203901140     -0.76059486941729     -2.66759725451585
  C          -3.38834498868069     -0.96241717863188     -3.70967900975211
  C          -3.90528460949605     -0.91263368569633     -1.25903509385811
  C          -5.58251802920414     -1.83046435283598     -2.86837017626091
  C          -6.55921147368455      1.27806100329824     -1.57183260224604
  C          -4.03235232557061      4.07852824698189     -1.39154601034630
  H          -5.07996158152306      4.09561843586063     -1.69964861927669
  C          -4.00874205283306      4.58230584422356      0.05363458312402
  O          -5.03442526802330      3.91149726122901      0.77215278465756
  Si         -4.78213704153742      3.22561381434671      2.27722404262580
  C          -3.69596282083609      4.35521694906272      3.30370437772896
  C          -6.50154087970235      3.04696247850131      3.03415105918889
  C          -7.41379500130665      2.24778861780453      2.09333300161925
  C          -6.39095164204916      2.30842360324616      4.37640577235016
  C          -7.11032021605012      4.43654996610738      3.26901421263424
  C          -3.94375029540694      1.56449374132589      2.07861942493659
  O          -3.38792706724256      4.98906202694328     -2.29598250737318
  C          -1.98401591378060      4.92433041881825     -2.39031538854680
  H          -1.73076890422356      5.59948206170487     -3.21401504449808
  O          -1.34022737998833      5.34077050119205     -1.20652651724807
  C          -1.46220910881525      6.73890034044660     -0.94465374359803
  C          -1.48107844478799      3.51210137732143     -2.69838761637035
  H          -0.38978506097307      3.52473069039379     -2.65312662909114
  O          -1.84827480392910      3.14168502245537     -4.01777281203633
  H          -1.20741676205256      3.63080443288447     -0.27748109039097
  H          -5.20576714373198      1.05991727348659     -5.36400356365099
  H          -6.42547328317065      2.15831042346925     -4.69677025028871
  H          -6.75781262699532      0.42174767781648     -4.79745077502811
  H          -2.60315654996269     -0.20683072832082     -3.61391809617408
  H          -3.78029010249665     -0.91361739051051     -4.72991068373389
  H          -2.92399889826405     -1.94749184606478     -3.57885224335804
  H          -3.10167953598103     -0.19523799076947     -1.07245594941154
  H          -3.48090118829239     -1.91709899641441     -1.14023740817566
  H          -4.66416947866737     -0.77973540600417     -0.48272500564683
  H          -6.02304409854995     -1.77932616994799     -3.86840583554395
  H          -6.38978204250630     -1.73064745018017     -2.13644749257081
  H          -5.14754648782967     -2.83002914802645     -2.74794749506604
  H          -6.98734163280686      2.27683857160846     -1.69592366447261
  H          -6.14562013527275      1.21031943290620     -0.56332532878420
  H          -7.37103000236725      0.54916669413987     -1.65127316328397
  H          -3.03544376041139      4.43789245193541      0.52316847937998
  H          -4.22102301288654      5.65545627923615      0.04110674897622
  H          -3.65739095297229      4.00347954757881      4.33893662273004
  H          -4.07700868494156      5.38005966034559      3.30637986772809
  H          -2.67146566273353      4.37145656900788      2.92090261557109
  H          -8.40807884907590      2.13482332976842      2.54291807502925
  H          -7.01988506727382      1.24500898754220      1.90258426693275
  H          -7.53544419570832      2.74972225112753      1.13000482064254
  H          -5.99100281765610      1.29808502308331      4.24972453929236
  H          -7.38261707942475      2.21818862904567      4.83609149645584
  H          -5.74656868062063      2.84138662625789      5.08237748948294
  H          -7.19330413289177      5.00123684449172      2.33564674260031
  H          -6.51152357855224      5.02629056173556      3.96935336763440
  H          -8.11758679744578      4.33922418628355      3.69240149996515
  H          -3.74293521292957      1.11519937955571      3.05578564126324
  H          -2.98982247078685      1.68110012120181      1.55640808068809
  H          -4.56402787542935      0.87093308027647      1.50397570679661
  H          -0.92865422685492      6.93464400043923     -0.01540919086756
  H          -2.50919834213836      7.02915110692573     -0.83351039143015
  H          -1.00789852408910      7.31301002662135     -1.75876015845535
  H          -2.75852818527430      2.80582287306673     -3.97345893832679
