69
Coordinates from ORCA-job goat_0_63 E -1780.866137457663
  O      -1.321620      2.481071      0.454730
  C      -1.597452      1.998601     -0.850247
  H      -1.338305      0.937423     -0.865677
  C      -3.089860      2.122951     -1.178966
  H      -3.671853      1.745529     -0.331984
  O      -3.335210      1.372423     -2.367162
  Si     -4.236599     -0.025090     -2.510204
  C      -4.084711     -1.002790     -0.926306
  C      -6.031874      0.438383     -2.865506
  C      -6.086359      1.431894     -4.032109
  C      -6.835706     -0.814558     -3.233541
  C      -6.650367      1.091203     -1.623579
  C      -3.479512     -0.948693     -3.939035
  C      -3.513544      3.561056     -1.445753
  H      -4.472095      3.515257     -1.966208
  C      -3.748029      4.392665     -0.184645
  O      -4.863730      3.840606      0.489235
  Si     -5.101217      4.034507      2.129975
  C      -5.575176      5.807199      2.486907
  C      -6.495698      2.837906      2.554587
  C      -6.005871      1.405621      2.306726
  C      -6.898491      2.992584      4.026861
  C      -7.717341      3.110263      1.668720
  C      -3.532081      3.600227      3.052115
  O      -2.643931      4.207196     -2.379531
  C      -1.263456      4.134230     -2.138035
  H      -0.800477      4.539035     -3.044109
  O      -0.880841      4.896393     -1.012152
  C      -1.039993      6.293218     -1.210090
  C      -0.760649      2.708422     -1.916326
  H       0.272257      2.771614     -1.567577
  O      -0.754279      2.004312     -3.138252
  H      -1.050208      3.405375      0.384543
  H      -4.471906     -0.454922     -0.065053
  H      -3.041194     -1.256885     -0.723739
  H      -4.645076     -1.937393     -1.001545
  H      -7.125978      1.707742     -4.238545
  H      -5.670231      1.007951     -4.949274
  H      -5.534440      2.346829     -3.807380
  H      -7.885900     -0.550902     -3.398395
  H      -6.806552     -1.569375     -2.443175
  H      -6.465794     -1.275559     -4.151917
  H      -6.709909      0.390991     -0.786521
  H      -7.668976      1.430408     -1.843913
  H      -6.081300      1.964009     -1.289329
  H      -2.431150     -1.175801     -3.735250
  H      -3.522536     -0.359218     -4.856576
  H      -3.996444     -1.892838     -4.124178
  H      -2.869183      4.398645      0.460989
  H      -3.957150      5.423460     -0.491413
  H      -4.810361      6.496644      2.120243
  H      -5.681925      5.982128      3.560044
  H      -6.518895      6.065285      2.003350
  H      -5.701801      1.274881      1.265052
  H      -6.807338      0.688208      2.517393
  H      -5.155192      1.151316      2.944318
  H      -7.696106      2.282423      4.270709
  H      -7.276498      3.995422      4.241522
  H      -6.065365      2.792123      4.705459
  H      -7.473185      3.002497      0.610289
  H      -8.114881      4.116370      1.825098
  H      -8.517071      2.399919      1.907905
  H      -3.050679      2.718383      2.623916
  H      -3.759371      3.391129      4.100969
  H      -2.804601      4.415353      3.037003
  H      -0.422437      6.625513     -2.049084
  H      -0.712542      6.789023     -0.300283
  H      -2.080171      6.553178     -1.412378
  H      -1.668745      1.732641     -3.309757
69
Coordinates from ORCA-job goat_0_63 E -1780.867048328795
  O      -1.216468      2.363529      0.380284
  C      -1.567718      1.956124     -0.935796
  H      -1.347457      0.887672     -1.010652
  C      -3.068329      2.141411     -1.207974
  H      -3.633935      1.758052     -0.355146
  O      -3.362331      1.412036     -2.397442
  Si     -4.253415      0.003105     -2.518483
  C      -4.023246     -0.998272     -0.957264
  C      -6.070402      0.437088     -2.798375
  C      -6.189779      1.436356     -3.957819
  C      -6.859793     -0.832884     -3.143979
  C      -6.658034      1.065730     -1.527204
  C      -3.538439     -0.886625     -3.991910
  C      -3.472595      3.596237     -1.444585
  H      -4.426107      3.570645     -1.975944
  C      -3.728244      4.411488     -0.173876
  O      -4.853821      3.843932      0.474266
  Si     -5.146919      4.063747      2.103258
  C      -5.708245      5.822959      2.399493
  C      -6.499827      2.817090      2.518283
  C      -5.937307      1.397611      2.347709
  C      -6.963913      3.011639      3.967929
  C      -7.697553      3.003027      1.576060
  C      -3.586717      3.724272      3.080149
  O      -2.587005      4.262037     -2.355460
  C      -1.203395      4.140177     -2.130943
  H      -0.738300      4.586986     -3.016064
  O      -0.777477      4.814593     -0.965085
  C      -0.873529      6.232648     -1.061170
  C      -0.745585      2.685836     -2.001583
  H       0.303385      2.693081     -1.695741
  O      -0.821227      2.036417     -3.257367
  H      -0.918456      3.282484      0.348614
  H      -4.385331     -0.471158     -0.071122
  H      -2.966579     -1.236243     -0.802764
  H      -4.571535     -1.942641     -1.027925
  H      -7.243762      1.688842     -4.126742
  H      -5.794981      1.025095     -4.892029
  H      -5.652213      2.364667     -3.746511
  H      -7.922504     -0.591942     -3.269869
  H      -6.784150     -1.589008     -2.355998
  H      -6.510549     -1.283403     -4.077618
  H      -6.666670      0.358311     -0.693542
  H      -7.694110      1.378963     -1.706300
  H      -6.100445      1.950514     -1.208417
  H      -2.476995     -1.097815     -3.831709
  H      -3.629571     -0.284141     -4.900384
  H      -4.048516     -1.837821     -4.166822
  H      -2.863927      4.423560      0.488344
  H      -3.944706      5.442417     -0.473839
  H      -4.959673      6.534495      2.036624
  H      -5.855699      6.016611      3.466069
  H      -6.649030      6.029234      1.881248
  H      -5.582425      1.234640      1.326827
  H      -6.716149      0.653764      2.556060
  H      -5.104568      1.207341      3.031291
  H      -7.738306      2.274639      4.213771
  H      -7.393053      4.005687      4.126351
  H      -6.145677      2.878552      4.682124
  H      -7.409325      2.865288      0.531028
  H      -8.141523      3.998058      1.677760
  H      -8.476839      2.268014      1.812553
  H      -3.065843      2.841996      2.700570
  H      -3.832897      3.550880      4.132265
  H      -2.888687      4.565613      3.041891
  H      -0.248780      6.597784     -1.883952
  H      -0.511907      6.644620     -0.119670
  H      -1.904718      6.553182     -1.226212
  H      -1.751336      1.796787     -3.395574
69
Coordinates from ORCA-job goat_0_63 E -1780.867407589234
  O      -1.255452      2.353132      0.358491
  C      -1.608848      1.962918     -0.964747
  H      -1.391408      0.894880     -1.055067
  C      -3.108931      2.155384     -1.235447
  H      -3.674561      1.757891     -0.390588
  O      -3.396128      1.439086     -2.435719
  Si     -4.225048     -0.009623     -2.563919
  C      -3.963974     -1.007806     -1.003809
  C      -6.058147      0.335649     -2.863933
  C      -6.214790      1.301120     -4.048740
  C      -6.782409     -0.980376     -3.184224
  C      -6.684575      0.965525     -1.611986
  C      -3.452741     -0.858377     -4.034916
  C      -3.508512      3.616620     -1.446552
  H      -4.465884      3.605730     -1.971911
  C      -3.740313      4.416195     -0.161088
  O      -4.864782      3.856942      0.500169
  Si     -5.118207      4.073998      2.137077
  C      -5.568420      5.861349      2.459097
  C      -6.534230      2.905844      2.570136
  C      -6.076332      1.453833      2.354257
  C      -6.931290      3.102288      4.039648
  C      -7.750700      3.198341      1.678823
  C      -3.559663      3.636000      3.078497
  O      -2.620670      4.298936     -2.346220
  C      -1.236360      4.170196     -2.115733
  H      -0.765053      4.645228     -2.982611
  O      -0.814211      4.802159     -0.926619
  C      -0.898570      6.227001     -0.965903
  C      -0.786324      2.709236     -2.021297
  H       0.265726      2.703012     -1.725747
  O      -0.876328      2.083116     -3.292305
  H      -0.985865      3.282074      0.345361
  H      -4.359683     -0.503442     -0.118071
  H      -2.897567     -1.194822     -0.842406
  H      -4.466698     -1.977273     -1.086816
  H      -7.278877      1.496694     -4.234630
  H      -5.788489      0.886862     -4.968608
  H      -5.727049      2.260852     -3.853336
  H      -7.854838     -0.794126     -3.326348
  H      -6.678045     -1.709845     -2.373723
  H      -6.400107     -1.438524     -4.102105
  H      -6.657242      0.282339     -0.758338
  H      -7.736005      1.216510     -1.802856
  H      -6.176659      1.887409     -1.317957
  H      -2.382935     -1.017267     -3.862773
  H      -3.565381     -0.257790     -4.943673
  H      -3.915882     -1.833235     -4.214018
  H      -2.865746      4.413503      0.489971
  H      -3.948842      5.453113     -0.445550
  H      -4.782382      6.527853      2.087571
  H      -5.684979      6.049777      3.531197
  H      -6.505374      6.130589      1.960616
  H      -5.767407      1.281315      1.319855
  H      -6.897815      0.761497      2.578359
  H      -5.236629      1.194936      3.006840
  H      -7.743975      2.412999      4.303001
  H      -7.285577      4.120551      4.230139
  H      -6.095754      2.902650      4.718470
  H      -7.513485      3.069380      0.620400
  H      -8.119384      4.219472      1.822033
  H      -8.570558      2.512079      1.926903
  H      -3.115427      2.711959      2.698596
  H      -3.788861      3.493949      4.139417
  H      -2.806402      4.426558      3.003981
  H      -0.268483      6.620799     -1.772450
  H      -0.534457      6.594793     -0.005646
  H      -1.928834      6.560149     -1.116066
  H      -1.806333      1.835848     -3.420489
69
Coordinates from ORCA-job goat_0_63 E -1780.867707509337
  O      -1.290911      2.372109      0.381241
  C      -1.624132      1.967961     -0.942240
  H      -1.411337      0.898609     -1.016252
  C      -3.118344      2.167170     -1.237385
  H      -3.699737      1.784031     -0.395752
  O      -3.407178      1.447628     -2.435985
  Si     -4.250297      0.004479     -2.550556
  C      -4.012081     -0.978000     -0.976256
  C      -6.076954      0.369780     -2.864287
  C      -6.214942      1.312089     -4.069239
  C      -6.818030     -0.943203     -3.157991
  C      -6.697557      1.036982     -1.629136
  C      -3.476872     -0.868842     -4.007863
  C      -3.501840      3.627185     -1.461365
  H      -4.453431      3.619570     -1.997903
  C      -3.740069      4.424951     -0.178771
  O      -4.857611      3.849139      0.480041
  Si     -5.115145      4.065702      2.116749
  C      -5.613240      5.842179      2.431161
  C      -6.496532      2.859014      2.555088
  C      -5.993221      1.419763      2.363102
  C      -6.909795      3.063309      4.019519
  C      -7.713343      3.100376      1.649762
  C      -3.542045      3.675584      3.056116
  O      -2.598101      4.302730     -2.350503
  C      -1.217949      4.164557     -2.100199
  H      -0.732417      4.635576     -2.961084
  O      -0.809149      4.796734     -0.908290
  C      -0.882286      6.221883     -0.954053
  C      -0.781504      2.700755     -1.992429
  H       0.267417      2.686168     -1.687919
  O      -0.863854      2.069619     -3.260962
  H      -1.041055      3.306713      0.361240
  H      -4.407165     -0.458446     -0.099128
  H      -2.949436     -1.176317     -0.806999
  H      -4.526439     -1.940983     -1.052614
  H      -7.274720      1.519376     -4.263725
  H      -5.790916      0.872622     -4.977564
  H      -5.714081      2.268150     -3.890424
  H      -7.886010     -0.744742     -3.311705
  H      -6.729616     -1.653298     -2.329296
  H      -6.436490     -1.428758     -4.061298
  H      -6.675833      0.375511     -0.758620
  H      -7.746358      1.292294     -1.826433
  H      -6.179973      1.961971     -1.359695
  H      -2.410870     -1.036593     -3.825344
  H      -3.576761     -0.277763     -4.923156
  H      -3.949679     -1.840260     -4.178013
  H      -2.864845      4.429478      0.472720
  H      -3.959932      5.459561     -0.463258
  H      -4.844048      6.525624      2.056902
  H      -5.734765      6.030555      3.502211
  H      -6.555917      6.085424      1.932004
  H      -5.667660      1.241076      1.334737
  H      -6.795728      0.706434      2.588933
  H      -5.153507      1.196118      3.028104
  H      -7.702449      2.353601      4.287274
  H      -7.295687      4.072595      4.193115
  H      -6.073204      2.898788      4.705779
  H      -7.463924      2.961537      0.594938
  H      -8.112648      4.111846      1.773707
  H      -8.514266      2.394144      1.902166
  H      -3.086803      2.749336      2.694996
  H      -3.759776      3.555515      4.121622
  H      -2.804173      4.476849      2.953998
  H      -0.240074      6.606465     -1.753966
  H      -0.526803      6.588442      0.008809
  H      -1.908370      6.560172     -1.116620
  H      -1.792695      1.816987     -3.387795
69
Coordinates from ORCA-job goat_0_63 E -1780.867814499841
  O      -1.287068      2.355928      0.377038
  C      -1.623200      1.958414     -0.946316
  H      -1.417341      0.888157     -1.021102
  C      -3.115551      2.168670     -1.242949
  H      -3.702234      1.788578     -0.403295
  O      -3.412578      1.458662     -2.445998
  Si     -4.252482      0.011763     -2.557823
  C      -3.993825     -0.981952     -0.993544
  C      -6.082785      0.379468     -2.844589
  C      -6.236070      1.330382     -4.040197
  C      -6.827481     -0.931522     -3.137039
  C      -6.686775      1.038352     -1.597232
  C      -3.494300     -0.848935     -4.031512
  C      -3.490034      3.630726     -1.462996
  H      -4.437004      3.627729     -2.007544
  C      -3.736648      4.423653     -0.178765
  O      -4.854237      3.841631      0.474728
  Si     -5.126311      4.069338      2.108222
  C      -5.647359      5.842912      2.403124
  C      -6.494819      2.848514      2.546544
  C      -5.969417      1.415165      2.380818
  C      -6.927618      3.066571      4.003589
  C      -7.703321      3.059591      1.623547
  C      -3.554551      3.708121      3.061820
  O      -2.578977      4.306238     -2.344199
  C      -1.199972      4.155524     -2.093609
  H      -0.712297      4.628960     -2.951799
  O      -0.787913      4.780411     -0.899549
  C      -0.856758      6.205492     -0.940511
  C      -0.775299      2.688207     -1.993384
  H       0.274213      2.662267     -1.692594
  O      -0.866115      2.065807     -3.265204
  H      -1.046298      3.293227      0.356855
  H      -4.378876     -0.470605     -0.107898
  H      -2.929201     -1.180204     -0.839697
  H      -4.507600     -1.944242     -1.072973
  H      -7.297480      1.542142     -4.217509
  H      -5.826606      0.896967     -4.957400
  H      -5.729819      2.283108     -3.860381
  H      -7.895954     -0.731068     -3.280833
  H      -6.733010     -1.644295     -2.311967
  H      -6.454401     -1.413662     -4.045096
  H      -6.649476      0.372869     -0.730523
  H      -7.739041      1.290604     -1.777214
  H      -6.167428      1.963866     -1.332256
  H      -2.427008     -1.016576     -3.860738
  H      -3.604460     -0.250718     -4.939875
  H      -3.968270     -1.819112     -4.203744
  H      -2.864621      4.429816      0.475249
  H      -3.958788      5.458579     -0.460742
  H      -4.881564      6.529679      2.029457
  H      -5.779489      6.038211      3.471211
  H      -6.587518      6.072365      1.894417
  H      -5.622992      1.228161      1.360802
  H      -6.765911      0.693940      2.601747
  H      -5.138739      1.211652      3.062954
  H      -7.711908      2.348873      4.272697
  H      -7.330350      4.071843      4.158769
  H      -6.096120      2.924331      4.700480
  H      -7.439458      2.907626      0.574197
  H      -8.116895      4.067302      1.726833
  H      -8.497826      2.347019      1.877291
  H      -3.100197      2.770813      2.730561
  H      -3.773049      3.622323      4.130221
  H      -2.817867      4.506236      2.934044
  H      -0.217595      6.588651     -1.742321
  H      -0.495323      6.566702      0.021225
  H      -1.882619      6.545907     -1.096757
  H      -1.795277      1.810458     -3.384809
69
Coordinates from ORCA-job goat_0_63 E -1780.867850872535
  O      -1.283679      2.339947      0.369253
  C      -1.625422      1.951760     -0.955229
  H      -1.423972      0.880934     -1.034812
  C      -3.117099      2.169691     -1.249144
  H      -3.705411      1.789014     -0.410971
  O      -3.418876      1.466837     -2.455901
  Si     -4.253047      0.014734     -2.563966
  C      -3.990333     -0.977711     -0.999568
  C      -6.084053      0.380763     -2.846933
  C      -6.240900      1.324161     -4.047919
  C      -6.830129     -0.931876     -3.128236
  C      -6.683150      1.048601     -1.602085
  C      -3.493657     -0.844605     -4.038283
  C      -3.487584      3.634333     -1.463121
  H      -4.432366      3.634795     -2.011460
  C      -3.737273      4.423025     -0.176427
  O      -4.851848      3.835574      0.476933
  Si     -5.129935      4.071817      2.108865
  C      -5.659996      5.844800      2.391955
  C      -6.492214      2.845452      2.550288
  C      -5.959691      1.414086      2.391978
  C      -6.927436      3.068012      4.006091
  C      -7.700815      3.046887      1.625481
  C      -3.558519      3.725843      3.068797
  O      -2.573128      4.312169     -2.338377
  C      -1.194480      4.153029     -2.089424
  H      -0.705942      4.631043     -2.944657
  O      -0.780060      4.768878     -0.891141
  C      -0.849997      6.194355     -0.921446
  C      -0.776880      2.683167     -2.000239
  H       0.273644      2.648908     -1.703565
  O      -0.876300      2.071168     -3.276518
  H      -1.048102      3.278940      0.353065
  H      -4.373604     -0.466530     -0.113115
  H      -2.925442     -1.176484     -0.848616
  H      -4.504586     -1.939767     -1.079294
  H      -7.302578      1.537799     -4.221262
  H      -5.837116      0.884091     -4.964501
  H      -5.731093      2.276360     -3.875855
  H      -7.898237     -0.731135     -3.274631
  H      -6.737322     -1.637238     -2.296656
  H      -6.457303     -1.422493     -4.031879
  H      -6.637453      0.391900     -0.729062
  H      -7.737604      1.294584     -1.777771
  H      -6.165711      1.978725     -1.350287
  H      -2.426315     -1.010507     -3.866121
  H      -3.604283     -0.245936     -4.946227
  H      -3.966323     -1.815400     -4.210540
  H      -2.864858      4.431077      0.476688
  H      -3.962753      5.458164     -0.455221
  H      -4.894427      6.531310      2.017304
  H      -5.796344      6.044973      3.458575
  H      -6.598918      6.068512      1.878525
  H      -5.606282      1.225099      1.374567
  H      -6.754185      0.690015      2.610757
  H      -5.131934      1.216571      3.079385
  H      -7.706887      2.346336      4.278561
  H      -7.337026      4.071306      4.155970
  H      -6.095012      2.934887      4.703755
  H      -7.435626      2.889821      0.577380
  H      -8.118287      4.053694      1.722574
  H      -8.492875      2.332832      1.882747
  H      -3.112375      2.776103      2.763239
  H      -3.774620      3.672792      4.139839
  H      -2.817534      4.515532      2.916066
  H      -0.216274      6.582538     -1.725159
  H      -0.482193      6.548751      0.040420
  H      -1.877160      6.534638     -1.068705
  H      -1.805969      1.814159     -3.390779
69
Coordinates from ORCA-job goat_0_63 E -1780.867873910782
  O      -1.298906      2.333214      0.373237
  C      -1.638165      1.948641     -0.953239
  H      -1.440901      0.876894     -1.032950
  C      -3.127478      2.173294     -1.252438
  H      -3.720961      1.793856     -0.417556
  O      -3.426735      1.473778     -2.462252
  Si     -4.252351      0.015422     -2.569907
  C      -3.986403     -0.976662     -1.006086
  C      -6.084474      0.375194     -2.853161
  C      -6.244452      1.315321     -4.056436
  C      -6.827322     -0.939918     -3.131192
  C      -6.685026      1.044108     -1.609476
  C      -3.487434     -0.840464     -4.043280
  C      -3.491093      3.640636     -1.465269
  H      -4.433471      3.645435     -2.017646
  C      -3.741669      4.428267     -0.178015
  O      -4.852538      3.837511      0.477738
  Si     -5.129321      4.076639      2.109897
  C      -5.660713      5.849450      2.391185
  C      -6.488493      2.848095      2.554253
  C      -5.955539      1.417320      2.391146
  C      -6.917989      3.067683      4.012289
  C      -7.701104      3.050427      1.634841
  C      -3.555881      3.735560      3.068087
  O      -2.570323      4.316419     -2.335057
  C      -1.192997      4.149571     -2.082728
  H      -0.699670      4.625818     -2.936249
  O      -0.778646      4.762552     -0.882302
  C      -0.845311      6.188435     -0.910569
  C      -0.782989      2.677564     -1.994628
  H       0.266358      2.637227     -1.694111
  O      -0.881599      2.069358     -3.272743
  H      -1.062169      3.272061      0.359605
  H      -4.370475     -0.467282     -0.118997
  H      -2.921245     -1.174602     -0.855670
  H      -4.499358     -1.939458     -1.087694
  H      -7.306696      1.528318     -4.227721
  H      -5.842889      0.873093     -4.973110
  H      -5.734295      2.268006     -3.887893
  H      -7.895448     -0.741687     -3.281955
  H      -6.736039     -1.641734     -2.296355
  H      -6.451035     -1.433663     -4.031878
  H      -6.632376      0.392006     -0.733361
  H      -7.741758      1.281720     -1.783370
  H      -6.173692      1.978996     -1.363709
  H      -2.420128     -1.003928     -3.867640
  H      -3.596802     -0.240451     -4.950674
  H      -3.957212     -1.812247     -4.218215
  H      -2.867620      4.438167      0.473063
  H      -3.969820      5.463201     -0.455491
  H      -4.894694      6.535295      2.015834
  H      -5.796537      6.050586      3.457766
  H      -6.599675      6.072927      1.877497
  H      -5.603094      1.231792      1.372729
  H      -6.749407      0.692111      2.608534
  H      -5.126669      1.218030      3.076741
  H      -7.694642      2.343717      4.287094
  H      -7.329403      4.069837      4.165410
  H      -6.082153      2.935348      4.706149
  H      -7.440163      2.894052      0.585539
  H      -8.118387      4.057182      1.734255
  H      -8.492102      2.336158      1.895011
  H      -3.118838      2.776529      2.778499
  H      -3.766680      3.705700      4.141169
  H      -2.810027      4.516929      2.896784
  H      -0.212773      6.575826     -1.715906
  H      -0.473787      6.541048      0.050713
  H      -1.871922      6.531616     -1.054998
  H      -1.811553      1.813764     -3.389176
69
Coordinates from ORCA-job goat_0_63 E -1780.867883225234
  O      -1.308933      2.330973      0.376906
  C      -1.645577      1.947586     -0.950926
  H      -1.449795      0.875550     -1.030491
  C      -3.133649      2.175041     -1.253504
  H      -3.730058      1.796327     -0.420589
  O      -3.431097      1.476888     -2.464690
  Si     -4.253854      0.016049     -2.571269
  C      -3.991719     -0.973105     -1.005316
  C      -6.085275      0.375084     -2.860104
  C      -6.242311      1.307423     -4.069888
  C      -6.829512     -0.940670     -3.131136
  C      -6.687322      1.052899     -1.621847
  C      -3.483919     -0.842900     -4.039757
  C      -3.493801      3.643549     -1.466590
  H      -4.435139      3.650224     -2.020800
  C      -3.744221      4.431136     -0.179290
  O      -4.851582      3.837963      0.479589
  Si     -5.127702      4.078436      2.111841
  C      -5.663181      5.849900      2.392498
  C      -6.482975      2.846081      2.557253
  C      -5.947586      1.416675      2.388453
  C      -6.908601      3.060844      4.017102
  C      -7.698787      3.048125      1.641843
  C      -3.552904      3.743184      3.069449
  O      -2.569742      4.317998     -2.333691
  C      -1.193290      4.148084     -2.079288
  H      -0.697017      4.621871     -2.932456
  O      -0.779066      4.761105     -0.878438
  C      -0.845734      6.186929     -0.907185
  C      -0.786254      2.675368     -1.989817
  H       0.261799      2.633251     -1.684872
  O      -0.881655      2.067695     -3.268204
  H      -1.067391      3.268469      0.365153
  H      -4.375482     -0.461450     -0.119387
  H      -2.927644     -1.175208     -0.852868
  H      -4.507981     -1.934310     -1.086730
  H      -7.304006      1.522185     -4.242719
  H      -5.842097      0.857683     -4.983575
  H      -5.729429      2.259842     -3.908178
  H      -7.896757     -0.741740     -3.287668
  H      -6.742862     -1.636639     -2.290870
  H      -6.450932     -1.441835     -4.026863
  H      -6.633907      0.408244     -0.740293
  H      -7.744472      1.287239     -1.797959
  H      -6.177923      1.990778     -1.383517
  H      -2.417713     -1.008125     -3.858547
  H      -3.587579     -0.243272     -4.948224
  H      -3.954288     -1.814078     -4.216468
  H      -2.867987      4.443692      0.469018
  H      -3.975251      5.465465     -0.456743
  H      -4.897961      6.537192      2.017896
  H      -5.799949      6.051069      3.459001
  H      -6.602063      6.071899      1.877902
  H      -5.596717      1.235777      1.368690
  H      -6.739667      0.689154      2.604609
  H      -5.116899      1.216408      3.071563
  H      -7.682558      2.334044      4.292345
  H      -7.322423      4.061472      4.174110
  H      -6.070421      2.928820      4.708230
  H      -7.440400      2.894140      0.591476
  H      -8.117846      4.053872      1.744197
  H      -8.487684      2.331883      1.903049
  H      -3.119600      2.779132      2.791236
  H      -3.760851      3.728822      4.143477
  H      -2.804857      4.519981      2.886826
  H      -0.215970      6.574193     -1.714971
  H      -0.470776      6.540413      0.052539
  H      -1.872620      6.530759     -1.048626
  H      -1.811738      1.814075     -3.387929
69
Coordinates from ORCA-job goat_0_63 E -1780.867883372647
  O      -1.316521      2.328385      0.378719
  C      -1.650674      1.945793     -0.950134
  H      -1.455991      0.873629     -1.030112
  C      -3.137834      2.175686     -1.254868
  H      -3.736210      1.796704     -0.423584
  O      -3.434542      1.479915     -2.467633
  Si     -4.252917      0.016377     -2.576053
  C      -3.984988     -0.976722     -1.013813
  C      -6.085934      0.371173     -2.860543
  C      -6.247766      1.302961     -4.070171
  C      -6.828414     -0.945883     -3.129878
  C      -6.686709      1.047660     -1.620903
  C      -3.483514     -0.837155     -4.047535
  C      -3.494717      3.645110     -1.466498
  H      -4.435690      3.654362     -2.021341
  C      -3.743450      4.431944     -0.178458
  O      -4.849760      3.839101      0.482146
  Si     -5.127426      4.081743      2.113787
  C      -5.664139      5.853028      2.391964
  C      -6.482636      2.849062      2.558503
  C      -5.947080      1.419739      2.388725
  C      -6.908701      3.062788      4.018302
  C      -7.698106      3.051120      1.642519
  C      -3.553920      3.749322      3.074113
  O      -2.568437      4.318994     -2.331775
  C      -1.192650      4.146431     -2.076659
  H      -0.694481      4.618548     -2.929624
  O      -0.777001      4.758434     -0.875756
  C      -0.841706      6.184212     -0.903993
  C      -0.788100      2.673041     -1.986762
  H       0.258917      2.629604     -1.678508
  O      -0.880921      2.065578     -3.265341
  H      -1.069746      3.264383      0.368561
  H      -4.365768     -0.468125     -0.124833
  H      -2.920746     -1.180522     -0.865075
  H      -4.502139     -1.937365     -1.096921
  H      -7.310273      1.516500     -4.239543
  H      -5.850292      0.852958     -4.984924
  H      -5.735347      2.256100     -3.911058
  H      -7.896139     -0.748853     -3.285513
  H      -6.739814     -1.641295     -2.289366
  H      -6.450082     -1.447101     -4.025712
  H      -6.628293      0.403923     -0.738986
  H      -7.745277      1.277837     -1.794039
  H      -6.180395      1.987756     -1.384562
  H      -2.417233     -1.002974     -3.867175
  H      -3.587189     -0.234053     -4.953740
  H      -3.953536     -1.807762     -4.228208
  H      -2.865606      4.444628      0.467823
  H      -3.974733      5.466333     -0.455587
  H      -4.897940      6.540465      2.019551
  H      -5.804065      6.054822      3.457953
  H      -6.601413      6.074915      1.874401
  H      -5.596241      1.240000      1.368829
  H      -6.739159      0.692019      2.604153
  H      -5.116356      1.218862      3.071597
  H      -7.682945      2.335951      4.292718
  H      -7.322465      4.063360      4.175947
  H      -6.070896      2.930031      4.709721
  H      -7.438958      2.897519      0.592200
  H      -8.117624      4.056645      1.744875
  H      -8.486855      2.334489      1.903068
  H      -3.123258      2.781452      2.805399
  H      -3.762262      3.746332      4.148186
  H      -2.803124      4.521958      2.884974
  H      -0.214445      6.571289     -1.713864
  H      -0.462705      6.537138      0.054367
  H      -1.868466      6.530061     -1.041672
  H      -1.811357      1.815250     -3.388420
69
Coordinates from ORCA-job goat_0_63 E -1780.867874021644
  O      -1.320737      2.328774      0.380727
  C      -1.653033      1.945529     -0.948353
  H      -1.459122      0.873212     -1.027717
  C      -3.139556      2.176972     -1.254844
  H      -3.739197      1.798774     -0.424083
  O      -3.436383      1.481428     -2.467638
  Si     -4.255085      0.018107     -2.575590
  C      -3.988844     -0.974009     -1.012473
  C      -6.087864      0.372889     -2.861907
  C      -6.248630      1.300225     -4.075088
  C      -6.831219     -0.944603     -3.126571
  C      -6.688556      1.054434     -1.625043
  C      -3.484833     -0.836984     -4.045567
  C      -3.494405      3.646580     -1.466852
  H      -4.434922      3.656988     -2.022441
  C      -3.743035      4.433639     -0.178983
  O      -4.848410      3.840004      0.482285
  Si     -5.127312      4.082467      2.113558
  C      -5.669913      5.852014      2.390952
  C      -6.478966      2.845642      2.557832
  C      -5.939574      1.417869      2.386712
  C      -6.905294      3.056988      4.017839
  C      -7.695153      3.045014      1.642207
  C      -3.553439      3.755896      3.075081
  O      -2.566507      4.319566     -2.331295
  C      -1.191245      4.145359     -2.075228
  H      -0.691857      4.616292     -2.928148
  O      -0.774992      4.757255     -0.874618
  C      -0.837904      6.182981     -0.903106
  C      -0.788418      2.671471     -1.984161
  H       0.258108      2.627291     -1.674453
  O      -0.880159      2.062927     -3.262333
  H      -1.069872      3.263632      0.370253
  H      -4.368635     -0.464216     -0.123688
  H      -2.925169     -1.180313     -0.863342
  H      -4.508163     -1.933527     -1.095027
  H      -7.310908      1.514099     -4.245382
  H      -5.851555      0.846058     -4.987922
  H      -5.735385      2.253568     -3.919903
  H      -7.898640     -0.747334     -3.283757
  H      -6.743774     -1.636748     -2.283286
  H      -6.452629     -1.449726     -4.020078
  H      -6.630167      0.414233     -0.740528
  H      -7.747088      1.283996     -1.799136
  H      -6.182239      1.995467     -1.392376
  H      -2.419231     -1.005072     -3.863419
  H      -3.585473     -0.233689     -4.951957
  H      -3.956418     -1.806618     -4.227329
  H      -2.864802      4.447360      0.466617
  H      -3.975448      5.467700     -0.456523
  H      -4.905277      6.542084      2.020248
  H      -5.812612      6.053213      3.456677
  H      -6.606847      6.071186      1.871664
  H      -5.589291      1.239577      1.366332
  H      -6.729495      0.687942      2.602582
  H      -5.107691      1.218881      3.068711
  H      -7.677981      2.328308      4.291688
  H      -7.321094      4.056541      4.176522
  H      -6.067119      2.925368      4.709007
  H      -7.435654      2.893389      0.591730
  H      -8.117703      4.049139      1.745736
  H      -8.481639      2.325643      1.901999
  H      -3.120573      2.787871      2.810478
  H      -3.762324      3.756708      4.149062
  H      -2.803868      4.529124      2.883482
  H      -0.211743      6.569366     -1.714118
  H      -0.456672      6.535643      0.054448
  H      -1.864466      6.530227     -1.038822
  H      -1.811058      1.815543     -3.387384
