69
Coordinates from ORCA-job goat_0_105 E -1780.867897610771
  O          -1.29642658205274      2.47528014584889      0.36866620282083
  C          -1.59000815841704      2.12595566175581     -0.97929264062796
  H          -1.32133734474096      1.07418257963522     -1.10148075349300
  C          -3.08672548541112      2.26807639620879     -1.29294949569860
  H          -3.66283982923387      1.80709017421924     -0.48898148047047
  O          -3.32629797993102      1.61107093015097     -2.53969369716709
  Si         -4.04342970241365      0.10013400974845     -2.70013733668086
  C          -3.53267809157175     -0.99345666595837     -1.27044852966101
  C          -5.91964865836208      0.30914148634443     -2.76200096690154
  C          -6.57211285992768     -1.04661360762816     -3.07167190666866
  C          -6.44064025776206      0.82422212435373     -1.41326133075515
  C          -6.29203044105647      1.31464759187225     -3.86099207676193
  C          -3.36959315929499     -0.55236774589471     -4.31386749698407
  C          -3.53911129410305      3.71766159849988     -1.43657675778730
  H          -4.47872085690821      3.69576588125515     -1.99316235040629
  C          -3.83901527625805      4.42657073026451     -0.11353301147588
  O          -4.98499216266378      3.82685969702304      0.47004133443136
  Si         -5.05365435518303      3.29913070264352      2.05595474220736
  C          -3.97934621361889      4.39601650582792      3.12964073528914
  C          -6.87385185921059      3.42788161617733      2.53912512388863
  C          -7.30407107436444      4.90149927561492      2.52919235214366
  C          -7.73857450347924      2.64117087601657      1.54418408985783
  C          -7.07464154106125      2.85077504748760      3.94806565108308
  C          -4.44402063617616      1.53337396942736      2.17336863179365
  O          -2.65533929255606      4.48592783778682     -2.26848788828516
  C          -1.27368365087689      4.39912648715834     -2.00415051440469
  H          -0.80113038111428      4.94146303575172     -2.82935529444858
  O          -0.91464149046594      4.98483281553111     -0.77255877164852
  C          -1.05291599509253      6.40541853032371     -0.74605206233255
  C          -0.76870519049287      2.95437227731453     -1.97243957893963
  H           0.27563281213404      2.96961792051395     -1.65284599475419
  O          -0.80478160952581      2.39741241358195     -3.27667422335545
  H          -1.10041290335055      3.42290567401467      0.39693959478954
  H          -2.45064616136655     -1.15216657420844     -1.27606806359933
  H          -4.01619086863584     -1.97071638963987     -1.36022105115447
  H          -3.81321348424471     -0.56996178250675     -0.30277441365798
  H          -6.33532141055512     -1.79473105302289     -2.30891764325264
  H          -6.25167800938299     -1.43859688096792     -4.04149604265204
  H          -7.66312835033645     -0.93806654779504     -3.10124812597042
  H          -6.01420744790095      1.79652475404286     -1.15273609001779
  H          -6.21609335336628      0.12966645857745     -0.59848839001851
  H          -7.53014873456038      0.94455721177936     -1.45414156972343
  H          -5.84817198484432      2.29619105439472     -3.67158241296200
  H          -7.38095512553355      1.44068862305629     -3.90017662016444
  H          -5.96172745033890      0.97797527624818     -4.84823164730547
  H          -2.27923150922234     -0.62445344631903     -4.26059516344442
  H          -3.62853834528963      0.10521224204654     -5.14800830466982
  H          -3.76616439973915     -1.54847802254363     -4.52861643514442
  H          -2.98864167457655      4.40292874599197      0.56639343988450
  H          -4.05915124176071      5.47445248168639     -0.33928111492152
  H          -4.18960698562874      5.45527677415887      2.95857336213233
  H          -2.91756328903723      4.22046153569649      2.93444882088607
  H          -4.16202296616907      4.17895150559495      4.18629521084130
  H          -7.15845425100486      5.35544955364777      1.54447727723677
  H          -6.74174617625320      5.49050656083253      3.25988459734548
  H          -8.36801703302997      4.98500365510357      2.78294712430244
  H          -7.64062405373027      3.03444777561666      0.52915603911978
  H          -8.79517875949571      2.70828740291271      1.83175158254851
  H          -7.46717102145955      1.58158628234150      1.52129959301336
  H          -6.81381711103161      1.78929466888608      3.99075500119403
  H          -8.12610031429759      2.94661087895691      4.24509397128668
  H          -6.47152893339251      3.37783309466343      4.69384920084089
  H          -5.03113084939638      0.86166832354758      1.54131045127118
  H          -4.50991333414412      1.17681183150230      3.20571372096984
  H          -3.39760373995139      1.47185064623963      1.86159301443687
  H          -0.42812069242677      6.85686112169182     -1.52371421396526
  H          -0.71487633979087      6.73763657239450      0.23473225952780
  H          -2.09288243935554      6.70398543804640     -0.89493269148175
  H          -1.71584606420699      2.09691431447488     -3.42764890132857
