69
Coordinates from ORCA-job goat_0_23 E -1780.873562832725
  O          -1.50198227498192      1.04793113021523     -2.06483908718804
  C          -1.93757624734850      2.40047884372869     -2.11633839673730
  H          -1.93256264288821      2.75633550357333     -3.15634652148004
  C          -3.36095163579252      2.47877027828879     -1.58717431908580
  H          -3.38050189112080      2.04734975899131     -0.58280626342502
  O          -4.23707289968451      1.79199092721977     -2.45642828977460
  Si         -5.21351613317075      0.50169988866729     -2.02638752495173
  C          -6.96307619848716      1.10419436165708     -1.74167464909422
  C          -5.16854840090447     -0.68188156358227     -3.49992997943441
  C          -5.51006547275479      0.08078077651712     -4.78834245202743
  C          -3.77005248864113     -1.29957915867348     -3.63447572850088
  C          -6.19714279802932     -1.80309892795317     -3.29101577496062
  C          -4.56551360657238     -0.30977950068159     -0.47010632054545
  C          -3.79144245192481      3.94443063267407     -1.48830042822529
  H          -3.79328940676613      4.38672849780918     -2.49555122649636
  C          -5.18263552470881      4.10530429074653     -0.90620040809616
  O          -5.38094582595243      3.34253073007808      0.26660540318686
  Si         -4.94934412235047      3.75602857655000      1.82497184152682
  C          -4.82212347675861      5.61565896635062      1.99472314780912
  C          -6.34521047372581      3.06688574992736      2.90001956464534
  C          -6.51201550709615      1.56302297267841      2.63828160065907
  C          -6.02042081037747      3.28754683590842      4.38429006751353
  C          -7.65830191503854      3.78465555136405      2.55743038666020
  C          -3.32198519586312      2.94702148585192      2.27390586737400
  O          -2.87992585191349      4.65717494827759     -0.65486821080528
  C          -1.57509027075438      4.69771648374390     -1.20461342553201
  H          -1.61571638455287      5.16218790844552     -2.20410576557480
  O          -0.75663393487266      5.43378387910431     -0.35788928171233
  C          -1.02062602279553      6.83686482853854     -0.39070861945771
  C          -1.01374136934918      3.28657079545621     -1.29507891854149
  H          -0.94096797214970      2.88461521907979     -0.27718695786850
  O           0.25708027431155      3.27191998766641     -1.93226664077226
  H          -0.58038032759267      1.03770146362001     -2.35113463186449
  H          -6.98649321214293      1.80579563619561     -0.90488387677037
  H          -7.62047920195376      0.26360565830815     -1.50051334289105
  H          -7.36362759721418      1.60440905437972     -2.62805229817791
  H          -5.50048090097708     -0.60500090990692     -5.64466342283409
  H          -4.78510423151814      0.87498968071401     -4.98653747263602
  H          -6.50473176950040      0.53468084381514     -4.73886378652566
  H          -3.00049218816404     -0.53174066862606     -3.74721198737719
  H          -3.73156471436672     -1.95513616078448     -4.51348671170073
  H          -3.51304636083045     -1.90328647659243     -2.75876831801639
  H          -6.00738279298790     -2.36197477260354     -2.36899639159989
  H          -6.15046786261767     -2.51463324153761     -4.12457953566900
  H          -7.21774572675312     -1.41279734653489     -3.24531027770712
  H          -5.13280540511231     -1.22400315238374     -0.27007744205209
  H          -4.68310272576840      0.35064079594566      0.39286504377660
  H          -3.50962818331587     -0.57476991872731     -0.56259335248175
  H          -5.35921800717599      5.17012610129947     -0.72127120984519
  H          -5.90730626408451      3.76494298357463     -1.64876304088519
  H          -5.73294664518726      6.11551817327300      1.65383464985274
  H          -3.98005491426987      5.99800643352522      1.41313105953636
  H          -4.66188778998191      5.88357894739117      3.04337682196658
  H          -5.59971296726406      1.00683888330681      2.87468607186012
  H          -6.76641263719331      1.36460854791917      1.59364212590597
  H          -7.31862009403479      1.15986757581021      3.26336137927322
  H          -5.10834073035029      2.76149595417500      4.68090726014290
  H          -6.83923477020612      2.90911707790707      5.00855526304036
  H          -5.88990592733978      4.34872091664167      4.61837722730207
  H          -8.48219033066429      3.36966115261196      3.15124718319867
  H          -7.91519316518360      3.66614980941790      1.50046538026479
  H          -7.60042031394362      4.85555481624635      2.77372213056342
  H          -3.08042131976416      3.12116904001073      3.32669293197951
  H          -2.51593768450234      3.36015752593123      1.66393336868034
  H          -3.36007772136068      1.86649701564190      2.10809108122465
  H          -0.94993212713701      7.21480380417181     -1.41638397302302
  H          -0.26110003084797      7.31449197334763      0.22738155497795
  H          -2.01230404393825      7.05757900552073      0.01246314746068
  H           0.88548956826113      3.71240319877573     -1.34827529803692
