69
Coordinates from ORCA-job goat_0_22 E -1780.869371189520
  O      -1.496889      1.444671     -2.227607
  C      -2.110952      2.725340     -2.249520
  H      -2.200060      3.078918     -3.286387
  C      -3.498118      2.693017     -1.638698
  H      -3.431887      2.255923     -0.637078
  O      -4.342705      1.935293     -2.479589
  Si     -5.244635      0.586627     -2.084984
  C      -6.944775      1.059768     -1.490719
  C      -5.332206     -0.363606     -3.711872
  C      -6.064118      0.489594     -4.754007
  C      -3.918203     -0.653075     -4.223673
  C      -6.082835     -1.685012     -3.520605
  C      -4.385693     -0.372454     -0.733213
  C      -4.032271      4.114946     -1.508392
  H      -4.162348      4.536814     -2.516141
  C      -5.370073      4.166234     -0.800525
  O      -5.410504      3.367622      0.360789
  Si     -4.814499      3.699745      1.880679
  C      -4.664176      5.538961      2.141678
  C      -6.064565      2.910226      3.049373
  C      -5.664789      3.169012      4.505210
  C      -7.452484      3.501958      2.788165
  C      -6.118427      1.399627      2.797630
  C      -3.140888      2.896189      2.085494
  O      -3.108354      4.906886     -0.777522
  C      -1.860388      5.046570     -1.444409
  H      -2.026553      5.407956     -2.468286
  O      -1.129475      6.038083     -0.824319
  C      -0.709709      5.767777      0.505085
  C      -1.195505      3.673133     -1.496648
  H      -1.066774      3.290490     -0.475431
  O       0.051937      3.801856     -2.141245
  H      -2.055784      0.844090     -2.735837
  H      -6.859055      1.651747     -0.576996
  H      -7.530142      0.165907     -1.260481
  H      -7.494973      1.643303     -2.231186
  H      -6.074450     -0.022149     -5.722292
  H      -5.571944      1.454523     -4.892430
  H      -7.102273      0.671800     -4.468559
  H      -3.337950     -1.247520     -3.511812
  H      -3.382695      0.276365     -4.434954
  H      -3.959713     -1.219263     -5.160259
  H      -5.569449     -2.347616     -2.819945
  H      -6.159338     -2.214641     -4.476014
  H      -7.099556     -1.524999     -3.154375
  H      -4.438204      0.181967      0.207454
  H      -3.334085     -0.573485     -0.946615
  H      -4.890800     -1.327851     -0.571673
  H      -5.603566      5.210828     -0.572725
  H      -6.135865      3.792167     -1.481369
  H      -4.192338      5.741629      3.106382
  H      -5.630039      6.047910      2.126306
  H      -4.033332      5.973188      1.363612
  H      -4.682555      2.750111      4.737332
  H      -6.387895      2.703407      5.183520
  H      -5.640999      4.237190      4.734198
  H      -8.195111      3.032320      3.442395
  H      -7.763702      3.333496      1.755180
  H      -7.477856      4.576871      2.982197
  H      -6.878220      0.935772      3.436217
  H      -5.164153      0.916263      3.020115
  H      -6.381162      1.179985      1.759998
  H      -3.180731      1.819836      1.902267
  H      -2.746211      3.052327      3.092424
  H      -2.433677      3.333538      1.379425
  H       0.086718      5.019828      0.527042
  H      -1.545314      5.441726      1.127941
  H      -0.324260      6.706152      0.897318
  H       0.358441      2.909801     -2.343075
69
Coordinates from ORCA-job goat_0_22 E -1780.870202359240
  O      -1.490496      1.506864     -2.439044
  C      -2.112476      2.785883     -2.377437
  H      -2.251317      3.179863     -3.394297
  C      -3.471276      2.730388     -1.695758
  H      -3.355510      2.264295     -0.713781
  O      -4.356687      1.988793     -2.510143
  Si     -5.252082      0.647419     -2.072700
  C      -6.964681      1.128213     -1.512154
  C      -5.321625     -0.376537     -3.656938
  C      -6.055119      0.418766     -4.747787
  C      -3.898641     -0.688493     -4.139389
  C      -6.069461     -1.690790     -3.399094
  C      -4.393060     -0.250523     -0.676994
  C      -3.997830      4.151449     -1.499113
  H      -4.154996      4.606628     -2.488590
  C      -5.322818      4.194943     -0.756928
  O      -5.371185      3.369365      0.388320
  Si     -4.837593      3.680418      1.936667
  C      -4.727460      5.518275      2.243463
  C      -6.128304      2.857910      3.040971
  C      -5.774692      3.082829      4.516785
  C      -7.510404      3.459012      2.750909
  C      -6.169952      1.350545      2.750377
  C      -3.165581      2.887681      2.203230
  O      -3.040086      4.916070     -0.774046
  C      -1.820556      5.076312     -1.489016
  H      -2.033292      5.480294     -2.487808
  O      -1.047275      6.038774     -0.860374
  C      -0.545907      5.700279      0.431455
  C      -1.159464      3.705809     -1.631814
  H      -0.979069      3.283804     -0.635403
  O       0.060248      3.864576     -2.334011
  H      -2.055863      0.929773     -2.965799
  H      -6.895116      1.749755     -0.616528
  H      -7.546219      0.235483     -1.261783
  H      -7.509760      1.684543     -2.279091
  H      -6.063059     -0.147655     -5.687202
  H      -5.565318      1.377592     -4.940520
  H      -7.095264      0.616344     -4.473059
  H      -3.321226     -1.233896     -3.385469
  H      -3.361462      0.228400     -4.400674
  H      -3.930680     -1.313228     -5.040413
  H      -5.557085     -2.311146     -2.657531
  H      -6.137304     -2.273061     -4.326216
  H      -7.090342     -1.514481     -3.046465
  H      -4.444106      0.345845      0.239428
  H      -3.341089     -0.460613     -0.885677
  H      -4.898660     -1.199678     -0.475161
  H      -5.545893      5.236596     -0.501937
  H      -6.100996      3.844813     -1.438814
  H      -4.315364      5.705445      3.239745
  H      -5.700442      6.013207      2.182625
  H      -4.058830      5.978751      1.512819
  H      -4.797801      2.658971      4.769091
  H      -6.519575      2.600351      5.161721
  H      -5.758015      4.147117      4.771341
  H      -8.272728      2.976322      3.375048
  H      -7.793601      3.313908      1.704644
  H      -7.539470      4.531709      2.965677
  H      -6.947977      0.870066      3.356816
  H      -5.219567      0.864483      2.988956
  H      -6.399717      1.153017      1.699253
  H      -3.186425      1.815627      1.988883
  H      -2.827092      3.020230      3.235263
  H      -2.426800      3.350469      1.547657
  H       0.238023      4.939933      0.367137
  H      -1.344479      5.354584      1.091104
  H      -0.119311      6.615206      0.842277
  H       0.362105      2.981710     -2.582745
69
Coordinates from ORCA-job goat_0_22 E -1780.870689352530
  O      -1.488035      1.533380     -2.429028
  C      -2.124513      2.807158     -2.365994
  H      -2.248963      3.210511     -3.380865
  C      -3.493691      2.734429     -1.701994
  H      -3.384736      2.257638     -0.724486
  O      -4.364245      1.991720     -2.533084
  Si     -5.233868      0.629024     -2.104344
  C      -6.954391      1.073867     -1.529776
  C      -5.304686     -0.392201     -3.692536
  C      -6.096246      0.372644     -4.766443
  C      -3.883592     -0.657305     -4.210920
  C      -5.998473     -1.732614     -3.410282
  C      -4.344428     -0.266193     -0.723873
  C      -4.034210      4.151188     -1.494518
  H      -4.188226      4.619549     -2.478385
  C      -5.362224      4.178473     -0.759266
  O      -5.394767      3.346729      0.381381
  Si     -4.824166      3.656456      1.916633
  C      -4.632176      5.495187      2.190749
  C      -6.130680      2.911622      3.061564
  C      -5.726093      3.135542      4.525957
  C      -7.488049      3.583117      2.801524
  C      -6.258113      1.403453      2.793538
  C      -3.180667      2.797201      2.164277
  O      -3.088690      4.915200     -0.746883
  C      -1.861054      5.088334     -1.441898
  H      -2.061183      5.505301     -2.437680
  O      -1.096212      6.044019     -0.784396
  C      -0.603376      5.676157      0.506992
  C      -1.190417      3.723763     -1.590916
  H      -1.025115      3.291681     -0.596536
  O       0.044316      3.900667     -2.270067
  H      -2.025891      0.960383     -2.987311
  H      -6.893838      1.679131     -0.622668
  H      -7.520459      0.165964     -1.296759
  H      -7.509224      1.636001     -2.286455
  H      -6.113371     -0.201357     -5.701977
  H      -5.644945      1.346722     -4.980404
  H      -7.133931      0.539255     -4.460812
  H      -3.260802     -1.156011     -3.460267
  H      -3.392323      0.273094     -4.513102
  H      -3.917389     -1.308385     -5.093708
  H      -5.444759     -2.329092     -2.677869
  H      -6.068827     -2.322286     -4.333402
  H      -7.015780     -1.590413     -3.030795
  H      -4.383947      0.326109      0.195794
  H      -3.294593     -0.465558     -0.955715
  H      -4.838217     -1.221697     -0.519643
  H      -5.591245      5.217197     -0.496273
  H      -6.137213      3.825388     -1.444602
  H      -4.214621      5.680500      3.185627
  H      -5.583848      6.029456      2.118295
  H      -3.941801      5.914695      1.454044
  H      -4.765631      2.663513      4.757563
  H      -6.478534      2.701137      5.196966
  H      -5.645206      4.201187      4.765098
  H      -8.256017      3.150315      3.455769
  H      -7.810813      3.440252      1.765621
  H      -7.452625      4.659432      2.999967
  H      -7.038788      0.971872      3.433698
  H      -5.324867      0.873296      3.007007
  H      -6.532055      1.202919      1.753548
  H      -3.253612      1.724387      1.964363
  H      -2.821832      2.928634      3.190139
  H      -2.432238      3.218269      1.488850
  H       0.175697      4.911493      0.431328
  H      -1.408175      5.320862      1.154255
  H      -0.172838      6.580775      0.938157
  H       0.360368      3.022477     -2.518814
69
Coordinates from ORCA-job goat_0_22 E -1780.870222367494
  O      -1.514362      1.485669     -2.378739
  C      -2.119254      2.776203     -2.335304
  H      -2.204277      3.181445     -3.352849
  C      -3.504897      2.738208     -1.704439
  H      -3.427587      2.263900     -0.722465
  O      -4.374296      2.010013     -2.550176
  Si     -5.267240      0.661848     -2.116502
  C      -6.993668      1.136594     -1.575816
  C      -5.334319     -0.390258     -3.686431
  C      -6.132238      0.342252     -4.777277
  C      -3.913280     -0.662083     -4.201263
  C      -6.020871     -1.727533     -3.368288
  C      -4.405685     -0.226638     -0.712052
  C      -4.018719      4.167177     -1.515368
  H      -4.144174      4.640209     -2.500815
  C      -5.355429      4.216464     -0.802623
  O      -5.389386      3.393572      0.342667
  Si     -4.833407      3.733062      1.876908
  C      -4.789550      5.580656      2.170929
  C      -6.066708      2.876981      3.028830
  C      -5.643850      3.090230      4.490416
  C      -7.469176      3.467531      2.816100
  C      -6.105005      1.371063      2.723888
  C      -3.121966      3.005564      2.095689
  O      -3.074832      4.910620     -0.741948
  C      -1.823579      5.048043     -1.397226
  H      -1.978203      5.475751     -2.396196
  O      -1.052994      5.978314     -0.705748
  C      -0.611924      5.578131      0.596665
  C      -1.187362      3.666138     -1.527672
  H      -1.066328      3.228811     -0.529557
  O       0.074720      3.811974     -2.166381
  H      -2.033388      0.932780     -2.974094
  H      -6.944210      1.734790     -0.663111
  H      -7.579755      0.236648     -1.363353
  H      -7.519573      1.712971     -2.342211
  H      -6.150532     -0.257825     -5.696050
  H      -5.686188      1.312046     -5.020056
  H      -7.168724      0.513909     -4.471451
  H      -3.280574     -1.119433     -3.432869
  H      -3.433156      0.259225     -4.546061
  H      -3.945884     -1.351048     -5.054487
  H      -5.461711     -2.301258     -2.622396
  H      -6.091065     -2.340317     -4.275849
  H      -7.036881     -1.580300     -2.988016
  H      -4.437630      0.380622      0.197194
  H      -3.359694     -0.449776     -0.939419
  H      -4.919170     -1.169104     -0.497891
  H      -5.577307      5.259012     -0.549722
  H      -6.124599      3.859577     -1.492545
  H      -4.407197      5.785868      3.175903
  H      -5.780028      6.036333      2.085494
  H      -4.121849      6.062548      1.452109
  H      -4.650857      2.674283      4.688925
  H      -6.352661      2.593670      5.165404
  H      -5.623188      4.152668      4.754342
  H      -8.191633      2.971319      3.476748
  H      -7.808180      3.330485      1.784602
  H      -7.495355      4.538599      3.040715
  H      -6.837153      0.874728      3.374022
  H      -5.133083      0.898624      2.896569
  H      -6.394100      1.178841      1.686176
  H      -3.114930      1.932934      1.883622
  H      -2.766965      3.153452      3.120365
  H      -2.414575      3.490614      1.416683
  H       0.140783      4.787159      0.533662
  H      -1.448743      5.243564      1.214088
  H      -0.162785      6.462545      1.049096
  H       0.377227      2.924948     -2.399135
69
Coordinates from ORCA-job goat_0_22 E -1780.870914395799
  O      -1.527495      1.529736     -2.407875
  C      -2.137668      2.816586     -2.359847
  H      -2.241426      3.216426     -3.377474
  C      -3.512485      2.770856     -1.709233
  H      -3.418603      2.298736     -0.727621
  O      -4.387888      2.038112     -2.544211
  Si     -5.280481      0.694269     -2.095869
  C      -7.023557      1.171231     -1.613849
  C      -5.298316     -0.398904     -3.638419
  C      -6.068799      0.299262     -4.768777
  C      -3.862526     -0.672926     -4.106544
  C      -5.985207     -1.732094     -3.306109
  C      -4.449038     -0.150880     -0.647253
  C      -4.033294      4.194681     -1.513632
  H      -4.175928      4.667172     -2.496743
  C      -5.360692      4.232465     -0.782351
  O      -5.395080      3.374837      0.338059
  Si     -4.814583      3.652080      1.875944
  C      -4.657797      5.487521      2.204947
  C      -6.093310      2.851251      3.017433
  C      -5.653806      3.009780      4.480361
  C      -7.456983      3.528873      2.821881
  C      -6.223860      1.357555      2.685029
  C      -3.152519      2.813723      2.075749
  O      -3.083322      4.947356     -0.758343
  C      -1.847278      5.093958     -1.439543
  H      -2.027003      5.509823     -2.439283
  O      -1.075695      6.043968     -0.778179
  C      -0.603986      5.675655      0.520888
  C      -1.200676      3.717358     -1.571677
  H      -1.059286      3.285528     -0.573964
  O       0.047586      3.870383     -2.231471
  H      -2.049693      0.974547     -2.998924
  H      -7.003418      1.790339     -0.714133
  H      -7.610344      0.273206     -1.397928
  H      -7.530142      1.726565     -2.407451
  H      -6.055553     -0.322753     -5.672147
  H      -5.623055      1.265912     -5.021852
  H      -7.114502      0.469209     -4.497826
  H      -3.249602     -1.110387     -3.311396
  H      -3.378298      0.244184     -4.455869
  H      -3.866680     -1.378599     -4.945877
  H      -5.442974     -2.284272     -2.532998
  H      -6.027791     -2.366176     -4.199745
  H      -7.011202     -1.582605     -2.956657
  H      -4.506449      0.479319      0.244326
  H      -3.397103     -0.372963     -0.843927
  H      -4.961869     -1.090086     -0.420856
  H      -5.572084      5.268968     -0.499142
  H      -6.139840      3.903887     -1.474097
  H      -4.269695      5.649628      3.215111
  H      -5.617559      6.004490      2.123870
  H      -3.958232      5.940379      1.498835
  H      -4.688280      2.530051      4.666846
  H      -6.389441      2.545040      5.148161
  H      -5.567395      4.063049      4.764291
  H      -8.206108      3.063610      3.474266
  H      -7.805566      3.433719      1.789460
  H      -7.418019      4.593912      3.068827
  H      -6.981062      0.894054      3.329578
  H      -5.281640      0.824532      2.843085
  H      -6.528643      1.203271      1.645962
  H      -3.216902      1.745559      1.852155
  H      -2.782935      2.926317      3.099223
  H      -2.420592      3.257667      1.397601
  H       0.152934      4.889349      0.459006
  H      -1.424712      5.351038      1.163523
  H      -0.152161      6.572979      0.942063
  H       0.352448      2.984293     -2.463428
69
Coordinates from ORCA-job goat_0_22 E -1780.870608958428
  O      -1.474959      1.509178     -2.428888
  C      -2.110087      2.782310     -2.365828
  H      -2.238090      3.183762     -3.380198
  C      -3.475443      2.703366     -1.698350
  H      -3.363240      2.216967     -0.726711
  O      -4.349362      1.976374     -2.540864
  Si     -5.209253      0.599151     -2.132086
  C      -6.922687      1.034439     -1.524773
  C      -5.312483     -0.384605     -3.743002
  C      -6.149962      0.386387     -4.773121
  C      -3.906648     -0.611385     -4.313906
  C      -5.972821     -1.743780     -3.470306
  C      -4.296748     -0.339334     -0.795135
  C      -4.019210      4.114414     -1.475970
  H      -4.181808      4.588769     -2.454975
  C      -5.342713      4.130541     -0.729878
  O      -5.362593      3.311035      0.421322
  Si     -4.828626      3.671193      1.959687
  C      -4.667014      5.520606      2.185967
  C      -6.150525      2.949960      3.103640
  C      -5.765080      3.204819      4.567388
  C      -7.502745      3.614481      2.812576
  C      -6.274887      1.437872      2.869799
  C      -3.183748      2.834401      2.270968
  O      -3.072001      4.882921     -0.735660
  C      -1.853613      5.061693     -1.442535
  H      -2.064121      5.474440     -2.437898
  O      -1.093182      6.030774     -0.800258
  C      -0.587648      5.682473      0.489343
  C      -1.177685      3.700903     -1.593389
  H      -1.005142      3.267393     -0.601323
  O       0.051059      3.883712     -2.277768
  H      -1.995476      0.946754     -3.014047
  H      -6.854088      1.590159     -0.587359
  H      -7.497321      0.121826     -1.340066
  H      -7.471346      1.641100     -2.249627
  H      -6.183105     -0.165826     -5.720109
  H      -5.725422      1.373767     -4.976842
  H      -7.180170      0.523333     -4.433260
  H      -3.246037     -1.104065     -3.592780
  H      -3.448819      0.334165     -4.620520
  H      -3.957483     -1.250361     -5.203449
  H      -5.382735     -2.348471     -2.775780
  H      -6.067435     -2.309324     -4.404854
  H      -6.976391     -1.629533     -3.049995
  H      -4.303458      0.227572      0.138665
  H      -3.257717     -0.543303     -1.065601
  H      -4.795748     -1.293612     -0.604143
  H      -5.584625      5.168234     -0.477405
  H      -6.115499      3.759818     -1.406782
  H      -4.316686      5.739615      3.199043
  H      -5.617906      6.038800      2.037383
  H      -3.937053      5.925626      1.481854
  H      -4.810125      2.735882      4.822335
  H      -6.527614      2.787844      5.236266
  H      -5.684452      4.274356      4.783609
  H      -8.278453      3.192264      3.462987
  H      -7.810721      3.453528      1.775632
  H      -7.470450      4.692863      2.993228
  H      -7.055338      1.020183      3.517620
  H      -5.341191      0.915026      3.096602
  H      -6.545120      1.213706      1.834694
  H      -3.250375      1.754484      2.115006
  H      -2.847540      3.009558      3.297035
  H      -2.426042      3.228071      1.593421
  H       0.186001      4.913247      0.417663
  H      -1.387740      5.345102      1.151043
  H      -0.148067      6.592685      0.895424
  H       0.369647      3.005304     -2.520796
69
Coordinates from ORCA-job goat_0_22 E -1780.871074048467
  O      -1.503762      1.522155     -2.429404
  C      -2.125809      2.802389     -2.366835
  H      -2.240386      3.208990     -3.380612
  C      -3.496441      2.736924     -1.708743
  H      -3.393183      2.254068     -0.733783
  O      -4.371595      2.009954     -2.549936
  Si     -5.245768      0.647244     -2.120675
  C      -6.976823      1.105837     -1.580743
  C      -5.303771     -0.395372     -3.697027
  C      -6.113342      0.333499     -4.779350
  C      -3.881689     -0.642829     -4.218368
  C      -5.971335     -1.744151     -3.389148
  C      -4.373488     -0.245315     -0.725700
  C      -4.029928      4.153141     -1.494674
  H      -4.181742      4.631586     -2.473488
  C      -5.355476      4.176068     -0.756232
  O      -5.375975      3.336309      0.378978
  Si     -4.820618      3.666075      1.916357
  C      -4.671758      5.512078      2.183733
  C      -6.116354      2.906795      3.067125
  C      -5.696347      3.114169      4.529493
  C      -7.475105      3.580403      2.829928
  C      -6.246676      1.402782      2.786188
  C      -3.162458      2.836123      2.174158
  O      -3.082386      4.910006     -0.741160
  C      -1.852805      5.075114     -1.430638
  H      -2.043429      5.497450     -2.425951
  O      -1.087325      6.028282     -0.768546
  C      -0.605084      5.656627      0.524832
  C      -1.191761      3.706852     -1.579420
  H      -1.036821      3.267567     -0.586807
  O       0.048560      3.877795     -2.248521
  H      -2.015080      0.972600     -3.034618
  H      -6.937632      1.683989     -0.654936
  H      -7.561939      0.200048     -1.394377
  H      -7.496768      1.697204     -2.338890
  H      -6.120192     -0.256000     -5.704413
  H      -5.684271      1.313171     -5.010558
  H      -7.152588      0.482374     -4.473069
  H      -3.241422     -1.104202     -3.458974
  H      -3.414732      0.290081     -4.549193
  H      -3.907388     -1.317623     -5.082415
  H      -5.399341     -2.320543     -2.656200
  H      -6.041443     -2.345529     -4.303498
  H      -6.985532     -1.614590     -2.999314
  H      -4.398173      0.355986      0.186737
  H      -3.329909     -0.464932     -0.965225
  H      -4.883487     -1.189240     -0.512938
  H      -5.584473      5.212503     -0.486836
  H      -6.131235      3.824183     -1.440126
  H      -4.319886      5.710126      3.200716
  H      -5.628179      6.024571      2.050488
  H      -3.948060      5.939901      1.486329
  H      -4.735958      2.636890      4.746377
  H      -6.443718      2.675975      5.202271
  H      -5.609121      4.176296      4.778212
  H      -8.235433      3.136368      3.484301
  H      -7.807978      3.454414      1.795538
  H      -7.437710      4.652383      3.045431
  H      -7.010306      0.963217      3.439894
  H      -5.307015      0.873823      2.971196
  H      -6.542750      1.212581      1.750813
  H      -3.225953      1.759467      1.994646
  H      -2.808030      2.990585      3.197514
  H      -2.420204      3.250493      1.489354
  H       0.153909      4.872737      0.454611
  H      -1.420633      5.327527      1.172234
  H      -0.152758      6.554017      0.945816
  H       0.361104      2.996143     -2.487971
69
Coordinates from ORCA-job goat_0_22 E -1780.871120523624
  O      -1.525486      1.519171     -2.415739
  C      -2.132277      2.807366     -2.364592
  H      -2.234992      3.210160     -3.381130
  C      -3.507115      2.761058     -1.714367
  H      -3.413059      2.283506     -0.735966
  O      -4.387019      2.037102     -2.553368
  Si     -5.278603      0.690308     -2.107793
  C      -7.021450      1.174621     -1.630264
  C      -5.301934     -0.399568     -3.653201
  C      -6.095489      0.290977     -4.771838
  C      -3.869407     -0.654249     -4.141379
  C      -5.967089     -1.742846     -3.316585
  C      -4.448349     -0.166035     -0.665130
  C      -4.027110      4.183410     -1.509293
  H      -4.170617      4.661798     -2.489388
  C      -5.353499      4.217210     -0.773634
  O      -5.380950      3.360947      0.348747
  Si     -4.817548      3.665763      1.888319
  C      -4.694575      5.507764      2.195714
  C      -6.091374      2.862015      3.033474
  C      -5.653577      3.028447      4.495895
  C      -7.458533      3.531202      2.834519
  C      -6.213134      1.366184      2.707998
  C      -3.145405      2.853415      2.110604
  O      -3.075692      4.932187     -0.752215
  C      -1.839356      5.080191     -1.432948
  H      -2.016986      5.502272     -2.430775
  O      -1.067324      6.026021     -0.767129
  C      -0.600316      5.652286      0.531522
  C      -1.193580      3.703806     -1.573414
  H      -1.051329      3.265483     -0.578539
  O       0.053667      3.858201     -2.233799
  H      -2.029291      0.977672     -3.034227
  H      -7.007448      1.765753     -0.711991
  H      -7.622118      0.277525     -1.451312
  H      -7.508884      1.760005     -2.414327
  H      -6.081091     -0.325855     -5.678864
  H      -5.668568      1.266387     -5.024297
  H      -7.141264      0.441731     -4.489469
  H      -3.239549     -1.086420     -3.356618
  H      -3.402760      0.270838     -4.494167
  H      -3.875747     -1.356576     -4.983563
  H      -5.403326     -2.294542     -2.558667
  H      -6.019722     -2.370562     -4.214323
  H      -6.987918     -1.608144     -2.946321
  H      -4.487175      0.462671      0.228291
  H      -3.402125     -0.402248     -0.875954
  H      -4.972355     -1.098570     -0.436648
  H      -5.568051      5.253086     -0.490635
  H      -6.133773      3.884841     -1.462097
  H      -4.355411      5.688230      3.220251
  H      -5.657272      6.009056      2.064497
  H      -3.971152      5.960778      1.514155
  H      -4.687540      2.551211      4.686113
  H      -6.389601      2.565361      5.164557
  H      -5.569820      4.083216      4.775399
  H      -8.207318      3.059283      3.482740
  H      -7.802959      3.436435      1.800513
  H      -7.427304      4.595804      3.084787
  H      -6.962754      0.899556      3.359218
  H      -5.266120      0.840268      2.861935
  H      -6.522909      1.205588      1.671466
  H      -3.199470      1.779152      1.913962
  H      -2.780223      2.995161      3.132080
  H      -2.416940      3.287556      1.422946
  H       0.146464      4.856073      0.470451
  H      -1.425821      5.339106      1.174175
  H      -0.136454      6.544224      0.951663
  H       0.358115      2.971786     -2.466064
69
Coordinates from ORCA-job goat_0_22 E -1780.871171619525
  O      -1.514759      1.519490     -2.421487
  C      -2.128258      2.804305     -2.365991
  H      -2.235706      3.208604     -3.381433
  C      -3.501514      2.749344     -1.712930
  H      -3.403601      2.268591     -0.736447
  O      -4.380059      2.025690     -2.553714
  Si     -5.264785      0.672080     -2.115181
  C      -7.003321      1.149774     -1.616403
  C      -5.302152     -0.399031     -3.673356
  C      -6.108601      0.304247     -4.774717
  C      -3.874432     -0.644772     -4.179795
  C      -5.961612     -1.747618     -3.347313
  C      -4.419798     -0.201156     -0.691565
  C      -4.027807      4.168549     -1.502310
  H      -4.175246      4.647911     -2.481346
  C      -5.353629      4.196337     -0.764509
  O      -5.377094      3.345626      0.362566
  Si     -4.818696      3.665346      1.901166
  C      -4.687485      5.510116      2.186629
  C      -6.101251      2.882914      3.051199
  C      -5.668560      3.065715      4.513101
  C      -7.463841      3.556850      2.837972
  C      -6.229930      1.383592      2.745291
  C      -3.152176      2.846825      2.141275
  O      -3.078257      4.920652     -0.746509
  C      -1.844795      5.076933     -1.430845
  H      -2.027779      5.499931     -2.427371
  O      -1.076164      6.025674     -0.765946
  C      -0.604734      5.653245      0.531168
  C      -1.191783      3.704412     -1.576280
  H      -1.043516      3.264645     -0.582862
  O       0.052049      3.866791     -2.240674
  H      -2.014556      0.978103     -3.043280
  H      -6.982120      1.727236     -0.689624
  H      -7.603408      0.250508     -1.446543
  H      -7.496157      1.747046     -2.387983
  H      -6.101379     -0.300064     -5.690200
  H      -5.686836      1.284231     -5.018018
  H      -7.151993      0.448020     -4.480243
  H      -3.236018     -1.087446     -3.407866
  H      -3.412789      0.286030     -4.524007
  H      -3.888468     -1.334954     -5.031893
  H      -5.388238     -2.308981     -2.603894
  H      -6.024039     -2.362945     -4.252960
  H      -6.978273     -1.619614     -2.963330
  H      -4.446748      0.417606      0.209060
  H      -3.376627     -0.437098     -0.917305
  H      -4.943051     -1.135092     -0.467201
  H      -5.574275      5.232072     -0.485781
  H      -6.132623      3.856509     -1.450722
  H      -4.357114      5.701493      3.212038
  H      -5.646037      6.015094      2.040010
  H      -3.955254      5.950512      1.506246
  H      -4.706314      2.585105      4.713693
  H      -6.410216      2.615777      5.184507
  H      -5.579660      4.123452      4.779400
  H      -8.218255      3.096565      3.488020
  H      -7.803889      3.451713      1.803515
  H      -7.428128      4.624116      3.075960
  H      -6.984020      0.929632      3.400271
  H      -5.286346      0.854629      2.909341
  H      -6.537466      1.210720      1.710194
  H      -3.211680      1.770159      1.959830
  H      -2.789794      3.000934      3.161935
  H      -2.418797      3.267052      1.450477
  H       0.144699      4.859615      0.468196
  H      -1.427651      5.337191      1.175839
  H      -0.142901      6.546600      0.950527
  H       0.360556      2.982473     -2.475631
69
Coordinates from ORCA-job goat_0_22 E -1780.871194224666
  O      -1.513360      1.517665     -2.420127
  C      -2.126840      2.802632     -2.366292
  H      -2.234342      3.205729     -3.382191
  C      -3.500029      2.748112     -1.713227
  H      -3.402145      2.266676     -0.737098
  O      -4.379718      2.026115     -2.554321
  Si     -5.266480      0.673613     -2.115921
  C      -7.005726      1.156826     -1.625330
  C      -5.301840     -0.399880     -3.672643
  C      -6.113230      0.299353     -4.773032
  C      -3.874188     -0.640146     -4.181858
  C      -5.955145     -1.750943     -3.344832
  C      -4.427631     -0.200063     -0.689306
  C      -4.026022      4.167183     -1.501226
  H      -4.174190      4.646873     -2.479999
  C      -5.351387      4.194300     -0.762255
  O      -5.374635      3.341972      0.363884
  Si     -4.818669      3.665141      1.902881
  C      -4.692684      5.510627      2.185021
  C      -6.100337      2.881967      3.053104
  C      -5.666513      3.061922      4.514943
  C      -7.462563      3.557257      2.841827
  C      -6.230340      1.383176      2.745024
  C      -3.150990      2.850165      2.146345
  O      -3.076054      4.919301     -0.746138
  C      -1.843272      5.075957     -1.431709
  H      -2.027282      5.498687     -2.428213
  O      -1.074254      6.024957     -0.768059
  C      -0.603160      5.654407      0.529498
  C      -1.189906      3.703639     -1.577985
  H      -1.040272      3.263724     -0.584781
  O       0.052897      3.866238     -2.243806
  H      -2.006542      0.978919     -3.049354
  H      -6.989024      1.726196     -0.693493
  H      -7.612954      0.259915     -1.468693
  H      -7.488210      1.763684     -2.396003
  H      -6.103342     -0.304262     -5.688953
  H      -5.697276      1.281905     -5.016149
  H      -7.157187      0.436965     -4.477646
  H      -3.232529     -1.080350     -3.411199
  H      -3.417223      0.292528     -4.527213
  H      -3.887106     -1.330597     -5.033792
  H      -5.376379     -2.311084     -2.604709
  H      -6.019492     -2.365523     -4.250885
  H      -6.970653     -1.627127     -2.956305
  H      -4.450108      0.421057      0.209731
  H      -3.386203     -0.443573     -0.915295
  H      -4.957028     -1.129984     -0.462634
  H      -5.571428      5.229704     -0.481926
  H      -6.131212      3.855846     -1.448135
  H      -4.376862      5.705121      3.214394
  H      -5.650116      6.013466      2.024117
  H      -3.952440      5.950646      1.513101
  H      -4.705271      2.578902      4.714518
  H      -6.408895      2.612567      5.185964
  H      -5.575411      4.119044      4.782936
  H      -8.217675      3.094929      3.489631
  H      -7.802192      3.456158      1.806800
  H      -7.426396      4.623595      3.083878
  H      -6.983414      0.928443      3.400649
  H      -5.286838      0.853279      2.906488
  H      -6.539762      1.212071      1.710224
  H      -3.210142      1.772208      1.972568
  H      -2.787244      3.011468      3.165422
  H      -2.418929      3.266179      1.451769
  H       0.143901      4.858353      0.468390
  H      -1.426632      5.342594      1.175552
  H      -0.138237      6.547329      0.946409
  H       0.361595      2.981860     -2.478376
69
Coordinates from ORCA-job goat_0_22 E -1780.871215803448
  O      -1.517970      1.515775     -2.423398
  C      -2.129985      2.801594     -2.368809
  H      -2.238148      3.204969     -3.384480
  C      -3.502209      2.747668     -1.714458
  H      -3.403417      2.264097     -0.739542
  O      -4.384154      2.028642     -2.555495
  Si     -5.271057      0.675848     -2.117914
  C      -7.013746      1.164403     -1.645999
  C      -5.296420     -0.403255     -3.671172
  C      -6.116006      0.286216     -4.771909
  C      -3.867114     -0.630398     -4.181734
  C      -5.936071     -1.760037     -3.340923
  C      -4.443043     -0.195011     -0.684122
  C      -4.026593      4.166815     -1.498739
  H      -4.175427      4.648103     -2.476657
  C      -5.351171      4.193890     -0.757855
  O      -5.374933      3.338128      0.366178
  Si     -4.818618      3.665664      1.904661
  C      -4.697470      5.512009      2.180852
  C      -6.097377      2.883389      3.058065
  C      -5.655675      3.053210      4.518577
  C      -7.457082      3.566853      2.856691
  C      -6.236806      1.386836      2.743147
  C      -3.149835      2.853723      2.149314
  O      -3.075214      4.916841     -0.743635
  C      -1.843127      5.073944     -1.430538
  H      -2.028152      5.498923     -2.425962
  O      -1.072175      6.020327     -0.766106
  C      -0.603098      5.648633      0.531517
  C      -1.190953      3.701449     -1.581468
  H      -1.039283      3.259009     -0.589612
  O       0.050077      3.864255     -2.249821
  H      -1.998502      0.984825     -3.068739
  H      -7.009555      1.717084     -0.704058
  H      -7.632843      0.271086     -1.517567
  H      -7.475780      1.789363     -2.414816
  H      -6.097448     -0.316157     -5.688520
  H      -5.712876      1.274458     -5.013876
  H      -7.161903      0.409822     -4.477282
  H      -3.221226     -1.065743     -3.411828
  H      -3.419098      0.306681     -4.526684
  H      -3.874369     -1.320646     -5.033960
  H      -5.347364     -2.316368     -2.605825
  H      -6.001347     -2.373696     -4.247596
  H      -6.950219     -1.646025     -2.945652
  H      -4.457261      0.432090      0.210727
  H      -3.404921     -0.452901     -0.909826
  H      -4.983518     -1.117078     -0.451365
  H      -5.568563      5.228839     -0.473999
  H      -6.133026      3.859366     -1.443174
  H      -4.407969      5.711674      3.216908
  H      -5.651120      6.013180      1.993826
  H      -3.941993      5.949725      1.524634
  H      -4.697644      2.561358      4.711788
  H      -6.398846      2.606644      5.190628
  H      -5.555127      4.108193      4.791584
  H      -8.213097      3.102227      3.501805
  H      -7.799831      3.477014      1.821598
  H      -7.415038      4.630711      3.108507
  H      -6.987521      0.932261      3.401597
  H      -5.295060      0.851116      2.895417
  H      -6.554082      1.222521      1.709696
  H      -3.211228      1.773377      1.991594
  H      -2.779105      3.029012      3.163581
  H      -2.421936      3.259410      1.444425
  H       0.138960      4.847741      0.471932
  H      -1.428222      5.343083      1.178504
  H      -0.132057      6.538913      0.947293
  H       0.357828      2.979940     -2.485975
69
Coordinates from ORCA-job goat_0_22 E -1780.871226770703
  O      -1.511119      1.515684     -2.416337
  C      -2.124221      2.801218     -2.365921
  H      -2.230548      3.202331     -3.382656
  C      -3.497788      2.747922     -1.714131
  H      -3.400808      2.265575     -0.738388
  O      -4.378994      2.028247     -2.555248
  Si     -5.270906      0.679661     -2.115578
  C      -7.011580      1.177682     -1.646368
  C      -5.300729     -0.403123     -3.666282
  C      -6.121691      0.285437     -4.766678
  C      -3.873050     -0.633769     -4.179611
  C      -5.941714     -1.758151     -3.331681
  C      -4.447412     -0.191378     -0.679492
  C      -4.023003      4.167064     -1.500785
  H      -4.170742      4.647089     -2.479511
  C      -5.348859      4.193618     -0.762260
  O      -5.374525      3.337029      0.361283
  Si     -4.819620      3.664404      1.900520
  C      -4.705043      5.510779      2.178929
  C      -6.095916      2.876433      3.052653
  C      -5.654260      3.044627      4.513355
  C      -7.457506      3.556746      2.852911
  C      -6.231206      1.380015      2.735232
  C      -3.148364      2.857560      2.144860
  O      -3.073162      4.918430     -0.745128
  C      -1.840309      5.075416     -1.430661
  H      -2.024570      5.498606     -2.426970
  O      -1.070685      6.023363     -0.766803
  C      -0.602839      5.654390      0.532063
  C      -1.187121      3.703110     -1.578548
  H      -1.036801      3.262367     -0.585727
  O       0.054906      3.865743     -2.245118
  H      -1.987213      0.984121     -3.064350
  H      -7.006288      1.730606     -0.704551
  H      -7.636783      0.288424     -1.519521
  H      -7.467981      1.805406     -2.416341
  H      -6.105676     -0.318551     -5.682275
  H      -5.717967      1.272808     -5.011238
  H      -7.166815      0.410841     -4.470066
  H      -3.226327     -1.068444     -3.410030
  H      -3.424243      0.301696     -4.527870
  H      -3.883441     -1.326215     -5.030013
  H      -5.351592     -2.314084     -2.597397
  H      -6.010970     -2.373391     -4.236998
  H      -6.954432     -1.641779     -2.933435
  H      -4.455257      0.439200      0.213072
  H      -3.411737     -0.458580     -0.905601
  H      -4.994820     -1.108290     -0.442443
  H      -5.566989      5.228425     -0.478451
  H      -6.129401      3.859148     -1.449140
  H      -4.421750      5.710774      3.216647
  H      -5.659201      6.009242      1.987180
  H      -3.947664      5.951375      1.526933
  H      -4.695233      2.554274      4.705450
  H      -6.396392      2.595495      5.184852
  H      -5.555630      4.099327      4.788209
  H      -8.212346      3.088614      3.496856
  H      -7.800017      3.468553      1.817579
  H      -7.418202      4.620125      3.107205
  H      -6.980396      0.922259      3.393225
  H      -5.287902      0.846678      2.886352
  H      -6.548412      1.216421      1.701707
  H      -3.206940      1.776619      1.990048
  H      -2.776317      3.036463      3.158027
  H      -2.422709      3.263537      1.437805
  H       0.140123      4.854157      0.474880
  H      -1.428311      5.349093      1.178645
  H      -0.133168      6.545823      0.946923
  H       0.363424      2.981315     -2.479837
69
Coordinates from ORCA-job goat_0_22 E -1780.871217755193
  O      -1.514215      1.515488     -2.418414
  C      -2.126698      2.801270     -2.366632
  H      -2.233759      3.202985     -3.383045
  C      -3.499751      2.748179     -1.713692
  H      -3.402097      2.265551     -0.738133
  O      -4.381222      2.028462     -2.554474
  Si     -5.271185      0.678333     -2.116076
  C      -7.012838      1.172586     -1.646450
  C      -5.298743     -0.403408     -3.667488
  C      -6.119575      0.285006     -4.768094
  C      -3.870387     -0.632401     -4.179694
  C      -5.938663     -1.759176     -3.333857
  C      -4.446271     -0.192310     -0.680561
  C      -4.024061      4.167694     -1.499901
  H      -4.171873      4.647883     -2.478543
  C      -5.349667      4.195474     -0.761199
  O      -5.376018      3.339459      0.362726
  Si     -4.819997      3.665880      1.901809
  C      -4.703827      5.512075      2.180886
  C      -6.096683      2.878361      3.053835
  C      -5.653837      3.044684      4.514427
  C      -7.457539      3.560604      2.855598
  C      -6.234153      1.382448      2.735001
  C      -3.149221      2.857818      2.145458
  O      -3.073388      4.918311     -0.744512
  C      -1.840877      5.074892     -1.430745
  H      -2.025617      5.498661     -2.426701
  O      -1.070257      6.022052     -0.766819
  C      -0.601214      5.651605      0.531241
  C      -1.188592      3.702276     -1.579491
  H      -1.037903      3.261212     -0.586877
  O       0.053158      3.864483     -2.246800
  H      -1.991901      0.984088     -3.065413
  H      -7.008323      1.725859     -0.704859
  H      -7.636385      0.282249     -1.519105
  H      -7.470742      1.799188     -2.416478
  H      -6.102670     -0.318704     -5.683856
  H      -5.716411      1.272730     -5.012136
  H      -7.164918      0.409661     -4.471928
  H      -3.224051     -1.066816     -3.409646
  H      -3.421946      0.303583     -4.526963
  H      -3.879422     -1.324487     -5.030403
  H      -5.348742     -2.314485     -2.598926
  H      -6.006304     -2.374435     -4.239277
  H      -6.951909     -1.643912     -2.936641
  H      -4.454511      0.438011      0.212176
  H      -3.410393     -0.458733     -0.906645
  H      -4.992849     -1.109755     -0.443574
  H      -5.567132      5.230567     -0.477907
  H      -6.130365      3.861130     -1.447948
  H      -4.418957      5.711700      3.218244
  H      -5.657792      6.011427      1.990516
  H      -3.946920      5.952300      1.528054
  H      -4.695256      2.552982      4.705341
  H      -6.396018      2.595890      5.186087
  H      -5.553630      4.099020      4.790124
  H      -8.212406      3.093196      3.500027
  H      -7.801081      3.473392      1.820524
  H      -7.416548      4.623824      3.110300
  H      -6.983726      0.925142      3.392876
  H      -5.291501      0.847730      2.885263
  H      -6.552066      1.220274      1.701432
  H      -3.208311      1.776875      1.990988
  H      -2.776370      3.036851      3.158308
  H      -2.423771      3.263292      1.437878
  H       0.142345      4.852053      0.472305
  H      -1.425952      5.344622      1.177963
  H      -0.132021      6.542842      0.947046
  H       0.360770      2.980022     -2.482573
69
Coordinates from ORCA-job goat_0_22 E -1780.871217870977
  O      -1.515372      1.516348     -2.420003
  C      -2.127943      2.802035     -2.367062
  H      -2.235793      3.204217     -3.383197
  C      -3.500572      2.748485     -1.713218
  H      -3.402212      2.265831     -0.737758
  O      -4.382073      2.028370     -2.553459
  Si     -5.271140      0.677650     -2.116034
  C      -7.013324      1.170333     -1.646712
  C      -5.297213     -0.403920     -3.667550
  C      -6.117974      0.284030     -4.768497
  C      -3.868478     -0.632205     -4.178982
  C      -5.936529     -1.759947     -3.333875
  C      -4.446044     -0.192662     -0.680460
  C      -4.024819      4.168014     -1.499368
  H      -4.172516      4.648214     -2.478038
  C      -5.350615      4.196112     -0.761257
  O      -5.377816      3.340754      0.363111
  Si     -4.820253      3.666363      1.901917
  C      -4.702610      5.512435      2.181164
  C      -6.097158      2.879229      3.053943
  C      -5.651988      3.042099      4.514241
  C      -7.456904      3.564540      2.858727
  C      -6.238081      1.384208      2.732559
  C      -3.149830      2.857434      2.145010
  O      -3.074066      4.918322     -0.743833
  C      -1.841715      5.075269     -1.430347
  H      -2.026823      5.499763     -2.425907
  O      -1.070953      6.021922     -0.765830
  C      -0.601144      5.649893      0.531519
  C      -1.189513      3.702708     -1.579980
  H      -1.038366      3.261399     -0.587555
  O       0.051965      3.865144     -2.247816
  H      -1.993534      0.985138     -3.066824
  H      -7.009347      1.723946     -0.705302
  H      -7.636990      0.280097     -1.519503
  H      -7.471039      1.796748     -2.417049
  H      -6.100559     -0.319837     -5.684139
  H      -5.715163      1.271879     -5.012588
  H      -7.163414      0.408358     -4.472579
  H      -3.222606     -1.066517     -3.408476
  H      -3.419925      0.303937     -4.525643
  H      -3.876798     -1.324204     -5.029759
  H      -5.346636     -2.314490     -2.598345
  H      -6.003374     -2.375672     -4.239022
  H      -6.950020     -1.645144     -2.937154
  H      -4.452105      0.438655      0.211576
  H      -3.410956     -0.461907     -0.906775
  H      -4.994387     -1.108640     -0.441764
  H      -5.568346      5.231351     -0.478683
  H      -6.130813      3.861211     -1.448321
  H      -4.417959      5.712308      3.218520
  H      -5.655954      6.012739      1.990197
  H      -3.944993      5.951883      1.528553
  H      -4.694215      2.547959      4.702899
  H      -6.394194      2.593860      5.186226
  H      -5.548962      4.095741      4.791546
  H      -8.211731      3.097735      3.503621
  H      -7.802160      3.479622      1.824036
  H      -7.413318      4.627300      3.114885
  H      -6.987930      0.927361      3.390441
  H      -5.296362      0.847337      2.880930
  H      -6.557474      1.224520      1.699039
  H      -3.209447      1.776134      1.993439
  H      -2.775055      3.038960      3.156703
  H      -2.425358      3.260917      1.435280
  H       0.144118      4.852057      0.470862
  H      -1.425206      5.339723      1.177620
  H      -0.133939      6.541325      0.949119
  H       0.358867      2.980829     -2.485060
69
Coordinates from ORCA-job goat_0_22 E -1780.871221798612
  O      -1.515076      1.516382     -2.419145
  C      -2.127774      2.802013     -2.366520
  H      -2.235743      3.203889     -3.382756
  C      -3.500409      2.748566     -1.712601
  H      -3.401986      2.266171     -0.737019
  O      -4.381857      2.028149     -2.552554
  Si     -5.271066      0.677540     -2.115765
  C      -7.013332      1.170456     -1.646902
  C      -5.296932     -0.404121     -3.667222
  C      -6.118520      0.283085     -4.768007
  C      -3.868289     -0.631767     -4.179151
  C      -5.935347     -1.760414     -3.332833
  C      -4.446627     -0.193052     -0.679980
  C      -4.024582      4.168221     -1.499228
  H      -4.172004      4.648176     -2.478069
  C      -5.350664      4.196717     -0.761744
  O      -5.378834      3.341742      0.362890
  Si     -4.820680      3.666784      1.901684
  C      -4.703285      5.512814      2.181314
  C      -6.097474      2.878878      3.053315
  C      -5.650799      3.038943      4.513483
  C      -7.456739      3.565792      2.860473
  C      -6.240002      1.384512      2.729635
  C      -3.150041      2.858331      2.144786
  O      -3.073899      4.918612     -0.743724
  C      -1.841566      5.075507     -1.430349
  H      -2.026793      5.499874     -2.425930
  O      -1.070815      6.022310     -0.765975
  C      -0.600434      5.650156      0.531166
  C      -1.189379      3.702925     -1.579688
  H      -1.038192      3.261974     -0.587113
  O       0.052123      3.865153     -2.247572
  H      -1.992869      0.985061     -3.066143
  H      -7.009509      1.723943     -0.705409
  H      -7.638011      0.280867     -1.520390
  H      -7.469980      1.797545     -2.417363
  H      -6.101136     -0.321021     -5.683491
  H      -5.716373      1.271105     -5.012531
  H      -7.163896      0.406916     -4.471661
  H      -3.221954     -1.065516     -3.408713
  H      -3.420256      0.304491     -4.526168
  H      -3.876611     -1.324020     -5.029715
  H      -5.344819     -2.314254     -2.597281
  H      -6.002220     -2.376570     -4.237681
  H      -6.948733     -1.646049     -2.935706
  H      -4.449845      0.439365      0.211295
  H      -3.412625     -0.466059     -0.906733
  H      -4.997591     -1.107009     -0.439472
  H      -5.568525      5.232074     -0.479657
  H      -6.130403      3.861612     -1.449218
  H      -4.420399      5.712997      3.219091
  H      -5.656194      6.013253      1.988535
  H      -3.944503      5.952097      1.529932
  H      -4.693497      2.543261      4.700459
  H      -6.392968      2.590704      5.185505
  H      -5.546062      4.092035      4.792261
  H      -8.211397      3.098573      3.505261
  H      -7.803015      3.483009      1.825944
  H      -7.411932      4.628069      3.118415
  H      -6.989683      0.927308      3.387461
  H      -5.298602      0.846620      2.876362
  H      -6.560416      1.226750      1.696148
  H      -3.209523      1.776548      1.996693
  H      -2.773758      3.043135      3.155327
  H      -2.426677      3.259865      1.432811
  H       0.146317      4.853763      0.469852
  H      -1.423964      5.337873      1.176908
  H      -0.134996      6.542153      0.949525
  H       0.358484      2.980798     -2.485390
