69
Coordinates from ORCA-job goat_0_16 E -1780.870910483916
  O          -1.47925856279200      0.14659684135560     -1.48567411948677
  C          -1.66146259729681      1.55000263083762     -1.61758356661043
  H          -1.41553238942451      1.86395646253310     -2.64200789190488
  C          -3.12484045802402      1.88091579042456     -1.36380790456818
  H          -3.42445690795212      1.45021205307029     -0.40203012210085
  O          -3.91771494739923      1.38407442950820     -2.42468685115754
  Si         -5.03661829165875      0.14551185327717     -2.33498560219773
  C          -6.06256412388398      0.30057643865306     -0.77879454545558
  C          -6.08911780229880      0.36983826525440     -3.88815579486345
  C          -5.21183746795575      0.22234266262492     -5.13985257730829
  C          -7.19226290562392     -0.69850645325746     -3.91660252268823
  C          -6.73565233307783      1.76214261559686     -3.88741709753894
  C          -4.19166502000907     -1.52335456931732     -2.33390210051719
  C          -3.31457967247500      3.40264601602591     -1.30837673951298
  H          -3.12020563585175      3.80441721769046     -2.31395034666993
  C          -4.71983632128198      3.80631827268011     -0.90493904445955
  O          -5.03045635415645      3.31557272387870      0.38602003186650
  Si         -5.50757886030030      4.30316545311906      1.64148125280634
  C          -7.17437872480564      5.05281198119242      1.22996827408598
  C          -5.59856506530191      3.15731030910884      3.13782167368740
  C          -5.92079957318863      3.98397423606121      4.39122195442218
  C          -6.69689531153365      2.10491570738401      2.92998351064429
  C          -4.24921549970722      2.44959184360899      3.32855179543016
  C          -4.27105075244785      5.68349166295901      1.90972495678176
  O          -2.41973549308242      3.99050615833021     -0.36991708888780
  C          -1.06253083222784      3.78766515487365     -0.71361482974715
  H          -0.87477384571294      4.18654766479138     -1.72459034390065
  O          -0.26440301170725      4.43457697612036      0.22087934671987
  C          -0.27394573433279      5.85631387641877      0.08704446164920
  C          -0.75187170518384      2.30052882463599     -0.65851958229004
  H          -0.93210212691690      1.95372080064286      0.36658298276298
  O           0.58579699220008      2.02777143458583     -1.05480517232799
  H          -0.53573228232804     -0.02554136807092     -1.59382773444820
  H          -6.58157126182171      1.25938622454684     -0.72114735488153
  H          -5.43716526501727      0.20390966473622      0.11296478353279
  H          -6.80689596393760     -0.50111024891617     -0.75116137412699
  H          -4.40823702692010      0.96417730818293     -5.15614397263259
  H          -5.81831477948821      0.36453667547991     -6.04292745103003
  H          -4.75704784624063     -0.77088282550417     -5.19884621829300
  H          -6.77685808580975     -1.71063570112380     -3.92704549569883
  H          -7.80320399820232     -0.58143936150740     -4.81992761921360
  H          -7.85896171888399     -0.61559982586705     -3.05292740920270
  H          -7.36200039150702      1.88602305808442     -4.77951880640746
  H          -5.98059518181752      2.55282216988617     -3.89528860242067
  H          -7.37330687961835      1.91219436006118     -3.01081642990663
  H          -3.58944216496995     -1.64218659902320     -1.43006298715770
  H          -3.53105495887120     -1.63997936985261     -3.19657399299448
  H          -4.93715000507138     -2.32417981609885     -2.35827445392316
  H          -4.78813887512543      4.89925933738646     -0.94904160486423
  H          -5.42618345302069      3.39508666250644     -1.63067691612321
  H          -7.08993021179747      5.70352461434896      0.35369754490544
  H          -7.54817138170259      5.65869788348077      2.06067234616370
  H          -7.91449676282348      4.27917782831805      1.00843417190961
  H          -5.99911493894586      3.32584474787659      5.26517450423517
  H          -6.87200457137384      4.51643580259351      4.29180698352137
  H          -5.14072894235016      4.72193639623107      4.60035921789824
  H          -7.68358264860859      2.56689440165870      2.83113525852376
  H          -6.73273281169086      1.42480864782328      3.79005960024519
  H          -6.51344184329392      1.50396421382665      2.03519123136107
  H          -4.29001696130194      1.79383229494746      4.20714407087624
  H          -3.43576397233319      3.16450816017156      3.48556193539308
  H          -3.99470918339561      1.83432966948912      2.46105581683386
  H          -3.29057907814527      5.29432706819802      2.19357486553592
  H          -4.62217706221903      6.35360936711883      2.70022141163223
  H          -4.14756048510163      6.27636541571361      0.99897490295388
  H          -1.26193265490893      6.26389100842743      0.31568894033102
  H           0.01547554093825      6.14589661023368     -0.92901542681617
  H           0.45433331338630      6.24447871719108      0.79838287558716
  H           1.17394626973046      2.40109149277629     -0.38798298796104
