69
Coordinates from ORCA-job goat_0_4 E -1780.871641634243
  O          -1.14306256571935      0.73692564589759     -1.58292441892315
  C          -1.61906791380483      2.06717730762536     -1.73417571880240
  H          -1.49307480416587      2.39279699033144     -2.77670745446853
  C          -3.10390814645976      2.10182962293739     -1.40650839291946
  H          -3.25947625502011      1.66238552588832     -0.41498688274558
  O          -3.83066582207315      1.40857248662011     -2.40223784025213
  Si         -4.66616121748782     -0.02632793794371     -2.21172355210137
  C          -5.67295647381763     -0.00247703439035     -0.63564390513854
  C          -5.77463164190903     -0.10768980539793     -3.73981384254921
  C          -4.91229416376777     -0.13555637762493     -5.01002901567298
  C          -6.63128015726947     -1.38118479433060     -3.68312908065945
  C          -6.69688761963273      1.11877466783176     -3.78348464486578
  C          -3.49529531896224     -1.48423312122109     -2.15356194424660
  C          -3.60067615614799      3.55322179777314     -1.38998622966881
  H          -3.54799900099480      3.94346637945148     -2.41731658962214
  C          -5.03586851399747      3.67848111302851     -0.91355666604091
  O          -5.22812980375384      3.13563038324208      0.37575750748798
  Si         -4.99469690437123      3.90284949943481      1.83829535349490
  C          -5.01098471579891      5.76190408530227      1.62044332550957
  C          -6.44965130042312      3.34152709228049      2.91208603642909
  C          -6.42875602322765      1.81307971024107      3.05819648655983
  C          -6.35403098506428      3.98231776731844      4.30397555224150
  C          -7.76906440968514      3.76459748235889      2.25129469226887
  C          -3.37971940390214      3.33902454005686      2.59941584271338
  O          -2.80210320589355      4.35585204092953     -0.52610112622874
  C          -1.44490153738954      4.41047308101591     -0.92482478896975
  H          -1.38070293788972      4.79803175224457     -1.95523883919457
  O          -0.75543834588574      5.23806301027058     -0.04854296025946
  C          -1.01838984163453      6.62688335541870     -0.25069286819936
  C          -0.84088907303357      3.01808864511230     -0.84041115290810
  H          -0.90540238440854      2.68017194545064      0.20125856427670
  O           0.50689442701883      3.00337753452906     -1.29226727438585
  H          -0.18797563912315      0.76510569220946     -1.72030784092081
  H          -6.38105322637612      0.82799601302215     -0.61399194520014
  H          -5.02735985308858      0.08657361159319      0.24208859192443
  H          -6.23052039377796     -0.93997838312230     -0.54622488480099
  H          -4.26112275594492     -1.01429911084321     -5.03624769108269
  H          -4.28208941709144      0.75520925679317     -5.08630905560190
  H          -5.55357670625412     -0.17047587468286     -5.89950216905745
  H          -7.28136618662849     -1.39290457863710     -2.80307269666244
  H          -6.01432908786208     -2.28449883938200     -3.66028593648110
  H          -7.27316818130044     -1.44050653612217     -4.57054599905340
  H          -6.12351392831203      2.04735223942862     -3.85058918619591
  H          -7.33403334398253      1.17830259448127     -2.89583495097680
  H          -7.35328323297143      1.06483219329375     -4.66087597401847
  H          -4.06103538527666     -2.42035144855447     -2.11685611106014
  H          -2.86537206843466     -1.42934468712865     -1.26245771941750
  H          -2.84002662775758     -1.50997173487466     -3.02759005870870
  H          -5.31776284746735      4.73638665751232     -0.94181992730244
  H          -5.68110003546419      3.13623905447186     -1.60843102181514
  H          -4.16406036010068      6.08483741995150      1.01147901776972
  H          -4.93514685361348      6.25020943519687      2.59651621533253
  H          -5.93218401865039      6.10568454598629      1.14196863346506
  H          -7.28090920923258      1.48012471541013      3.66399032477935
  H          -5.51584893093147      1.46776922976880      3.55278776345026
  H          -6.49490062020669      1.31647307668553      2.08621099416749
  H          -7.19753930969693      3.65832409819493      4.92617338391092
  H          -6.38405805642682      5.07479333604114      4.25009944818923
  H          -5.43343021673751      3.69465637223863      4.82045878324258
  H          -7.87328289242590      3.32952560671479      1.25305894028673
  H          -7.84236632203093      4.85217190567849      2.15542218454008
  H          -8.62016408743250      3.42676183444042      2.85565504496987
  H          -3.31415379835444      2.24707163057267      2.60602878238775
  H          -3.28945231740281      3.69027153198085      3.63164224054988
  H          -2.53666007349133      3.72870679300858      2.02560220085333
  H          -0.78893031484342      6.91239679478903     -1.28295512223458
  H          -0.36816715125102      7.17295241437199      0.43199973290825
  H          -2.06190916958204      6.86471177998782     -0.02947071068413
  H           1.03596473609763      3.50446694784031     -0.66071143361162
