69
Coordinates from ORCA-job goat_0_134 E -1780.867712302798
  O          -1.50796418109848      2.75342564671880      0.13169442513691
  C          -1.95384157353940      2.43126932616856     -1.17904935803486
  H          -1.49147131118181      1.47846206365734     -1.44784904872509
  C          -3.47558504929145      2.23489557158996     -1.24122165706405
  H          -3.78277553096717      1.63105421618636     -0.38187724664065
  O          -3.75931810507450      1.56624061064032     -2.47308609742800
  Si         -4.48724171299965      0.05288033339916     -2.48414883032486
  C          -6.17856092016767      0.19321534412794     -1.69853227626489
  C          -4.57758186656099     -0.41706839411873     -4.30601082751523
  C          -5.28938635056409      0.69091617066946     -5.09555212691115
  C          -3.16189312857365     -0.61215265574384     -4.86794992829357
  C          -5.36471221648457     -1.72864508431101     -4.44679778869437
  C          -3.43152713252263     -1.13290997518938     -1.49472609082322
  C          -4.27086011760546      3.53775950521581     -1.21139114642905
  H          -5.24873500149959      3.31556585789220     -1.64399192591838
  C          -4.54579668630220      4.06154746839812      0.19914007766706
  O          -5.50618603905936      3.19500138575501      0.78361743201674
  Si         -5.52871407707651      2.78405613409432      2.40362575936984
  C          -3.88993765989187      2.01834816970624      2.88428018523925
  C          -5.89805704412016      4.30584444781269      3.46704875977275
  C          -4.68535785742594      5.24654714685325      3.52415208159256
  C          -7.09713604590775      5.06306576865706      2.87931503478229
  C          -6.23719078829980      3.84603004958443      4.89346747504443
  C          -6.90059724909206      1.52248497123555      2.52645053505469
  O          -3.72421791482749      4.54186531554047     -2.07868021404269
  C          -2.33670449841688      4.77099778370711     -2.00708226545700
  H          -2.12908843203594      5.47230723592504     -2.82165576255519
  O          -1.94279444580484      5.32838830422326     -0.77307457934440
  C          -2.37823423102753      6.67431668269831     -0.58084404395611
  C          -1.52395239874806      3.48843377980197     -2.20042736081946
  H          -0.46902815833806      3.72880690592478     -2.05081943742200
  O          -1.67020302645059      3.02060342821699     -3.53214865752177
  H          -1.56045501489568      3.71453464692526      0.23642112650022
  H          -6.65902109610046     -0.78816783679374     -1.64683820503574
  H          -6.82898280405182      0.86513428700568     -2.26478473393244
  H          -6.09619299091642      0.57928682098350     -0.67818926132059
  H          -5.36318303511489      0.40824085791231     -6.15267442600409
  H          -4.74414901140352      1.63710100528920     -5.03838992353874
  H          -6.30492019013733      0.86276990923606     -4.72615809209714
  H          -2.55634064829248      0.29293524441650     -4.76322234685415
  H          -3.21354434785329     -0.85765975328494     -5.93557414986142
  H          -2.63767578080050     -1.42921948452812     -4.36406107635665
  H          -4.89642865638412     -2.54481014620493     -3.88768042740520
  H          -5.40550136052202     -2.02909725806987     -5.50059508371278
  H          -6.39403253428427     -1.62209952642157     -4.09182348375575
  H          -2.40753546701879     -1.16660649160906     -1.87545517186490
  H          -3.84762297853416     -2.14383880132051     -1.53855857735714
  H          -3.39585633442221     -0.83328806185756     -0.44284875038592
  H          -3.63866795205817      4.11140397962939      0.80342764834556
  H          -4.95868196346951      5.07178256069294      0.11865784967734
  H          -3.72027720448727      1.10092693520662      2.31267884765961
  H          -3.88986946667276      1.76139062728742      3.94793783573239
  H          -3.04952065395854      2.69151948261376      2.69977751628846
  H          -4.41622533370796      5.62815505580178      2.53539430537950
  H          -3.80683544787967      4.74894154371097      3.94477429704986
  H          -4.91364270473790      6.11129027822344      4.15948331045241
  H          -7.98854830421098      4.43060126584035      2.82480183086236
  H          -6.88306982520374      5.43061102241686      1.87152575057829
  H          -7.34197820758446      5.92860285104405      3.50733481456218
  H          -5.41652251915384      3.27767616888684      5.34277673311124
  H          -7.13316607545034      3.21913196649878      4.91388869921055
  H          -6.42514287192202      4.71723394401671      5.53274714491651
  H          -7.87243352517728      1.96256818380974      2.28720170043248
  H          -6.95466360593986      1.10369372560317      3.53509795517940
  H          -6.71545739500190      0.70129570876736      1.82787523616143
  H          -3.46783702618926      6.74409869978286     -0.60669392261185
  H          -1.95189713649007      7.31984304130562     -1.35556443791314
  H          -2.01607124416008      6.98707559481691      0.39770454860202
  H          -2.48855835485599      2.49899843732852     -3.56231013618466
